x,y,z,stresses_full_xx,stresses_full_xy,stresses_full_yy,stresses_full_xz,stresses_full_yz,stresses_full_zz,stresses_full_max_shear,stresses_full_cfs_1,stresses_full_cfs_2,stresses_full_cfs_3,stresses_full_cfs_4,von_mises,aftershocksyn
633523.2936376977,3517751.2368613081,-2500.0,598.86205605027169,890.62144270813667,5553.0291861561745,37.824724294630599,207.86437394754481,5.5060715505415114,2859.2027563323304,-1355.2977343812224,3918.9731171881649,-3918.9731171881649,1355.2977343812224,5508.9892519437635,0.0
638523.2936376977,3517751.2368613081,-2500.0,506.1580670808388,563.01725550539186,5764.4972019445659,23.979211062675347,215.35358037247263,5.6717570862063322,2917.2760620529411,-1517.738441021072,3848.8394022946309,-3848.8394022946309,1517.738441021072,5623.5367470531855,0.0
643523.2936376977,3517751.2368613081,-2500.0,445.50683127104151,200.56939704484711,5852.4642323431826,8.8026683659824307,218.48549149209319,5.7338962167173646,2935.2366355841832,-1620.2141155437289,3672.8997873319518,-3672.8997873319518,1620.2141155437289,5663.0863084876073,0.0
648523.2936376977,3517751.2368613081,-2500.0,423.47063220949434,-176.85168815822149,5804.9101119039433,-6.9512082503921331,216.84714002288121,5.6837128222392925,2910.6134185327046,-1652.5282132801312,3395.7437090301391,-3395.7437090301391,1652.5282132801312,5622.9684659284376,0.0
653523.2936376977,3517751.2368613081,-2500.0,442.42195784232973,-546.75326060563873,5618.7510041442747,-22.433684066646958,210.32974109559387,5.5192467330237385,2843.0560807424658,-1610.0979783917305,3030.0389582944749,-3030.0389582944749,1610.0979783917305,5502.5322864065192,0.0
658523.2936376977,3517751.2368613081,-2500.0,499.93936747988272,-886.42444792056733,5300.7584945028666,-36.786620379728504,199.15967759147168,5.2459953239344994,2734.4887192424699,-1494.8782765816757,2595.6081493778775,-2595.6081493778775,1494.8782765816757,5305.4516894764274,0.0
663523.2936376977,3517751.2368613081,-2500.0,588.97340195486652,-1175.5281185555655,4867.190579284782,-49.234797739761348,183.88697551663765,4.8766834255703388,2589.0316655378706,-1315.3461036021731,2117.4364857900409,-2117.4364857900409,1315.3461036021731,5039.5950566682714,0.0
668523.2936376977,3517751.2368613081,-2500.0,698.79317378385019,-1398.4070286503361,4342.1257980854507,-59.16876090036282,165.33081404196014,4.4299120141999566,2412.690673063868,-1085.495536361243,1622.9199460095538,-1622.9199460095538,1085.495536361243,4716.4543451271111,0.0
673523.2936376977,3517751.2368613081,-2500.0,816.53458380197992,-1545.6745351456195,3754.777470897991,-66.203456962561717,144.49091216117409,3.9283631656656937,2212.8583717747179,-823.02137645223775,1138.8465343270411,-1138.8465343270411,823.02137645223775,4350.2121156568364,0.0
678523.2936376977,3517751.2368613081,-2500.0,929.0252916861582,-1614.8244048348074,3136.2810574599926,-70.20323667762041,122.44057402311456,3.3964314576646242,1997.7329780103271,-547.05522217398459,688.65475511732882,-688.65475511732882,547.05522217398459,3956.5895140015955,0.0
683523.2936376977,3517751.2368613081,-2500.0,1024.5134559555072,-1609.8237105653793,2516.5273811805,-71.271413383200795,100.22002888689623,2.8578475484686527,1778.9262282230557,-275.89643234037504,290.4184737525232,-290.4184737525232,275.89643234037504,3551.6444462734457,0.0
618523.2936376977,3522751.2368613081,-2500.0,1152.0299679182353,1817.4806023398153,4860.3306549196805,81.762341166165214,192.33588406174206,5.4862574964778634,2806.3314260478796,-662.70679253993717,4003.7884585190814,-4003.7884585190814,662.70679253993717,5418.3509513498775,0.0
623523.2936376977,3522751.2368613081,-2500.0,999.51471334540486,1657.4899297304344,5422.1028027498714,73.867080670359741,213.1028852697456,5.9923233375660008,2992.6908702493183,-968.11346810988584,4273.9648266945842,-4273.9648266945842,968.11346810988584,5773.6243897589129,0.0
628523.2936376977,3522751.2368613081,-2500.0,843.54651411668146,1415.1298887695791,5922.8361426848633,62.649533048762635,231.54464252329777,6.4354294449955027,3151.1755499192063,-1262.7868661710613,4452.0035703823869,-4452.0035703823869,1262.7868661710613,6077.1917208507775,0.0
633523.2936376977,3522751.2368613081,-2500.0,698.67487327571007,1094.1236330845265,6328.8894135041874,48.292768766322915,246.45716015182936,6.7873978975476597,3273.2768651816982,-1525.2560732170277,4516.7982758112721,-4516.7982758112721,1525.2560732170277,6313.0055057000645,0.0
638523.2936376977,3522751.2368613081,-2500.0,579.9148979027259,705.95848295989947,6608.1609002458572,31.274322261437849,256.69734765284812,7.021939847516582,3351.3483556362025,-1733.5740741308896,4453.2945640262624,-4453.2945640262624,1733.5740741308896,6466.625307212872,0.0
643523.2936376977,3522751.2368613081,-2500.0,500.63145452051623,269.91652296873525,6733.9317708109356,12.364218397044661,261.31673138689513,7.1176266996148065,3379.3823820472312,-1868.0417314492231,4255.2914921036463,-4255.2914921036463,1868.0417314492231,6526.6906884330647,0.0
648523.2936376977,3522751.2368613081,-2500.0,470.3131755946477,-188.15804345840934,6688.6801009036562,-7.4227241048972683,259.6932869768624,7.0608256840597461,3353.7318059494974,-1914.1053926333823,3927.4013815414783,-3927.4013815414783,1914.1053926333823,6486.2979037804416,0.0
653523.2936376977,3522751.2368613081,-2500.0,492.71632621646307,-638.36745596323726,6467.1198661375183,-26.920256888858464,251.63621437999828,6.8478847720493494,3273.6568893972221,-1864.8525827937287,3485.6069158431724,-3485.6069158431724,1864.8525827937287,6344.0535477775193,0.0
658523.2936376977,3522751.2368613081,-2500.0,564.8605860575783,-1050.2344748942412,6077.7407265126431,-44.938510009170358,237.43931583680029,6.4863853237128719,3141.5858476251206,-1722.5085720189386,2956.0832951671177,-2956.0832951671177,1722.5085720189386,6104.5923111348802,0.0
663523.2936376977,3522751.2368613081,-2500.0,677.20459523680699,-1396.5306093913498,5542.3767159594918,-60.404655602585763,217.86719189744011,5.994636309157614,2963.0208607119789,-1498.5005538376586,2372.339889730818,-2372.339889730818,1498.5005538376586,5778.4264543748623,0.0
668523.2936376977,3522751.2368613081,-2500.0,815.0414292333154,-1656.6898888493688,4893.7630436940781,-72.48943357709355,194.07269023101918,5.399790532111302,2746.0863503932551,-1211.9830448531332,1771.1623085123426,-1771.1623085123426,1211.9830448531332,5381.1163700290763,0.0
673523.2936376977,3522751.2368613081,-2500.0,960.82645362787844,-1819.1050856413965,4171.5192952131265,-80.694657660224053,167.45999067300676,4.7348274805500274,2500.7928122727108,-887.10722131419584,1188.1506546052681,-1188.1506546052681,887.10722131419584,4931.8829697326673,0.0
678523.2936376977,3522751.2368613081,-2500.0,1096.9015092370782,-1881.8836345955331,3417.3700915705754,-84.886302631867679,139.52015767314663,4.0348060922541631,2238.2887471630766,-549.63462103478651,653.74012764649001,-653.74012764649001,549.63462103478651,4451.8948370953076,0.0
683523.2936376977,3522751.2368613081,-2500.0,1208.0054420715319,-1852.0381725882212,2670.5419503039998,-85.271224008445031,111.67059756463497,3.3332427561095153,1994.2580351186689,-223.62225449173701,190.41727466838466,-190.41727466838466,223.62225449173701,3962.510051451296,0.0
688523.2936376977,3522751.2368613081,-2500.0,1283.0758668970934,-1743.4568886815428,1964.1302035982292,-82.328575102820281,85.125582494373887,2.6592464902699446,1778.7420124175983,71.189191068608608,-188.51374226568535,188.51374226568535,-71.189191068608608,3483.7241378673352,0.0
693523.2936376977,3522751.2368613081,-2500.0,1316.0923361444345,-1574.2250275785802,1322.9014473895149,-76.715185780091758,60.81448138045814,2.035478817662332,1576.1149719343477,320.91013178008797,-478.66135648763833,478.66135648763833,-320.91013178008797,3032.9925028915341,0.0
698523.2936376977,3522751.2368613081,-2500.0,1305.9815177688779,-1363.8979839326084,762.60299191282229,-69.165915023327813,39.351384029932454,1.4774734242268968,1392.2168163259678,517.89932290302988,-683.1342671998915,683.1342671998915,-517.89932290302988,2624.4622376571456,0.0
613523.2936376977,3527751.2368613081,-2500.0,1541.6584426266027,2219.3098417475371,4660.2278339735813,105.53611231098593,194.69706836453773,5.9259826035936305,2912.1206648248894,-290.94332802330905,4073.8965581464963,-4073.8965581464963,290.94332802330905,5638.8279331672438,0.0
618523.2936376977,3527751.2368613081,-2500.0,1383.7948795698483,2155.5660268976944,5383.9907979139107,101.13358540174816,222.66600888126385,6.6449959678628003,3168.3661272212616,-645.48176451093741,4509.8159204185649,-4509.8159204185649,645.48176451093741,6125.8303665823632,0.0
623523.2936376977,3527751.2368613081,-2500.0,1200.7381791337227,1993.1379665980051,6084.2989777351586,92.522989960339174,249.58113749548866,7.3268399231424555,3404.0118477731999,-1018.1650658125548,4870.1271212575084,-4870.1271212575084,1018.1650658125548,6575.0927093270602,0.0
628523.2936376977,3527751.2368613081,-2500.0,1007.9634511984731,1725.2650794095105,6719.8593248245306,79.489198574782222,273.89395231041891,7.933039754075601,3607.5932436075827,-1385.2550549985626,5121.8013431105101,-5121.8013431105101,1385.2550549985626,6965.0206710164521,0.0
633523.2936376977,3527751.2368613081,-2500.0,824.54466294039707,1354.0310922759984,7245.6383950288264,62.172689271478966,293.93036861192053,8.4230083688692865,3767.535291229141,-1718.537805836746,5234.7171463029608,-5234.7171463029608,1718.537805836746,7273.7799680302396,0.0
638523.2936376977,3527751.2368613081,-2500.0,670.97113890312403,892.25134168496197,7617.3414935667106,41.136731662909703,308.05458626883319,8.7576326665412623,3873.1734886372537,-1988.145257773893,5186.1095542720386,-5186.1095542720386,1988.145257773893,7481.2214943033296,0.0
643523.2936376977,3527751.2368613081,-2500.0,566.12273253855608,363.97177824107371,7796.9876949959098,17.381171317415632,314.87028673740508,8.9043713036110343,3915.8992059289517,-2166.4367036230997,4964.9297075153854,-4964.9297075153854,2166.4367036230997,7571.0523512857626,0.0
648523.2936376977,3527751.2368613081,-2500.0,523.90537055693687,-196.94169527715206,7758.7076882705678,-7.7154783345299665,313.42804959779994,8.8417308001445498,3890.2663069247978,-2232.3510514144809,4575.1309102203195,-4575.1309102203195,2232.3510514144809,7532.946757460476,0.0
653523.2936376977,3527751.2368613081,-2500.0,550.30968438234504,-750.26077042796612,7493.5677243353912,-32.529622907793161,303.39708401253455,8.5632109118447062,3794.8623386085619,-2175.321410067032,4036.9036647080502,-4036.9036647080502,2175.321410067032,7364.2246421617047,0.0
658523.2936376977,3527751.2368613081,-2500.0,641.71334579885774,-1254.4849206909196,7012.1866778565063,-55.386208040944759,285.1585298554499,8.0792327849012189,3632.7550777121878,-1997.744931085248,3385.2175395001186,-3385.2175395001186,1997.744931085248,7070.7367500964283,0.0
663523.2936376977,3527751.2368613081,-2500.0,785.0234455017528,-1672.6032833820041,6344.287376033566,-74.777179922259961,259.79077388337708,7.4166518255643519,3411.3892455928594,-1715.2320352792972,2665.6672750201928,-2665.6672750201928,1715.2320352792972,6666.7130599974744,0.0
668523.2936376977,3527751.2368613081,-2500.0,959.76844995819499,-1977.2541458197747,5535.0485157019739,-89.558743915182347,228.94199471051621,6.6156753431585651,3141.9181985936666,-1354.40685192296,1928.3711066513961,-1928.3711066513961,1354.40685192296,6173.535151693789,0.0
673523.2936376977,3527751.2368613081,-2500.0,1141.6704737557536,-2154.1005638613146,4638.9785691609959,-99.084453195074431,194.61440264601472,5.7249086427978382,2838.1074976083769,-948.71887628968875,1221.2464089121133,-1221.2464089121133,948.71887628968875,5617.6341161850023,0.0
678523.2936376977,3527751.2368613081,-2500.0,1306.7903007467635,-2202.7328932302912,3712.6711025164768,-103.24811953702283,158.9064944358984,4.79541686795943,2517.8348405791235,-533.27965857289871,584.13672278467936,-584.13672278467936,533.27965857289871,5027.895041300947,0.0
683523.2936376977,3527751.2368613081,-2500.0,1435.2223213476509,-2135.1141268717079,2808.0126649567032,-102.43538571629873,123.76760644300924,3.8749764437934635,2246.0833693198701,-139.94750858085433,44.945857989660624,-44.945857989660624,139.94750858085433,4433.0372943344282,0.0
688523.2936376977,3527751.2368613081,-2500.0,1513.5551785095222,-1972.2206502879878,1967.1100551830486,-97.405532934910525,90.809619749936616,3.003702046635746,1987.8831808741536,206.32712632053051,-381.72440066479487,381.72440066479487,-206.32712632053051,3859.3731787348825,0.0
693523.2936376977,3527751.2368613081,-2500.0,1535.7661310542585,-1739.8729567681792,1219.5842381031987,-89.138351085980048,61.200200273888186,2.2113754267486905,1749.1765761731247,489.36891320821735,-693.63402692229681,693.63402692229681,-489.36891320821735,3329.1779735969176,0.0
698523.2936376977,3527751.2368613081,-2500.0,1502.6867786489806,-1464.7352450849062,582.19993383439214,-78.681663095213295,35.638869448641543,1.5167155664901528,1537.048804031733,701.87857588996803,-898.3612354153679,898.3612354153679,-701.87857588996803,2859.6732521086615,0.0
703523.2936376977,3527751.2368613081,-2500.0,1420.4898572924785,-1171.1753061863055,60.297733602319205,-67.026175313545281,14.399285272723878,0.92816772019277094,1355.6941458913188,844.19301851858518,-1010.0327157906781,1010.0327157906781,-844.19301851858518,2462.4085182690328,0.0
708523.2936376977,3527751.2368613081,-2500.0,1298.7486011446467,-879.29202181536823,-349.72046272583503,-55.021069715059092,-2.5873337025859895,0.44571972137068805,1206.3341302535796,922.30408192631023,-1046.1009637849552,1046.1009637849552,-922.30408192631023,2142.7538139037661,0.0
603523.2936376977,3532751.2368613081,-2500.0,2060.5967656825819,2381.9298943472368,3415.8086556615099,123.50454012312784,154.9193041571273,5.2632845538780888,2612.2582932621508,496.47855765517602,3312.2349748139068,-3312.2349748139068,-496.47855765517602,5097.5423007892805,0.0
608523.2936376977,3532751.2368613081,-2500.0,1986.8155538408439,2529.1051333581163,4212.0061490595517,128.28600250024576,187.50179028247987,6.166855751640588,2936.9609044805952,194.20689277760948,3917.9308633890846,-3917.9308633890846,-194.20689277760948,5711.8932318310653,0.0
613523.2936376977,3532751.2368613081,-2500.0,1857.4208320247722,2597.6956082693287,5069.7283018518028,129.33751930706254,222.3111372968514,7.1154342623024212,3265.4663287311246,-173.62085496221471,4519.8929222019397,-4519.8929222019397,173.62085496221471,6334.7310852990886,0.0
618523.2936376977,3532751.2368613081,-2500.0,1677.3395117394878,2564.0866547351411,5958.3105790236632,125.71205627792699,258.10449095055139,8.0745401346208414,3586.4488751092658,-595.50982398727047,5082.4227364270128,-5082.4227364270128,595.50982398727047,6944.7908059510719,0.0
623523.2936376977,3532751.2368613081,-2500.0,1458.4173385880758,2408.0520586680914,6835.1405980898335,116.62889588785372,293.19054461760425,8.9989309648189746,3886.3125367096427,-1050.9554784761035,5563.3681056398837,-5563.3681056398837,1050.9554784761035,7516.5099302027647,0.0
628523.2936376977,3532751.2368613081,-2500.0,1219.6303302096483,2116.7227761700055,7646.8890730342446,101.63127058829156,325.48360309118362,9.8345528473803405,4149.8098708520329,-1510.3626528405025,5917.4959773698956,-5917.4959773698956,1510.3626528405025,8021.1771370429851,0.0
633523.2936376977,3532751.2368613081,-2500.0,985.92204256404386,1688.7141185021358,8333.0583641791927,80.745952882917209,352.64381038037601,10.522180029493148,4361.0859195575449,-1936.6628694534675,6101.667728525058,-6101.667728525058,1936.6628694534675,8428.8855490011247,0.0
638523.2936376977,3532751.2368613081,-2500.0,785.39831952996462,1137.4872131377826,8832.0344205960591,54.608729642044054,372.30844457058191,11.003366757783521,4505.1171781199964,-2288.9553889927283,6081.365326420424,-6081.365326420424,2288.9553889927283,8711.2417612663103,0.0
643523.2936376977,3532751.2368613081,-2500.0,645.01404835669234,492.82012171241274,9089.1913911732354,24.513463145695429,382.39604858007118,11.227989572435373,4569.4123494619798,-2528.0270108352433,5837.5122739866219,-5837.5122739866219,2528.0270108352433,8844.5867966600708,0.0
648523.2936376977,3532751.2368613081,-2500.0,585.4427697737965,-200.61059629974241,9065.8036013528235,-7.6516347945984071,381.4367942407174,11.161824880854732,4545.7318640707299,-2622.9496052512786,5372.0193678528467,-5372.0193678528467,2622.9496052512786,8813.2751931066687,0.0
653523.2936376977,3532751.2368613081,-2500.0,616.33849939993718,-887.97462246202451,8746.8350365338065,-39.595046519876952,368.85886855644003,10.793384330016215,4431.5013761394912,-2557.3232588727469,4710.3388261450964,-4710.3388261450964,2557.3232588727469,8612.3987353210614,0.0
658523.2936376977,3532751.2368613081,-2500.0,733.41093667708969,-1511.8497726249207,8145.463070274066,-68.919584828410606,345.15425844197205,10.137138259347665,4230.5875116605703,-2333.435848896092,3899.7701988707045,-3899.7701988707045,2333.435848896092,8249.3210774107301,0.0
663523.2936376977,3532751.2368613081,-2500.0,918.42381036997915,-2021.0742404592138,7302.7476746867369,-93.46883233165984,311.86779476580472,9.2330915512476874,3953.2069824797404,-1972.920090207796,3003.3439354945735,-3003.3439354945735,1972.920090207796,7743.5782464873637,0.0
668523.2936376977,3532751.2368613081,-2500.0,1142.3885172205903,-2378.7275855888811,6282.0872891354102,-111.6418078711403,271.39671864644589,8.1417794298071975,3614.9238552232578,-1513.4170771277038,2090.4531390207712,-2090.4531390207712,1513.4170771277038,7125.033381625547,0.0
673523.2936376977,3532751.2368613081,-2500.0,1371.1718067165702,-2567.1947286360733,5159.6609104093613,-122.59940672956942,226.64277695635312,6.9359840162374473,3235.0474515952569,-1002.0040630935368,1226.4911310594816,-1226.4911310594816,1002.0040630935368,6430.6174377540738,0.0
678523.2936376977,3532751.2368613081,-2500.0,1571.9349617732184,-2589.1588694027255,4013.2208782663956,-126.31785656884425,180.59996122330895,5.6909186343683356,2867.4737319500614,-487.15575380467919,464.02963360110164,-464.02963360110164,487.15575380467919,5700.3153813371146,0.0
683523.2936376977,3532751.2368613081,-2500.0,1718.6485866845233,-2464.6596175944278,2911.9178997214367,-123.49097618343917,135.97330077014891,4.4752449814943747,2539.6892057550035,-11.342429083798464,-162.56078626428194,162.56078626428194,11.342429083798464,4973.1890890741743,0.0
688523.2936376977,3532751.2368613081,-2500.0,1795.4196406384935,-2225.4679690576036,1909.2150366923288,-115.3242584398248,94.904164396334949,3.3443358565264441,2229.2535994010736,394.08110970671953,-638.37168996344678,638.37168996344678,-394.08110970671953,4284.0933356027517,0.0
693523.2936376977,3532751.2368613081,-2500.0,1797.2308713902955,-1908.5433974687905,1039.7551217240677,-103.28476396785692,58.836774567591789,2.3367822756047363,1948.1808761817852,710.98439020491901,-965.66755113532622,965.66755113532622,-710.98439020491901,3661.3969714223877,0.0
698523.2936376977,3532751.2368613081,-2500.0,1728.5074720881978,-1550.172368834704,319.85564238439247,-88.867358246111905,28.518727686353071,1.4741351614730043,1704.5962383271974,933.82295744054727,-1159.3949148607148,1159.3949148607148,-933.82295744054727,3125.6024617711878,0.0
703523.2936376977,3532751.2368613081,-2500.0,1600.3919157670002,-1181.7778271303844,-249.46925887967348,-73.417799230140417,4.0993766425153497,0.76286359848351248,1502.244864676009,1067.1354802701883,-1241.998617536892,1241.998617536892,-1067.1354802701883,2688.4428997195255,0.0
708523.2936376977,3532751.2368613081,-2500.0,1427.6638931238331,-827.68398907809728,-678.28228475749199,-58.027821082241637,-14.720549410034925,0.19782556970720935,1340.6230242347706,1122.2310004422359,-1238.7308717623157,1238.7308717623157,-1122.2310004422359,2352.113112552765,0.0
713523.2936376977,3532751.2368613081,-2500.0,1226.0129962142803,-504.58796307148151,-983.41085690411467,-43.496885896543922,-28.529281597244225,-0.23398542999750185,1215.6215352327758,1113.9421757787529,-1174.1136135518243,1174.1136135518243,-1113.9421757787529,2108.9999587634588,0.0
598523.2936376977,3537751.2368613081,-2500.0,2428.7985585082424,2402.6646734661867,2697.9718735927027,135.63608830765619,133.81587796463864,5.0774128205291671,2489.7994011266765,993.41434680348232,2810.4286929210352,-2810.4286929210352,-993.41434680348232,4901.6919154043198,0.0
603523.2936376977,3537751.2368613081,-2500.0,2440.5368765538792,2681.248138451941,3519.5676729321085,146.89422713149699,169.42886485486989,6.1361047200366645,2863.3207234068259,753.29664775253286,3503.3537440332543,-3503.3537440332543,-753.29664775253286,5606.7401298313453,0.0
608523.2936376977,3537751.2368613081,-2500.0,2383.5206067895988,2904.5314809975202,4455.4219511048786,155.12514728480372,209.54872324243769,7.3033071842745425,3258.4530586613605,423.07683550427532,4243.3032241419114,-4243.3032241419114,-423.07683550427532,6354.1564712770141,0.0
613523.2936376977,3537751.2368613081,-2500.0,2253.0777964823706,3040.9065228620962,5486.7513018913378,158.9542814383652,253.32250845836808,8.5511853315247741,3664.9483130539907,2.9939415006069794,4998.4322750542287,-4998.4322750542287,-2.9939415006069794,7124.7641361244696,0.0
618523.2936376977,3537751.2368613081,-2500.0,2051.8493674886186,3057.0511548827913,6579.2536879495283,156.97516753534663,299.27682519695702,9.835710646009387,4068.9090076693769,-496.6918344346459,5724.7451089467695,-5724.7451089467695,496.6918344346459,7892.4989618477639,0.0
623523.2936376977,3537751.2368613081,-2500.0,1791.9530063910984,2922.1480150241305,7681.2887444073958,147.93207413700813,345.25780046672321,11.095942065554691,4452.9011215358023,-1053.2411610969293,6367.3729213134175,-6367.3729213134175,1053.2411610969293,8624.6101406973048,0.0
628523.2936376977,3537751.2368613081,-2500.0,1496.0641908091834,2613.5611480459806,8724.3781414688474,130.95708608908424,388.46430886883718,12.255569194576733,4796.618231194142,-1630.3636573077274,6864.4686321396221,-6864.4686321396221,1630.3636573077274,9282.8828286969529,0.0
633523.2936376977,3537751.2368613081,-2500.0,1196.5734540449996,2123.2747618964704,9627.120204156714,105.83073700281275,425.61411255202199,13.227988445818179,5078.2128626335625,-2179.5327161670243,7154.0912992088179,-7154.0912992088179,2179.5327161670243,9826.1184586108793,0.0
638523.2936376977,3537751.2368613081,-2500.0,932.16025853200927,1463.7469116541179,10303.180525070125,73.210940508521816,453.26488822389302,13.925014609818852,5276.309694002839,-2644.4761399876743,7183.7155953404699,-7183.7155953404699,2644.4761399876743,10213.915490425026,0.0
643523.2936376977,3537751.2368613081,-2500.0,741.70443009951646,671.3079775089376,10673.056045645171,34.756323652232638,468.27456537096879,14.26853115854173,5372.5453216700098,-2968.9586637144612,6920.944782998492,-6920.944782998492,2968.9586637144612,10411.472518459892,0.0
648523.2936376977,3537751.2368613081,-2500.0,656.40804776416144,-194.79428987251521,10677.905887222143,-6.9279075172755036,468.33326232015673,14.203672276586952,5354.2728707645847,-3106.8556622365018,6362.9362220668027,-6362.9362220668027,3106.8556622365018,10394.742985528337,0.0
653523.2936376977,3537751.2368613081,-2500.0,692.03586246664509,-1058.8134001051417,10292.346552743786,-48.560853018576722,452.44926532796961,13.709981874040375,5216.8970912044124,-3032.2762439661028,5541.5139954635006,-5541.5139954635006,3032.2762439661028,10154.934440173793,0.0
658523.2936376977,3537751.2368613081,-2500.0,843.77054859665918,-1839.8871825324152,9532.4385300545327,-86.650214408143981,421.24970216249375,12.807882434479097,4965.2515877973865,-2746.7291242677234,4521.4915932261874,-4521.4915932261874,2746.7291242677234,9701.2289016838022,0.0
663523.2936376977,3537751.2368613081,-2500.0,1085.7983660464656,-2465.947652194398,8455.8156468138477,-118.05409830591408,376.98524224107717,11.558144735084365,4613.5742094048737,-2280.6592746316842,3391.543596053994,-3391.543596053994,2280.6592746316842,9060.8594054717378,0.0
668523.2936376977,3537751.2368613081,-2500.0,1376.2802394727223,-2886.390412698936,7153.0984255711383,-140.49570431371964,323.20860274426593,10.053334436295083,4183.9851216294865,-1688.2967868001954,2249.4869342060683,-2249.4869342060683,1688.2967868001954,8276.2918095999175,0.0
673523.2936376977,3537751.2368613081,-2500.0,1666.3797574857203,-3079.8459227411786,5732.6094008896398,-152.89056536498799,264.19977263676918,8.404022839123801,3705.7797548951762,-1037.0822871946741,1185.9163967042798,-1185.9163967042798,1037.0822871946741,7400.047363891078,0.0
678523.2936376977,3537751.2368613081,-2500.0,1910.5005906941826,-3055.0613990817155,4302.6329712536362,-155.40721164969449,204.2915895595288,6.7224574317722192,3286.498259334187,-394.85478807678976,270.69108880451802,-270.69108880451802,394.85478807678976,6488.344753961298,0.0
683523.2936376977,3537751.2368613081,-2500.0,2074.6287023773589,-2845.3424196291471,2955.9376665195628,-149.2721486258317,147.26843389174053,5.1077882688303884,2883.7297266765345,181.46938974444888,-454.51890084312151,454.51890084312151,-181.46938974444888,5594.938837024557,0.0
688523.2936376977,3537751.2368613081,-2500.0,2140.7263517699425,-2499.0086842868409,1759.9376667697268,-136.40653283528184,95.96615460369398,3.6362199489025597,2509.7634700476519,652.99093736954183,-976.78548876875834,976.78548876875834,-652.99093736954183,4766.2308442457779,0.0
693523.2936376977,3537751.2368613081,-2500.0,2106.8038083313504,-2069.0518739666668,753.54201143477303,-119.01411881470973,52.119964298098608,2.3566512088652827,2179.6251386655381,1000.8176080424203,-1306.9842810759567,1306.9842810759567,-1000.8176080424203,4038.0337927884098,0.0
698523.2936376977,3537751.2368613081,-2500.0,1983.7187012102193,-1604.6060504596178,-50.376903883316551,-99.223815450244658,16.429098868673375,1.2916648215691091,1901.9428965219681,1223.7979796024131,-1471.968236925147,1471.968236925147,-1223.7979796024131,3433.6195679151815,0.0
703523.2936376977,3537751.2368613081,-2500.0,1790.4008801695013,-1145.5649932264037,-659.10555213405746,-78.845865759721733,-11.23792852398333,0.44197437889902991,1678.7688859734762,1333.777638883573,-1506.4335299077736,1506.4335299077736,-1333.777638883573,2962.3479098334551,0.0
708523.2936376977,3537751.2368613081,-2500.0,1549.0678835777705,-720.41378789753821,-1093.0938561946373,-59.253142189485793,-31.582152028559541,-0.20729301384190382,1506.2538546114133,1350.2011398947639,-1446.2371081369211,1446.2371081369211,-1350.2011398947639,2618.845129992897,0.0
713523.2936376977,3537751.2368613081,-2500.0,1281.4301358726539,-346.5398269902613,-1379.5303119232867,-41.365577718053771,-45.62303987558284,-0.68046818444453194,1376.2333188078194,1295.3650788549294,-1323.9093069920864,1323.9093069920864,-1295.3650788549294,2384.2230961275322,0.0
718523.2936376977,3537751.2368613081,-2500.0,1006.2595725675786,-32.019180652317708,-1547.3718464369454,-25.702146368833905,-54.495750206505136,-1.0059056319223512,1278.4980074333419,1190.9567945305216,-1166.3092659548379,1166.3092659548379,-1190.9567945305216,2231.0085702289912,0.0
593523.2936376977,3542751.2368613081,-2500.0,2703.6376206243999,2227.6710415855109,1850.0580018016578,140.0388517508016,104.57543240274491,4.6214187487832659,2279.2968546142001,1452.4040595987183,2114.7998158127339,-2114.7998158127339,-1452.4040595987183,4548.4785274424457,1.0
598523.2936376977,3542751.2368613081,-2500.0,2833.099344912996,2621.1101344215022,2626.8031637764029,157.96726492721959,140.55922277661841,5.7819421532246942,2682.2919858650598,1318.6964387095154,2834.151869300616,-2834.151869300616,-1318.6964387095154,5310.1604206689653,1.0
603523.2936376977,3542751.2368613081,-2500.0,2893.733517023059,2997.1170902433851,3562.1642462531422,174.33851365370742,183.2491529545249,7.1214381449962127,3128.6311034135424,1083.4228952518788,3653.3486722701518,-3653.3486722701518,-1083.4228952518788,6152.1446843100293,0.0
608523.2936376977,3542751.2368613081,-2500.0,2869.6690372641997,3322.2046973994152,4655.975585900901,187.55626182173256,232.5077422975159,8.6282488968114208,3609.6400151349744,732.75626089426441,4552.9695148870305,-4552.9695148870305,-732.75626089426441,7061.5851714456021,0.0
613523.2936376977,3542751.2368613081,-2500.0,2750.0065731346936,3555.1334717128948,5892.6717320530461,195.72326433453179,287.53312425911321,10.271556025978594,4113.7702155866182,260.7096962672681,5497.928839605378,-5497.928839605378,-260.7096962672681,8017.0089643402043,0.0
618523.2936376977,3542751.2368613081,-2500.0,2532.6528545983851,3649.6295336988587,7236.0596389946631,196.77879758248324,346.65554874310294,11.996641656962792,4624.2763271923568,-326.25608989282955,6435.3208960257325,-6435.3208960257325,326.25608989282955,8987.0728132202421,0.0
623523.2936376977,3542751.2368613081,-2500.0,2228.1506760646739,3559.6195239860622,8625.2000339058395,188.74125716446551,407.186753488352,13.722080790981035,5118.9910973090518,-1004.7756491375103,7294.6329791996786,-7294.6329791996786,1004.7756491375103,9930.1908301577005,0.0
628523.2936376977,3542751.2368613081,-2500.0,1862.4095752724822,3247.1253383530948,9973.1380943741115,170.05682837747722,465.39190683122854,15.340426882882845,5570.9047236037577,-1731.5881871793877,7991.7091075531062,-7991.7091075531062,1731.5881871793877,10795.584917571025,0.0
633523.2936376977,3542751.2368613081,-2500.0,1476.8896597390503,2692.1378229502629,11170.497035591947,140.0196417810246,516.6614889858995,16.724462548498597,5949.7765276612163,-2443.734906755702,8437.5324372900413,-8437.5324372900413,2443.734906755702,11526.266804211213,0.0
638523.2936376977,3542751.2368613081,-2500.0,1124.8256302495383,1902.6209359456846,12095.591142587933,99.181913465287622,555.94283566611898,17.740085863926929,6224.9078968669592,-3063.6252655479302,8551.8870597263885,-8551.8870597263885,3063.6252655479302,12064.225544228411,0.0
643523.2936376977,3542751.2368613081,-2500.0,862.81946937397174,921.61498858910943,12631.347836961553,49.627893788945819,578.43369982965157,18.264650856607254,6368.9367185825631,-3509.793880800476,8280.1818856128393,-8280.1818856128393,3509.793880800476,12357.587470873792,0.0
648523.2936376977,3542751.2368613081,-2500.0,738.70803238477345,-172.10824675357838,12686.931579168204,-5.028754694614082,580.44685482244927,18.209068523234404,6362.1428662535882,-3712.336349843566,7609.5899317803833,-7609.5899317803833,3712.336349843566,12368.813307307288,0.0
653523.2936376977,3542751.2368613081,-2500.0,778.64803031801171,-1272.4464856941922,12219.133165424681,-60.020780128824271,560.24940209792146,17.537497999230272,6196.3793448338201,-3629.5949103615621,6579.1442615613723,-6579.1442615613723,3629.5949103615621,12082.270851823801,0.0
658523.2936376977,3542751.2368613081,-2500.0,977.85620685835909,-2263.3034023238711,11246.782532200812,-110.16163801539437,518.61916890291661,16.279274234388335,5877.5688381663076,-3260.8032780762519,5278.8520878186755,-5278.8520878186755,3260.8032780762519,11509.160347713194,0.0
663523.2936376977,3542751.2368613081,-2500.0,1299.1475131571433,-3040.9849557861694,9852.1973807831782,-150.77855457140552,458.89576661025023,14.528254290113349,5425.8884202334093,-2649.527753802488,3835.9203946451448,-3835.9203946451448,2649.527753802488,10688.079727233508,0.0
668523.2936376977,3542751.2368613081,-2500.0,1680.8342973173119,-3534.9081399012803,8167.5998826659579,-178.57775618085324,386.45312190872534,12.428636466760016,4873.4579011360629,-1875.5628867201435,2391.022360822853,-2391.022360822853,1875.5628867201435,9680.6351235626953,0.0
673523.2936376977,3542751.2368613081,-2500.0,2051.6790326535042,-3719.836962216571,6349.9934003902181,-192.17560605622756,307.72464327627023,10.150799536708103,4304.6510983714934,-1037.4335806568909,1071.7362415184382,-1071.7362415184382,1037.4335806568909,8562.9967244181771,0.0
678523.2936376977,3542751.2368613081,-2500.0,2347.5920342949144,-3616.0904392295188,4552.3538454634472,-192.15127919292533,229.0728644375514,7.8635982368629289,3787.0456601133337,-231.43670187265235,-28.598745291531301,28.598745291531301,231.43670187265235,7415.5490269314751,0.0
683523.2936376977,3542751.2368613081,-2500.0,2524.4102290720034,-3278.9641638788712,2899.7292379927035,-180.65742447813091,155.82653294882641,5.7108736075077324,3289.543379497964,465.94401507131545,-861.04434845936191,861.04434845936191,-465.94401507131545,6313.1292994609248,0.0
688523.2936376977,3542751.2368613081,-2500.0,2563.400666676765,-2782.2991356442567,1475.8274438287901,-160.77031692105533,91.704746723909608,3.7963742037202666,2838.9715850607372,1007.6774938335246,-1419.4467242226426,1419.4467242226426,-1007.6774938335246,5317.6092904862862,0.0
693523.2936376977,3542751.2368613081,-2500.0,2469.4805580728435,-2202.0516424456218,321.04398389018343,-135.80632226245496,38.680888268907118,2.1794937597442341,2453.2159961815196,1377.053388508939,-1730.3587748718141,1730.3587748718141,-1377.053388508939,4473.1898486426608,0.0
698523.2936376977,3542751.2368613081,-2500.0,2264.630122314893,-1604.086522433106,-560.8997188689641,-108.78065878140396,-2.8045089749866965,0.87916875033317143,2139.9976705708796,1582.0453685111383,-1839.5403516595793,1839.5403516595793,-1582.0453685111383,3803.510930209216,0.0
703523.2936376977,3542751.2368613081,-2500.0,1979.7201086780588,-1037.7589324932499,-1192.0648279693182,-82.087256680690729,-33.439976586215963,-0.11673384203444431,1897.3247715334442,1646.6805633679085,-1799.3878765733164,1799.3878765733164,-1646.6805633679085,3309.7971823598714,0.0
708523.2936376977,3542751.2368613081,-2500.0,1647.286676534,-534.64056350832743,-1609.0251505988058,-57.391095974431011,-54.598700671416715,-0.84048458199379916,1715.5250914509622,1602.4847455615311,-1659.7410814891166,1659.7410814891166,-1602.4847455615311,2971.4339554926,0.0
713523.2936376977,3542751.2368613081,-2500.0,1296.5239677090849,-110.65302328834716,-1853.6090779210142,-35.674030019484853,-67.954447955096526,-1.3345588136586561,1580.6609809424217,1481.8126492128731,-1462.6274077268199,1462.6274077268199,-1481.8126492128731,2752.044972746477,0.0
718523.2936376977,3542751.2368613081,-2500.0,950.65950705329885,230.214099978506,-1966.5333621886757,-17.363828921721286,-75.202436612596074,-1.6438747706007255,1478.2944850399481,1313.6250271940119,-1240.3039925342721,1240.3039925342721,-1313.6250271940119,2610.6914132364227,0.0
723523.2936376977,3542751.2368613081,-2500.0,626.23388176040362,491.96107397545472,-1983.7774622611719,-2.4889880581756443,-77.887924712631573,-1.8107984984518846,1396.2430162425289,1121.4532101210746,-1015.5054843666455,1015.5054843666455,-1121.4532101210746,2512.3078758083711,0.0
588523.2936376977,3547751.2368613081,-2500.0,2818.5213761281098,1854.0206984593544,953.6474618356574,134.86144471091549,69.448610994403083,3.9049620991198042,2078.5368036580003,1799.7966349987087,1286.7518635975593,-1286.7518635975593,-1799.7966349987087,4065.9717107391039,0.0
593523.2936376977,3547751.2368613081,-2500.0,3082.1316865939943,2322.1376540725018,1616.3880837151396,158.55282254613263,102.71418991191244,5.0900071722203668,2439.4550104521541,1803.4419817391108,1959.6093254042753,-1959.6093254042753,-1803.4419817391108,4836.3698275978459,0.0
598523.2936376977,3547751.2368613081,-2500.0,3293.9417436879353,2818.5643886331868,2463.191526360928,182.77611439858953,144.32939483823336,6.5194754628215019,2871.4418619350618,1712.8545906443305,2775.3994056011225,-2775.3994056011225,-1712.8545906443305,5723.8006791535072,0.0
603523.2936376977,3547751.2368613081,-2500.0,3429.0485180199603,3316.0697940541831,3515.1721827262095,206.05622318090312,195.08249577499336,8.2063878563211183,3402.255144872508,1501.4625913390537,3733.8018063604513,-3733.8018063604513,-1501.4625913390537,6725.6746356540298,0.0
608523.2936376977,3547751.2368613081,-2500.0,3462.6364003332774,3774.9715246527062,4782.7454079585596,226.36414415231542,255.24335164752083,10.146291882031736,3987.1458904099827,1145.1945860559063,4819.5392826031875,-4819.5392826031875,-1145.1945860559063,7830.736794877057,0.0
613523.2936376977,3547751.2368613081,-2500.0,3374.1291472689259,4142.8165895159918,6258.2036878097206,241.13229733876057,324.24698025403046,12.308362942750357,4613.0477090201794,627.7670885791872,5996.7715239309546,-5996.7715239309546,-627.7670885791872,9016.3239308177635,0.0
618523.2936376977,3547751.2368613081,-2500.0,3152.7736791844463,4356.6124132947571,7907.26453585933,247.38970026654832,400.34464723991692,14.626992525718723,5260.3448776232544,-52.477547886574939,7204.2812173390021,-7204.2812173390021,52.477547886574939,10245.881383363379,0.0
623523.2936376977,3547751.2368613081,-2500.0,2803.9920313903353,4348.7940149521664,9661.1002157793355,242.06432777601117,480.29020400924361,16.994911509982877,5901.2677921744662,-875.03475321584574,8353.3060420846195,-8353.3060420846195,875.03475321584574,11467.426737033649,0.0
628523.2936376977,3547751.2368613081,-2500.0,2355.0290067303486,4057.7385177727788,11411.432255703838,222.47914581650681,559.17203780005798,19.261527241351345,6500.0801749609791,-1790.7993633339265,9330.4392805541283,-9330.4392805541283,1790.7993633339265,12613.886727204241,0.0
633523.2936376977,3547751.2368613081,-2500.0,1857.5560870497752,3442.5274825470933,13012.178697736013,187.01635263775552,630.53306805358636,21.239760770487102,7014.8371358533414,-2719.5152543799213,10008.006068146471,-10008.006068146471,2719.5152543799213,13606.311272822788,0.0
638523.2936376977,3547751.2368613081,-2500.0,1384.4620221330063,2499.7123317740538,14291.227079604512,135.83992634398459,686.9161931616228,22.724351409793062,7401.0839645409169,-3554.3977954432607,10263.158065033969,-10263.158065033969,3554.3977954432607,14360.750195219181,0.0
643523.2936376977,3547751.2368613081,-2500.0,1018.7540535713947,1277.3796719214649,15074.276833632337,71.46756642388668,720.89594932916839,23.521324351535799,7617.4961251758259,-4176.4131217992272,10004.145981398109,-10004.145981398109,4176.4131217992272,14798.858649580994,0.0
648523.2936376977,3547751.2368613081,-2500.0,834.94717261767823,-119.98498061805505,15218.744454959289,-1.0784887482695866,726.49208464939272,23.485360709752303,7632.795650460027,-4477.8603717871156,9198.1136612149458,-9198.1136612149458,4477.8603717871156,14861.041742079813,0.0
653523.2936376977,3547751.2368613081,-2500.0,877.24895033272298,-1541.6901493135083,14650.135427748495,-74.767810233380658,700.64416806603992,22.554449895467325,7432.5014232986678,-4390.293935874708,7890.9785690446788,-7890.9785690446788,4390.293935874708,14519.449642214428,0.0
658523.2936376977,3547751.2368613081,-2500.0,1142.4747783982107,-2817.4597534841482,13388.684307152858,-141.73659513033687,644.2633673710618,20.771912991740216,7023.5589251524652,-3907.4150701311255,6209.4170087093507,-6209.4170087093507,3907.4150701311255,13787.102868025215,0.0
663523.2936376977,3547751.2368613081,-2500.0,1576.0366962146265,-3794.4604250634852,11554.212885576075,-194.87741662477794,562.40458510404062,18.286047669964837,6435.0889053434557,-3092.6886297279457,4339.9262353282229,-4339.9262353282229,3092.6886297279457,12719.697940829394,0.0
668523.2936376977,3547751.2368613081,-2500.0,2084.7680495346931,-4372.2886876666998,9344.155249292482,-229.33775187813558,463.37990491173315,15.324758366695383,5715.6092961430486,-2066.3471948892693,2489.4317428349705,-2489.4317428349705,2066.3471948892693,11408.631097416086,0.0
673523.2936376977,3547751.2368613081,-2500.0,2562.4993712670826,-4522.807680365001,6990.950893754929,-243.40393156360292,357.05657587571477,12.153611139439239,5045.8288493762993,-975.49900415117452,840.80994201380543,-840.80994201380543,975.49900415117452,9966.7999631310759,0.0
678523.2936376977,3547751.2368613081,-2500.0,2918.0802168311016,-4288.2345100028188,4713.9350862359515,-238.49859951223513,252.9141657995952,9.0283354452005788,4389.1481488038125,41.158080952424598,-480.94396157469862,480.94396157469862,-41.158080952424598,8511.2466570491142,0.0
683523.2936376977,3547751.2368613081,-2500.0,3095.1443232823353,-3760.715624752148,2681.8933807304115,-218.39704309145375,158.48128239893856,6.1567079310481185,3772.4633113595482,881.05036190703254,-1422.0250576675969,1422.0250576675969,-881.05036190703254,7147.2708478417871,0.0
688523.2936376977,3547751.2368613081,-2500.0,3078.1695362062119,-3053.6061042326451,995.57679747893519,-188.04842937131525,78.531292079834316,3.6772067733309606,3230.8872724833454,1490.1765110572865,-1992.636312101054,1992.636312101054,-1490.1765110572865,5956.9202651106907,0.0
693523.2936376977,3547751.2368613081,-2500.0,2886.2149817364902,-2275.3590717312532,-310.06811257765014,-152.43877768634096,15.064511050918808,1.6561487826686234,2784.0934339217592,1860.3738429838747,-2247.0081675904294,2247.0081675904294,-1860.3738429838747,4991.9143547021831,0.0
698523.2936376977,3547751.2368613081,-2500.0,2559.9713873501596,-1512.6521513527625,-1250.8323719316963,-115.78921396025056,-32.159014854479253,0.098831659205790734,2435.7286532356238,2016.960418804204,-2260.3672828144481,2260.3672828144481,-2016.960418804204,4269.3880662831707,0.0
703523.2936376977,3547751.2368613081,-2500.0,2148.1292437336833,-823.91934508484565,-1873.7761833175527,-81.174952537900708,-64.855844749427817,-1.0324840674960034,2175.712790668138,2003.5484847693608,-2109.9916609126049,2109.9916609126049,-2003.5484847693608,3770.9163875513532,0.0
708523.2936376977,3547751.2368613081,-2500.0,1696.9263101387589,-240.7781714170039,-2239.6493928673203,-50.493534051873823,-85.484118235918373,-1.7997253882115829,1985.2889310039741,1868.9668258726699,-1863.3015844574541,1863.3015844574541,-1868.9668258726699,3449.4388746002264,0.0
713523.2936376977,3547751.2368613081,-2500.0,1244.1238544031414,226.31297934338932,-2410.1925605442971,-24.64630753905135,-96.678556210373841,-2.2735416940609054,1843.3509918294226,1658.4527711309333,-1572.6297107918585,1572.6297107918585,-1658.4527711309333,3245.9697642496581,0.0
718523.2936376977,3547751.2368613081,-2500.0,816.86219196047375,581.24676821032256,-2440.6704924187998,-3.8039312259672471,-100.89088310714577,-2.5226189531230157,1731.5295700252202,1409.1224960663467,-1274.7306179626344,1274.7306179626344,-1409.1224960663467,3107.7100239156398,0.0
723523.2936376977,3547751.2368613081,-2500.0,432.1148826999347,836.17400424659309,-2376.5929067077377,12.331559365187687,-100.20795069058451,-2.6075884893365924,1636.516962946348,1148.6617354129689,-992.89661559700107,992.89661559700107,-1148.6617354129689,2997.4917315188177,0.0
728523.2936376977,3547751.2368613081,-2500.0,98.471109480677825,1006.8980329323689,-2253.1925999927134,24.312660574051876,-96.29566455196489,-2.5784607819849925,1550.0143556733428,895.96447026713679,-740.04019791433086,740.04019791433086,-895.96447026713679,2893.7901510745623,0.0
583523.2936376977,3552751.2368613081,-2500.0,2720.7128819162076,1313.4325941085142,101.30685140855648,119.49829581026093,31.76401142343569,2.9747162659564017,1857.4428825767172,1970.7863921538351,415.07817621218919,-415.07817621218919,-1970.7863921538351,3514.2155415421557,0.0
588523.2936376977,3552751.2368613081,-2500.0,3110.6811805157972,1798.6472869457803,596.75806645409443,146.93306721312626,59.372675117116813,4.0937001981625496,2197.7443334028812,2119.176537601511,971.34854096588685,-971.34854096588685,-2119.176537601511,4235.7658852373625,0.0
593523.2936376977,3552751.2368613081,-2500.0,3482.0328995445016,2355.408258787973,1276.3248003679366,177.23684122684375,96.01005561133536,5.5040567461009093,2605.3227867362561,2200.0732371696627,1693.1189483049184,-1693.1189483049184,-2200.0732371696627,5103.8152269356688,0.0
598523.2936376977,3552751.2368613081,-2500.0,3806.8499697052098,2970.0376413779322,2179.3246938284624,209.43956038160448,143.38158032488602,7.2478075181324746,3085.7862172621344,2179.9776797811728,2600.9896280011217,-2600.9896280011217,-2179.9776797811728,6128.499567754925,0.0
603523.2936376977,3552751.2368613081,-2500.0,4051.5127824308415,3615.2007318184519,3342.6167348187951,241.8866306147001,203.00193744501021,9.3564156797398006,3674.7300963399766,2021.0576453213553,3706.0150028667049,-3706.0150028667049,-2021.0576453213553,7313.2946616021445,0.0
608523.2936376977,3552751.2368613081,-2500.0,4179.2988432877237,4246.2293383281221,4793.4643559013393,272.09383311800713,275.85885845349873,11.840056363728547,4383.3478915156757,1684.9724033121158,5002.3298021098753,-5002.3298021098753,-1684.9724033121158,8651.3705129430855,0.0
613523.2936376977,3552751.2368613081,-2500.0,4155.3414252431467,4798.727519084402,6539.3408528184846,296.67825652256778,361.9499175243555,14.674298156810742,5160.0093223049616,1139.4484229827717,6458.2850962497487,-6458.2850962497487,-1139.4484229827717,10121.282536718751,0.0
618523.2936376977,3552751.2368613081,-2500.0,3954.2656498238493,5189.1695465664698,8555.0077046926472,311.44426918430116,459.71528908108991,17.784560286037596,5982.4321914903203,367.86675788769753,8007.3796539921168,-8007.3796539921168,-367.86675788769753,11682.503743165076,0.0
623523.2936376977,3552751.2368613081,-2500.0,3570.0915699993207,5320.6659417329311,10768.475037954404,311.71963496999751,565.4475421017529,21.032423634745687,6816.675254386605,-618.75951787199847,9541.5143684593113,-9541.5143684593113,618.75951787199847,13271.744136086376,0.0
628523.2936376977,3552751.2368613081,-2500.0,3026.6982130105057,5096.0042530768933,13049.323176130227,293.02476928575123,672.83964953586838,24.208138135685115,7615.9941082723572,-1769.5561448292601,10910.457404045399,-10910.457404045399,1769.5561448292601,14801.496476619279,0.0
633523.2936376977,3552751.2368613081,-2500.0,2385.4017808698459,4438.8795471913254,15205.013602771482,252.09300005863903,772.91836347168385,27.036487242729347,8322.3085349902449,-2985.4602210056055,11932.276566119064,-11932.276566119064,2985.4602210056055,16162.656887288109,0.0
638523.2936376977,3552751.2368613081,-2500.0,1744.6167352159573,3321.2918469342994,16992.222540902145,188.11870714634415,854.65213779131182,29.202189155577297,8870.8437798726027,-4120.7640454408593,12418.707296093884,-12418.707296093884,4120.7640454408593,17233.063860888637,0.0
643523.2936376977,3552751.2368613081,-2500.0,1226.5292908190113,1790.3886675547062,18149.006891310357,103.90615028715341,906.44293292573548,30.397480345008638,9198.3737356650254,-5000.537270539312,12215.536405422125,-12215.536405422125,5000.537270539312,17892.911272233508,0.0
648523.2936376977,3552751.2368613081,-2500.0,949.01517347148433,-16.797480954512768,18447.713828198182,6.4084566363135895,918.43948431942135,30.385213359892298,9254.3867779588127,-5456.1345368234834,11250.572467591053,-11250.572467591053,5456.1345368234834,18045.906111632754,0.0
653523.2936376977,3552751.2368613081,-2500.0,988.35998128406447,-1883.454393156346,17757.769637020996,-93.856431506246679,885.16800856074781,29.061202956624875,9012.8964195986118,-5372.4908653666262,9572.9071769575421,-9572.9071769575421,5372.4908653666262,17641.979032883126,0.0
658523.2936376977,3552751.2368613081,-2500.0,1346.9018855164541,-3553.9176974803804,16096.228756167766,-184.70021246074342,807.56493381553128,26.493740529068422,8481.2559457769348,-4730.6998780021786,7363.0827362788441,-7363.0827362788441,4730.6998780021786,16694.641985187413,0.0
663523.2936376977,3552751.2368613081,-2500.0,1942.8623711342777,-4796.6430373068079,13641.11884589088,-255.04572444928931,693.44840476425122,22.922237704952444,7702.3420728998908,-3624.9775059902522,4901.2770172023274,-4901.2770172023274,3624.9775059902522,15285.824710466004,0.0
668523.2936376977,3552751.2368613081,-2500.0,2631.6276270166759,-5465.5894104059653,10695.079135472222,-297.60746501917492,555.98971846978816,18.711820147313489,6807.4242350315317,-2241.4473284520955,2499.7829536980371,-2499.7829536980371,2241.4473284520955,13554.585433263284,0.0
673523.2936376977,3552751.2368613081,-2500.0,3251.1350897713105,-5533.4729429090557,7610.4644748460305,-310.40126211927742,410.6465304707815,14.278249482099685,5959.5326667782792,-805.17485297286134,425.81877615708726,-425.81877615708726,805.17485297286134,11672.378806846287,0.0
678523.2936376977,3552751.2368613081,-2500.0,3670.4150937097156,-5084.0887417595077,4706.4456168072884,-296.55478852580723,271.73458241016147,10.007997207654167,5119.8093662668116,481.18915629065077,-1153.9009271124842,1153.9009271124842,-481.18915629065077,9812.9231687471529,0.0
683523.2936376977,3552751.2368613081,-2500.0,3820.2709545481453,-4272.0751334608603,2209.6953783492977,-262.7090607426689,149.86603308321673,6.1972502117064563,4354.3616110761595,1481.57156552486,-2188.8784689071808,2188.8784689071808,-1481.57156552486,8125.5500384861007,0.0
688523.2936376977,3552751.2368613081,-2500.0,3697.5315976388997,-3271.9578603667633,233.94263434116004,-216.85260328545377,50.902530586386263,3.0233313671588933,3707.3072071391857,2140.6286585343119,-2724.3217549586848,2724.3217549586848,-2140.6286585343119,6716.8113609003394,0.0
693523.2936376977,3552751.2368613081,-2500.0,3348.5832152279127,-2237.0110488477294,-1206.4342377479636,-166.43790842938768,-23.682604644107396,0.54822304177177261,3196.5421788570866,2471.6086604862076,-2862.1829448803874,2862.1829448803874,-2471.6086604862076,5639.5573505915872,0.0
698523.2936376977,3552751.2368613081,-2500.0,2844.7295658745156,-1277.5790734398026,-2164.843737137428,-117.2470813355645,-75.609356054383042,-1.2562202484706895,2815.3202427104297,2530.9864498141869,-2722.5036759152417,2722.5036759152417,-2530.9864498141869,4888.077452663656,0.0
703523.2936376977,3552751.2368613081,-2500.0,2260.2373731692801,-457.53021913433724,-2728.8626325261139,-73.036154758558226,-108.39575188293234,-2.4746929857291238,2539.3879957866466,2392.6691052952256,-2416.0849362648596,2416.0849362648596,-2392.6691052952256,4404.695385615234,0.0
708523.2936376977,3552751.2368613081,-2500.0,1658.2738160254971,198.02485146726241,-2994.0331573814428,-35.725527822847845,-126.18662270378908,-3.2173192483374038,2337.6546625509645,2129.0569280705981,-2030.7485768853944,2030.7485768853944,-2129.0569280705981,4104.1425205729392,0.0
713523.2936376977,3552751.2368613081,-2500.0,1084.9430932405967,690.83972923512306,-3047.7911315629326,-5.8492066117187704,-132.97076706038692,-3.5967488267107717,2181.7839026891561,1800.6154050397633,-1628.1830961137364,1628.1830961137364,-1800.6154050397633,3905.2132091676326,0.0
718523.2936376977,3552751.2368613081,-2500.0,569.10216954293401,1038.1860210506406,-2962.0926402059158,16.955548992405348,-132.16846826548868,-3.7142947408586084,2051.0908013811563,1452.3126648988411,-1246.9013155540781,1246.9013155540781,-1452.3126648988411,3749.8650092216553,0.0
723523.2936376977,3552751.2368613081,-2500.0,125.23685139483821,1264.1714127331504,-2791.8700596029462,33.536460844833719,-126.49030678579939,-3.6536261886212329,1932.8919445766426,1114.3041677653905,-907.60966757083315,907.60966757083315,-1114.3041677653905,3604.9826269411751,0.0
728523.2936376977,3552751.2368613081,-2500.0,-242.67028353036756,1394.0665321030708,-2576.6400359162462,44.930990898883472,-117.95887414857786,-3.4797339407707626,1820.5994603859672,804.59937398275497,-618.71181203839228,618.71181203839228,-804.59937398275497,3455.5685768704052,0.0
733523.2936376977,3552751.2368613081,-2500.0,-537.48165042127846,1451.1274535961595,-2343.3705595542974,52.181015044088824,-108.00838332015975,-3.2405408841332486,1711.4797691610197,532.22105749074512,-380.89005509828019,380.89005509828019,-532.22105749074512,3297.2575084609339,0.0
578523.2936376977,3557751.2368613081,-2500.0,2386.4559591818634,668.67600138801265,-622.42763922419215,94.873444470622459,-4.6636079263492398,1.9089595208124721,1648.4033219415887,1925.9410946828921,-401.14323698495991,401.14323698495991,-1925.9410946828921,2988.8244326242379,0.0
583523.2936376977,3557751.2368613081,-2500.0,2868.3727731716567,1108.2588175442067,-320.26773867991631,123.22017510418586,15.104190581598486,2.8734959805478333,1944.3671721206636,2198.4876122582637,-12.97200345172746,12.97200345172746,-2198.4876122582637,3601.7237822800648,0.0
588523.2936376977,3557751.2368613081,-2500.0,3374.3954010050288,1649.5027940442858,140.93476170263355,156.51962017799153,43.423665529082626,4.1471004413742287,2313.2658402275765,2444.0996595588967,537.07409821035878,-537.07409821035878,-2444.0996595588967,4376.9860075384449,0.0
593523.2936376977,3557751.2368613081,-2500.0,3881.5991256845728,2295.7958378617004,810.53386102272736,194.59421257505909,82.661963598834916,5.7983632950402129,2766.7449677620871,2630.9106167806781,1286.265249920114,-1286.265249920114,-2630.9106167806781,5338.2180197363523,0.0
598523.2936376977,3557751.2368613081,-2500.0,4357.0911679409064,3039.9290966301901,1744.4725257961265,236.6447359745803,135.41485443346656,7.8966786777756663,3315.1068872867518,2717.0447327353477,2270.797973874287,-2270.797973874287,-2717.0447327353477,6505.7668843089277,0.0
603523.2936376977,3557751.2368613081,-2500.0,4757.7322839392182,3858.3353672297544,3001.0067552783171,280.97607159664426,204.26918048630449,10.502706277709354,3966.3262178749178,2651.3232587791799,3519.3532618810614,-3519.3532618810614,-2651.3232587791799,7893.3497089225848,0.0
608523.2936376977,3557751.2368613081,-2500.0,5031.9769203625656,4704.6223962717386,4632.5765521949779,324.70962284074847,291.38478855946164,13.653511290724353,4784.4356152601076,2376.642004472581,5043.3902908349046,-5043.3902908349046,-2376.642004472581,9503.1684322638466,0.0
613523.2936376977,3557751.2368613081,-2500.0,5125.0324327827602,5503.6820054078435,6672.6896464500405,363.55227074442212,397.852805674487,17.341564468599781,5745.2429296086957,1837.3370591135244,6824.097854850881,-6824.097854850881,-1837.3370591135244,11319.523914476034,0.0
618523.2936376977,3557751.2368613081,-2500.0,4988.4382723172175,6148.7124861001785,9117.3285432893827,391.74078681188917,522.82223151754022,21.489284116808264,6790.3432534039512,991.66840155883938,8797.0490833237,-8797.0490833237,-991.66840155883938,13301.380077816926,0.0
623523.2936376977,3557751.2368613081,-2500.0,4594.4423075299619,6504.6746306691894,11901.987948444505,402.33069165472335,662.46729322007025,25.922254736623145,7879.7573721208419,-170.36916773724988,10837.522245352529,-10837.522245352529,170.36916773724988,15375.007070462099,0.0
628523.2936376977,3557751.2368613081,-2500.0,3953.8088735401143,6422.506146466445,14878.361210796134,388.02212903051679,809.00633897900855,30.350092029406348,8953.6075722060923,-1605.7891958234341,12752.125127705531,-12752.125127705531,1605.7891958234341,17428.778393017539,0.0
633523.2936376977,3557751.2368613081,-2500.0,3132.6523654119142,5767.7875300673795,17798.916867020838,342.65798766286906,950.1687419392083,34.367582426566543,9932.0880040987067,-3199.3410655491061,14285.138048621309,-14285.138048621309,3199.3410655491061,19313.253779107512,0.0
638523.2936376977,3557751.2368613081,-2500.0,2260.0088829545393,4463.8823094978234,20322.013668604381,263.323470633753,1069.6734401291239,37.489402464354228,10720.565246416349,-4756.1138327963572,15149.015358391476,-15149.015358391476,4756.1138327963572,20850.374686946649,0.0
643523.2936376977,3557751.2368613081,-2500.0,1515.2534929670819,2541.4838611260971,22051.540802105374,152.58489409083268,1149.2710288907251,39.227367070771606,11221.188783322277,-6018.8693422405167,15084.411375275926,-15084.411375275926,6018.8693422405167,21854.967054593199,0.0
648523.2936376977,3557751.2368613081,-2500.0,1087.4288811072427,175.20432899750855,22617.93824027136,19.937250538573679,1172.5015794646429,39.200152466503802,11350.863515440582,-6719.5618717641282,13942.56696074749,-13942.56696074749,6719.5618717641282,22168.628220962659,0.0
653523.2936376977,3557751.2368613081,-2500.0,1111.2104524032131,-2319.7066670059348,21787.765559297644,-118.67808845676232,1129.4457281057614,37.244008224147905,11062.257622371621,-6659.9282238443302,11763.232833250458,-11763.232833250458,6659.9282238443302,21700.036287176867,0.0
658523.2936376977,3557751.2368613081,-2500.0,1603.9565311565227,-4549.4097280249343,19562.299674344282,-243.93094149951258,1020.7374050434235,33.480419156473545,10361.069766007426,-5792.9061819527342,8806.3606841136771,-8806.3606841136771,5792.9061819527342,20458.915921120755,0.0
663523.2936376977,3557751.2368613081,-2500.0,2440.4938690663807,-6151.8075944377897,16211.961418570061,-338.10403101202525,858.75756739239819,28.306395658417436,9311.9919135217733,-4261.140566116339,5504.6210280893883,-5504.6210280893883,4261.140566116339,18568.276040338926,0.0
668523.2936376977,3557751.2368613081,-2500.0,3389.1761235099207,-6908.9988537567415,12214.766494752179,-390.0533810707463,664.92253333649592,22.308783298076303,8217.1927597246377,-2361.8316030216483,2343.3971510712299,-2343.3971510712299,2361.8316030216483,16245.830831215702,0.0
673523.2936376977,3557751.2368613081,-2500.0,4195.9217780228946,-6805.216429479925,8119.1574174587277,-397.85144468504097,463.97166326166956,16.132418717495238,7097.1606754257973,-448.8526455540773,-278.78788192186221,278.78788192186221,448.8526455540773,13759.153096600745,0.0
678523.2936376977,3557751.2368613081,-2500.0,4671.3241683972292,-6004.1351536688708,4396.0635513331135,-368.05721917767312,277.7601708931868,10.350172538895764,6016.7981590956842,1177.8633944490234,-2143.2903614968018,2143.2903614968018,-1177.8633944490234,11371.201859833967,0.0
683523.2936376977,3557751.2368613081,-2500.0,4737.7895345451871,-4767.5899712903483,1344.6024893538311,-312.40384055107438,121.05710604120941,5.3707228717639079,5068.6176235004186,2342.9378437054384,-3224.4799294251034,3224.4799294251034,-2342.9378437054384,9293.9775811614691,0.0
688523.2936376977,3557751.2368613081,-2500.0,4424.5439361200815,-3364.0367864747527,-924.73935541179094,-243.78231266702034,0.4114447391494388,1.4046298810101554,4303.901771815199,3005.7569072436977,-3638.1856202270797,3638.1856202270797,-3005.7569072436977,7658.1256405540262,0.0
693523.2936376977,3557751.2368613081,-2500.0,3828.720653742746,-2005.4269791077993,-2448.81542018864,-173.17308502309459,-84.480326542214144,-1.5165039460402614,3729.7958409645435,3225.7931410622691,-3566.6942950583393,3566.6942950583393,-3225.7931410622691,6496.9464788463101,0.0
698523.2936376977,3557751.2368613081,-2500.0,3069.9649785281977,-823.8660199069916,-3349.0097802156856,-108.19006124415543,-138.26072894040607,-3.4889726471182061,3318.1057640359486,3112.9072104239854,-3195.7254020275664,3195.7254020275664,-3112.9072104239854,5748.8835281696047,0.0
703523.2936376977,3557751.2368613081,-2500.0,2257.0139650138794,121.71272454871954,-3775.6181587195188,-53.009913483633255,-167.45830689789062,-4.6774381334710329,3023.1339626597387,2785.5756448709685,-2678.1246375072192,2678.1246375072192,-2785.5756448709685,5291.5919248514938,0.0
708523.2936376977,3557751.2368613081,-2500.0,1471.2906795490874,825.01172362904936,-3871.5392814470024,-9.0809993053738616,-178.72123888215177,-5.2663814219364014,2800.1519681453033,2345.8933510085662,-2121.961382577827,2121.961382577827,-2345.8933510085662,4997.5057490360696,0.0
713523.2936376977,3557751.2368613081,-2500.0,763.97066548327678,1310.4281982061796,-3754.8121051770268,23.944779383047148,-177.83817692843053,-5.4274169688890588,2616.0009690783445,1869.8662869365633,-1593.7716362445615,1593.7716362445615,-1869.8662869365633,4773.1429724861591,0.0
718523.2936376977,3557751.2368613081,-2500.0,160.52924246338037,1615.8415960844716,-3514.227710198275,47.386839713897984,-169.37187436400856,-5.3036604011766677,2450.6896422958357,1407.5371497960598,-1128.1573545843846,1128.1573545843846,-1407.5371497960598,4565.914237493671,0.0
723523.2936376977,3557751.2368613081,-2500.0,-332.13422848623469,1781.5055660375733,-3211.9608390418784,62.941773578966,-156.66514201156869,-5.0054327793796505,2294.2609077209827,987.72285804874116,-738.15314696791927,738.15314696791927,-987.72285804874116,4353.0784409446978,0.0
728523.2936376977,3557751.2368613081,-2500.0,-718.85099689655294,1844.0656934622152,-2888.9038946921219,72.317752724992559,-142.02312434832092,-4.6126532919577361,2142.8943326227027,623.9065644327469,-423.80129622667999,423.80129622667999,-623.9065644327469,4128.8178815492993,0.0
733523.2936376977,3557751.2368613081,-2500.0,-1010.8013966180883,1834.0784626280858,-2570.2719027289768,77.044613289910743,-126.94683805287055,-4.1801400821403565,1995.9367447244977,319.53172533792463,-178.2882122017491,178.2882122017491,-319.53172533792463,3895.2171071130701,0.0
738523.2936376977,3557751.2368613081,-2500.0,-1221.7888658298764,1775.5806877233183,-2270.3993023201438,78.399248934469057,-112.35300782127761,-3.7435147836423286,1854.0737816456392,72.083680210259914,8.0961505268536094,-8.0961505268536094,-72.083680210259914,3657.1631970142039,0.0
578523.2936376977,3562751.2368613081,-2500.0,2348.0744032486236,341.36941319777293,-1044.2342444534165,89.50784458106871,-25.351066684278667,1.5441288726174367,1732.2760970201923,2013.8368838811557,-875.26387422940581,875.26387422940581,-2013.8368838811557,3070.7278565917431,0.0
583523.2936376977,3562751.2368613081,-2500.0,2932.2953460919139,793.57948191640514,-814.15802814176197,121.98232543592741,-7.3983682807010434,2.5769094052617749,2037.1524353819018,2382.8985887630879,-543.21438033633012,543.21438033633012,-2382.8985887630879,3684.7276607588406,0.0
588523.2936376977,3562751.2368613081,-2500.0,3571.4283985841098,1376.2238689941453,-419.19773253754283,161.46215417791626,20.174138789142063,3.9887352096386501,2427.5869530851423,2747.0840882823395,-32.3759666565511,32.3759666565511,-2747.0840882823395,4491.8606624022668,0.0
593523.2936376977,3562751.2368613081,-2500.0,4243.6692372829984,2103.5983147644588,202.93791475925539,208.26815271720645,60.568839971402646,5.8794450387356587,2921.6701821160987,3071.996081990033,709.62464399968803,-709.62464399968803,-3071.996081990033,5529.8383543604723,0.0
598523.2936376977,3562751.2368613081,-2500.0,4913.3155607275794,2979.981272603864,1127.7870818478814,262.03779144525311,117.53884991396983,8.3570232358623677,3537.0553354928652,3308.3505801904016,1739.3626828536594,-1739.3626828536594,-3308.3505801904016,6834.4192583485983,0.0
603523.2936376977,3562751.2368613081,-2500.0,5528.4575580464898,3991.705072249465,2441.0724253960848,321.31006834348648,195.17287878145862,11.52608910170891,4289.0531581632722,3390.6789405601739,3110.869914928051,-3110.869914928051,-3390.6789405601739,8435.6809793063712,0.0
608523.2936376977,3562751.2368613081,-2500.0,6020.8396828801961,5097.0473382300206,4230.6412626529509,383.02766621985654,297.42539545967645,15.46757587408854,5189.9337294818315,3238.9829500568121,4863.9204396670912,-4863.9204396670912,-3238.9829500568121,10351.989555147729,0.0
613523.2936376977,3562751.2368613081,-2500.0,6309.8582101061138,6215.0702753467858,6571.0467624610901,442.03043868620125,427.28853548423263,20.207837724125458,6348.7660847873922,2765.5798186337843,7006.2594709390387,-7006.2594709390387,-2765.5798186337843,12581.172470346683,0.0
618523.2936376977,3562751.2368613081,-2500.0,6313.0410876708202,7216.1515394657454,9498.6581159505167,490.69793702132898,585.52625241329019,25.676434780435777,7673.3570096797839,1889.7013307595848,9489.8462423115943,-9489.8462423115943,-1889.7013307595848,15088.991070483147,0.0
623523.2936376977,3562751.2368613081,-2500.0,5965.052485967879,7919.2217565581377,12976.751002090949,519.0101262484518,768.98348669976758,31.657843560170129,9097.4554283662765,561.89186617970154,12183.724245531912,-12183.724245531912,-561.89186617970154,17795.971552680832,0.0
628523.2936376977,3562751.2368613081,-2500.0,5245.4683571440673,8103.2360935234683,16853.848138247708,515.40303097546098,968.69024111381259,37.749629203803281,10547.038311462524,-1202.02175899739,14850.519511908238,-14850.519511908238,1202.02175899739,20565.19635315015,0.0
633523.2936376977,3562751.2368613081,-2500.0,4211.2001837142861,7541.814846848647,20825.608972735648,468.81452546255434,1168.3319498359463,43.350494246553289,11914.316865291263,-3282.8262725076565,17139.703341251945,-17139.703341251945,3282.8262725076565,23195.844074317181,0.0
638523.2936376977,3562751.2368613081,-2500.0,3021.7999895495618,6067.2356414407959,24420.637581705283,372.08089626974254,1344.0982383535402,47.708928670874428,13061.491631914365,-5429.9799515471168,18616.630076044625,-18616.630076044625,5429.9799515471168,25429.642886193506,0.0
643523.2936376977,3562751.2368613081,-2500.0,1936.8695697755848,3658.2685683298455,27039.606692824847,226.16984877610375,1467.1852575985158,50.055146257135966,13835.862065124969,-7268.3954319385612,18845.881497389426,-18845.881497389426,7268.3954319385612,26978.35853248294,0.0
648523.2936376977,3562751.2368613081,-2500.0,1262.5419846808845,522.99497842680989,28073.653891968253,43.651314923081337,1509.779475643774,49.799511679095708,14098.240027032632,-8367.020913270364,17530.150230323212,-17530.150230323212,8367.020913270364,27576.911174364097,0.0
653523.2936376977,3562751.2368613081,-2500.0,1242.361381119408,-2877.8974551305068,27096.03456852405,-151.05912773083017,1453.7043340348687,46.729752840694189,13760.763870954894,-8375.310282441711,14665.421437998135,-14665.421437998135,8375.310282441711,27055.656125495032,0.0
658523.2936376977,3562751.2368613081,-2500.0,1931.6069181007381,-5920.7028856407223,24059.783690732253,-326.58516317330941,1298.4840743753637,41.108294288136236,12821.723664872508,-7183.1223124479984,10627.669446064188,-10627.669446064188,7183.1223124479984,25408.774160205856,0.0
663523.2936376977,3562751.2368613081,-2500.0,3134.4118580158301,-8017.9017618067683,19385.407020594481,-453.83193215285837,1064.247645122113,33.616659506326506,11445.790245332812,-5010.7022284957711,6106.2498328694346,-6106.2498328694346,5010.7022284957711,22824.91594316834,0.0
668523.2936376977,3562751.2368613081,-2500.0,4465.8805545241639,-8834.6946690488367,13854.53679164741,-515.48109582973859,786.75392456304746,25.17945823980634,10028.254441673445,-2350.0400187961754,1881.7201374653825,-1881.7201374653825,2350.0400187961754,19656.258682417756,0.0
673523.2936376977,3562751.2368613081,-2500.0,5515.6107909805287,-8394.5715088106281,8346.4320413809692,-510.70863507467629,506.39058240603805,16.751133290732838,8530.9262420265968,225.13622261272928,-1438.8735342176096,1438.8735342176096,-225.13622261272928,16333.265194195521,0.0
678523.2936376977,3562751.2368613081,-2500.0,6010.2301324817236,-7017.4802482486748,3563.5297525313108,-452.97837257265041,256.68767315897384,9.1318793983717903,7136.2416366176622,2266.9464649704,-3581.5695380501907,3581.5695380501907,-2266.9464649704,13261.408470553291,0.0
683523.2936376977,3562751.2368613081,-2500.0,5882.7298397013219,-5150.734296990393,-116.48880302823957,-363.07602693578775,57.53513402372301,2.8484262824399438,5969.9679648373794,3564.6144016336439,-4597.4904431587101,4597.4904431587101,-3564.6144016336439,10737.063399284187,0.0
688523.2936376977,3562751.2368613081,-2500.0,5237.0223276168663,-3203.6087579582763,-2630.8502147435752,-261.65191459233631,-85.341836283572874,-1.880546149100186,5080.8243395024529,4131.5446852062787,-4739.7884366317458,4739.7884366317458,-4131.5446852062787,8896.4635487072701,0.0
693523.2936376977,3562751.2368613081,-2500.0,4261.0327296533269,-1456.6375496308078,-4126.5757125388291,-164.42086936997643,-176.60054817222004,-5.1001389706165403,4446.1641725348982,4119.2260042064663,-4321.6981198260619,4321.6981198260619,-4119.2260042064663,7701.2504016285375,0.0
698523.2936376977,3562751.2368613081,-2500.0,3146.6765147852007,-49.31034758050901,-4841.146700137293,-80.701312621028279,-226.26261089878278,-7.0269514287241028,4000.5215501112261,3724.2957971143624,-3619.3441722499465,3619.3441722499465,-3724.2957971143624,6981.4293987150804,0.0
703523.2936376977,3562751.2368613081,-2500.0,2044.0784250831464,987.18495650951797,-5016.3181982072001,-14.265787338921026,-245.62125586923355,-7.9512587976997446,3671.7990453811744,3125.9751997480689,-2831.5423771894339,2831.5423771894339,-3125.9751997480689,6532.7701021756166,0.0
708523.2936376977,3562751.2368613081,-2500.0,1048.5659590205837,1686.0802112838389,-4854.1636275339879,34.8912103809173,-244.80689451201403,-8.1629872806514214,3404.9988040696121,2458.8145729349817,-2079.3416885107063,2079.3416885107063,-2458.8145729349817,6199.4637102553415,0.0
713523.2936376977,3562751.2368613081,-2500.0,207.20926497900362,2108.8883978730933,-4504.4184111066106,68.833930468663141,-231.79378537651547,-7.9101335015786907,3167.4838134895017,1809.7672374230985,-1423.4690824847114,1423.4690824847114,-1809.7672374230985,5894.8943529917997,0.0
718523.2936376977,3562751.2368613081,-2500.0,-467.47631375732095,2322.2725060263219,-4068.6765736575076,90.424190467571961,-212.31258819954002,-7.3839635342003378,2943.7644102020072,1226.8479544198694,-884.89886512346663,884.89886512346663,-1226.8479544198694,5583.5312534781306,0.0
723523.2936376977,3562751.2368613081,-2500.0,-984.01771774213057,2386.1244050178666,-3610.8338294861996,102.55936434143965,-190.19044090703622,-6.7208271074533208,2728.4408918159006,730.7130606045281,-461.79405847399869,461.79405847399869,-730.7130606045281,5257.68892436441,0.0
728523.2936376977,3562751.2368613081,-2500.0,-1361.5959427079417,2349.0779699237155,-3167.9986860021099,107.79494669509369,-167.81199933783651,-6.0115063631462471,2520.9616756031687,324.92742231756415,-141.20367754868812,141.20367754868812,-324.92742231756415,4921.7146665494638,0.0
733523.2936376977,3562751.2368613081,-2500.0,-1623.1737097640621,2248.124596675571,-2759.5232575938835,108.21163296605187,-146.54877266192088,-5.3124271064948836,2322.5728401184124,3.5834564635828343,93.794648353775244,-93.794648353775244,-3.5834564635828343,4583.5546106860675,0.0
738523.2936376977,3562751.2368613081,-2500.0,-1791.481867860145,2110.0826634630289,-2393.6512292360549,105.4156243786954,-127.101015335315,-4.6558022844340954,2134.8577425607004,-243.64517324581092,260.19853064964525,-260.19853064964525,243.64517324581092,4250.938148812229,0.0
743523.2936376977,3562751.2368613081,-2500.0,-1886.9908198124083,1953.6392082195835,-2072.0672286656645,100.59906104220688,-109.74690833441232,-4.0576842970043021,1971.4475154761926,-428.44091467227969,373.23835272634068,-373.23835272634068,428.44091467227969,3929.9858912419777,0.0
573523.2936376977,3567751.2368613081,-2500.0,1591.2556499895445,-399.54488869472999,-1524.61832985499,49.486807118364858,-58.066286418993016,0.23265900761949626,1610.1601993504619,1585.7424413610099,-1523.4408018292727,1523.4408018292727,-1585.7424413610099,2789.080125150283,0.0
578523.2936376977,3567751.2368613081,-2500.0,2177.4336126148069,-89.806147467396244,-1500.5010686306991,77.394342706303703,-50.8546061108093,0.95359966993148415,1843.372572359091,2012.3487317921204,-1414.8758402028029,1414.8758402028029,-2012.3487317921204,3210.8006947979597,0.0
583523.2936376977,3567751.2368613081,-2500.0,2863.861111166344,348.72555777197891,-1370.9267260474053,113.36847326626807,-36.476496722623352,2.0111579906328014,2148.7521885064857,2485.1177051314498,-1174.2215037640688,1174.2215037640688,-2485.1177051314498,3796.2696410592152,0.0
588523.2936376977,3567751.2368613081,-2500.0,3646.6832225652511,946.31407652215557,-1080.57349819258,158.78825171018718,-11.749213506095943,3.5202257011060891,2549.7935248619083,2985.8196379278297,-746.21024794543814,746.21024794543814,-2985.8196379278297,4600.0013279234481,0.0
593523.2936376977,3567751.2368613081,-2500.0,4509.6846346011753,1732.2065837249154,-554.71523831742195,214.77114264336862,27.471151974714239,5.6202506678540232,3073.1334559636261,3481.1652823480545,-61.835552323115508,61.835552323115508,-3481.1652823480545,5680.3716272471765,0.0
598523.2936376977,3567751.2368613081,-2500.0,5418.935014807339,2728.4580500813881,303.41702358209039,281.78350973666096,86.35139444106396,8.4706963481265785,3746.9745854771945,3917.6704301666114,960.19420863889331,-960.19420863889331,-3917.6704301666114,7096.3614916459255,0.0
603523.2936376977,3567751.2368613081,-2500.0,6317.3611921792544,3940.0175517604657,1612.428823496612,359.0626665695346,170.96381440509211,12.238127154333016,4598.729850514781,4217.0698872846051,2407.7580021483845,-2407.7580021483845,-4217.0698872846051,8903.4525134604428,0.0
608523.2936376977,3567751.2368613081,-2500.0,7120.8737342206259,5340.4569069188929,3506.8038037277329,443.83787460297293,287.84166859706943,17.069591980734067,5651.6001239934894,4274.3083199863459,4362.8521259572435,-4362.8521259572435,-4274.3083199863459,11146.876889538571,0.0
613523.2936376977,3567751.2368613081,-2500.0,7718.8059691475391,6853.7378412432136,6121.1556397956201,530.40172905329757,443.01120551371667,23.047156540807411,6938.6027476703239,3961.381285079322,6879.579262325411,-6879.579262325411,-3961.381285079322,13850.486656856732,0.0
618523.2936376977,3567751.2368613081,-2500.0,7982.6481598653436,8334.5093124875275,9559.9546434576987,609.20577065685836,640.28747412001962,30.120435535389323,8602.4261323408846,3141.5674803150555,9950.5568826126801,-9950.5568826126801,-3141.5674803150555,17000.282412104989,0.0
623523.2936376977,3567751.2368613081,-2500.0,7787.8299967813791,9552.9637384534108,13848.707217373087,666.3538847854619,878.68997261781897,38.020424178788573,10459.674337569732,1699.2163111207856,13462.357308023013,-13462.357308023013,-1699.2163111207856,20522.917547587163,0.0
628523.2936376977,3567751.2368613081,-2500.0,7052.5660016750498,10195.386677487213,18866.319295972626,684.13612265340771,1149.0880740203181,46.173692359017053,12420.433424011595,-411.02001581556215,17146.464729560816,-17146.464729560816,411.02001581556215,24261.680810176156,0.0
633523.2936376977,3567751.2368613081,-2500.0,5793.2696314446757,9897.3752110156347,24267.898665461544,643.48713344915461,1430.7606954632693,53.661654716930443,14343.785996327362,-3097.3427079247285,20542.905649306231,-20542.905649306231,3097.3427079247285,27956.210573331584,0.0
638523.2936376977,3567751.2368613081,-2500.0,4184.2252329465373,8329.3566716706209,29425.552794453764,529.16515411969976,1689.5119179598066,59.294115738769058,16031.712964042716,-6062.1731978026601,23009.11403534298,-23009.11403534298,6062.1731978026601,31237.739319973371,0.0
643523.2936376977,3567751.2368613081,-2500.0,2587.8357853419261,5343.1122047514018,33441.016340376824,337.47202958250995,1880.0127385385542,61.860987353933012,17245.349967680453,-8772.0601182654682,23819.714383247094,-23819.714383247094,8772.0601182654682,33657.468791675215,0.0
648523.2936376977,3567751.2368613081,-2500.0,1500.5246216089604,1147.4086588927867,35300.673173672985,84.044191776996172,1954.9790892655269,60.533263578689116,17747.821150119187,-10530.38624161354,22390.232954117419,-22390.232954117419,10530.38624161354,34765.387944855793,0.0
653523.2936376977,3567751.2368613081,-2500.0,1373.3061212550613,-3589.1854240557077,34205.786831720325,-193.46266690513059,1880.9408381207063,55.224548588054688,17372.425635571137,-10701.216661619157,18584.823745070618,-18584.823745070618,10701.216661619157,34239.71190283935,0.0
658523.2936376977,3567751.2368613081,-2500.0,2355.4070082118737,-7849.8738482855215,29978.78867211529,-442.98699717724361,1654.6347855297374,46.653745697406357,16094.962993104249,-9030.5330932245743,12942.622201753416,-12942.622201753416,9030.5330932245743,32028.438117968144,0.0
663523.2936376977,3567751.2368613081,-2500.0,4133.7982806285436,-10639.338370215497,23289.428212653362,-615.59550350033226,1309.8019219210466,36.048667610750549,14353.446897160844,-5864.4748145053063,6601.6720218132314,-6601.6720218132314,5864.4748145053063,28427.009422173713,0.0
668523.2936376977,3567751.2368613081,-2500.0,6040.7417679004338,-11425.395993569125,15468.638032508383,-684.19060857158797,907.64632091207488,24.745230438226677,12388.76217139423,-2052.8521641288012,868.28866179761724,-868.28866179761724,2052.8521641288012,24026.869757131557,0.0
673523.2936376977,3567751.2368613081,-2500.0,7391.1335174958422,-10341.595350039084,7973.1289484507024,-651.94397491468942,515.02940291763309,13.936058054420021,10366.701873747417,1441.746508450783,-3313.8863392067979,3313.8863392067979,-1441.746508450783,19544.10136334311,0.0
678523.2936376977,3567751.2368613081,-2500.0,7798.853323112523,-8020.6137640461975,1854.2854741942758,-546.16140438212847,183.00346708086096,4.5600626070581907,8568.559693164485,3951.0511382528575,-5641.6157169890002,5641.6157169890002,-3951.0511382528575,15612.215484086022,0.0
683523.2936376977,3567751.2368613081,-2500.0,7265.1464708756539,-5231.0492167173752,-2461.1911019140607,-403.53038286742145,-63.57801857039761,-2.7891695620194108,7153.7213675903149,5265.9211035948401,-6362.3825597669993,6362.3825597669993,-5265.9211035948401,12622.456182668428,0.0
688523.2936376977,3567751.2368613081,-2500.0,6054.7969774428966,-2581.3987186982285,-5064.8248419379324,-256.46682863199032,-223.81443663323628,-7.9219813823485463,6139.5877952930987,5542.4748740288105,-5987.7513945022183,5987.7513945022183,-5542.4748740288105,10645.462460777126,0.0
693523.2936376977,3567751.2368613081,-2500.0,4510.4183000557505,-410.63058061953348,-6320.7085929995501,-126.24200300991565,-311.60712174951124,-11.008317626193557,5440.4356661200691,5103.8130997439048,-5033.3382157198876,5033.3382157198876,-5103.8130997439048,9467.2817400225467,0.0
698523.2936376977,3567751.2368613081,-2500.0,2921.8635232996448,1176.2348325553646,-6651.9459201018872,-22.671487452111634,-346.20451472314363,-12.441054941618651,4938.5193383850437,4277.3738106362225,-3885.6876694830048,3885.6876694830048,-4277.3738106362225,8757.1226762272254,0.0
703523.2936376977,3567751.2368613081,-2500.0,1477.2084954497091,2218.9126832571292,-6422.0131757152676,52.764329474048786,-345.90162168819307,-12.683016773862043,4539.1968665764498,3314.5438836208618,-2778.9804076898731,2778.9804076898731,-3314.5438836208618,8245.3934359840696,0.0
708523.2936376977,3567751.2368613081,-2500.0,268.71372890905116,2820.964897932949,-5896.5046734816015,103.23073211616149,-325.2074989195209,-12.158156839701663,4187.0113820368006,2374.9508056078162,-1826.2902899325377,1826.2902899325377,-2374.9508056078162,7783.3122009192075,0.0
713523.2936376977,3567751.2368613081,-2500.0,-679.62562001330662,3097.9743451969302,-5249.0301882890353,133.70711311525176,-294.35516558626574,-11.200753449532588,3857.079216841892,1542.5514991467148,-1062.8864336464935,1062.8864336464935,-1542.5514991467148,7313.4435355005862,0.0
718523.2936376977,3567751.2368613081,-2500.0,-1383.6635882739643,3152.0991224042245,-4582.9061365455918,149.29345163884227,-259.93334409964166,-10.047450974649184,3541.711288481677,849.83962230592863,-481.92548502296688,481.92548502296688,-849.83962230592863,6825.9251119080373,0.0
723523.2936376977,3567751.2368613081,-2500.0,-1877.8228422976642,3063.5835108570741,-3953.6896731832144,154.4112152134303,-225.83550298089779,-8.8513021220748485,3240.7701476292646,298.97927334351243,-58.049040126855942,58.049040126855942,-298.97927334351243,6329.5480899534869,0.0
728523.2936376977,3567751.2368613081,-2500.0,-2201.791912524177,2890.9511913786823,-3387.052978517771,152.5554820623544,-194.13584032740661,-7.702695976982989,2956.4359829888908,-123.24763270027034,239.17447063273772,-239.17447063273772,123.24763270027034,5837.3899886885165,0.0
733523.2936376977,3567751.2368613081,-2500.0,-2393.376647061049,2674.6317790989515,-2891.2319362500566,146.32730344815553,-165.76332551258369,-6.6489215604713863,2690.9209785468488,-436.15714467885448,438.6053292865372,-438.6053292865372,436.15714467885448,5360.9893757959826,0.0
738523.2936376977,3567751.2368613081,-2500.0,-2485.3377843905782,2441.2981294818755,-2465.0300612688275,137.57845378449159,-140.97093853194454,-5.7098105784484474,2463.3920916563752,-659.98772468970867,564.8616362482868,-564.8616362482868,659.98772468970867,4908.6478050678024,0.0
743523.2936376977,3567751.2368613081,-2500.0,-2504.5050467987062,2207.7448024442597,-2102.6676342792457,127.57953633908218,-119.64102592014154,-4.8886545342348873,2264.576542335777,-813.3514480405197,637.72510014826321,-637.72510014826321,813.3514480405197,4485.4541474531743,0.0
568523.2936376977,3572751.2368613081,-2500.0,679.51986811122447,-1023.6240595891826,-1757.1592304707915,7.6422522479065007,-80.65754226676701,-0.94563514601396448,1593.1062056469336,977.04290535747725,-1909.6203952344918,1909.6203952344918,-977.04290535747725,2811.667305539173,0.0
573523.2936376977,3572751.2368613081,-2500.0,1189.6863035039496,-878.71076651509372,-1886.7459940992132,28.098913623906803,-82.962452167357,-0.56356733936132675,1773.5877280416241,1387.7104819775539,-1992.0582059999463,1992.0582059999463,-1387.7104819775539,3091.7344772337847,0.0
578523.2936376977,3572751.2368613081,-2500.0,1825.2609003455093,-630.32011900520308,-1970.9482149209941,56.327152159965713,-81.104877635402204,0.07811930139227688,2002.4622928184681,1879.7269499152756,-2001.4653875435185,2001.4653875435185,-1879.7269499152756,3469.1328780595318,0.0
583523.2936376977,3572751.2368613081,-2500.0,2600.9551668370204,-242.07079281626392,-1970.6462564981446,94.40338772108116,-72.484628595692811,1.0909926282699909,2301.5671172271004,2453.6585847688521,-1892.1164654819538,1892.1164654819538,-2453.6585847688521,3998.9477876155293,0.0
588523.2936376977,3572751.2368613081,-2500.0,3524.9992159149365,329.3457310835019,-1827.332868824861,144.61535514634525,-53.400300211949649,2.6221032929564632,2700.2054981768556,3099.8023024093941,-1600.3811566541103,1600.3811566541103,-3099.8023024093941,4753.7741474735349,0.0
593523.2936376977,3572751.2368613081,-2500.0,4593.2948924552802,1131.8256614242268,-1456.593558424993,209.23428861250616,-18.751687321806578,4.8580068451059715,3234.9612065976025,3791.7677704659995,-1041.1133812527355,1041.1133812527355,-3791.7677704659995,5819.8669935813341,0.0
598523.2936376977,3572751.2368613081,-2500.0,5781.4941428181255,2212.1076438253863,-741.42439436340237,290.07788759103903,38.218493331240879,8.0228219160866239,3948.1503557238175,4478.2580173112683,-105.81223623757251,105.81223623757251,-4478.2580173112683,7290.9966684195051,0.0
603523.2936376977,3572751.2368613081,-2500.0,7035.4178550090919,3604.7937735867758,472.6368909734328,387.77575434829839,126.02085372347406,12.364407743102127,4884.9315369687247,5073.8205718950649,1334.9202890914548,-1334.9202890914548,-5073.8205718950649,9262.0181686235028,0.0
608523.2936376977,3572751.2368613081,-2500.0,8261.3339787852638,5314.2295234003495,2376.8673523517091,500.65810697516139,254.64275044062808,18.120012658297764,6088.9448269536624,5450.6648824008817,3420.7664569576159,-3420.7664569576159,-5450.6648824008817,11821.176641272697,0.0
613523.2936376977,3572751.2368613081,-2500.0,9319.3740343132667,7288.0600054553433,5187.2363970456145,623.24731674983127,434.57850347655864,25.449700071445289,7596.0343604080699,5435.6720887132633,6277.8053235975913,-6277.8053235975913,-5435.6720887132633,15037.525044182328,0.0
618523.2936376977,3572751.2368613081,-2500.0,10025.698762664319,9383.4744176954555,9112.4855318612099,744.48027783959935,674.74238804828065,34.327098723750787,9519.3942864124147,4819.3132322457041,9975.7860510886676,-9975.7860510886676,-4819.3132322457041,18939.761727649202,0.0
623523.2936376977,3572751.2368613081,-2500.0,10171.617850149833,11331.661649747926,14292.67981350005,846.08840879869388,978.81107448745172,44.384304012049043,11923.34492017197,3385.875446776331,14462.626157006071,-14462.626157006071,-3385.875446776331,23484.472430586451,1.0
628523.2936376977,3572751.2368613081,-2500.0,9569.8508099154824,12713.877467930848,20700.111836576791,902.07666744287383,1339.7499774615626,54.735991853796904,14569.354159069457,975.98944309674334,19478.0613032334,-19478.0613032334,-975.98944309674334,28514.555754965415,0.0
633523.2936376977,3572751.2368613081,-2500.0,8136.9573371942943,12974.941402724364,28003.350485347954,880.96149549378606,1733.0440407936417,63.866964932802027,17283.29587989725,-2410.1040919868428,24462.405622776667,-24462.405622776667,2410.1040919868428,33713.757870573267,0.0
638523.2936376977,3572751.2368613081,-2500.0,6009.3641295059624,11515.958433163063,35420.344965682591,752.97064683711335,2110.9315810228445,69.755956311493193,19789.004491896358,-6474.9785881563093,28504.895473178272,-28504.895473178272,6474.9785881563093,38573.24627070604,0.0
643523.2936376977,3572751.2368613081,-2500.0,3653.5154676941524,7914.1451897381858,41640.866425444801,503.5021978010783,2402.7446590897157,70.441825061771169,21715.952455257913,-10501.732273501369,30421.077410190086,-30421.077410190086,10501.732273501369,42402.475126090008,0.0
648523.2936376977,3572751.2368613081,-2500.0,1861.9216636175888,2269.6017352673598,44975.30793602825,149.78810570789577,2528.2275719272202,65.009902095357418,22656.796955517417,-13374.318524949027,29077.484899923351,-29077.484899923351,13374.318524949027,44431.523810590952,0.0
653523.2936376977,3572751.2368613081,-2500.0,1486.9134748453459,-4479.7483989884122,43894.543646532453,-249.7713098674821,2426.3416698315591,54.385234180691434,22287.983590121235,-13912.314663326273,23988.046238405812,-23988.046238405812,13912.314663326273,44037.056642698037,0.0
658523.2936376977,3572751.2368613081,-2500.0,2912.3160113951676,-10628.431000215976,37879.555687985572,-607.17464275477448,2088.6363959200526,40.982503818684776,20531.871059896144,-11524.086949970728,15895.097567807004,-15895.097567807004,11524.086949970728,41041.915639566061,0.0
663523.2936376977,3572751.2368613081,-2500.0,5629.5330719804315,-14402.305208087222,28021.354831195207,-839.00487045592763,1573.9588695359423,27.215185912970231,18288.75068293032,-6759.9230028321808,6754.9889401436385,-6754.9889401436385,6759.9230028321808,35917.248835954684,0.0
668523.2936376977,3572751.2368613081,-2500.0,8418.7587486941065,-14921.529632746919,16697.59875619075,-903.69231056376134,988.75838053315545,14.376439492400767,15519.258706515768,-1164.3392694696549,-1140.418247955613,1140.418247955613,1164.3392694696549,29700.007052073906,0.0
673523.2936376977,3572751.2368613081,-2500.0,10095.110515914404,-12613.248870382886,6409.8598147959119,-815.78827938838072,443.41465915155806,2.9420916047328882,12771.075614576723,3585.8746598770135,-6301.2994149014157,6301.2994149014157,-3585.8746598770135,23624.336771687234,1.0
678523.2936376977,3572751.2368613081,-2500.0,10151.570061519047,-8751.4293067254366,-1290.6542713256233,-629.73870658864359,13.050987401206402,-6.6310532593845561,10472.975557824433,6517.8262587681402,-8519.4345124256306,8519.4345124256306,-6517.8262587681402,18677.095594078964,1.0
683523.2936376977,3572751.2368613081,-2500.0,8814.0329294360672,-4651.9739276654473,-6069.7742298513658,-409.12058720735666,-276.36764069318349,-13.791199406841624,8790.880781417698,7557.8321123474561,-8506.4790334438858,8506.4790334438858,-7557.8321123474561,15287.917545858532,0.0
688523.2936376977,3572751.2368613081,-2500.0,6675.35708911851,-1167.0699466199917,-8408.3430754116689,-202.66879046587894,-437.58786457763779,-18.273619070149152,7645.7180928173848,7192.3365438258907,-7238.932264852504,7238.932264852504,-7192.3365438258907,13271.842909374684,0.0
693523.2936376977,3572751.2368613081,-2500.0,4320.694676763228,1375.6365603485831,-9065.3540605403014,-36.22230545326304,-502.06360046173955,-20.297596872319101,6847.1205820991909,6040.508935275484,-5514.8696200308768,5514.8696200308768,-6040.508935275484,12097.894368672234,0.0
698523.2936376977,3572751.2368613081,-2500.0,2146.8840688542173,2999.697935659115,-8732.9068744415999,83.418877092580914,-503.49201602329435,-20.424943795812109,6226.0666195635058,4602.3901338208907,-3821.9170986105441,3821.9170986105441,-4602.3901338208907,11281.097563284315,0.0
703523.2936376977,3572751.2368613081,-2500.0,348.18100756861128,3886.1265314443949,-7911.7476010657001,160.64738776545514,-469.33552929266762,-19.307737728773837,5683.9802373589409,3191.2275299746766,-2386.4799098938552,2386.4799098938552,-3191.2275299746766,10553.209290020161,0.0
708523.2936376977,3572751.2368613081,-2500.0,-1026.1789504902483,4246.6157668317137,-6914.9671726901706,204.34999177189599,-418.68970751622192,-17.510626122924254,5179.4456608789387,1962.6660089012857,-1271.149617725227,1271.149617725227,-1962.6660089012857,9817.7130253132655,0.0
713523.2936376977,3572751.2368613081,-2500.0,-2007.5406828708469,4264.4684255620514,-5916.3032895281276,223.85853044212774,-363.36398603766423,-15.44392832410594,4701.5376375576398,969.19719257016618,-455.95544185686282,455.95544185686282,-969.19719257016618,9062.9475800946439,0.0
718523.2936376977,3572751.2368613081,-2500.0,-2661.0188995297558,4077.6671232729332,-5000.0432200695896,227.11948985185492,-309.90426732661331,-13.368449343939208,4251.2348275291106,206.86272108350477,110.71492146038941,-110.71492146038941,-206.86272108350477,8306.5628108812361,0.0
723523.2936376977,3572751.2368613081,-2500.0,-3058.2690289439993,3781.5875790397431,-4198.5135087914305,220.19736909849684,-261.46366167515441,-11.429999829509047,3832.191250419939,-353.6828851651195,485.59857407485674,-485.59857407485674,353.6828851651195,7570.2900317052454,0.0
728523.2936376977,3572751.2368613081,-2500.0,-3264.3969695266951,3438.1627441850587,-3516.4133065003111,207.40827434647352,-219.18931031956188,-9.696447244173628,3447.2166201653627,-749.45854886162681,719.11856590676405,-719.11856590676405,749.45854886162681,6871.1644596824462,0.0
733523.2936376977,3572751.2368613081,-2500.0,-3333.2293033994674,3085.425032096226,-2945.2513575944758,191.66958590355378,-183.13659447330355,-8.1880590597158722,3122.6086406626127,-1016.3367621479387,851.88966588488358,-851.88966588488358,1016.3367621479387,6219.8677722714347,0.0
738523.2936376977,3572751.2368613081,-2500.0,-3306.8464022821067,2745.3043340577697,-2471.3430633762891,174.86706825289937,-152.82687150288118,-6.8985233555450458,2839.0818535166723,-1185.3904393229018,914.85282222154194,-914.85282222154194,1185.3904393229018,5621.6097031298486,0.0
743523.2936376977,3572751.2368613081,-2500.0,-3216.9497900850311,2429.3419690299961,-2079.9488315496583,158.16403251312113,-127.5670239021925,-5.8084804975261459,2576.8400150903276,-1281.9410885705142,930.75995468160409,-930.75995468160409,1281.9410885705142,5077.6080757214822,0.0
748523.2936376977,3572751.2368613081,-2500.0,-3086.7845654555326,2142.624542999703,-1757.2292800407197,142.23637525519905,-106.62127288853,-4.8935419650777678,2337.0243329560235,-1325.862516614658,915.93371360224592,-915.93371360224592,1325.862516614658,4586.4520799763841,0.0
563523.2936376977,3577751.2368613081,-2500.0,-284.58769075781981,-1470.1568484499799,-1777.102729699239,-31.69322443478281,-92.551947963694488,-1.9064506557078773,1650.7854606652459,275.78756605242518,-2034.6870001517973,2034.6870001517973,-275.78756605242518,3040.1003724918296,0.0
568523.2936376977,3577751.2368613081,-2500.0,87.573388635407269,-1480.3334802666445,-1997.3824011988888,-20.216240624131448,-102.01827424464349,-1.846405240819277,1812.8603987030219,607.26849304464213,-2250.5367172815527,2250.5367172815527,-607.26849304464213,3282.561673529065,0.0
573523.2936376977,3577751.2368613081,-2500.0,585.14867084658283,-1426.2099355013788,-2220.5512417704936,-2.434082447762774,-110.21902753621971,-1.622258497782771,2003.070107159464,1032.6827621978282,-2449.5214970695074,2449.5214970695074,-1032.6827621978282,3564.9173615568034,0.0
578523.2936376977,3577751.2368613081,-2500.0,1235.9920173852788,-1275.2716000396354,-2426.5128381364775,23.91246357591136,-115.46801035384361,-1.1418536380096924,2234.4288986957572,1567.6876633531372,-2602.8437202490886,2602.8437202490886,-1567.6876633531372,3915.8779584649064,0.0
583523.2936376977,3577751.2368613081,-2500.0,2068.9044909768368,-983.936804189599,-2580.6243969960969,61.652388239544429,-115.11111001595484,-0.2744563658372251,2527.7589711047731,2224.800977974573,-2665.4710047773874,2665.4710047773874,-2224.800977974573,4385.711203893452,0.0
588523.2936376977,3577751.2368613081,-2500.0,3109.7955810370586,-496.01543735710044,-2626.3081443619294,114.17416710611313,-105.11640058775527,1.1599806076616086,2914.7040719922243,3008.4362048376038,-2569.7797607455373,2569.7797607455373,-3008.4362048376038,5054.2451991244516,0.0
593523.2936376977,3577751.2368613081,-2500.0,4375.0730030977484,257.17764424988525,-2475.2182542671376,185.27086721466523,-79.570206176674304,3.3998494530741121,3440.0714255664179,3907.0553080967543,-2218.2511773205747,2218.2511773205747,-3907.0553080967543,6034.1671543397451,0.0
598523.2936376977,3577751.2368613081,-2500.0,5861.4093725361954,1353.1572378578064,-1995.258386476665,278.72512274656879,-30.128088125274729,6.7443384340822483,4162.1275388261165,4881.7710705086638,-1476.5045054318634,1476.5045054318634,-4881.7710705086638,7465.591915054928,0.0
603523.2936376977,3577751.2368613081,-2500.0,7531.4743579876867,2868.1872010963348,-998.06780507268832,397.47482580903147,54.447461354230654,11.539468885643346,5149.9434274885161,5851.3834110769239,-169.50242586479044,169.50242586479044,-5851.3834110769239,9503.8547073749087,0.0
608523.2936376977,3577751.2368613081,-2500.0,9296.4246043653093,4857.0791806349289,770.01251737701114,542.17197482832205,188.39460293307064,18.132140137087799,6477.8222289762816,6675.3780688091547,1913.9588304182735,-1913.9588304182735,-6675.3780688091547,12306.008798398801,0.0
613523.2936376977,3577751.2368613081,-2500.0,10998.231704122192,7319.0635778795686,3625.7784100488093,708.96927979947588,388.23767765444956,26.769232237676725,8216.9043605913557,7139.2087950874529,5000.5566565255513,-5000.5566565255513,-7139.2087950874529,16015.793282784831,0.0
618523.2936376977,3577751.2368613081,-2500.0,12398.466063423613,10147.578160067138,7923.3148020500248,886.50530320030941,670.53425464959912,37.413147994696928,10423.831539345229,6950.3565591310644,9285.0859899224688,-9285.0859899224688,-6950.3565591310644,20739.613726046511,0.0
623523.2936376977,3577751.2368613081,-2500.0,13184.811547250498,13066.469934553646,13987.111596277275,1052.4185544432141,1047.1258116076058,49.449151120964075,13387.757924354719,5758.9267287073471,14845.158214660389,-14845.158214660389,-5758.9267287073471,26505.282757022556,0.0
628523.2936376977,3577751.2368613081,-2500.0,13012.371456578092,15564.374020605588,21983.630297182914,1170.5070327338976,1516.8844601205276,61.30168120517456,16926.254536252552,3222.5256193529858,21509.744231789839,-21509.744231789839,-3222.5256193529858,33198.846127935241,0.0
633523.2936376977,3577751.2368613081,-2500.0,11603.767481993609,16856.600018373141,31712.780970019197,1191.1640416650353,2053.6352495596375,70.102238070456892,20744.227739720944,-858.86142471109633,28684.908046564829,-28684.908046564829,858.86142471109633,40480.516899519949,0.0
638523.2936376977,3577751.2368613081,-2500.0,8934.7727725978984,15938.705701860512,42319.863847898567,1059.9398587497906,2592.6915797697807,71.849553982208064,24478.547147400004,-6313.2310632651206,35174.69903699711,-35174.69903699711,6313.2310632651206,47693.48800076975,0.0
643523.2936376977,3577751.2368613081,-2500.0,5498.533822066739,11852.31247515922,52003.981486018798,739.85844676985585,3024.9431964692453,62.833019066865006,27570.259604077812,-12290.898243151052,39126.493041917216,-39126.493041917216,12290.898243151052,53810.948267717213,0.0
648523.2936376977,3577751.2368613081,-2500.0,2496.3831097188486,4296.572833781388,57995.845790181571,245.9860974705588,3215.2784594231821,42.678793435531908,29319.780726774661,-17068.004652304822,38389.397781871565,-38389.397781871565,17068.004652304822,57523.625427867293,0.0
653523.2936376977,3577751.2368613081,-2500.0,1555.022675288549,-5542.2409967436124,57318.344615374226,-329.14104058265883,3056.8611018241581,17.010012113041302,29086.695439878949,-18421.576291223271,31596.361487727201,-31596.361487727201,18421.576291223271,57603.695703397338,0.0
658523.2936376977,3577751.2368613081,-2500.0,3657.3734707684139,-14736.350772405716,48559.390633245464,-834.72935087241149,2538.7134784092909,-4.7997644914998707,26926.796369519332,-14939.255640273399,19639.60353063744,-19639.60353063744,14939.255640273399,53543.881475217895,0.0
663523.2936376977,3577751.2368613081,-2500.0,7975.1335179145653,-19927.510963580709,33524.838422547422,-1131.4541409537576,1770.1965331893809,-17.155257892152271,23723.68632353087,-7490.9531418477773,6039.8312506141401,-6039.8312506141401,7490.9531418477773,46102.311792931338,0.0
668523.2936376977,3577751.2368613081,-2500.0,12135.931945127806,-19594.536607244125,16714.116513287452,-1162.1184844605627,933.84578085165606,-22.353343093765549,19765.196165321257,936.63545488849923,-4948.8636992631709,4948.8636992631709,-936.63545488849923,37188.061332538513,0.0
673523.2936376977,3577751.2368613081,-2500.0,14017.375029686815,-14952.19900311844,2586.2210315547445,-969.53732040238219,202.71040628176689,-25.752236250436507,16034.048794899596,7306.6400782633145,-10973.895071615647,10973.895071615647,-7306.6400782633145,28999.993141447423,0.0
678523.2936376977,3577751.2368613081,-2500.0,13104.3704063162,-8616.9390789485533,-6705.5690756958884,-657.35468228484228,-322.39442174743601,-29.67763002795925,13150.602817113251,10325.944268594758,-12349.460381993526,12349.460381993526,-10325.944268594758,23002.506399163958,0.0
683523.2936376977,3577751.2368613081,-2500.0,10245.700810204447,-2782.4990600068686,-11373.521959750336,-330.58608742958012,-626.28602921583183,-33.172363634972911,11183.648453808069,10450.895386164082,-10828.083472714037,10828.083472714037,-10450.895386164082,19379.273594308335,0.0
688523.2936376977,3577751.2368613081,-2500.0,6656.2848962368416,1521.2709933856991,-12762.060464788456,-56.793059558389899,-751.14101013419338,-34.792584510060571,9850.1047316852837,8861.0139711200736,-8155.610700667411,8155.610700667411,-8861.0139711200736,17336.611899878182,0.0
693523.2936376977,3577751.2368613081,-2500.0,3240.4883976043293,4189.1186569580141,-12275.119540988839,139.16241015406197,-757.601633401512,-34.134104895638245,8839.0236294562383,6624.1617438418725,-5440.7868078774318,5440.7868078774318,-6624.1617438418725,15971.08662372566,0.0
698523.2936376977,3577751.2368613081,-2500.0,444.93968615486835,5547.8934613249739,-10930.077789323919,260.90094638387598,-699.04436090164563,-31.687126072457612,7966.4038666723636,4407.6232325351521,-3180.0042923015003,3180.0042923015003,-4407.6232325351521,14771.733815258389,0.0
703523.2936376977,3577751.2368613081,-2500.0,-1620.3862424673957,6011.934308215511,-9330.0793766790594,324.31463186050848,-612.67581925116906,-28.22881720653584,7160.7041853626679,2521.5822725461903,-1492.1623154954063,1492.1623154954063,-2521.5822725461903,13569.122888357202,0.0
708523.2936376977,3577751.2368613081,-2500.0,-3022.183142559767,5930.7528775509145,-7780.6647365270273,347.09974695166193,-520.61112425399142,-24.430114055996107,6406.7939379485788,1052.7678660949348,-321.97160696410492,321.97160696410492,-1052.7678660949348,12352.750888941764,0.0
713523.2936376977,3577751.2368613081,-2500.0,-3891.5126298412865,5553.1216824076328,-6409.9751063809945,344.11049078032767,-434.21106801663677,-20.734037909844631,5708.2502197917356,-23.054836287517674,440.83987618696005,-440.83987618696005,23.054836287517674,11158.240268765636,0.0
718523.2936376977,3577751.2368613081,-2500.0,-4364.3598914214444,5039.299901746791,-5252.8658479582864,326.23095130665911,-358.24737958319628,-17.377695161357131,5070.7361217403941,-772.07894197301096,906.4873298123656,-906.4873298123656,772.07894197301096,10021.773823963598,0.0
723523.2936376977,3577751.2368613081,-2500.0,-4557.1751869964473,4485.128725462976,-4300.6674707811171,300.79320007380795,-293.88338541336401,-14.455362617760523,4496.8853814315044,-1267.3850222795797,1165.7486414736134,-1165.7486414736134,1267.3850222795797,8967.5263008223737,0.0
728523.2936376977,3577751.2368613081,-2500.0,-4560.7644218403293,3943.8967716936804,-3527.7311635933706,272.43533534442253,-240.51961664006521,-11.976901899242172,4021.3862463780692,-1574.1163820875568,1286.8933796836968,-1286.8933796836968,1574.1163820875568,8007.418694719574,0.0
733523.2936376977,3577751.2368613081,-2500.0,-4442.145014211399,3442.4723889604684,-2904.4213216220614,243.92472354904496,-196.8335288782971,-9.9092411298759053,3608.9716257639502,-1745.0100114813154,1318.6838229418804,-1318.6838229418804,1745.0100114813154,7144.2515854593003,0.0
738523.2936376977,3577751.2368613081,-2500.0,-4248.994411021542,2992.0974396869124,-2402.8424677667149,216.80063832920175,-161.31951577844521,-8.2013882395980531,3235.7893240446938,-1820.5489018582634,1294.8176652035363,-1294.8176652035363,1820.5489018582634,6374.9882316993308,0.0
743523.2936376977,3577751.2368613081,-2500.0,-4014.3003873970738,2595.2128355943969,-1998.9252937395781,191.82960654281388,-132.54401556366679,-6.7987124093700961,2901.2855193070077,-1830.8054579878317,1238.0317217314459,-1238.0317217314459,1830.8054579878317,5693.300967604765,0.0
748523.2936376977,3577751.2368613081,-2500.0,-3760.3344020180944,2249.6089340873432,-1672.8070840019084,169.31034844469147,-109.24791333698661,-5.6497876041053035,2603.2502775086468,-1797.6295949327894,1163.3618943117142,-1163.3618943117142,1797.6295949327894,5091.310688320872,0.0
558523.2936376977,3582751.2368613081,-2500.0,-1200.4220036585541,-1716.5758644357306,-1643.5783443855241,-65.130017331234384,-94.778085802399801,-2.6060105335071899,1733.1873442555107,-426.49085682454404,-1939.5795150965969,1939.5795150965969,426.49085682454404,3322.8817248433365,0.0
563523.2936376977,3582751.2368613081,-2500.0,-1000.8126425447596,-1847.9155106397889,-1896.3355165584808,-62.708857632712601,-108.57833608342263,-2.8169276565075196,1904.0393293400557,-214.72566461173642,-2223.2953840948931,2223.2953840948931,214.72566461173642,3603.2242265411801,0.0
568523.2936376977,3582751.2368613081,-2500.0,-698.13373556852878,-1956.1655106792794,-2182.2608062860895,-56.170217541011382,-123.39926582142934,-2.9601710163513326,2095.1429612115094,81.855863082806991,-2532.1881394157858,2532.1881394157858,-81.855863082806991,3905.4478981075863,0.0
573523.2936376977,3582751.2368613081,-2500.0,-260.08787346001458,-2019.2643566861975,-2497.3791037042665,-43.555760149106042,-138.51345061699962,-2.9728612967345627,2311.7085491947064,486.41557713647899,-2855.3164436615043,2855.3164436615043,-486.41557713647899,4235.8418534650918,0.0
578523.2936376977,3582751.2368613081,-2500.0,352.45271127962235,-2004.3379268883232,-2829.9039361691302,-22.190706105248761,-152.53474940080184,-2.7580011382609424,2562.8008876203412,1025.273074807383,-3170.991395904347,3170.991395904347,-1025.273074807383,4609.3980861925111,0.0
583523.2936376977,3582751.2368613081,-2500.0,1184.770837264178,-1863.9085286922761,-3154.5205152328567,11.485505789702804,-163.03445948624562,-2.1705938609006368,2864.4268173171167,1725.8940433866819,-3440.5646332719525,3440.5646332719525,-1725.8940433866819,5058.6951064716604,0.0
588523.2936376977,3582751.2368613081,-2500.0,2285.6147854545879,-1531.7696575823447,-3423.5402405681853,62.050681413520159,-165.99088034073037,-1.0011089930671671,3244.2741397005498,2612.4740373896507,-3599.6609898632837,3599.6609898632837,-2612.4740373896507,5648.1486669051692,0.0
593523.2936376977,3582751.2368613081,-2500.0,3701.0887789727535,-919.53424002931956,-3553.8563147510145,135.10507125997088,-155.04328894860339,1.0406967963175811,3747.8415808731729,3697.6932109216332,-3546.5922973796742,3546.5922973796742,-3697.6932109216332,6491.8751916514411,0.0
598523.2936376977,3582751.2368613081,-2500.0,5463.3269947890522,84.006370804579845,-3408.9273471107863,236.99350150873073,-120.56311930868411,4.3339959095514065,4444.2180662610826,4968.9392460487261,-3128.551939740873,3128.551939740873,-4968.9392460487261,7766.415048138887,0.0
603523.2936376977,3582751.2368613081,-2500.0,7572.1556966893486,1606.8881705307531,-2776.2188438575622,373.99723947406267,-48.654860082533915,9.3322370550663454,5428.1562591180045,6367.5364166254303,-2128.0626768625143,2128.0626768625143,-6367.5364166254303,9705.4220432761467,0.0
608523.2936376977,3582751.2368613081,-2500.0,9968.8921261977011,3775.4528056291683,-1343.4100647228133,550.6518591937247,79.607925037962588,16.49665889731191,6815.4528418254122,7760.9288819529656,-255.49723441233073,255.49723441233073,-7760.9288819529656,12574.762331133079,0.0
613523.2936376977,3582751.2368613081,-2500.0,12504.040209392137,6675.7474682444754,1317.9999485839062,766.78814687071838,288.08692433051726,26.131642351292054,8731.492267504831,8911.171936749688,2841.5957864623729,-2841.5957864623729,-8911.171936749688,16642.025072569249,0.0
618523.2936376977,3582751.2368613081,-2500.0,14905.347787175411,10287.592751852737,5745.0658170195848,1012.9510978612169,603.53808497011971,38.05296753746201,11294.345318226748,9448.9886750003225,7535.9659439616316,-7535.9659439616316,-9448.9886750003225,22145.728406837192,0.0
623523.2936376977,3582751.2368613081,-2500.0,16759.096079311748,14388.128041559061,12525.567435613195,1264.1640983332782,1049.9457041788023,50.998812319989192,14662.921160920709,8870.601053898281,14124.072676476168,-14124.072676476168,-8870.601053898281,29249.021297598531,0.0
628523.2936376977,3582751.2368613081,-2500.0,17525.361649865998,18430.436349799231,22154.671984410183,1472.9076742821001,1636.9034326805017,61.717799074502786,19302.931636267102,6583.9134046659738,22653.181647328238,-22653.181647328238,-6583.9134046659738,37958.446746471564,0.0
633523.2936376977,3582751.2368613081,-2500.0,16621.874261461264,21417.812512807297,34761.659778680609,1564.6174108772414,2339.5548797520482,63.873687681786862,24605.026516468439,2045.1768682081401,32651.319954774925,-32651.319954774925,-2045.1768682081401,47994.900699439175,0.0
638523.2936376977,3582751.2368613081,-2500.0,13645.200374538774,21832.557457622315,49651.182612211174,1444.7382490610241,3070.6302293752669,47.722643958324184,30140.806554332048,-4940.4911925605848,42751.125759768671,-42751.125759768671,4940.4911925605848,58612.648041530563,0.0
643523.2936376977,3582751.2368613081,-2500.0,8840.7523390089445,17804.358264717623,64631.7266418484,1034.261542627112,3658.6977348665546,3.3764684635448647,35119.51941479306,-13648.402849905902,50292.873825171075,-50292.873825171075,13648.402849905902,68396.861432757345,0.0
648523.2936376977,3582751.2368613081,-2500.0,3792.1452603906473,7963.3292059178439,75399.802994594444,343.15820725421167,3874.7472193997114,-68.627093757118928,38370.319174701814,-21664.753679661851,51379.91816154441,-51379.91816154441,21664.753679661851,75197.481217848923,0.0
653523.2936376977,3582751.2368613081,-2500.0,1553.3128464456765,-6652.3826796481835,76152.98188407936,-465.51100520831613,3550.7264899529832,-144.08969864921664,38617.742831214076,-24831.046199750541,42517.34272571114,-42517.34272571114,24831.046199750541,76588.857722706671,0.0
658523.2936376977,3582751.2368613081,-2500.0,4679.2782805947199,-20986.639019528458,63105.918921821256,-1128.0888825528598,2723.0174812951459,-182.72186812923084,36047.567572448621,-19663.741648944997,24257.848121965733,-24257.848121965733,19663.741648944997,71195.231552059893,0.0
663523.2936376977,3582751.2368613081,-2500.0,11874.258448059782,-28216.91732318548,39234.282219644025,-1444.0222660232403,1622.7486139352661,-167.33140625803856,31410.073129302618,-7463.3901957631806,3267.6072031053486,-3267.6072031053486,7463.3901957631806,60214.348634191258,0.0
668523.2936376977,3582751.2368613081,-2500.0,18155.31726929907,-25583.462550791497,13670.340761319503,-1372.2212409232486,524.25569125085519,-124.12028112501415,25719.046944564976,5533.2105765817523,-12004.436476719007,12004.436476719007,-5533.2105765817523,47352.76314217638,0.0
673523.2936376977,3582751.2368613081,-2500.0,19621.075889798976,-16491.01926530635,-5369.1909590011619,-1009.3847582313831,-358.23675412292147,-88.172600366403231,20722.023175638329,13637.268074466654,-18017.2283311553,18017.2283311553,-13637.268074466654,36602.339498662674,1.0
678523.2936376977,3582751.2368613081,-2500.0,16357.586462714678,-6376.5093273151888,-15482.865861130651,-526.0928128530087,-915.52677714930712,-70.296088729186309,17182.934821613482,15656.791202082331,-16935.890255057762,16935.890255057762,-15656.791202082331,29764.794985626486,0.0
683523.2936376977,3582751.2368613081,-2500.0,10780.330821725242,1401.1814387503168,-18671.969469608623,-79.449453199041969,-1159.6805461363397,-63.265572927759969,14829.049100230648,13614.814300589036,-12691.757519351739,12691.757519351739,-13614.814300589036,25992.232681989601,0.0
688523.2936376977,3582751.2368613081,-2500.0,5126.7285318352988,6087.6640094984277,-17966.049277416165,247.83765661322161,-1179.9133139070809,-58.778187911778943,13090.307206522755,9966.0275875837724,-8078.8214420678451,8078.8214420678451,-9966.0275875837724,23578.760112763335,0.0
693523.2936376977,3582751.2368613081,-2500.0,542.19059042858817,8275.9982019249128,-15632.739294225981,444.63460417602562,-1076.4960114366036,-53.328415495394729,11606.937731287873,6285.0109986172884,-4318.6006612316287,4318.6006612316287,-6285.0109986172884,21491.779614320229,0.0
698523.2936376977,3582751.2368613081,-2500.0,-2699.5165776478875,8846.0265976953251,-12933.957955905762,536.85055462201683,-923.85786468076606,-46.690697741208076,10251.121661952624,3249.1406006408074,-1657.9860677885149,1657.9860677885149,-3249.1406006408074,19419.40245595936,0.0
703523.2936376977,3582751.2368613081,-2500.0,-4753.5213867214507,8515.3268684535651,-10434.812665094665,558.60653433187849,-765.33082531513696,-39.664671792015291,9003.7161665453714,1002.5412376512329,58.815396380260665,-58.815396380260665,-1002.5412376512329,17363.870576216101,0.0
708523.2936376977,3582751.2368613081,-2500.0,-5903.864002257732,7757.2658728124115,-8324.5059196896418,538.6853016929615,-621.40905253949302,-32.984610075426467,7873.7130952058615,-542.63308865304316,1081.8637201278907,-1081.8637201278907,542.63308865304316,15397.809699366246,0.0
713523.2936376977,3582751.2368613081,-2500.0,-6423.6764865791856,6848.8761478583792,-6620.3594667803873,497.28793818295827,-499.20952084637673,-27.060016281350997,6868.1548635553845,-1540.6329063329754,1635.2265026142613,-1635.2265026142613,1540.6329063329754,13580.291669805059,0.0
718523.2936376977,3582751.2368613081,-2500.0,-6529.7491004030389,5937.775229253356,-5274.2060762078472,447.13482370123006,-399.16042303457817,-22.02981980024154,5986.0335587085865,-2140.6629743981457,1887.1631690152856,-1887.1631690152856,2140.6629743981457,11941.749318069273,0.0
723523.2936376977,3582751.2368613081,-2500.0,-6379.002073836944,5094.5018305678768,-4221.2972153503051,395.59789967473893,-318.87455025114309,-17.872456403322438,5269.4435036973464,-2463.8221725897315,1953.9263008623998,-1953.9263008623998,2463.8221725897315,10489.547307733608,0.0
728523.2936376977,3582751.2368613081,-2500.0,-6079.059556887908,4346.6994614568112,-3400.1159820849407,346.59475423661968,-255.12650408801056,-14.491558469984165,4656.6810203786927,-2600.6916333281174,1912.130556673578,-1912.130556673578,2600.6916333281174,9216.6224402456592,0.0
733523.2936376977,3582751.2368613081,-2500.0,-5701.0485557147285,3699.5749111205764,-2758.8148810115881,301.95372581171091,-204.75124348508157,-11.767077324782687,4115.9511046462048,-2616.0278466253903,1810.7103864536975,-1810.7103864536975,2616.0278466253903,8108.3492850285757,0.0
738523.2936376977,3582751.2368613081,-2500.0,-5290.5470875317387,3147.5058483806006,-2256.0422382655634,262.30563893208989,-164.98819593769113,-9.5812284507542689,3642.1214395529428,-2554.8390658927938,1680.1410700051886,-1680.1410700051886,2554.8390658927938,7147.0384658697531,0.0
743523.2936376977,3582751.2368613081,-2500.0,-4875.836310133087,2680.3542155736827,-1859.7216538234554,227.63342665244471,-133.56336370475213,-7.8298342702640689,3228.5171436426381,-2447.7901772770356,1538.9178186361353,-1538.9178186361353,2447.7901772770356,6314.5731130599697,0.0
748523.2936376977,3582751.2368613081,-2500.0,-4473.7538742406887,2286.7522431616767,-1545.314316617121,197.59763581778952,-108.66024521844579,-6.4254236074877005,2868.1130522236863,-2315.4315578303931,1397.9029161987728,-1397.9029161987728,2315.4315578303931,5593.8129630235117,0.0
558523.2936376977,3587751.2368613081,-2500.0,-1965.6663443352743,-1982.1903272539623,-1663.7269924085449,-96.171575498290267,-104.88390850286888,-3.4516342372171644,1990.9623822741717,-975.2691978762598,-1981.7272022018954,1981.7272022018954,975.2691978762598,3898.3289242733899,0.0
563523.2936376977,3587751.2368613081,-2500.0,-1876.4453043523413,-2199.7374399879604,-1951.4156917174842,-99.947995374988025,-122.79484304221512,-3.8785078672482811,2203.4600605915653,-836.22858603914563,-2323.4940016875662,2323.4940016875662,836.22858603914563,4271.3291801037531,0.0
568523.2936376977,3587751.2368613081,-2500.0,-1692.1402087168321,-2418.1480268271062,-2291.0561149040741,-100.64017739557843,-143.21067597445671,-4.28947907573877,2440.4595697743484,-613.77042427947731,-2716.6051902173958,2716.6051902173958,613.77042427947731,4674.6822208025196,0.0
573523.2936376977,3587751.2368613081,-2500.0,-1375.025174232369,-2620.1040527281962,-2686.9112360550771,-96.253346918445871,-165.8703624032043,-4.6287367456997428,2705.2876546638427,-278.61895858101798,-3159.4687059365069,3159.4687059365069,278.61895858101798,5109.0120584815195,0.0
578523.2936376977,3587751.2368613081,-2500.0,-876.06103911052344,-2776.8089482916612,-3138.2915268715196,-83.888682677486443,-189.93846118752469,-4.8025264274825989,3003.1875157400518,205.79851074758767,-3641.9451680398588,3641.9451680398588,-205.79851074758767,5577.5542437602335,0.0
583523.2936376977,3587751.2368613081,-2500.0,-133.44577401364009,-2842.5289661403253,-3634.1412950104577,-59.435280898108189,-213.57497076566776,-4.6604263339904595,3343.5966853541991,883.07205913735424,-4138.619899692656,4138.619899692656,-883.07205913735424,6091.7687348253503,0.0
588523.2936376977,3587751.2368613081,-2500.0,927.2473774732166,-2747.5253892512555,-4143.7246562078744,-17.237984870302089,-233.26570198625777,-3.9717458586319019,3744.6271905119161,1801.2789742548043,-4598.269081227194,4598.269081227194,-1801.2789742548043,6683.6036456141892,0.0
593523.2936376977,3587751.2368613081,-2500.0,2389.4928558416846,-2389.8871673672097,-4601.3556575591356,50.171055488192806,-242.83152041180202,-2.4001227795586302,4241.0297016081513,3006.1834471430757,-4928.2248413077004,4928.2248413077004,-3006.1834471430757,7429.0570296148744,0.0
598523.2936376977,3587751.2368613081,-2500.0,4335.9326028311925,-1628.1028375410426,-4882.7438244979985,152.08800528870165,-232.06161650194028,0.51271097393707232,4896.2880622031171,4527.1920339671997,-4972.8041425499432,4972.8041425499432,-4527.1920339671997,8485.0535746873102,0.0
603523.2936376977,3587751.2368613081,-2500.0,6828.4353976890843,-278.68968189772772,-4771.0502281680519,299.05290572574285,-185.02316484118822,5.3284642973979457,5816.468745599901,6352.4085455426784,-4486.7747532410804,4486.7747532410804,-6352.4085455426784,10127.305992397109,0.0
608523.2936376977,3587751.2368613081,-2500.0,9874.4153090629534,1873.0104540987193,-3913.4836486776617,501.11102173000501,-78.357720482393731,12.606587518684687,7158.0164257291963,8389.7298369143173,-3109.0758536891954,3109.0758536891954,-8389.7298369143173,12754.766473159696,0.0
613523.2936376977,3587751.2368613081,-2500.0,13378.235888374078,5036.391188503173,-1776.0923936049583,764.16144361680267,119.63840149186088,22.615673885212654,9119.6730677835985,10414.497469888331,-349.64550861166299,349.64550861166299,-10414.497469888331,16838.090171982614,0.0
618523.2936376977,3587751.2368613081,-2500.0,17082.76137803826,9338.5625381793106,2383.143414239818,1083.5324130766185,447.57455554166586,34.698850720205954,11916.760325749554,12012.381789197825,4387.2333547041235,-4387.2333547041235,-12012.381789197825,22844.354779677491,0.0
623523.2936376977,3587751.2368613081,-2500.0,20515.255793694974,14695.427714901811,9486.0595323601956,1434.0409985044855,944.48703796018026,46.035888187460053,15745.236389906317,12538.260075381702,11709.92034160094,-11709.92034160094,-12538.260075381702,31170.265723591703,0.0
628523.2936376977,3587751.2368613081,-2500.0,22958.720430892015,20630.668339680091,20498.835696058235,1756.3447444532228,1633.9979735464483,49.407431069579772,21308.889994353111,11122.536369259707,22040.195407611383,-22040.195407611383,-11122.536369259707,42055.569225027895,0.0
633523.2936376977,3587751.2368613081,-2500.0,23472.911115455288,26051.340017075723,36126.505153846578,1941.8282589563314,2492.1444740765751,29.580753123307055,28465.258067734627,6763.4691506714407,35269.43392146565,-35269.43392146565,-6763.4691506714407,55428.394881463195,0.0
638523.2936376977,3587751.2368613081,-2500.0,21028.353657539392,28982.552647873279,56237.18822116567,1829.1831813742008,3390.8398815367277,-40.687594491524976,36496.183282677448,-1412.9622426206952,50195.23048090763,-50195.23048090763,1412.9622426206952,70639.07637466336,0.0
643523.2936376977,3587751.2368613081,-2500.0,15023.601052202184,26341.808547186272,78771.626429989556,1257.5686807554594,4031.1088746743681,-197.13887253105614,44426.03917235884,-13434.628816324897,63584.918860928898,-63584.918860928898,13434.628816324897,86028.718253050291,0.0
648523.2936376977,3587751.2368613081,-2500.0,6785.2978990264646,14483.839426141767,97856.140865310867,244.32340615047812,3979.4981737009361,-450.26485376450285,50446.836671250159,-26713.885242732817,69070.260427410743,-69070.260427410743,26713.885242732817,98398.342052404289,0.0
653523.2936376977,3587751.2368613081,-2500.0,1580.6446409121522,-7340.2532637282184,102599.04281426511,-817.29769205186597,3020.6981353426386,-712.03212948908049,52099.496439104209,-33914.574847623851,58355.077583594553,-58355.077583594553,33914.574847623851,103114.45778023908,0.0
658523.2936376977,3587751.2368613081,-2500.0,6157.8232225166439,-30791.573872933324,82813.101360155692,-1408.9932117257115,1587.1909544713801,-795.32237922162267,49265.073659569352,-26171.176292568976,29458.929639530033,-29458.929639530033,26171.176292568976,96515.540644278561,0.0
663523.2936376977,3587751.2368613081,-2500.0,18862.789580359833,-40831.177599293311,43061.190655596649,-1468.3117194653671,321.63632900418537,-625.73450082416491,42638.538845392628,-4990.936339693947,-4309.6414488974742,4309.6414488974742,4990.936339693947,80282.561417021672,0.0
668523.2936376977,3587751.2368613081,-2500.0,28188.513602516043,-32235.449844110986,3544.1013248750423,-1198.2914843816375,-665.1373161622663,-368.60206625583362,34555.007721861963,15282.633615657707,-24759.233585444432,24759.233585444432,-15282.633615657707,61984.596394408552,0.0
673523.2936376977,3587751.2368613081,-2500.0,27053.626698286884,-14828.513555222446,-20406.344219846698,-675.22919829615546,-1420.4207467121969,-195.85560128137396,28032.14583150173,23922.977687967297,-27714.915420966554,27714.915420966554,-23922.977687967297,48670.304284531434,1.0
678523.2936376977,3587751.2368613081,-2500.0,18563.926983566711,318.15054559635735,-28567.392812509701,-46.126178705006119,-1833.0306684388549,-123.83508940044742,23626.693570199819,22139.708509406119,-21058.291577978438,21058.291577978438,-22139.708509406119,41233.541115919659,0.0
683523.2936376977,3587751.2368613081,-2500.0,8613.4063599225738,9293.3709337015625,-27640.852888082518,477.74599982880449,-1886.4965391195367,-100.20078794280631,20433.877339708841,15855.387910530902,-12637.659367812874,12637.659367812874,-15855.387910530902,36672.257250630304,0.0
688523.2936376977,3587751.2368613081,-2500.0,564.21734688176286,13042.799139572806,-23296.127084883283,796.58963222718569,-1706.2392171948504,-88.680057009433355,17737.156322154333,9292.7629710537985,-5941.3884006197859,5941.3884006197859,-9292.7629710537985,32789.406896101995,0.0
693523.2936376977,3587751.2368613081,-2500.0,-4799.0345387872594,13633.675939692814,-18468.533489519406,928.53424702877885,-1431.9780774095043,-77.38806516183827,15305.213822096366,4117.2219784600256,-1548.4058620067904,1548.4058620067904,-4117.2219784600256,28983.810283930135,0.0
698523.2936376977,3587751.2368613081,-2500.0,-7879.204393291313,12679.850599821957,-14261.084318387508,935.04695276640484,-1152.1861581429096,-65.218940114186623,13120.936947987793,554.76640447041268,1008.503284727381,-1008.503284727381,-554.76640447041268,25309.998970397686,0.0
703523.2936376977,3587751.2368613081,-2500.0,-9348.8734187470382,11137.372934984238,-10918.035601513679,873.00553759823106,-906.48270604933111,-53.427401119575919,11202.318779977606,-1686.2363440498661,2338.4107977677031,-2338.4107977677031,1686.2363440498661,21916.396267615513,0.0
708523.2936376977,3587751.2368613081,-2500.0,-9792.539915546673,9493.7488932377692,-8365.9157887878337,781.17249373867128,-705.69861233997199,-42.982243210199591,9550.4957236816626,-2981.8119296215282,2918.9940586353696,-2918.9940586353696,2981.8119296215282,18891.762864739256,0.0
713523.2936376977,3587751.2368613081,-2500.0,-9629.9215327335187,7966.6375567757577,-6448.8796944938276,682.07247876981307,-547.5577655353361,-34.241493733450696,8148.0747126026254,-3647.2416059077623,3069.2458220981925,-3069.2458220981925,3647.2416059077623,16259.425325602537,0.0
718523.2936376977,3587751.2368613081,-2500.0,-9136.5353646784697,6634.3987809132595,-5014.7324088498144,587.26866490668283,-425.28555496170634,-27.169702155829047,7035.3798207038662,-3911.6364038194665,2986.7859000192561,-2986.7859000192561,3911.6364038194665,14001.635278901738,0.0
723523.2936376977,3587751.2368613081,-2500.0,-8483.8680072370444,5509.2889478854549,-3939.1777046238658,501.84064901810291,-331.51451322073586,-21.555995333615122,6104.466812893701,-3930.6774424891382,2788.8296065321338,-2788.8296065321338,3930.6774424891382,12080.9096949532,0.0
728523.2936376977,3587751.2368613081,-2500.0,-7774.4196488351427,4575.3330934047881,-3127.6223666004994,427.35136028918004,-259.75174830806748,-17.143112637053104,5306.2932490947687,-3806.2824498179702,2542.6544184278805,-2542.6544184278805,3806.2824498179702,10453.367492333291,0.0
733523.2936376977,3587751.2368613081,-2500.0,-7066.9456442053852,3806.8312827906284,-2510.293482136693,363.60622397230969,-204.74740750055938,-13.687845914898029,4624.5942314478534,-3603.5609817105692,2285.5607284659432,-2285.5607284659432,3603.5609817105692,9075.8232853494683,0.0
738523.2936376977,3587751.2368613081,-2500.0,-6393.2365807133328,3176.8648875573058,-2036.3971661327466,309.62971962052796,-162.43065689285777,-10.982994922258067,4043.0698834908449,-3363.2764961616876,2037.2390011786463,-2037.2390011786463,3363.2764961616876,7909.0410877336708,0.0
743523.2936376977,3587751.2368613081,-2500.0,-5768.8300659921133,2660.8342013117831,-1669.0911226317282,264.17924395009669,-129.71081133669023,-8.8610096306558184,3546.7163073002812,-3110.4015116308074,1807.2201284981984,-1807.2201284981984,3110.4015116308074,6918.8652338499833,0.0
748523.2936376977,3587751.2368613081,-2500.0,-5199.6948140598934,2237.6233226754148,-1381.6096955302512,225.99976176650918,-104.26491080021803,-7.1902475579162903,3122.3300721158839,-2859.7959617508736,1599.2944402443768,-1599.2944402443768,2859.7959617508736,6076.279192614008,0.0
753523.2936376977,3587751.2368613081,-2500.0,-4686.3396845866337,1889.692814775972,-1154.4174223552009,193.93847048354908,-84.353499610009592,-5.8687370624310198,2758.5828367251806,-2619.9098401628389,1414.105437205473,-1414.105437205473,2619.9098401628389,5356.9789389275747,0.0
553523.2936376977,3592751.2368613081,-2500.0,-2733.555782373166,-1920.1837829404305,-1374.8181134894903,-119.26910489554793,-94.024853153076975,-3.7730886062811795,2050.6614744915637,-1601.2658832662571,-1611.570460701713,1611.570460701713,1601.2658832662571,4088.9286729076389,0.0
558523.2936376977,3592751.2368613081,-2500.0,-2841.5839068375471,-2189.5925681186682,-1626.0405626321538,-131.25507349312576,-112.0801496422399,-4.3872648474773772,2276.9031155389957,-1616.3314064780259,-1927.0980377211069,1927.0980377211069,1616.3314064780259,4533.300267846249,0.0
563523.2936376977,3592751.2368613081,-2500.0,-2904.2054969538704,-2491.5030267669308,-1932.7951897167327,-142.98942027334724,-133.72768713555433,-5.0747042001528007,2542.8892584493969,-1584.2183031880384,-2307.7176877163083,2307.7176877163083,1584.2183031880384,5026.9375376471826,0.0
568523.2936376977,3592751.2368613081,-2500.0,-2893.8348678100942,-2822.9557381815384,-2307.0536045625831,-153.39294601663622,-159.47115325500701,-5.8184803179151965,2843.161764143505,-1481.4467433733389,-2764.2615722908113,2764.2615722908113,1481.4467433733389,5571.753371624608,0.0
573523.2936376977,3592751.2368613081,-2500.0,-2771.2883000531469,-3174.9423196246898,-2761.7240899119424,-160.70128043426902,-189.66357316920403,-6.5782249906877865,3180.6327364969779,-1275.5772337291273,-3306.3586828278721,3306.3586828278721,1275.5772337291273,6167.9363422074221,0.0
578523.2936376977,3592751.2368613081,-2500.0,-2481.9407031197502,-3528.1255875745478,-3308.8106884180347,-162.128786531701,-224.26975116162552,-7.2738973007291685,3558.7371331511558,-922.74326568297556,-3939.1779871332678,3939.1779871332678,922.74326568297556,6813.712347683545,0.0
583523.2936376977,3592751.2368613081,-2500.0,-1951.4275510221398,-3846.2514579097328,-3955.3254607497975,-153.41202171900193,-262.43858368632283,-7.7619223239543036,3981.9176732497858,-365.3994649470128,-4657.3203064508707,4657.3203064508707,365.3994649470128,7506.4325086964755,0.0
588523.2936376977,3592751.2368613081,-2500.0,-1081.7411393571294,-4066.4643807947355,-4695.0746342532975,-128.23445641661016,-301.77050491050471,-7.8023340685430114,4457.8770515104325,468.5686173631052,-5433.998443264647,5433.998443264647,-468.5686173631052,8247.4813598223591,0.0
593523.2936376977,3592751.2368613081,-2500.0,250.33621881983393,-4086.0255936868466,-5493.270444951866,-77.596103074701702,-337.12837260396708,-7.0206150422812739,5003.2204096357355,1663.0452655979029,-6202.898101121109,6202.898101121109,-1663.0452655979029,9056.6516529782348,0.0
598523.2936376977,3592751.2368613081,-2500.0,2188.7459359631198,-3746.097462293269,-6259.4571527041126,10.672338774628136,-358.83176848851787,-4.8786622853548227,5655.6732652469118,3303.0291358193322,-6829.63633450015,6829.63633450015,-3303.0291358193322,10006.912570857359,0.0
603523.2936376977,3592751.2368613081,-2500.0,4881.5469470698272,-2816.251804679509,-6803.1785550534614,151.79977015640151,-350.17145218193241,-0.69815950099587343,6496.677349073464,5449.6717030933805,-7070.6213350222706,7070.6213350222706,-5449.6717030933805,11293.90303512255,0.0
608523.2936376977,3592751.2368613081,-2500.0,8444.1819544608807,-989.22323200782171,-6767.9573354058148,362.52829162587267,-284.51420249209849,6.1660197260559197,7683.575351926258,8093.0186578336343,-6521.3721756972354,6521.3721756972354,-8093.0186578336343,13334.985341162635,0.0
613523.2936376977,3592751.2368613081,-2500.0,12895.734514110398,2095.5612752093903,-5546.3653670109879,656.81710625681126,-123.03614138972605,15.801958013579,9475.0070451138854,11076.761877219387,-4567.0762496890293,4567.0762496890293,-11076.761877219387,16822.142521009788,0.0
618523.2936376977,3592751.2368613081,-2500.0,18069.715529285753,6772.2675031306389,-2197.3291051160741,1037.1135303637598,184.52109481194017,26.500018478420177,12217.163933249742,14000.339090607127,-367.11497226022766,367.11497226022766,-14000.339090607127,22617.423571361338,0.0
623523.2936376977,3592751.2368613081,-2500.0,23518.52712413812,13186.446506357519,4581.9888438095868,1479.3956851710045,691.73917987909817,32.141304438922681,16278.356729605832,16126.100164323896,7072.7487484228213,-7072.7487484228213,-16126.100164323896,31545.212239367607,0.0
628523.2936376977,3592751.2368613081,-2500.0,28445.71024020814,21047.943095493989,16346.007825611108,1909.8302524825963,1432.9020079842376,16.980375237405831,22267.90096878188,16341.35105752494,18680.598451361606,-18680.598451361606,-16341.35105752494,44235.348012567745,0.0
633523.2936376977,3592751.2368613081,-2500.0,31676.092531824921,29332.895812021838,34569.701085416804,2169.497930753957,2371.6677271465705,-54.751370670310415,31438.295908961867,13209.76968149013,34920.488193676181,-34920.488193676181,-13209.76968149013,60985.957268458718,0.0
638523.2936376977,3592751.2368613081,-2500.0,31593.233334431832,35922.952017027354,60049.617321745012,1971.7457229089878,3286.6599246935266,-258.30479196981963,42534.456563581443,5077.7956157731132,55189.069489380374,-55189.069489380374,-5077.7956157731132,81523.684037122643,0.0
643523.2936376977,3592751.2368613081,-2500.0,26111.736248336274,36883.570781571456,91792.678990023298,941.79863653831819,3550.9973437831418,-728.46160880779098,54670.162786304485,-9626.1842406977594,76624.058754116733,-76624.058754116733,9626.1842406977594,104493.80383686686,0.0
648523.2936376977,3592751.2368613081,-2500.0,14202.090950280819,25230.858159007548,123910.57175348177,-909.05666979764965,2035.555068304576,-1591.8021428577877,65621.653969411593,-30221.061250865394,90984.96034616197,-90984.96034616197,30221.061250865394,126264.8805175654,0.0
653523.2936376977,3592751.2368613081,-2500.0,2540.4407959060732,-6222.3982161534459,138559.68197811511,-2186.4950324495867,-1658.4983652145058,-2603.8803115997985,71183.947636047582,-46167.792098024613,80906.882044544429,-80906.882044544429,46167.792098024613,139162.39979112844,0.0
658523.2936376977,3592751.2368613081,-2500.0,8669.8549108852712,-46637.586269475723,108550.22765526039,-1223.0992451635061,-4695.8146462979812,-2853.0967626869319,68914.073700913257,-34693.25793197078,33594.576098519981,-33594.576098519981,34693.25793197078,133624.91265888521,0.0
663523.2936376977,3592751.2368613081,-2500.0,32712.326840070153,-59775.836516888259,38506.444196734446,222.40588141005549,-4301.7171100636579,-1922.1760558849041,60075.229088680651,4895.4447464738023,-23174.690557853632,23174.690557853632,-4895.4447464738023,110493.94353744545,0.0
668523.2936376977,3592751.2368613081,-2500.0,44870.826954463839,-35737.720832344094,-21857.243284108332,375.69063495432124,-3049.6621357925756,-812.83021840394497,49006.410988013697,35356.171391415963,-46386.687190265962,46386.687190265962,-35356.171391415963,85738.721850309244,0.0
673523.2936376977,3592751.2368613081,-2500.0,34407.376804724714,-4169.35276440096,-45806.797579058897,485.92000602930517,-2876.9271657419017,-270.71738633118844,40417.301550501725,38554.644300418622,-37883.259889001383,37883.259889001383,-38554.644300418622,70234.594652400032,0.0
678523.2936376977,3592751.2368613081,-2500.0,15669.111946707029,15078.307296284687,-45231.524781399596,1010.1004939070739,-2945.638098335035,-134.74294270837967,34079.925284068726,27112.331313458213,-21090.458241006832,21090.458241006832,-27112.331313458213,60887.945202121547,0.0
683523.2936376977,3592751.2368613081,-2500.0,220.19735294563299,22032.019557813426,-36394.083521311099,1475.9182722913167,-2701.8410453472616,-120.61959906551354,28747.984841940728,14269.246227784497,-8080.6668801081032,8080.6668801081032,-14269.246227784497,53036.849918298671,0.0
688523.2936376977,3592751.2368613081,-2500.0,-9236.5699435219394,22201.351321038484,-27149.400278255234,1661.701570887878,-2243.9710382849098,-116.26886844989326,24033.375761595918,4815.3372678669748,-466.39697329071487,466.39697329071487,-4815.3372678669748,45491.864810039871,0.0
693523.2936376977,3592751.2368613081,-2500.0,-13904.8829982767,19651.224406200628,-19752.79435737534,1620.8058880878471,-1757.7196462984846,-103.31721458459801,19946.318027123114,-1019.4615238379499,3306.2129491165488,-3306.2129491165488,1019.4615238379499,38484.454665479607,0.0
698523.2936376977,3592751.2368613081,-2500.0,-15555.002478323617,16431.472728397843,-14336.352511030023,1461.9568660713303,-1336.8952330400675,-85.905772607880607,16506.076869735807,-4221.9603695994401,4847.8294064418014,-4847.8294064418014,4221.9603695994401,32306.04207789111,0.0
703523.2936376977,3592751.2368613081,-2500.0,-15524.489992894207,13385.42504892764,-10488.968888094745,1263.4124006429083,-1004.5819349237819,-68.704473758529559,13669.954441667578,-5757.4657348319215,5219.5246160053593,-5219.5246160053593,5757.4657348319215,27050.597833192925,0.0
708523.2936376977,3592751.2368613081,-2500.0,-14650.907473753728,10784.382718056815,-7773.0777359869753,1066.977005589926,-753.1531868733349,-53.864163765889515,11359.733718469088,-6310.2332058779539,5026.7116589417183,-5026.7116589417183,6310.2332058779539,22671.744695172856,0.0
713523.2936376977,3592751.2368613081,-2500.0,-13415.060847212442,8661.6848409676877,-5846.4597581551952,890.6647697146044,-566.45430612491293,-41.878056885712645,9579.3863839354435,-6313.6828552868828,4592.4908062220748,-4592.4908062220748,6313.6828552868828,19061.119328342291,0.0
718523.2936376977,3592751.2368613081,-2500.0,-12077.740199733344,6965.1821207100256,-4465.7150609386381,739.85514374166564,-428.6649089712036,-32.510391366284793,8133.3967926482019,-6028.4027020955991,4081.6827919445072,-4081.6827919445072,6028.4027020955991,16095.856590559468,0.0
723523.2936376977,3592751.2368613081,-2500.0,-10772.495550162153,5621.1862187329807,-3463.5713955664928,614.05819331781549,-326.89379335605747,-25.301802202769956,6933.7284270406781,-5606.3396675402191,3574.2181247460931,-3574.2181247460931,5606.3396675402191,13660.787178746203,0.0
728523.2936376977,3592751.2368613081,-2500.0,-9561.9036447653143,4558.897386195611,-2726.2149336424864,510.46632171464802,-251.38210452387469,-19.787185880206444,5938.3843816364561,-5133.8457760483125,3105.6648891650334,-3105.6648891650334,5133.8457760483125,11656.484527073368,0.0
733523.2936376977,3592751.2368613081,-2500.0,-8470.0850289453138,3718.125508722097,-2176.1006417669573,425.65861122758446,-194.98190012623544,-15.569740381182577,5110.827071871754,-4658.4649614182435,2688.9693154828033,-2688.9693154828033,4658.4649614182435,10000.573107733528,0.0
738523.2936376977,3592751.2368613081,-2500.0,-7501.0376545866111,3050.3701988921885,-1760.0267355453882,356.34565829352908,-152.5309692133313,-12.334806709970175,4420.4393022885606,-4205.0745667442625,2325.9466528659459,-2325.9466528659459,4205.0745667442625,8626.2489369575615,0.0
743523.2936376977,3592751.2368613081,-2500.0,-6648.8119515492899,2517.5485327401639,-1441.1335319400305,299.64678274006229,-120.31713647505018,-9.8414153507030573,3842.1000366431531,-3785.4777781004432,2013.2867746877325,-2013.2867746877325,3785.4777781004432,7479.9174982153627,0.0
748523.2936376977,3592751.2368613081,-2500.0,-5903.0655994419822,2090.1247366429861,-1193.5976022024529,253.15206660753654,-95.66795910834982,-7.9081790533811738,3355.4202764352322,-3404.0633014469645,1745.6424997005947,-1745.6424997005947,3404.0633014469645,6518.7800886393197,0.0
753523.2936376977,3592751.2368613081,-2500.0,-5252.0283229753559,1745.3061271322904,-999.11350160344136,214.8937245139978,-76.651335739340013,-6.3994458924575293,2943.9322800051391,-3061.1308658822477,1517.1744448024042,-1517.1744448024042,3061.1308658822477,5708.6897487692759,0.0
553523.2936376977,3597751.2368613081,-2500.0,-3538.1427700570212,-1990.5482002734914,-1285.2828661662322,-149.87615411380989,-95.325869871356815,-4.5447211651556607,2354.0525137208583,-2198.8870133258924,-1446.3545884445875,1446.3545884445875,2198.8870133258924,4645.6956011805305,0.0
558523.2936376977,3597751.2368613081,-2500.0,-3805.3171593084594,-2310.6711943776436,-1531.2796132743763,-169.43471983023042,-115.25175855370377,-5.3865842629438916,2627.4395173203279,-2331.3161728238451,-1761.5985896420948,1761.5985896420948,2331.3161728238451,5207.0252273196156,0.0
563523.2936376977,3597751.2368613081,-2500.0,-4060.342028712404,-2685.0953211751703,-1837.9369806198372,-190.76783542765997,-139.79239944603538,-6.3730308697157794,2934.9582827196487,-2440.0282455401089,-2153.2434633196158,2153.2434633196158,2440.0282455401089,5844.7584351246614,0.0
568523.2936376977,3597751.2368613081,-2500.0,-4281.1073967492148,-3119.3597567361116,-2221.8339965194882,-213.30842778933871,-169.94062490033258,-7.5081864887143048,3292.9335735022496,-2504.589983839388,-2639.6106601543561,2639.6106601543561,2504.589983839388,6566.4377519175068,0.0
573523.2936376977,3597751.2368613081,-2500.0,-4433.1747670520044,-3615.8376366593834,-2703.4718869033459,-235.87377359285367,-206.75135429546768,-8.7760542656263549,3725.4516069198494,-2494.3575817733872,-3241.7472679931461,3241.7472679931461,2494.3575817733872,7377.8231172637279,0.0
578523.2936376977,3597751.2368613081,-2500.0,-4464.2393423676931,-4169.9566712794276,-3307.0978656600869,-256.27557683197898,-251.1748034675667,-10.122119364609741,4218.5183747812453,-2364.3124543632071,-3981.8683799361847,3981.8683799361847,2364.3124543632071,8281.0631342292709,0.0
583523.2936376977,3597751.2368613081,-2500.0,-4296.7918702722809,-4763.6190435389981,-4058.9689891328062,-270.73767946627856,-303.6963226455959,-11.422823357364614,4774.9962981295703,-2049.8982524768298,-4879.3059221082112,4879.3059221082112,2049.8982524768298,9272.2477855093239,0.0
588523.2936376977,3597751.2368613081,-2500.0,-3819.1695658916201,-5354.2349010645275,-4982.1373833867783,-273.0735739317285,-363.6293436760007,-12.440061054029082,5396.9940817428123,-1461.488002710626,-5941.6711945285351,5941.6711945285351,1461.488002710626,10338.987770956322,0.0
593523.2936376977,3597751.2368613081,-2500.0,-2876.3161579608295,-5857.4029892304379,-6084.1020215992876,-253.62877644247959,-427.82664534365705,-12.76061910434796,6085.6307857808142,-480.45246959370206,-7147.382062013332,7147.382062013332,480.45246959370206,11460.589529654053,0.0
598523.2936376977,3597751.2368613081,-2500.0,-1263.9789025729808,-6121.5983317551581,-7330.8546991080884,-198.15531438029467,-488.50157418081136,-11.738958367380278,6845.6494108204251,1038.5270813204615,-8413.7006258654837,8413.7006258654837,-1038.5270813204615,12618.552507052016,0.0
603523.2936376977,3597751.2368613081,-2500.0,1265.6831707846711,-5895.7295936135124,-8597.05907188936,-87.1604908028079,-529.89142165534463,-8.5079256660623095,7700.6116220876538,3249.7562487817186,-9542.9179631600964,9542.9179631600964,-3249.7562487817186,13837.422342193315,0.0
608523.2936376977,3597751.2368613081,-2500.0,4973.2593199548546,-4797.8650774130656,-9579.087550943821,103.01833423110919,-523.90841617266813,-2.2344320176665029,8730.5789646423127,6268.4404420122592,-10141.291543601616,10141.291543601616,-6268.4404420122592,15298.203584556304,0.0
613523.2936376977,3597751.2368613081,-2500.0,10058.281227445388,-2309.1381138089405,-9661.2397290685349,395.12100241585421,-426.18790702081992,6.971491092744345,10143.169019860168,10074.120304671211,-9517.3497364301656,9517.3497364301656,-10074.120304671211,17569.602951857742,0.0
618523.2936376977,3597751.2368613081,-2500.0,16532.493309107238,2159.574901876957,-7748.1859651232398,798.58609600396426,-176.61439346525879,15.674942811837315,12352.906272634364,14358.191555341515,-6597.6203900515738,6597.6203900515738,-14358.191555341515,21847.544348074473,0.0
623523.2936376977,3597751.2368613081,-2500.0,24064.789851892452,9064.7501878177191,-2133.8582251427229,1286.5398945152726,287.58369808144533,11.766323439055185,15963.139895955632,18349.374455806748,49.362695160600197,-49.362695160600197,-18349.374455806748,29773.867049267294,0.0
628523.2936376977,3597751.2368613081,-2500.0,31883.23779054594,18362.086416844162,9437.1596927547525,1758.8483666179748,994.05060328584307,-36.634606286057618,21568.550492114162,20723.509348512882,11948.404851738678,-11948.404851738678,-20723.509348512882,42778.177057773959,0.0
633523.2936376977,3597751.2368613081,-2500.0,38834.253935908542,29076.793644930058,29320.576837413704,1978.2036176684485,1853.4384847086997,-204.88572375065201,31989.361615229252,19732.284619667793,30143.513236096405,-30143.513236096405,-19732.284619667793,61656.987160369492,0.0
638523.2936376977,3597751.2368613081,-2500.0,43451.184720389479,39069.436648399067,59120.829741659909,1425.7522911367,2460.7176844521518,-669.81075281706035,45995.829779355285,13446.552265302107,54508.919119100581,-54508.919119100581,-13446.552265302107,86527.953270108876,0.0
643523.2936376977,3597751.2368613081,-2500.0,43156.023948478236,44822.940062730799,98887.688471809204,-940.97264334083104,1467.3727585070314,-1848.8596389672582,62888.480480087535,-680.70790006517927,83246.8206123501,-83246.8206123501,680.70790006517927,116944.68246078127,0.0
648523.2936376977,3597751.2368613081,-2500.0,32225.094571596659,38497.803021685533,145832.97324409924,-5961.2831874714448,-4848.7357286029146,-4495.6716843246777,81676.673243036406,-26823.117989680584,110253.50844546934,-110253.50844546934,26823.117989680584,151823.30864252313,0.0
653523.2936376977,3597751.2368613081,-2500.0,9822.5973391752632,-104.00306959938989,181275.02793451,-8681.5842848580978,-20261.811634366601,-8419.9988655438738,98575.888417088863,-59141.041541564366,109427.48796113321,-109427.48796113321,59141.041541564366,185241.00769571846,0.0
658523.2936376977,3597751.2368613081,-2500.0,15175.565787412268,-72823.535307792044,138702.42388298715,1601.805013996164,-30056.245140492632,-9277.3117265574692,102002.21300033407,-43309.761768240693,30659.857443064739,-30659.857443064739,43309.761768240693,193662.20038586395,0.0
663523.2936376977,3597751.2368613081,-2500.0,64047.819259796495,-84930.180493585765,6467.8398862691138,9685.0342043842411,-16060.876793410949,-4672.347063009669,91363.165065343244,37854.427439163854,-68325.368485358398,68325.368485358398,-37854.427439163854,163632.73252450523,0.0
668523.2936376977,3597751.2368613081,-2500.0,68990.299489090408,-21552.766931446447,-75486.328986188906,5107.8848143711793,-4381.1082035014342,-747.84388467284543,75688.916034901631,72535.488451585625,-75304.404358094165,75304.404358094165,-72535.488451585625,131113.6608532583,0.0
673523.2936376977,3597751.2368613081,-2500.0,31812.059658103055,26323.691298133464,-79789.372252588815,2340.9412674080668,-3198.1900310628748,210.43347252388102,61808.340172520831,51042.266390789868,-38098.191749685531,38098.191749685531,-51042.266390789868,109784.74892364533,0.0
678523.2936376977,3597751.2368613081,-2500.0,-1629.1595093420101,40599.148058753424,-59652.212300961051,2525.0701582196489,-3642.6014828929078,94.320719972190275,50027.70276291584,22459.26307565935,-9794.3112883329322,9794.3112883329322,-22459.26307565935,92051.358857877407,0.0
683523.2936376977,3597751.2368613081,-2500.0,-19586.304047555914,38450.123293971526,-40612.355290658677,2898.2693507172303,-3313.3042347990258,-66.156546919125844,40003.413619748397,3793.0631460884747,3864.9289627393796,-3864.9289627393796,-3793.0631460884747,75676.498369409761,0.0
688523.2936376977,3597751.2368613081,-2500.0,-26404.062335890689,31645.271717772866,-27205.001096737818,2830.2862008949642,-2619.7775390374372,-124.77106697762805,31777.666512867669,-5829.5046782318668,8903.9069849445641,-8903.9069849445641,5829.5046782318668,61328.473686811652,0.0
693523.2936376977,3597751.2368613081,-2500.0,-27345.138772824219,24744.077156186671,-18428.670498853906,2495.8007008733248,-1946.9978254729178,-125.39775709019234,25249.121552876637,-9984.2522312874898,9949.7880977861932,-9949.7880977861932,9984.2522312874898,49442.707027411634,0.0
698523.2936376977,3597751.2368613081,-2500.0,-25655.140717864277,19011.436543380827,-12746.015233414473,2087.9314504712179,-1413.9677415232261,-106.13723963364632,20160.714732848563,-11254.95834019261,9377.2804203901287,-9377.2804203901287,11254.95834019261,39911.931217088211,0.0
703523.2936376977,3597751.2368613081,-2500.0,-23004.096087231166,14564.345420440217,-9026.3256815206387,1703.2124221008162,-1022.2667180161769,-83.994163934503149,16223.202534844531,-11119.70395256811,8263.4407105971513,-8263.4407105971513,11119.70395256811,32381.099013160718,0.0
708523.2936376977,3597751.2368613081,-2500.0,-20177.743435930173,11200.316076024877,-6545.5173745196525,1374.9305921442106,-742.35179817463245,-64.67540888098145,13297.489595477893,-10358.959038255522,7064.3563927856267,-7064.3563927856267,10358.959038255522,26454.735007212443,0.0
713523.2936376977,3597751.2368613081,-2500.0,-17515.169082293905,8673.5980373964048,-4855.5154312227796,1107.228773670709,-543.74698687280602,-49.342972415508029,11006.479651938322,-9368.7942929415003,5956.8173912454213,-5956.8173912454213,9368.7942929415003,21782.317616741457,0.0
718523.2936376977,3597751.2368613081,-2500.0,-15140.808841523196,6773.2955485821622,-3679.2439454636337,893.40875726680156,-402.45729261411634,-37.63678198647419,9174.9668628282016,-8343.0577176494007,4996.1585927946808,-4996.1585927946808,8343.0577176494007,18079.832422756823,0.0
723523.2936376977,3597751.2368613081,-2500.0,-13080.202024476577,5336.3528099623627,-2843.3102649316543,724.03986943555822,-301.19478085221374,-28.833953804816634,7703.6494246133261,-7371.2450968015428,4187.1548951474624,-4187.1548951474624,7371.2450968015428,15126.187860203116,0.0
728523.2936376977,3597751.2368613081,-2500.0,-11316.228315908342,4241.7096276434013,-2237.3641970031968,590.09944589624263,-227.91713709766393,-22.239449311053697,6514.4673437098745,-6489.7559773419398,3515.4263425066474,-3515.4263425066474,6489.7559773419398,12752.26098996252,0.0
733523.2936376977,3597751.2368613081,-2500.0,-9815.889882316389,3400.8740546989006,-1789.8702043212431,483.95453840002523,-174.32783493633627,-17.288796382983328,5546.8292171899002,-5708.5430758443199,2961.0700071271617,-2961.0700071271617,5708.5430758443199,10829.471342400881,0.0
738523.2936376977,3597751.2368613081,-2500.0,-8542.6869299068658,2749.4156048486743,-1453.5822830976529,399.48413705244161,-134.71229178167499,-13.55273770401385,4753.9654524384696,-5024.9277410597761,2504.3065542051281,-2504.3065542051281,5024.9277410597761,9260.0579568007142,0.0
743523.2936376977,3597751.2368613081,-2500.0,-7462.0007498279992,2240.3314477557356,-1196.7233152066422,331.90240268454204,-105.11382591315733,-10.713668837780322,4099.7846201037728,-4430.7199719094933,2127.5650357007135,-2127.5650357007135,4430.7199719094933,7969.4340476611787,0.0
748523.2936376977,3597751.2368613081,-2500.0,-6543.1315251535034,1839.1591579821222,-997.54421304161679,277.51071512199297,-82.771010424783313,-8.5395763047457347,3556.3575183046387,-3915.8370578598715,1816.016089560364,-1816.016089560364,3915.8370578598715,6900.3905186259226,0.0
753523.2936376977,3597751.2368613081,-2500.0,-5759.7680539472631,1520.4603955832008,-840.90932093483457,233.46258166377234,-65.738499861583321,-6.8612853527432529,3101.9701499714729,-3470.0805723247145,1557.46508128098,-1557.46508128098,3470.0805723247145,6008.7644528954825,0.0
548523.2936376977,3602751.2368613081,-2500.0,-3960.0695500957527,-1676.888524326112,-980.25171960968146,-157.28005568470815,-76.135716708265974,-4.4339029119814706,2360.9698725967392,-2568.79159026661,-964.05351067022582,964.05351067022582,2568.79159026661,4611.5897912372475,0.0
553523.2936376977,3602751.2368613081,-2500.0,-4371.5239517959808,-1967.9074020284829,-1160.8503533229143,-181.33052064678225,-92.656780573888526,-5.3267962089196441,2658.1312074564103,-2821.2668415209382,-1190.9893837865873,1190.9893837865873,2821.2668415209382,5205.3861877103336,0.0
558523.2936376977,3602751.2368613081,-2500.0,-4820.3447842113719,-2318.9052032022232,-1387.3127084390298,-209.26798436708353,-113.3850155423621,-6.4120618613909226,3000.8122919856492,-3090.0602814910981,-1479.2669712693835,1479.2669712693835,3090.0602814910981,5893.656235272204,0.0
563523.2936376977,3602751.2368613081,-2500.0,-5301.8875746743906,-2742.598476189632,-1673.864336529904,-241.48899161260837,-139.47383332128197,-7.7239635474869219,3395.8308142815595,-3368.3772945663504,-1847.1416547775923,1847.1416547775923,3368.3772945663504,6691.9519726860417,0.0
568523.2936376977,3602751.2368613081,-2500.0,-5805.0645015066711,-3253.4349979197291,-2039.5715328664089,-278.20238602951298,-172.36181893403977,-9.2934402263608504,3850.215986343127,-3643.4648419821542,-2318.2959631192216,2318.2959631192216,3643.4648419821542,7617.2040580699222,0.0
573523.2936376977,3602751.2368613081,-2500.0,-6308.1867380565609,-3866.6901248540985,-2509.8538760792508,-319.20512882988265,-213.78669271881688,-11.137317056553179,4370.5416606543631,-3893.1093210377639,-2922.9883449904719,2922.9883449904719,3893.1093210377639,8686.6876166529182,0.0
578523.2936376977,3602751.2368613081,-2500.0,-6772.5689784132628,-4596.1714399051716,-3118.1314570273166,-363.49484171002797,-265.72611671846613,-13.23699551662358,4965.9636384079895,-4080.3897302131454,-3698.7911170172401,3698.7911170172401,4080.3897302131454,9915.8720421902053,0.0
583523.2936376977,3602751.2368613081,-2500.0,-7132.9639245249555,-5449.25674451143,-3907.0728900952186,-408.62595640361212,-330.16986068516076,-15.499265821792235,5696.5227755673095,-4146.0926282229348,-4689.9126065385108,4689.9126065385108,4146.0926282229348,11314.400993149678,0.0
588523.2936376977,3602751.2368613081,-2500.0,-7283.8952426909773,-6417.0668380119396,-4928.0151096737409,-449.69210335322174,-408.54006209136548,-17.689306116800296,6539.684967282662,-3998.4135869241668,-5942.9204680852181,5942.9204680852181,3998.4135869241668,12879.178313326405,0.0
593523.2936376977,3602751.2368613081,-2500.0,-7061.5965543619695,-7456.258101745394,-6235.1791476454237,-477.83278386296291,-500.43422089816136,-19.326943988077932,7485.3589631966715,-3500.560224904938,-7494.4601234376487,7494.4601234376487,3500.560224904938,14583.562773972204,0.0
598523.2936376977,3602751.2368613081,-2500.0,-6223.5744428694279,-8457.5311224644865,-7867.3716988237938,-478.31618491500848,-601.17691863362052,-19.553913000510164,8517.120052140117,-2459.7165408625715,-9342.7225663541994,9342.7225663541994,2459.7165408625715,16363.073987479123,0.0
603523.2936376977,3602751.2368613081,-2500.0,-4433.6200804232385,-9196.0456449299763,-9802.7510621525744,-428.7564350455765,-697.54948846029333,-17.04892658039406,9600.9225847722828,-627.37768226464777,-11388.904817796822,11388.904817796822,627.37768226464777,18104.137811292512,0.0
608523.2936376977,3602751.2368613081,-2500.0,-1271.5381705087275,-9264.9457755622952,-11861.735325637388,-299.25366502004886,-761.45150953698646,-10.268315221543787,10692.135317845768,2266.6505558762901,-13330.155765225882,13330.155765225882,-2266.6505558762901,19662.805446075188,0.0
613523.2936376977,3602751.2368613081,-2500.0,3696.8324553792345,-8014.5454249589911,-13524.499076918903,-58.559441845962453,-743.2501005051796,1.2153838092196332,11782.036756003265,6407.6632779122738,-14491.281451188483,14491.281451188483,-6407.6632779122738,20998.922909179473,0.0
618523.2936376977,3602751.2368613081,-2500.0,10746.436693503727,-4568.4218409086816,-13643.834724924021,306.72170404540333,-572.18323021540061,12.484032510551021,13038.704923200292,11672.705577261637,-13622.775538783462,13622.775538783462,-11672.705577261637,22631.281685011319,0.0
623523.2936376977,3602751.2368613081,-2500.0,19717.268684509938,1942.7277261018316,-10118.122690911774,752.54153963118279,-181.80738914710494,2.7266093419530861,15060.003963038555,17298.188140214275,-8800.5006200050157,8800.5006200050157,-17298.188140214275,26528.161645663502,0.0
628523.2936376977,3602751.2368613081,-2500.0,29789.73984607582,11774.319661798245,211.81906049969535,1118.0344572591705,411.10044167384143,-86.934708559521127,18924.54023494486,21618.744729276314,2274.23632905864,-2274.23632905864,-21618.744729276314,36110.109269910616,0.0
633523.2936376977,3602751.2368613081,-2500.0,39701.210444919168,23649.832883662286,20936.793439161385,1053.2785735443974,955.44161367482388,-395.30872941598778,28117.595658893402,22318.797060626868,21228.00064525376,-21228.00064525376,-22318.797060626868,53772.269514728163,0.0
638523.2936376977,3602751.2368613081,-2500.0,48799.425503089893,34195.336496817297,54254.5501068909,-172.62026466374104,740.96900624987416,-1232.6259112306368,43544.598077443916,17630.650281505601,47322.791894012655,-47322.791894012655,-17630.650281505601,79470.719391992287,0.0
643523.2936376977,3602751.2368613081,-2500.0,58122.522065077348,39171.659337912162,98427.874139951644,-4726.7085736632462,-2193.3806033479314,-3400.9233707867106,63123.170414731729,7540.907933528084,76620.103724961053,-76620.103724961053,-7540.907933528084,112134.27057069547,0.0
648523.2936376977,3602751.2368613081,-2500.0,66169.542850775571,36460.468455765869,148389.5792203836,-18890.569823045578,-16534.770754390684,-9221.4002884072652,89583.723310844318,-10555.705771456494,105119.49123110354,-105119.49123110354,10555.705771456494,156593.19548223808,0.0
653523.2936376977,3602751.2368613081,-2500.0,51514.159372186601,10954.619930617861,204853.64046869497,-37924.67959966552,-71348.31825989655,-20304.612152185025,140039.58887798703,-53056.6901334125,123759.42250064517,-123759.42250064517,53056.6901334125,244192.93229326545,0.0
658523.2936376977,3602751.2368613081,-2500.0,45453.50842248035,-116397.29046633831,165221.48975652634,17357.545710530158,-121681.63134958675,-17665.401198187137,186089.60989570845,-35713.392716056005,1153.9368641171532,-1153.9368641171532,35713.392716056005,334448.93418950069,0.0
663523.2936376977,3602751.2368613081,-2500.0,144486.17062323834,-93571.192829438922,-109180.31016020353,45530.358602693399,-19458.921473443879,-1390.5918108416686,164106.09846327879,144487.19545144375,-166741.89708215182,166741.89708215182,-144487.19545144375,286782.77887164132,1.0
668523.2936376977,3602751.2368613081,-2500.0,75801.142878051411,50210.845329238866,-155102.28051978734,5489.7562811316475,11536.067674050146,4725.0149881974448,126565.62263346894,110574.28782714433,-75986.171457826291,75986.171457826291,-110574.28782714433,223628.10076391618,0.0
673523.2936376977,3602751.2368613081,-2500.0,-10195.191679684151,82886.941024520333,-100171.82262525482,303.69912845188361,1295.2982777180371,2843.4114058259256,94323.786464212855,32848.76527314647,-3876.0898359097337,3876.0898359097337,-32848.76527314647,173363.81956504422,0.0
678523.2936376977,3602751.2368613081,-2500.0,-46533.35466067963,70171.413837508138,-58716.190177747267,3262.2610088031915,-3106.2931407433935,917.31259239925271,70519.439547217931,-6120.273477532146,19151.435687616475,-19151.435687616475,6120.273477532146,133457.96023497265,0.0
683523.2936376977,3602751.2368613081,-2500.0,-54213.162511841023,51841.289070631945,-35091.542197323361,4389.7812521205788,-3363.4535608732826,132.3982056346106,52874.887250215521,-20233.794200154414,22617.292959160441,-22617.292959160441,20233.794200154414,102147.97066382472,0.0
688523.2936376977,3602751.2368613081,-2500.0,-50744.997041270311,37062.431600503369,-21862.286471544216,4129.971626948518,-2628.0406294322033,-98.377893491045072,39937.414094166081,-23403.927978885207,20257.619530563599,-20257.619530563599,23403.927978885207,78289.467087011959,0.0
693523.2936376977,3602751.2368613081,-2500.0,-44038.884652135712,26470.878843565184,-14217.038459111805,3439.1758750781669,-1885.0294360306762,-137.8680199583755,30515.566988645925,-22340.153527523904,16731.911181413223,-16731.911181413223,22340.153527523904,60462.372482828527,0.0
698523.2936376977,3602751.2368613081,-2500.0,-37107.508425701388,19097.14943584643,-9618.6389298658887,2734.1170552384101,-1322.5540727257624,-122.77417451545125,23645.731171646563,-19887.18657399921,13440.688727071505,-13440.688727071505,19887.18657399921,47208.229858650178,0.0
703523.2936376977,3602751.2368613081,-2500.0,-30939.846069103638,13968.098234279485,-6743.3293997698929,2139.1681245901245,-928.34658697101133,-97.339958717109937,18759.487154629442,-17189.440842938966,10713.277344481534,-10713.277344481534,17189.440842938966,37310.686092250238,0.0
708523.2936376977,3602751.2368613081,-2500.0,-25752.208371921919,10366.80846775214,-4880.2379143352182,1669.6931605044083,-657.68847814201013,-74.172829218139469,15083.699580827364,-14675.985531337454,8547.1869339310942,-8547.1869339310942,14675.985531337454,29851.681735427857,0.0
713523.2936376977,3602751.2368613081,-2500.0,-21488.701394827232,7804.8799118980996,-3633.403875755243,1308.4424883109239,-471.83623006272489,-55.847335385570382,12261.113099563796,-12479.958523815294,6852.772881347064,-6852.772881347064,12479.958523815294,24166.946467247912,0.0
718523.2936376977,3602751.2368613081,-2500.0,-18014.542543006668,5956.3266941757865,-2774.2052995633167,1032.5050078926488,-343.12540877742629,-42.048250362943868,10071.123490951763,-10615.616562855817,5531.6656946583389,-5531.6656946583389,10615.616562855817,19782.730960181292,0.0
723523.2936376977,3602751.2368613081,-2500.0,-15187.546035341351,4603.5411700328459,-2166.1785592589008,821.51206836767642,-252.91707711615899,-31.833065094636211,8353.7969431406782,-9053.1880332750752,4499.1491364514513,-4499.1491364514513,9053.1880332750752,16361.474870186541,0.0
728523.2936376977,3602751.2368613081,-2500.0,-12881.832386955501,3600.0301261121217,-1725.3637745556111,659.3406950560136,-188.85827657736309,-24.294432082501508,6992.907582509747,-7750.2444671851263,3687.9571106802323,-3687.9571106802323,7750.2444671851263,13661.266378461887,0.0
733523.2936376977,3602751.2368613081,-2500.0,-10993.22747355044,2845.9978103424241,-1398.6585636655793,533.79426922792413,-142.76122229880926,-18.711457451269879,5903.5206753451948,-6664.3687310280002,3046.4179049879986,-3046.4179049879986,6664.3687310280002,11507.174547204355,0.0
738523.2936376977,3602751.2368613081,-2500.0,-9438.0790648340335,2272.5629366104381,-1151.6176972218054,435.81102164084973,-109.15843217039992,-14.548774322929916,5023.0659534175165,-5757.7547883401649,2535.3617078943817,-2535.3617078943817,5757.7547883401649,9771.3772195389702,0.0
743523.2936376977,3602751.2368613081,-2500.0,-8150.1119016476932,1831.5431713437079,-961.37267344145982,358.69419843075997,-84.35961145720016,-11.419083453902113,4305.0177748503575,-4998.3776885975858,2125.2056152001101,-2125.2056152001101,4998.3776885975858,8359.4460063563347,0.0
748523.2936376977,3602751.2368613081,-2500.0,-7077.0808136711839,1488.791082208174,-812.41151884229214,297.48946725733953,-65.843675272956318,-9.044852189812163,3714.4414038289901,-4359.7817727731363,1793.5788136693577,-1793.5788136693577,4359.7817727731363,7200.8547160196495,0.0
753523.2936376977,3602751.2368613081,-2500.0,-6177.8167477714078,1219.7993785063566,-694.00060112978588,248.51508660243849,-51.866660101784277,-7.2271468880449365,3224.8472486417963,-3820.3838076489028,1523.4969805316723,-1523.4969805316723,3820.3838076489028,6242.364770868895,0.0
548523.2936376977,3607751.2368613081,-2500.0,-4630.7307540098127,-1550.6227659251326,-859.61256130191839,-181.52056082638671,-69.710893074954143,-5.0098846804669588,2598.0267871126712,-3068.0448587880401,-672.87033339965933,672.87033339965933,3068.0448587880401,5049.8719502645863,0.0
553523.2936376977,3607751.2368613081,-2500.0,-5194.4606185592038,-1838.7903081995973,-1014.4964327407727,-212.18700398980715,-85.552851468971355,-6.0847186834974929,2949.9853964978352,-3435.6469201327291,-852.02142291603286,852.02142291603286,3435.6469201327291,5744.9627385082404,0.0
558523.2936376977,3607751.2368613081,-2500.0,-5836.9744913342611,-2193.4741017655397,-1209.6732142166334,-248.84641067155701,-105.7257056123742,-7.4161550651353823,3362.9644958055314,-3851.0676561267069,-1085.3023600349147,1085.3023600349147,3851.0676561267069,6563.0662086308348,0.0
563523.2936376977,3607751.2368613081,-2500.0,-6566.2386473746228,-2632.101603432413,-1458.6329108502507,-292.63663388702412,-131.56080162347547,-9.061863428218043,3848.8531265036891,-4317.0254185313643,-1391.1948796782528,1391.1948796782528,4317.0254185313643,7528.9733604946032,0.0
568523.2936376977,3607751.2368613081,-2500.0,-7387.6661215699869,-3176.6048606328827,-1780.1818294061854,-344.77429887291379,-164.80462151771323,-11.083697216051833,4421.5350553592862,-4833.0939500134409,-1795.0010218695679,1795.0010218695679,4833.0939500134409,8672.0426220605568,0.0
573523.2936376977,3607751.2368613081,-2500.0,-8300.8722360170414,-3854.0507124598967,-2200.6913990078942,-406.41089946193239,-207.71379951712078,-13.536854627147223,5096.7111780960649,-5392.7252713215894,-2331.3005488959934,2331.3005488959934,5392.7252713215894,10026.163508152044,0.0
578523.2936376977,3607751.2368613081,-2500.0,-9293.98923289923,-4696.6261734706795,-2757.2041828584206,-478.32416283171858,-263.11834678892313,-16.444867139986879,5891.1075701067366,-5978.2028118107382,-3046.9885819825568,3046.9885819825568,5978.2028118107382,11628.673311490404,0.0
583523.2936376977,3607751.2368613081,-2500.0,-10334.004736378432,-5739.9053175918998,-3501.471096858761,-560.31421493275786,-334.36544955016194,-19.746826668948394,6820.4552421810567,-6552.315432374281,-4004.5198038857116,4004.5198038857116,6552.315432374281,13517.089702043328,0.0
588523.2936376977,3607751.2368613081,-2500.0,-11350.887979204143,-7017.1590862095181,-4504.4983049442453,-650.09844037717278,-424.94449881121704,-23.193475799193205,7895.2578666555464,-7045.1082957193821,-5284.030256763549,5284.030256763549,7045.1082957193821,15721.548460767834,0.0
593523.2936376977,3607751.2368613081,-2500.0,-12212.748520405696,-8545.3125371958158,-5859.692544725277,-741.4293460470268,-537.37625002266543,-26.156005581637807,9142.1631741174642,-7334.0122474437576,-6980.7264550348555,6980.7264550348555,7334.0122474437576,18249.241741943166,0.0
598523.2936376977,3607751.2368613081,-2500.0,-12690.026270294584,-10294.555847322446,-7678.7738498309409,-821.20658382832892,-670.56984896321126,-27.308225236774291,10622.609208037609,-7217.2137514594433,-9188.9069451785945,9188.9069451785945,7217.2137514594433,21054.851589721497,0.0
603523.2936376977,3607751.2368613081,-2500.0,-12411.704255804554,-12128.928682456346,-10065.378168672325,-865.86960287206728,-814.35291050451997,-24.199803163974874,12215.875352263733,-6386.4663544043124,-11954.051321875251,11954.051321875251,6386.4663544043124,23988.785364583619,0.0
608523.2936376977,3607751.2368613081,-2500.0,-10832.234176418851,-13703.38528465669,-13031.994827371649,-839.20433969283317,-939.78029789622713,-13.012148432312689,13778.417517912245,-4423.3212210229349,-15158.028932430021,15158.028932430021,4423.3212210229349,26717.126879192925,0.0
613523.2936376977,3607751.2368613081,-2500.0,-7263.539858390096,-14318.989994315427,-16293.976134190809,-698.43677338181317,-986.23351171646163,10.298874882791468,15041.260056939438,-881.03184187203078,-18286.383323894443,18286.383323894443,881.03184187203078,28629.098504498535,0.0
618523.2936376977,3607751.2368613081,-2500.0,-1080.0913664565805,-12809.01893390449,-18848.197640213373,-424.13976463974404,-856.99875102157546,43.893441797893701,15606.241717530314,4430.8690666387529,-20047.846946983202,20047.846946983202,-4430.8690666387529,28842.606440348442,0.0
623523.2936376977,3607751.2368613081,-2500.0,7787.8032400771062,-7701.9632924770249,-18312.622587633527,-96.099222767596132,-463.87474743039849,60.794235010736209,15158.991108716515,10843.157855419415,-17975.415748614687,17975.415748614687,-10843.157855419415,26793.555780208924,0.0
628523.2936376977,3607751.2368613081,-2500.0,18192.314308121018,1882.1514925496224,-10356.486047675469,-13.187128445236995,90.71157953415873,-35.993503691054762,14398.352215778468,16058.032722921263,-8550.5447654541604,8550.5447654541604,-16058.032722921263,25249.981724540699,0.0
633523.2936376977,3607751.2368613081,-2500.0,27716.50791995259,14304.197017248833,10778.231205842725,-733.16412400893216,101.15674033863954,-484.36545274643987,18218.974300858146,16101.505147938678,11156.433978257064,-11156.433978257064,-16101.505147938678,34928.408554381269,0.0
638523.2936376977,3607751.2368613081,-2500.0,34763.387586443911,23138.210694129375,49349.071472491785,-2658.0447636787749,-2160.3533912149228,-1683.5050366975138,34180.170390192223,7696.3723867978806,39654.216187336337,-39654.216187336337,-7696.3723867978806,60942.992864939952,0.0
643523.2936376977,3607751.2368613081,-2500.0,44396.393189723836,16788.166579903489,102003.82361238846,-5409.8491847333426,-8474.7151185854964,-3942.1806297731268,56168.310899257936,-5402.1477719401191,65884.659767658915,-65884.659767658915,5402.1477719401191,97921.826942794549,0.0
648523.2936376977,3607751.2368613081,-2500.0,77235.522574660004,-17501.667652859433,146554.51400225979,-16002.611992272356,-19839.173672939858,-7667.4109864824241,83058.389858423558,-5306.2064811426935,64708.882572801085,-64708.882572801085,5306.2064811426935,144107.49717910116,1.0
653523.2936376977,3607751.2368613081,-2500.0,193071.33446854539,-63624.168854673313,118125.88872084962,-82506.212071750255,-99945.434813233689,-8328.3737617413426,166382.70282074486,49223.857435072787,-2624.5260415583216,2624.5260415583216,-49223.857435072787,305970.37586250022,0.0
658523.2936376977,3607751.2368613081,-2500.0,253566.47349293204,-197112.01943005572,86879.403752860948,86478.860886437556,-386795.97228532546,175949.52747590482,450400.68362525548,143740.60348556889,-181405.40080439177,181405.40080439177,-143740.60348556889,780192.17216931353,0.0
663523.2936376977,3607751.2368613081,-2500.0,235986.0130164079,123068.69285209685,-401386.86791523563,273.0026839969197,175483.94901252849,12605.877793499303,374160.23383787146,318275.46302069596,-193239.08229226674,193239.08229226674,-318275.46302069596,672003.1368861642,0.0
668523.2936376977,3607751.2368613081,-2500.0,-62358.409167665202,182633.53411477688,-152744.24982663308,-60428.301777065091,54615.201605634458,21245.623820048393,199817.34767516667,3736.6601826012738,54994.650364978312,-54994.650364978312,-3736.6601826012738,377735.46084995288,0.0
673523.2936376977,3607751.2368613081,-2500.0,-123113.98197078113,123143.24258751931,-66445.977675444738,-15389.712159170802,6691.4459793566084,8519.7657971321169,127344.09875329296,-58123.116581714479,68313.203140555459,-68313.203140555459,58123.116581714479,243755.85148286351,0.0
678523.2936376977,3607751.2368613081,-2500.0,-117356.32485649,78589.229557804443,-34661.751830527239,1789.0648009228989,-2149.4323150333448,2309.4336564237428,88863.076579805071,-62478.95084405323,53368.928836369516,-53368.928836369516,62478.95084405323,172669.74490699911,0.0
683523.2936376977,3607751.2368613081,-2500.0,-97024.70721066097,50685.422781360328,-20212.809510078165,5460.8491658570192,-2811.2850379090114,437.62561301673884,63746.956537658793,-54150.434947052367,38999.144922131229,-38999.144922131229,54150.434947052367,125430.92142048226,0.0
688523.2936376977,3607751.2368613081,-2500.0,-76942.841479213137,33486.229441618932,-12690.129383647787,5258.1425313142217,-2164.7436122150702,-45.67915825134034,46583.63636133034,-44205.937492624405,28329.464188035956,-28329.464188035956,44205.937492624405,92529.555132866604,0.0
693523.2936376977,3607751.2368613081,-2500.0,-60477.516094881168,22706.909977376763,-8425.0083193160517,4257.3586155717285,-1512.6184106404608,-139.8717531991056,34746.216579837775,-35468.442323394986,20785.658304800243,-20785.658304800243,35468.442323394986,69407.6351841016,0.0
698523.2936376977,3607751.2368613081,-2500.0,-47706.591326712347,15782.316450417806,-5855.7901987645118,3281.0877719412892,-1036.7881132509492,-133.47113333262925,26654.333036931155,-28414.851075696664,15474.638363623764,-15474.638363623764,28414.851075696664,52976.259447378623,0.0
703523.2936376977,3607751.2368613081,-2500.0,-37952.851965722402,11218.953330384305,-4231.7865551411669,2498.7277660861573,-713.60387194199723,-106.82940051131158,20782.689918373053,-22878.179096192471,11700.594433967912,-11700.594433967912,22878.179096192471,41122.704534995661,0.0
708523.2936376977,3607751.2368613081,-2500.0,-30503.306419408676,8138.1267149809501,-3162.3568016729905,1907.0957796694322,-497.18303382540148,-81.070886573358436,16449.448663110117,-18562.953791001244,8981.6664373642016,-8981.6664373642016,18562.953791001244,32428.491592824063,0.0
713523.2936376977,3607751.2368613081,-2500.0,-24776.558369737581,6011.522916461201,-2432.3410948304781,1467.1055238954725,-351.54648379790996,-60.577973133351435,13201.960598170586,-15193.382009918922,6993.4881693151428,-6993.4881693151428,15193.382009918922,25944.704091981326,0.0
718523.2936376977,3607751.2368613081,-2500.0,-20333.586923298284,4513.6663070761842,-1917.8099045583342,1140.126454479283,-252.36786453452305,-45.239000051791223,10731.360792925989,-12546.517811127198,5518.0170480000652,-5518.0170480000652,12546.517811127198,21031.939935112776,0.0
723523.2936376977,3607751.2368613081,-2500.0,-16851.466783611984,3439.1676551480055,-1544.634711139237,895.64116058980949,-183.84865266257216,-33.984157376791117,8824.8751506957269,-10451.128643388336,4407.4319812499325,-4407.4319812499325,10451.128643388336,17253.868849177758,0.0
728523.2936376977,3607751.2368613081,-2500.0,-14094.203454489483,2655.4468679153547,-1266.9785329460296,711.17047172796401,-135.79930972625647,-25.754201030093004,7334.0621780709689,-8778.1819001774529,3560.2775445392845,-3560.2775445392845,8778.1819001774529,14308.270671038073,0.0
733523.2936376977,3607751.2368613081,-2500.0,-11888.924723434893,2075.102657243694,-1055.6352201970224,570.55075337882909,-101.608449383286,-19.7117225207631,6153.9050382876758,-7430.9422120464787,2905.9657091565209,-2905.9657091565209,7430.9422120464787,11982.548499352553,0.0
738523.2936376977,3607751.2368613081,-2500.0,-10108.166212086122,1639.3889921021705,-891.47847624321901,462.22603314272612,-76.937454546470917,-15.241661411983582,5209.0450671272583,-6336.7708542653945,2394.7005876027652,-2394.7005876027652,6336.7708542653945,10124.85212315766,0.0
743523.2936376977,3607751.2368613081,-2500.0,-8657.1435648772913,1308.1082570270999,-761.66280432865256,377.91248416763807,-58.900591320144841,-11.904503267047847,4444.6508426494311,-5440.850311139634,1990.8755671849894,-1990.8755671849894,5440.850311139634,8625.1237210632644,0.0
748523.2936376977,3607751.2368613081,-2500.0,-7464.7119719573684,1053.2986191892192,-657.35718916570943,311.63175983599075,-45.551191168790204,-9.3886745744173457,3820.2931823878644,-4701.5311861841092,1668.6973529914071,-1668.6973529914071,4701.5311861841092,7402.4844234502325,0.0
753523.2936376977,3607751.2368613081,-2500.0,-6476.9578646372438,855.21179619723341,-572.35814689875144,259.03180653705743,-35.557521657847374,-7.4732821784372661,3305.7858300673929,-4086.9284036357099,1409.2491756829027,-1409.2491756829027,4086.9284036357099,6396.7225077681342,0.0
543523.2936376977,3612751.2368613081,-2500.0,-4640.8108074649299,-1126.5424356854758,-637.39110469646516,-173.34923636117196,-48.837309070180822,-4.5410474129759502,2472.3326297113385,-3114.2901049292027,-247.64529832063681,247.64529832063681,3114.2901049292027,4781.8439539008868,0.0
548523.2936376977,3612751.2368613081,-2500.0,-5249.7344107175923,-1336.8023448767206,-738.46430240001905,-203.79806702908471,-59.825554892036763,-5.5345988110513993,2813.3328861648911,-3524.8226198723046,-332.15577332813291,332.15577332813291,3524.8226198723046,5449.0042740976223,0.0
553523.2936376977,3612751.2368613081,-2500.0,-5961.3231091341713,-1597.6212604293141,-863.63870742435904,-240.79082319929461,-73.863642108761738,-6.7799385334073463,3216.8239817029494,-4003.915761094011,-445.330236854026,445.330236854026,4003.915761094011,6239.8780468627347,0.0
558523.2936376977,3612751.2368613081,-2500.0,-6795.1717402841659,-1923.6572457293357,-1020.7597326855326,-285.90945860424551,-91.941586890722661,-8.3443261868938521,3696.734200145359,-4564.08438067114,-597.99795961580321,597.99795961580321,4564.08438067114,7182.4011784136383,0.0
563523.2936376977,3612751.2368613081,-2500.0,-7774.1686197284434,-2334.3838903705864,-1220.8910206741193,-341.10730099152852,-115.40341176065061,-10.309293214840615,4270.4269352010824,-5219.533254395551,-805.5637868791564,805.5637868791564,5219.533254395551,8311.5157692854791,0.0
568523.2936376977,3612751.2368613081,-2500.0,-8924.2906830633365,-2855.7257336199245,-1479.8722879495376,-408.74950307981641,-146.07235809178849,-12.768469423050343,4959.471616815752,-5985.6369025164349,-1090.1138450796529,1090.1138450796529,5985.6369025164349,9670.793234125138,0.0
573523.2936376977,3612751.2368613081,-2500.0,-10273.496136394628,-3522.1332789994412,-1820.710738934506,-491.59809712289405,-186.405331371404,-15.816354790806322,5790.4223321891086,-6877.5346993274825,-1483.5139306680003,1483.5139306680003,6877.5346993274825,11314.111764639663,0.0
578523.2936376977,3612751.2368613081,-2500.0,-11848.781591984352,-4379.0068238882877,-2277.2573043095363,-592.66043938143127,-239.65661840087071,-19.517850608830532,6795.3733580384542,-7907.0122057464469,-2031.9057472107129,2031.9057472107129,7907.0122057464469,13306.938791890401,0.0
583523.2936376977,3612751.2368613081,-2500.0,-13669.672689329091,-5484.9879843790932,-2899.8015156596853,-714.73821671623045,-309.97931170876257,-23.834273890458849,8011.7455940041355,-9076.168873625762,-2802.0155502404341,2802.0155502404341,9076.168873625762,15726.131202855591,0.0
588523.2936376977,3612751.2368613081,-2500.0,-15735.082850449407,-6912.6584185966994,-3763.3352132296213,-859.36776691302384,-402.26316770459567,-28.458382217640217,9480.1139662416372,-10365.283503791625,-3889.3665484320486,3889.3665484320486,10365.283503791625,18655.84558229327,0.0
593523.2936376977,3612751.2368613081,-2500.0,-17998.389661995192,-8743.8792299084034,-4978.8756527701553,-1024.6067750597185,-521.20478500425554,-32.462553824251472,11237.576727990105,-11710.702602691415,-5427.1172920909357,5427.1172920909357,11710.702602691415,22174.429746779744,0.0
598523.2936376977,3612751.2368613081,-2500.0,-20323.145945907538,-11050.921010516668,-6706.1117690174196,-1200.8461048014581,-668.44620526907647,-33.590748766504689,13301.681472340269,-12967.10255109183,-7589.958934995102,7589.958934995102,12967.10255109183,26321.877287749845,0.0
603523.2936376977,3612751.2368613081,-2500.0,-22411.464324954319,-13844.41968317694,-9158.0490608142154,-1363.8648600482484,-835.3548689541218,-26.942578020492824,15635.650877965943,-13849.951103571855,-10575.964869145422,10575.964869145422,13849.951103571855,31027.82899646537,0.0
608523.2936376977,3612751.2368613081,-2500.0,-23708.063240383144,-16952.652955640657,-12565.857005563004,-1466.1135499026557,-987.25172252636855,-2.9144433546191126,18080.521864546175,-13868.371775980886,-14521.773828740323,14521.773828740323,13868.371775980886,35965.330166184125,0.0
613523.2936376977,3612751.2368613081,-2500.0,-23330.260083227015,-19783.60721982973,-17015.702112587991,-1434.7401027980559,-1035.1948824807448,54.627163847098501,20238.80238932226,-12311.875369508616,-19252.785724351324,19252.785724351324,12311.875369508616,40281.820148446568,0.0
618523.2936376977,3612751.2368613081,-2500.0,-20202.816585986071,-20968.830165942203,-21961.342495144931,-1205.8869177447439,-805.93152989097052,164.44720555989147,21261.655767835549,-8491.2757962433188,-23709.030243505171,23709.030243505171,8491.2757962433188,42179.625307201037,0.0
623523.2936376977,3612751.2368613081,-2500.0,-13778.38551616957,-18167.497505378917,-25137.843170275148,-859.84553641304103,-85.32875006797471,320.30014695226612,19599.167382707343,-2637.1848220396714,-24989.16507748713,24989.16507748713,2637.1848220396714,38475.672589855945,0.0
628523.2936376977,3612751.2368613081,-2500.0,-5608.0612543112902,-9008.7051506397202,-21035.106275068643,-908.5145245248226,1018.6234672594392,402.43496415826621,13116.334405838745,2306.5834574701748,-17732.843024176655,17732.843024176655,-2306.5834574701748,24817.398359328359,0.0
633523.2936376977,3612751.2368613081,-2500.0,-534.02693032044635,5506.4292843708072,-873.32585846572147,-2471.0238089987893,901.34758703320063,19.15311560393884,6056.9732625178021,-545.56858134900085,3751.6101372813546,-3751.6101372813546,545.56858134900085,10598.409037478252,0.0
638523.2936376977,3612751.2368613081,-2500.0,-3837.9103784141435,16308.55628564068,42657.261301026971,-5627.3006102184754,-5914.9502229132104,-1382.6484322569688,29714.695290621865,-18363.889097613774,38377.906156468031,-38377.906156468031,18363.889097613774,55240.727224376984,1.0
643523.2936376977,3612751.2368613081,-2500.0,-9497.4899635905003,4365.0436424638701,106342.88514886172,927.31068097606328,-29442.20428612543,-2193.9082517515303,62781.644603341883,-43690.296527901519,67430.618652942911,-67430.618652942911,43690.296527901519,123638.81219029918,0.0
648523.2936376977,3612751.2368613081,-2500.0,25849.097374372152,-48303.19855888818,167765.08119147041,73900.331501922599,-61830.884949990621,11436.326345496698,136638.87725331847,-17926.624734760648,48079.44578643109,-48079.44578643109,17926.624734760648,239260.99969288017,0.0
653523.2936376977,3612751.2368613081,-2500.0,182034.35976745843,-251855.54692392761,101681.76270047588,274693.12135997374,-75268.336450394039,-3521.0492790941835,379945.15374590666,170685.22775030369,-192321.08987419418,192321.08987419418,-170685.22775030369,677964.63063913817,0.0
658523.2936376977,3612751.2368613081,-2500.0,1241308.1951110598,-188761.05296271376,-1447896.4003689128,-330556.30508717895,662305.24872986239,9734.2378980725734,1537789.2886504489,1244843.5330104653,-1141150.2543462936,1141150.2543462936,-1244843.5330104653,2680910.436466699,0.0
663523.2936376977,3612751.2368613081,-2500.0,-193128.26823714853,98132.080145486165,-259244.26428882082,-406497.31674899766,-38056.749556199589,-130597.03116699358,419781.81497400068,-201326.08256420129,7847.4531597035239,-7847.4531597035239,201326.08256420129,735778.95128935389,0.0
668523.2936376977,3612751.2368613081,-2500.0,-281232.36898251233,105794.87858150991,-42690.047511990131,-143321.11308281744,-5334.586958786811,27510.960207485379,233089.03910786269,-223850.95858647011,120052.34538359095,-120052.34538359095,223850.95858647011,416968.1028454515,0.0
673523.2936376977,3612751.2368613081,-2500.0,-229217.32220421074,71780.673269677267,-14770.166164639164,-28877.933440168803,-3313.5605167262247,11961.77194364834,138333.61875906095,-157407.62483690394,86792.623524969793,-86792.623524969793,157407.62483690394,265380.68257805938,0.0
678523.2936376977,3612751.2368613081,-2500.0,-173373.53853640638,46305.672219685592,-8930.5037331974454,523.57718536079472,-2679.6286298864738,3169.374155236253,95588.656759048259,-112237.01253620436,58215.659874506811,-58215.659874506811,112237.01253620436,188766.17506340219,0.0
683523.2936376977,3612751.2368613081,-2500.0,-128381.87967094897,30073.175360003872,-6371.1843437666821,6070.807605136838,-1925.6756551355982,633.98491894040001,68494.565224527018,-81427.980474391661,39559.42163279446,-39559.42163279446,81427.980474391661,136474.40846939731,0.0
688523.2936376977,3612751.2368613081,-2500.0,-95318.60227560284,19907.143298095871,-4750.247915028609,5932.7870825824093,-1309.4016665055437,-6.2560664623968272,50119.025801641277,-60100.599660836451,27523.359848605818,-27523.359848605818,60100.599660836451,99771.781350308156,0.0
693523.2936376977,3612751.2368613081,-2500.0,-71668.874972833306,13470.028573368834,-3631.8360510408165,4746.2544699598157,-877.52147191382232,-136.65444212639821,37364.34526757586,-45167.132519829051,19615.44481808722,-19615.44481808722,45167.132519829051,74116.615562727995,0.0
698523.2936376977,3612751.2368613081,-2500.0,-54751.481955790754,9315.0161404725659,-2840.386171312306,3605.8228227365671,-590.23119427093934,-137.40075897118896,28354.378518501253,-34556.78767514052,14298.582435127115,-14298.582435127115,34556.78767514052,56060.168575339514,0.0
703523.2936376977,3612751.2368613081,-2500.0,-42516.209435564546,6575.0317273929049,-2268.7835238242733,2710.3489254859701,-401.50172056190451,-111.0854520637582,21898.421980117346,-26890.467999346332,10640.239331104221,-10640.239331104221,26890.467999346332,43169.056721338595,0.0
708523.2936376977,3612751.2368613081,-2500.0,-33533.736384210744,4729.2836283807846,-1846.7919369154179,2045.3696580650812,-277.02263420431501,-84.345551526317522,17194.603249162843,-21254.681245589356,8067.4160827353708,-8067.4160827353708,21254.681245589356,33806.721417781875,0.0
713523.2936376977,3612751.2368613081,-2500.0,-26833.301667812771,3460.4766482142063,-1528.220638866793,1558.4119344803989,-194.00662279046617,-62.873736920517608,13707.910362302819,-17041.420610345951,6220.9885384235631,-6220.9885384235631,17041.420610345951,26886.774525665784,0.0
718523.2936376977,3612751.2368613081,-2500.0,-21756.444065112097,2571.6505917477425,-1282.5715467587277,1201.2249556872264,-137.86630806700364,-46.798382383661028,11080.081987245931,-13841.350282576652,4871.0012428471227,-4871.0012428471227,13841.350282576652,21684.871668467382,0.0
723523.2936376977,3612751.2368613081,-2500.0,-17852.523940391824,1938.0734128784661,-1089.4655440187762,937.09617458484172,-99.335363538199204,-35.033981401956538,9068.4460520566736,-11374.828860663874,3867.0488842966051,-3867.0488842966051,11374.828860663874,17712.139523651906,0.0
728523.2936376977,3612751.2368613081,-2500.0,-14809.048566938596,1479.1686908318634,-935.0457333536342,739.678753113178,-72.499171214519436,-26.461447672528539,7506.1701048782115,-9447.7793045445105,3108.7393048204985,-3108.7393048204985,9447.7793045445105,14633.528057010484,0.0
733523.2936376977,3612751.2368613081,-2500.0,-12406.129888788866,1141.8785449758984,-809.69847800067203,590.40502995693305,-53.542524181054773,-20.190714399882502,6276.7229007156448,-7923.3616505944856,2527.770440278563,-2527.770440278563,7923.3616505944856,12215.646161423205,0.0
738523.2936376977,3612751.2368613081,-2500.0,-10486.72707853555,890.628313262814,-706.61290196847915,476.21500340874877,-39.972147568033478,-15.568396375023156,5297.4072642744377,-6703.6021806457557,2076.8372298877221,-2076.8372298877221,6703.6021806457557,10293.272650838848,0.0
743523.2936376977,3612751.2368613081,-2500.0,-8937.0542879599052,701.15696210360477,-620.86424249037418,387.87325955855732,-30.135712168483696,-12.129091635783535,4508.6339295217012,-5717.3264854959725,1722.6290432753344,-1722.6290432753344,5717.3264854959725,8747.6200931751355,0.0
748523.2936376977,3612751.2368613081,-2500.0,-7673.5233584262069,556.65546416065479,-548.82213177872654,318.79146719139271,-22.922653834315671,-9.5442286924225233,3866.8386662806138,-4912.1147847926277,1441.3260367563544,-1441.3260367563544,4912.1147847926277,7492.0249881824657,0.0
753523.2936376977,3612751.2368613081,-2500.0,-6633.928071515551,445.30484892294987,-487.7621461355115,264.2211402510041,-17.576184806330122,-7.5818188173828709,3339.737699588361,-4248.8617245401938,1215.6501044773256,-1215.6501044773256,4248.8617245401938,6462.3874164238287,0.0
543523.2936376977,3617751.2368613081,-2500.0,-5071.186114877255,-873.78303944691197,-552.55818410714517,-188.26823486562031,-38.055011493171904,-4.8791678497383089,2621.7482552034526,-3424.1086813255411,60.053147727073338,-60.053147727073338,3424.1086813255411,5059.0392485228458,0.0
548523.2936376977,3617751.2368613081,-2500.0,-5781.3005348196957,-1040.4338180289574,-631.75701256252,-222.87242187415049,-46.709664914789471,-5.9804918001275533,2997.4672902287989,-3909.5274101650939,38.497815884238889,-38.497815884238889,3909.5274101650939,5790.9349406819783,0.0
553523.2936376977,3617751.2368613081,-2500.0,-6624.1020110610834,-1249.0198520822589,-728.24636100625787,-265.42097716855437,-57.831072826350635,-7.3731384050567907,3445.9444791062488,-4486.2130250198488,4.2624904930689809,-4.2624904930689809,4486.2130250198488,6665.7682579576822,0.0
558523.2936376977,3617751.2368613081,-2500.0,-7629.9320287112732,-1512.6215438508214,-847.41977609861772,-318.04535483503628,-72.255837861358373,-9.1399664938436551,3984.8070283479701,-5174.9435207398437,-48.766681483366938,48.766681483366938,5174.9435207398437,7718.420929313872,0.0
563523.2936376977,3617751.2368613081,-2500.0,-8836.8921615818654,-1849.140365138041,-996.92033588511686,-383.48903079696782,-91.140672688906889,-11.384115687482725,4636.6837546596344,-6001.6585615930908,-129.79684039917356,129.79684039917356,6001.6585615930908,8993.7249077021133,0.0
568523.2936376977,3617751.2368613081,-2500.0,-10292.716476942742,-2283.2953860265984,-1187.8167311548511,-465.25870052521617,-116.08947148323686,-14.227803704885281,5430.7336946871483,-6998.5573393700215,-252.83062698053664,252.83062698053664,6998.5573393700215,10549.505230561386,0.0
573523.2936376977,3617751.2368613081,-2500.0,-12056.741600319761,-2849.4789122702837,-1436.5042330185656,-567.76530501252921,-149.32125634931938,-17.800148561337021,6404.5748797842989,-8205.0808388710884,-439.38100030995111,439.38100030995111,8205.0808388710884,12460.404897109551,0.0
578523.2936376977,3617751.2368613081,-2500.0,-14201.505713326304,-3595.7798347508069,-1767.8368115109765,-696.37941375496143,-193.87100549783742,-22.198407327805796,7606.6008026873824,-9668.280349297147,-722.81910654407056,722.81910654407056,9668.280349297147,14822.434157791373,0.0
583523.2936376977,3617751.2368613081,-2500.0,-16812.757577713164,-4589.4405675433136,-2220.3550655840886,-857.21358644112513,-253.76770414871308,-27.384384763457369,9098.4329989514135,-11441.390481885701,-1155.3239782831924,1155.3239782831924,11441.390481885701,17757.662460615244,0.0
588523.2936376977,3617751.2368613081,-2500.0,-19985.152675581419,-5923.6337204857673,-2855.0776411344623,-1056.2033451392074,-333.99578387490016,-32.929009928950428,10956.692846623675,-13578.062501523164,-1818.8306642552516,1818.8306642552516,13578.062501523164,21417.219166514773,0.0
593523.2936376977,3617751.2368613081,-2500.0,-23807.803645802102,-7724.0157814474424,-3770.1909786182468,-1296.5527754877671,-439.66831759519158,-37.408260479336661,13271.883347174518,-16116.967599153966,-2841.5832248878651,2841.5832248878651,16116.967599153966,25977.682226504792,0.0
598523.2936376977,3617751.2368613081,-2500.0,-28327.943047310469,-10149.162614918871,-5124.7413618393211,-1572.6328741284576,-572.85277459619681,-37.008607015530778,16138.966813645508,-19046.410432101751,-4420.6318256623026,4420.6318256623026,19046.410432101751,31618.756948997358,0.0
603523.2936376977,3617751.2368613081,-2500.0,-33471.355745140376,-13367.113574633711,-7172.9855203362667,-1856.8433159107278,-723.05999935505929,-22.407619392795052,19627.255274628704,-22230.854765122232,-6843.5781157554848,6843.5781157554848,22230.854765122232,38454.321087462165,0.0
608523.2936376977,3617751.2368613081,-2500.0,-38888.862049438503,-17460.705020166293,-10298.625811065369,-2074.7105316046368,-842.04281166198462,27.81853815012169,23703.193390562632,-25275.986349780458,-10476.807349543244,10476.807349543244,25275.986349780458,46356.677874644571,0.0
613523.2936376977,3617751.2368613081,-2500.0,-43716.53052847465,-22152.512194829713,-14984.765205542872,-2068.6300785690069,-784.89416643929803,159.43250531954732,28056.08126881408,-27336.260568513084,-15607.773190344857,15607.773190344857,27336.260568513084,54560.680484208991,0.0
618523.2936376977,3617751.2368613081,-2500.0,-46390.034008576913,-26162.935254378648,-21478.670690111823,-1584.4624585178869,-201.91607554919668,457.93917482269683,31758.691490551846,-27040.270192293003,-21833.697247090746,21833.697247090746,27040.270192293003,60904.95177404047,0.0
623523.2936376977,3617751.2368613081,-2500.0,-45189.962559769468,-26172.649644866338,-28495.166597162621,-422.49882162886087,1533.1764972998976,1037.8880513362014,32784.967584568163,-23276.111366780955,-26429.302874775756,26429.302874775756,23276.111366780955,60881.65590053147,0.0
628523.2936376977,3617751.2368613081,-2500.0,-41036.081202253008,-16764.983908903247,-30121.146341746749,988.56862487098488,4801.7890496823684,1901.1176957163548,28056.685662455824,-18398.646594707221,-21824.221293413306,21824.221293413306,18398.646594707221,49085.430807496028,0.0
633523.2936376977,3617751.2368613081,-2500.0,-41889.972595537263,3843.8499507964962,-13778.487430660487,913.14439727934609,7070.7411789692051,2543.6626102637842,23845.179629957387,-22807.22999241724,2497.3556833692728,-2497.3556833692728,22807.22999241724,41380.203560777009,0.0
638523.2936376977,3617751.2368613081,-2500.0,-56723.184576959065,22056.009464835148,26649.762970374133,-1674.8780645365548,-4090.6568735415553,2124.9306025178371,47477.290769223146,-47001.899649742685,41881.667745606799,-41881.667745606799,47001.899649742685,83820.206119362832,0.0
643523.2936376977,3617751.2368613081,-2500.0,-71179.946182743646,10952.37443389807,63675.081387714163,9578.6425284256457,-64001.820773558873,4815.328242713962,90470.484278550837,-70063.047956165639,52570.374501021492,-52570.374501021492,70063.047956165639,163207.319843306,0.0
648523.2936376977,3617751.2368613081,-2500.0,23651.951004352832,-77752.911973875816,-4222.5910680913867,104904.21877719127,-203731.91947378631,29642.640496455864,237608.62429947534,38333.651152103615,-95714.454052765097,95714.454052765097,-38333.651152103615,420298.92045193305,0.0
653523.2936376977,3617751.2368613081,-2500.0,1268556.3649343746,-270228.82550713205,-1380703.8790153405,94305.260706785935,-113532.82259891146,-56314.399291916481,1359945.4571938673,1335958.3133820505,-1297166.5897231125,1297166.5897231125,-1335958.3133820505,2355494.7133151726,0.0
658523.2936376977,3617751.2368613081,-2500.0,-44999.017814326267,141516.12098498651,-223221.83234783783,-15722.769839055038,436354.06869245757,50451.195213426567,478008.914162756,82395.061522811578,7788.94853822609,-7788.94853822609,-82395.061522811578,830615.55136203347,0.0
663523.2936376977,3617751.2368613081,-2500.0,-114942.59260176665,119537.42853885461,-186333.99028686434,-42867.510267631405,-44976.760563843854,6566.2317230035869,164854.83243500491,-26893.726397613067,-9810.7966273876555,9810.7966273876555,26893.726397613067,288071.16932968429,0.0
668523.2936376977,3617751.2368613081,-2500.0,-225693.05684437221,3927.7742199234203,-69102.960710562853,-60196.662047236692,-44639.633996387391,19495.65189768526,144969.1340199479,-156137.28511358547,7925.2381628829899,-7925.2381628829899,156137.28511358547,251274.99874599528,0.0
673523.2936376977,3617751.2368613081,-2500.0,-219657.00298726579,-3910.5148021424388,-19585.837440567975,-16016.112516564664,-11977.255069961604,8980.1443109842367,117517.29355503674,-150597.79346832656,28220.599683228749,-28220.599683228749,150597.79346832656,218644.69748013257,0.0
678523.2936376977,3617751.2368613081,-2500.0,-175253.40188086891,-537.45623060411788,-6850.6157950024626,2383.3505721069018,-2892.1831888821166,2648.7046169175037,89390.043908872321,-116918.94291295453,27974.022463842397,-27974.022463842397,116918.94291295453,173471.75361223068,0.0
683523.2936376977,3617751.2368613081,-2500.0,-132019.69061143536,1261.8692625333154,-3468.1946764945133,6347.5075438772883,-787.40895665923711,561.52331673114998,66659.763475409127,-86773.305007975956,22678.347225818965,-22678.347225818965,86773.305007975956,131100.19659482653,0.0
688523.2936376977,3617751.2368613081,-2500.0,-98425.94963019932,1681.941045063423,-2394.8468863275916,5994.3916371814375,-273.82374647424535,-10.217286239069505,49591.921575505308,-64225.451602282359,17363.523750657849,-17363.523750657849,64225.451602282359,97842.565743827363,0.0
693523.2936376977,3617751.2368613081,-2500.0,-73925.176930290749,1538.5932393864905,-1934.7110807832755,4779.0557041098937,-126.30001909473528,-133.10418724444904,37220.903597331846,-48068.692589877872,13109.577785984824,-13109.577785984824,48068.692589877872,73425.058821861108,0.0
698523.2936376977,3617751.2368613081,-2500.0,-56298.524681428062,1241.8092776228575,-1657.9208589577509,3630.6810727526486,-71.567755826481772,-134.65165509807511,28329.777200261349,-36543.664809596827,9921.8971062742294,-9921.8971062742294,36543.664809596827,55815.190191092035,0.0
703523.2936376977,3617751.2368613081,-2500.0,-43552.488688719655,947.71438952223377,-1448.8670314734943,2728.7789984309543,-44.905955853573325,-109.50697938999201,21902.930663335566,-28245.108802556399,7578.2749248358487,-7578.2749248358487,28245.108802556399,43080.622009148901,0.0
708523.2936376977,3617751.2368613081,-2500.0,-34220.72273906997,702.685050096552,-1274.4672999561651,2058.150327483193,-29.207292970474551,-83.477547616093744,17199.798900692345,-22182.552296613401,5856.6461451267969,-5856.6461451267969,22182.552296613401,33768.397400584639,0.0
713523.2936376977,3617751.2368613081,-2500.0,-27285.986819776354,512.15211168548944,-1124.123011185211,1566.771260968364,-19.051494664843638,-62.382084664539221,13706.721764017033,-17682.202501690615,4583.0311016646556,-4583.0311016646556,17682.202501690615,26860.749022345022,0.0
718523.2936376977,3617751.2368613081,-2500.0,-22052.878610052376,368.62953251934863,-993.43465898451257,1206.3972252527558,-12.228570004390987,-46.502443065281128,11072.373986439246,-14288.009303979512,3630.9804240151516,-3630.9804240151516,14288.009303979512,21659.017075622989,0.0
723523.2936376977,3617751.2368613081,-2500.0,-18044.760529717714,262.15189026816648,-879.71911680144274,940.08622983754435,-7.5876626883278337,-34.842589278401718,9055.9137214934944,-11689.056713122769,2910.9137719481996,-2910.9137719481996,11689.056713122769,17683.677037166304,0.0
728523.2936376977,3617751.2368613081,-2500.0,-14931.649588696549,183.71944931410459,-780.81575162210663,741.22599716098591,-4.4262194416500842,-26.328949158008466,7490.6331332118707,-9670.7246916823387,2359.7306650535588,-2359.7306650535588,9670.7246916823387,14602.79189787163,0.0
733523.2936376977,3617751.2368613081,-2500.0,-12482.08424478812,126.12658568642462,-694.804799019965,591.02515822761563,-2.2813012229431084,-20.093505853026709,6259.6451288730595,-8082.7141391979094,1932.8313682520343,-1932.8313682520343,8082.7141391979094,12183.754519537901,0.0
738523.2936376977,3617751.2368613081,-2500.0,-10531.396869521142,83.8934043996952,-619.95986104177143,476.25663952490953,-0.83815915378455186,-15.493938748272779,5279.837491392087,-6818.1908584790635,1598.4456290105986,-1598.4456290105986,6818.1908584790635,10261.318926647067,0.0
743523.2936376977,3617751.2368613081,-2500.0,-8960.7621885657991,52.951401992320285,-554.74657527430361,387.56736607367185,0.11980649590104779,-12.070289137593862,4491.2713780753775,-5800.0958786741949,1333.7171321537753,-1333.7171321537753,5800.0958786741949,8716.442987961269,0.0
748523.2936376977,3617751.2368613081,-2500.0,-7683.2457582228344,30.312746912589688,-497.82055353208443,318.28874642569463,0.74240528169955411,-9.4967934341484224,3850.1212585681956,-4972.062022648297,1122.0245570235786,-1122.0245570235786,4972.062022648297,7462.1907467187548,0.0
753523.2936376977,3617751.2368613081,-2500.0,-6634.4034347914476,13.791660460022552,-448.01748810396322,263.6185008356818,1.1335503533411873,-7.5429902006998581,3323.9188554593798,-4292.3063386114909,951.14661159797561,-951.14661159797561,4292.3063386114909,6434.2359868776221,0.0
543523.2936376977,3622751.2368613081,-2500.0,-5403.7016704276975,-567.59723894365152,-491.40673184557977,-199.78463255738478,-25.254062268907518,-5.1387748536392541,2739.0652468339645,-3653.7263939263157,370.24814977942856,-370.24814977942856,3653.7263939263157,5276.7361684770294,0.0
548523.2936376977,3622751.2368613081,-2500.0,-6192.3836837726476,-674.53882442150484,-553.90964422896366,-237.60556849349484,-30.885574356047105,-6.3227234092885043,3141.9735304146461,-4195.2467710723613,414.93075591708657,-414.93075591708657,4195.2467710723613,6059.458261222635,0.0
553523.2936376977,3622751.2368613081,-2500.0,-7137.6480064475891,-808.87271759277041,-628.07853801223007,-284.4724452570324,-38.121339078762759,-7.8283252481443339,3625.7982555631538,-4845.5899760300563,464.99184708545954,-464.99184708545954,4845.5899760300563,7000.4803752476946,0.0
558523.2936376977,3622751.2368613081,-2500.0,-8278.7891120202457,-979.53047100843844,-717.04540943926179,-342.96176649256324,-47.513990087098648,-9.7504988035444367,4211.1999961927368,-5632.2717527457371,520.30379412718548,-520.30379412718548,5632.2717527457371,8140.4359612365233,0.0
563523.2936376977,3622751.2368613081,-2500.0,-9666.8584050995159,-1198.9879526486134,-825.13837952668621,-416.46584882364249,-59.834111674897429,-12.208962635886616,4925.1934113887719,-6591.0370255135977,579.95570524152572,-579.95570524152572,6591.0370255135977,9532.4891637190522,0.0
568523.2936376977,3622751.2368613081,-2500.0,-11368.600952041365,-1484.9120752995557,-958.50732499789626,-509.44384929925661,-76.160718252518308,-15.347226919490883,5803.3796690198951,-7768.5654551690222,641.53711512297923,-641.53711512297923,7768.5654551690222,11246.727404298465,0.0
573523.2936376977,3622751.2368613081,-2500.0,-13471.681310405778,-1862.6722445530629,-1126.1700331834354,-627.70824397373883,-98.003033958175706,-19.318753932795179,6892.9933745052167,-9225.9959237762105,699.82698054356479,-699.82698054356479,9225.9959237762105,13376.132616535233,0.0
578523.2936376977,3622751.2368613081,-2500.0,-16091.449848269955,-2369.1814901334487,-1341.8192179534169,-778.67917503578269,-127.44700266040158,-24.237127973559247,8257.0115447635162,-11043.334319805757,744.4019394636216,-744.4019394636216,11043.334319805757,16044.571986652323,0.0
583523.2936376977,3622751.2368613081,-2500.0,-19379.207262632171,-3058.7826306184616,-1627.054041260702,-971.39899959420404,-167.27923022087091,-30.036991703304167,9979.5227108107192,-13324.460236500212,755.23481424018064,-755.23481424018064,13324.460236500212,19417.083906407257,0.0
588523.2936376977,3622751.2368613081,-2500.0,-23530.915225914505,-4012.1088289333611,-2017.335270032637,-1215.7433769189934,-220.90695659031823,-36.107259529298929,12172.219962676689,-16201.410866432319,694.58046196552641,-694.58046196552641,16201.410866432319,23711.900840171249,0.0
593523.2936376977,3622751.2368613081,-2500.0,-28792.630275599298,-5348.7962192211717,-2573.2839715237828,-1519.3895448847359,-291.49011967160294,-40.359223686040309,14980.837757547642,-19833.97567265432,492.05290506754136,-492.05290506754136,19833.97567265432,29211.142664027124,0.0
598523.2936376977,3622751.2368613081,-2500.0,-35451.92760136423,-7243.3525919964286,-3402.5456160383787,-1878.9743803049851,-378.50465975130589,-36.866276939684354,18587.283440193514,-24393.933887300984,17.682723654421352,-17.682723654421352,24393.933887300984,36259.874898400973,0.0
603523.2936376977,3622751.2368613081,-2500.0,-43787.860147104198,-9936.3000201279883,-4702.2450346479809,-2256.9154733658497,-466.44635945673951,-9.9058329117496307,23195.195238120476,-30007.499591214379,-964.04590396616368,964.04590396616368,30007.499591214379,45224.221531938609,0.0
608523.2936376977,3622751.2368613081,-2500.0,-53915.299414467831,-13706.524950456649,-6838.4507798574459,-2524.8284133011066,-490.34210271352453,80.963956893000201,28967.007898068536,-36595.519460815165,-2860.2712634203599,2860.2712634203599,36595.519460815165,56332.089240526591,0.0
613523.2936376977,3622751.2368613081,-2500.0,-65395.715375276239,-18685.958708253671,-10474.010938442681,-2337.7467777755992,-236.22392188688849,336.91585234912566,35838.398010914148,-43494.31385563685,-6289.2652012026992,6289.2652012026992,43494.31385563685,69217.642447351376,0.0
618523.2936376977,3622751.2368613081,-2500.0,-76460.107435899961,-24159.634932961075,-16659.462983779409,-907.3697659911611,917.82931384113863,997.00722604547889,43076.032569437135,-48734.592905631944,-11826.431683563496,11826.431683563496,48734.592905631944,81852.29004959586,0.0
623523.2936376977,3622751.2368613081,-2500.0,-83168.969531567054,-26542.886144747776,-26261.460096495877,3172.6761901976097,4491.5039766354121,2547.406336705918,48544.998059541496,-48405.403267216243,-18433.912834782179,18433.912834782179,48405.403267216243,88950.262027995093,0.0
628523.2936376977,3622751.2368613081,-2500.0,-81475.80224970507,-15778.049604185831,-36251.374163111373,11172.974908415148,12703.236970081329,5609.2853051477341,49176.422232275363,-39355.951004352457,-18249.798104385591,18249.798104385591,39355.951004352457,85417.512443640662,0.0
633523.2936376977,3622751.2368613081,-2500.0,-79349.734300714481,20649.349730785743,-30308.744154540396,22335.700128352575,21929.444217524288,9738.2911080066497,58128.904275288107,-32180.751147522402,8523.4925473466719,-8523.4925473466719,32180.751147522402,100951.81530900471,0.0
638523.2936376977,3622751.2368613081,-2500.0,-96583.435896580966,55889.090090994832,-228.52136979152982,42666.646716396484,3912.0623586581714,11428.57923000852,88045.855258087322,-45066.326766765917,49132.597158878249,-49132.597158878249,45066.326766765917,159440.86231308518,0.0
643523.2936376977,3622751.2368613081,-2500.0,-59941.258889030869,20596.433541991508,-105823.59228902137,100014.65126150595,-108339.41658829583,8617.4647397985555,159517.45727957823,26202.985957252014,-66018.908229900408,66018.908229900408,-26202.985957252014,276486.59913957096,0.0
648523.2936376977,3622751.2368613081,-2500.0,439845.39609046798,-62568.707027354802,-739082.11951635906,194122.13684206604,-279174.23782822269,-306475.89635475166,688913.00588560838,581791.07855775836,-629422.65702026268,629422.65702026268,-581791.07855775836,1193991.7746783649,0.0
653523.2936376977,3622751.2368613081,-2500.0,327971.68445438053,-29924.217401085865,-259991.99830779291,-237078.85848387511,241383.13721030697,-35045.204618112191,450625.68796086335,235671.22377459944,-181650.32207393867,181650.32207393867,-235671.22377459944,781117.65795232262,1.0
658523.2936376977,3622751.2368613081,-2500.0,-153281.15261965554,91183.715015410562,23288.774246934576,-129683.0987955055,160436.02107131892,-17638.498091732294,239902.77171446994,-144422.89952263105,140774.50313377488,-140774.50313377488,144422.89952263105,422186.13640704536,0.0
663523.2936376977,3622751.2368613081,-2500.0,-171137.78412408684,84877.057553482839,-23450.525037708816,-24592.520643952928,11253.522686256172,5478.6189226290271,114176.31618797778,-111440.5907846913,80074.411369598412,-80074.411369598412,111440.5907846913,225227.73824769925,0.0
668523.2936376977,3622751.2368613081,-2500.0,-159648.53600680115,-1454.3687524547365,-53996.530640051868,-12666.51716792466,-17717.856834205857,8524.3884465893425,87340.305215088956,-96989.211857224407,-3753.8262771890659,3753.8262771890659,96989.211857224407,152006.93053154665,0.0
673523.2936376977,3622751.2368613081,-2500.0,-157547.12251582096,-31021.148796489379,-34338.142505049,-2069.7329370312086,-7274.900794394247,4478.1111192083827,85440.617280072329,-99690.223688674858,-12602.645540535515,12602.645540535515,99690.223688674858,156614.89157663204,0.0
678523.2936376977,3622751.2368613081,-2500.0,-137720.59007423982,-28538.126759343184,-17694.072099950572,4422.3160898780461,-1210.4858407108647,1525.7354211566437,73130.547007114757,-88761.906086945281,-4844.3955369206233,4844.3955369206233,88761.906086945281,139960.68410300216,0.0
683523.2936376977,3622751.2368613081,-2500.0,-111106.40873782262,-20394.186546501929,-9273.8380776723898,5982.907069852914,461.00932413694534,331.37731214344035,58030.522308597319,-72122.174435667053,713.92514596791443,-713.92514596791443,72122.174435667053,113119.61827781917,0.0
688523.2936376977,3622751.2368613081,-2500.0,-86678.14139385731,-13735.907790609153,-5347.912585876471,5423.5273379952132,678.08523493259167,-42.795310350056191,44787.093247328863,-56447.060469142249,3101.1843731692388,-3101.1843731692388,56447.060469142249,87919.654359813809,0.0
693523.2936376977,3622751.2368613081,-2500.0,-67073.8631205977,-9237.0133989911865,-3455.5070475773032,4357.0083063702632,559.69000077126418,-127.86490771420698,34412.259644758713,-43750.664503810702,3738.8832529279316,-3738.8832529279316,43750.664503810702,67704.690580621187,0.0
698523.2936376977,3622751.2368613081,-2500.0,-52114.646161209159,-6329.2469105656446,-2466.8698629201212,3354.3955258121691,409.885420875325,-125.41789699190169,26607.205315802072,-34020.08963247286,3613.9481115288563,-3613.9481115288563,34020.08963247286,52355.228942881244,0.0
703523.2936376977,3622751.2368613081,-2500.0,-40877.019138915552,-4448.3517760659652,-1896.0110115532259,2551.4136897491985,291.5487066270058,-102.29328474851637,20797.117833375389,-26692.733418880089,3216.5751425415128,-3216.5751425415128,26692.733418880089,40887.711860170493,0.0
708523.2936376977,3622751.2368613081,-2500.0,-32435.257811837051,-3210.258485231082,-1531.5324319009781,1942.9510831436983,207.58213915804126,-78.563689427336755,16459.744385973761,-21180.69510207752,2761.7040313124307,-2761.7040313124307,21180.69510207752,32317.568502628721,0.0
713523.2936376977,3622751.2368613081,-2500.0,-26048.293399116861,-2376.0046203423362,-1277.6710068157204,1490.2606476069298,149.65402069829304,-59.141375088644615,13192.821435036654,-17006.974731292557,2334.2426431705062,-2334.2426431705062,17006.974731292557,25863.454888810258,0.0
718523.2936376977,3622751.2368613081,-2500.0,-21165.944805200339,-1799.7695652329724,-1088.5519588345987,1154.281195095268,109.70624289670818,-44.363942663740168,10703.828657284383,-13815.123527489053,1961.7862709410974,-1961.7862709410974,13815.123527489053,20950.114992562751,0.0
723523.2936376977,3622751.2368613081,-2500.0,-17390.682728616473,-1392.0242562255748,-940.69869725518186,903.68541722787461,81.859922873742164,-33.41287469645826,8784.1270628576676,-11346.614413191342,1648.1085362956728,-1648.1085362956728,11346.614413191342,17164.883315054572,0.0
728523.2936376977,3622751.2368613081,-2500.0,-14437.231675097548,-1096.8865285571467,-821.18800018118827,715.19523950176097,62.150375777448794,-25.356051830224622,7285.3074937146366,-9415.4746681463112,1388.0032193592806,-1388.0032193592806,9415.4746681463112,14213.432283685846,0.0
733523.2936376977,3622751.2368613081,-2500.0,-12100.321335081167,-878.74926164401768,-722.34782825061222,572.00388338424102,47.96391317166443,-19.41879607889167,6101.2579523901113,-7887.6718856018833,1173.6479317611961,-1173.6479317611961,7887.6718856018833,11885.09007054129,0.0
738523.2936376977,3622751.2368613081,-2500.0,-10231.158328796409,-714.42397693477403,-639.28085761279192,462.08324737382344,37.579286084646021,-15.017115069287195,5155.4265575308118,-6665.9442689277112,997.18700941046473,-997.18700941046473,6665.9442689277112,10027.845442458241,0.0
743523.2936376977,3622751.2368613081,-2500.0,-8720.8491161426409,-588.47878594542351,-568.65268030725349,376.81920290740544,29.853216593089822,-11.727213350037575,4391.9946031284089,-5679.0585791023186,851.66126583762434,-851.66126583762434,5679.0585791023186,8530.897498747303,0.0
748523.2936376977,3622751.2368613081,-2500.0,-7488.8560027497269,-490.42784028267442,-508.0681924386779,310.00855897197005,24.016438953503027,-9.245782349875352,3769.7982928102842,-4874.3049846385165,731.23520222802244,-731.23520222802244,4874.3049846385165,7312.5919027901928,0.0
753523.2936376977,3622751.2368613081,-2500.0,-6474.9673481874825,-413.00491474677438,-455.73332224234389,257.14866526636439,19.54365218697858,-7.3564420988539405,3258.134711835025,-4212.2646820803011,631.14513640055225,-631.14513640055225,4212.2646820803011,6312.0794362184606,0.0
543523.2936376977,3627751.2368613081,-2500.0,-5618.9445917286675,-223.78519988241047,-462.47014379439469,-207.2519545990915,-11.025380700591191,-5.3062713915189557,2819.3195424877354,-3787.9258568184632,663.19139644366624,-663.19139644366624,3787.9258568184632,5425.4074139337235,0.0
548523.2936376977,3627751.2368613081,-2500.0,-6456.5188469253426,-259.49995215662858,-516.65421923245799,-247.08909556755549,-13.141253196245623,-6.5416094185614968,3240.1128823234726,-4361.1076669888271,770.93739555260277,-770.93739555260277,4361.1076669888271,6241.6267377777131,0.0
553523.2936376977,3627751.2368613081,-2500.0,-7465.3632254883123,-303.66927385142208,-579.49822877629242,-296.6506501686705,-15.79432328925556,-8.116910362023896,3747.106181489979,-5052.9967570603621,901.6736811682199,-901.6736811682199,5052.9967570603621,7226.1653921389034,0.0
558523.2936376977,3627751.2368613081,-2500.0,-8690.3495344271014,-359.04833295946446,-652.81080212117149,-358.78629885350767,-19.153757944146999,-10.133983027737788,4362.9376776250556,-5895.0033698779407,1061.3887110946498,-1061.3887110946498,5895.0033698779407,8423.4572909942854,0.0
563523.2936376977,3627751.2368613081,-2500.0,-10190.699439385608,-429.55541897235014,-738.90381375455775,-437.28771834803257,-23.449457579633776,-12.721597335946829,5117.5086973979787,-6928.6398220497122,1257.846326585825,-1257.846326585825,6928.6398220497122,9892.2379625461508,0.0
568523.2936376977,3627751.2368613081,-2500.0,-12045.349153553503,-520.87628114641075,-840.79596952447878,-537.20189279401757,-28.992602421558438,-16.0342299171127,6050.711503789159,-8209.2887398326729,1501.1194154430227,-1501.1194154430227,8209.2887398326729,11710.915693961388,0.0
573523.2936376977,3627751.2368613081,-2500.0,-14360.530136295414,-641.43836645783074,-962.54310533265505,-665.20848078596305,-36.196712465493356,-20.234917429790702,7216.2927842362615,-9811.4961628736728,1804.2266240076228,-1804.2266240076228,9811.4961628736728,13985.163609773343,0.0
578523.2936376977,3627751.2368613081,-2500.0,-17280.471553753738,-804.01206432433753,-1109.8101862605429,-829.99519198035853,-45.584167182273319,-25.434735547989362,8687.3253214805009,-11836.362206002945,2183.790085390011,-2183.790085390011,11836.362206002945,16858.63112452198,0.0
583523.2936376977,3627751.2368613081,-2500.0,-21002.361791417283,-1028.3814112533562,-1290.934792732256,-1042.3959924994506,-57.727390370072072,-31.51809159000123,10563.893473910786,-14421.659991341399,2660.4433478422652,-2660.4433478422652,14421.659991341399,20527.879960396876,0.0
588523.2936376977,3627751.2368613081,-2500.0,-25796.649821219391,-1345.8496268865003,-1519.0430878399229,-1314.588479291825,-72.967678650874035,-37.668833645571056,12983.609221784007,-17755.003395608306,3258.2308009031385,-3258.2308009031385,17755.003395608306,25262.525904202877,0.0
593523.2936376977,3627751.2368613081,-2500.0,-32032.57882366081,-1806.8116228685569,-1816.5584122999223,-1656.3683664164028,-90.426657771988616,-41.111057196853046,16135.078221761571,-22088.821092333324,4001.0384883231327,-4001.0384883231327,22088.821092333324,31430.175953855458,0.0
598523.2936376977,3627751.2368613081,-2500.0,-40204.0247551297,-2493.0831885418338,-2225.4337496158309,-2063.0253879819838,-104.79834874249674,-33.735888408996232,20272.330209114505,-27750.523517477828,4901.1625630979361,-4901.1625630979361,27750.523517477828,39520.400702022169,0.0
603523.2936376977,3627751.2368613081,-2500.0,-50934.769892934521,-3535.7776645251438,-2831.774340112358,-2479.7057635317033,-96.066243205712496,7.0974777162232137,25721.374366815096,-35124.478017545043,5928.1254249066133,-5928.1254249066133,35124.478017545043,50144.743413942466,0.0
608523.2936376977,3627751.2368613081,-2500.0,-64894.341679450605,-5130.8804396708401,-3828.2048642848281,-2700.5847862221917,3.9628529449685415,144.17686729716758,32850.834549629843,-44532.805167400904,6930.1407202927912,-6930.1407202927912,44532.805167400904,63939.72327424273,0.0
613523.2936376977,3627751.2368613081,-2500.0,-82420.509614634124,-7499.9733566228151,-5677.9440158202615,-2090.6652429862206,423.10546459839884,552.43769746249541,41933.670490906581,-55802.320531888923,7451.9367584293323,-7451.9367584293323,55802.320531888923,81171.257274641539,0.0
618523.2936376977,3627751.2368613081,-2500.0,-102306.82296606476,-10545.727059583058,-9548.4951953015152,1140.9763592195343,1921.9005378379447,1714.3753728091099,52772.521844322895,-66952.917113189731,6383.1798485272338,-6383.1798485272338,66952.917113189731,100619.62198246153,0.0
623523.2936376977,3627751.2368613081,-2500.0,-118646.99389207445,-12167.578672525096,-18352.802288125455,11513.580450725854,6948.6180654329683,4859.1560643576895,64299.404574967964,-70867.380476992083,1697.91720035053,-1697.91720035053,70867.380476992083,117950.97233280409,0.0
628523.2936376977,3627751.2368613081,-2500.0,-115560.13606784998,-1862.7570824369634,-38129.697747900093,37402.537859979653,21791.889694827518,12203.686203729469,77530.774718731758,-50163.806163735906,-7071.3839876318707,7071.3839876318707,50163.806163735906,134380.71579026323,0.0
633523.2936376977,3627751.2368613081,-2500.0,-72941.765687480307,52480.408336612672,-71923.725932171816,80496.828387685353,45989.105962177426,22519.70446248525,113554.80135481869,12788.846910610351,-4249.3991017110975,4249.3991017110975,-12788.846910610351,207517.55741861148,0.0
638523.2936376977,3627751.2368613081,-2500.0,-13239.724023899991,148900.40803329556,-105465.94656405516,133101.631261195,-29704.226058955534,15808.727005450171,210464.10267724495,85846.353141542088,13593.337249283824,-13593.337249283824,-85846.353141542088,366521.03343220812,0.0
643523.2936376977,3627751.2368613081,-2500.0,259572.99267833901,41521.488372041713,-552576.00518296298,273473.92219315027,-372314.31129585672,-167240.72259466731,611614.0023235837,433567.98374499561,-435006.72939028539,435006.72939028539,-433567.98374499561,1067946.3987841157,0.0
648523.2936376977,3627751.2368613081,-2500.0,739023.63513156364,-231261.52293863799,-243108.41719603704,-299981.50126473565,246070.86359940554,220269.00537872227,658942.5590376344,486377.81089046068,-381171.85112678324,381171.85112678324,-486377.81089046068,1155971.095634372,0.0
653523.2936376977,3627751.2368613081,-2500.0,62156.220802395794,-1986.9110901039285,93174.691081452591,-142035.68893495368,113316.40402971924,-24516.460050780926,189290.55873231211,-35429.940446255321,77920.497635159118,-77920.497635159118,35429.940446255321,331992.21314238705,0.0
658523.2936376977,3627751.2368613081,-2500.0,-117474.05762044546,32361.400376697078,105759.52683201383,-68437.832830892337,16159.008073422028,-2413.553216608067,132586.51931046514,-138323.77219620754,121692.235401078,-121692.235401078,138323.77219620754,235293.68094091071,0.0
663523.2936376977,3627751.2368613081,-2500.0,-121633.08723874918,21361.388918751763,26994.820402216057,-20672.085037592988,-5325.2144772803722,4255.1024567001305,80090.607407638352,-98773.061711524395,56806.675851252061,-56806.675851252061,98773.061711524395,148201.21065663133,0.0
668523.2936376977,3627751.2368613081,-2500.0,-103404.36887962667,-13676.772263235705,-26155.012160860257,-4105.455158772168,-6909.6002622002698,3642.3259674556039,55590.563829269231,-64898.40237794962,-5770.4325643080665,5770.4325643080665,64898.40237794962,99559.650398612168,0.0
673523.2936376977,3627751.2368613081,-2500.0,-97619.916714811698,-34876.011156997956,-33717.363525236484,1775.8208918035953,-2366.974988094998,1914.6120298934525,57645.879100944927,-57460.28568082799,-26290.40820339894,26290.40820339894,57460.28568082799,106326.97208723864,0.0
678523.2936376977,3627751.2368613081,-2500.0,-90870.91189004542,-36446.217656788744,-25046.536056897221,4309.8404135880655,540.3008729338103,697.76720683975191,54122.009158166285,-54746.293038324751,-23395.938604205126,23395.938604205126,54746.293038324751,103594.40424406769,0.0
683523.2936376977,3627751.2368613081,-2500.0,-79412.056279057186,-29853.543618016196,-16192.714404190556,4839.2113272418856,1379.2734202482982,130.67894329632236,46006.017359237099,-49158.711221205253,-15667.790646333953,15667.790646333953,49158.711221205253,89692.562824526583,0.0
688523.2936376977,3627751.2368613081,-2500.0,-66258.07239515624,-22345.333410195712,-10267.611720811665,4371.0620415741323,1323.1069825425943,-69.704756176052598,37293.770043971461,-41788.11169544638,-9380.4930320442454,9380.4930320442454,41788.11169544638,73283.194962165857,0.0
693523.2936376977,3627751.2368613081,-2500.0,-53977.604605248132,-16232.63224621528,-6692.5056915838359,3599.8531305642214,1041.2280254270115,-116.45520201972289,29687.50351812892,-34452.278186836018,-5291.5589972042035,5291.5589972042035,34452.278186836018,58503.833730678794,0.0
698523.2936376977,3627751.2368613081,-2500.0,-43589.589329075396,-11753.009703491307,-4562.0830651905962,2847.0186719390977,766.88293981786762,-110.25389138081545,23558.128001734221,-28035.583941036173,-2837.4204312863712,2837.4204312863712,28035.583941036173,46445.553120759585,0.0
703523.2936376977,3627751.2368613081,-2500.0,-35200.358978321521,-8583.7190113917841,-3261.9400748412399,2216.7816835219401,553.6231338376997,-90.400493298389293,18774.918330871948,-22752.049048001383,-1412.6692268780589,1412.6692268780589,22752.049048001383,36988.076188354418,0.0
708523.2936376977,3627751.2368613081,-2500.0,-28559.68892807388,-6356.3575361128742,-2437.0007055126275,1720.9522936477822,399.51313880996588,-70.279555646007253,15080.833139282722,-18519.132642353456,-599.53706631221758,599.53706631221758,18519.132642353456,29671.451492942702,0.0
713523.2936376977,3627751.2368613081,-2500.0,-23336.120900651997,-4781.3159040967121,-1890.1247810808295,1340.7696326827668,290.7543299344959,-53.564149422991534,12227.346516563615,-15163.383492381014,-142.51246616913704,142.51246616913704,15163.383492381014,24019.161639897298,0.0
718523.2936376977,3627751.2368613081,-2500.0,-19223.094370479263,-3654.1565353504297,-1511.5516849474443,1051.7455246969187,214.23617222526045,-40.626228840395733,10011.102391496839,-12507.204861778913,108.31356614139258,-108.31356614139258,12507.204861778913,19632.358552020098,0.0
723523.2936376977,3627751.2368613081,-2500.0,-15968.631163063401,-2835.8492229408657,-1238.8458215620215,831.9864266040131,160.0547923317948,-30.888621288841357,8275.925588900087,-10397.960350750684,239.83625312655931,-239.83625312655931,10397.960350750684,16201.798244753989,0.0
728523.2936376977,3627751.2368613081,-2500.0,-13375.735822610483,-2232.748479625337,-1035.4060214012407,664.10095111713781,121.27165702187675,-23.629054233260504,6904.9240097573274,-8713.3430239501868,302.43808970196551,-302.43808970196551,8713.3430239501868,13495.028776480876,0.0
733523.2936376977,3627751.2368613081,-2500.0,-11293.73413942279,-1781.5860621422394,-879.03536946585712,534.93179831088185,93.154215628703341,-18.219280324223263,5811.3599301335653,-7358.3633179239641,325.47851711959629,-325.47851711959629,7358.3633179239641,11339.256191376442,0.0
738523.2936376977,3627751.2368613081,-2500.0,-9608.3177592338925,-1439.2239799556842,-755.79210707431491,434.72876496131857,72.494853115756527,-14.170849248627871,4930.874300768558,-6260.220397711435,326.16829625820719,-326.16829625820719,6260.220397711435,9606.2096855715481,0.0
743523.2936376977,3627751.2368613081,-2500.0,-8232.8397391070539,-1175.8929067725153,-656.61130207608744,356.31788969249345,57.112028448149047,-11.120898269751821,4215.4980127407625,-5363.337697519315,314.64151800874652,-314.64151800874652,5363.337697519315,8200.3123718642419,0.0
748523.2936376977,3627751.2368613081,-2500.0,-7101.4127934240059,-970.77423446876276,-575.40092282131866,294.42090038970866,45.509661765572282,-8.8049175491039247,3629.2321222661858,-4625.2383357716462,296.87235228391137,-296.87235228391137,4625.2383357716462,7049.8898186642782,0.0
753523.2936376977,3627751.2368613081,-2500.0,-6163.6620654269,-809.10905550910979,-507.93881569854466,245.13901211655354,36.650648955688233,-7.0313357212847505,3144.8412618365533,-4013.3244809467878,276.36776182777498,-276.36776182777498,4013.3244809467878,6100.7695800281517,0.0
543523.2936376977,3632751.2368613081,-2500.0,-5704.8114216021595,138.04042521404506,-470.88736372627511,-210.26590550068414,3.9066626912076852,-5.3732212550390717,2859.2849837278573,-3818.0057089413326,920.06881032361753,-920.06881032361753,3818.0057089413326,5498.815931278511,0.0
548523.2936376977,3632751.2368613081,-2500.0,-6557.1714719828778,178.81318934030614,-527.10891564590668,-250.75433121447446,5.5381055420152663,-6.6250951920672305,3287.5067176049829,-4395.1176476591781,1081.3756871478138,-1081.3756871478138,4395.1176476591781,6328.9616465375229,0.0
553523.2936376977,3632751.2368613081,-2500.0,-7584.2860646823965,232.06662089066648,-592.53493740557155,-301.14307584434516,7.7937538821296437,-8.2213110363274406,3803.8301601014969,-5091.6210052031602,1280.2462764082143,-1280.2462764082143,5091.6210052031602,7331.1111115143076,0.0
558523.2936376977,3632751.2368613081,-2500.0,-8832.14918381182,302.17415769242524,-669.11369891233915,-364.33857300020162,10.933895813340762,-10.264570865758621,4431.547564503644,-5939.1265905284308,1527.6499881272302,-1527.6499881272302,5939.1265905284308,8551.0206066285991,0.0
563523.2936376977,3632751.2368613081,-2500.0,-10361.60261959659,395.28176170570538,-759.31182708746087,-444.20944935618689,15.341316226779332,-12.88398847245457,5201.5115594263543,-6979.4668908780413,1838.4157924693836,-1838.4157924693836,6979.4668908780413,10049.376862782332,0.0
568523.2936376977,3632751.2368613081,-2500.0,-12253.990300019963,520.13252690486127,-866.28836048129131,-545.90549788390626,21.586972903142108,-16.232708547824597,6155.0328014370989,-8268.5658332669427,2232.8110976944731,-2232.8110976944731,8268.5658332669427,11907.543005930556,0.0
573523.2936376977,3632751.2368613081,-2500.0,-14619.243040675401,689.32414803494203,-994.14477911459778,-676.23776515353836,30.536021051983525,-20.46742219393019,7348.0332751059777,-9881.9354319607392,2738.8399889307061,-2738.8399889307061,9881.9354319607392,14235.799701093898,0.0
578523.2936376977,3632751.2368613081,-2500.0,-17607.498601791307,921.25619238240768,-1148.2996510037945,-844.04248323907689,43.523355662300361,-25.678735207537095,8857.0332187400654,-11922.488255726694,3395.6033875185194,-3395.6033875185194,11922.488255726694,17185.22603068125,0.0
583523.2936376977,3632751.2368613081,-2500.0,-21425.765916316755,1243.175468262973,-1336.0815800711846,-1060.2549043808267,62.652726766655313,-31.691850910531738,10787.769823081484,-14531.526710850107,4258.1843304713138,-4258.1843304713138,14531.526710850107,20964.786677182914,0.0
588523.2936376977,3632751.2368613081,-2500.0,-26361.499569037282,1696.0069190362458,-1567.7426843196201,-1336.8652854040354,91.328445990408028,-37.523227933838612,13287.464824842629,-17903.738396167006,5404.6240345725582,-5404.6240345725582,17903.738396167006,25865.571879671097,0.0
593523.2936376977,3632751.2368613081,-2500.0,-32814.663295275393,2342.0635762808006,-1858.3805262329042,-1682.3711581142352,135.25530405406545,-39.914848321084726,16561.715259146138,-22306.089088674409,6945.3515987664596,-6945.3515987664596,22306.089088674409,32293.853649707187,0.0
598523.2936376977,3632751.2368613081,-2500.0,-41336.726948978576,3277.4401400132228,-2232.087866805829,-2086.8629699352873,204.4869962090377,-29.315936138600712,20895.782129633997,-28096.260001559822,9034.0934711684404,-9034.0934711684404,28096.260001559822,40811.504270602811,0.0
603523.2936376977,3632751.2368613081,-2500.0,-52662.733628144888,4651.8813558342117,-2732.3117062266547,-2476.6826920189642,318.15806830348248,21.460979484815709,26675.552678692246,-35721.665773305278,11873.890513075195,-11873.890513075195,35721.665773305278,52170.421456667995,0.0
608523.2936376977,3632751.2368613081,-2500.0,-67679.304839362667,6700.4211465823728,-3451.8342952876033,-2578.2198670183852,517.27386418905269,190.44562428374175,34390.60655039089,-45631.180628177506,15692.499938557681,-15692.499938557681,45631.180628177506,67288.928525980969,0.0
613523.2936376977,3632751.2368613081,-2500.0,-87131.811395207536,9793.8865641553621,-4632.563594288622,-1503.2988670355589,905.87759505723363,706.87756828570502,44581.907079730488,-57872.917164091516,20594.512056655582,-20594.512056655582,57872.917164091516,87018.03035252454,0.0
618523.2936376977,3632751.2368613081,-2500.0,-110440.70915661205,14528.157815436824,-7043.6008277323026,3531.4709541636012,1806.602316552928,2254.1507736030617,57761.981784625736,-70640.39377339062,25966.37731348586,-25966.37731348586,70640.39377339062,111441.36678439502,0.0
623523.2936376977,3632751.2368613081,-2500.0,-131774.35245831465,21967.128094507963,-13586.598479571734,21052.510541749903,4415.242813981331,6758.5513087225745,75435.779642961454,-75487.636887602741,28332.672178908389,-28332.672178908389,75487.636887602741,140080.65436062159,0.0
628523.2936376977,3632751.2368613081,-2500.0,-128900.65029492036,34876.124047202407,-36612.001004945181,74380.791173855963,13423.701600046525,17559.034243913531,111003.98926341094,-43538.543174210223,14360.357322203316,-14360.357322203316,43538.543174210223,192972.00104681772,0.0
633523.2936376977,3632751.2368613081,-2500.0,-37284.496058204822,65434.554013133136,-128145.26344817133,191472.01953427889,38195.332878735644,14504.38533687724,205237.24654231896,97920.121472301369,-55098.716594032303,55098.716594032303,-97920.121472301369,377954.5482252115,0.0
638523.2936376977,3632751.2368613081,-2500.0,305631.28297685162,130428.66831087647,-437212.90784382104,134485.58588360448,-122166.62016565911,-201187.96578424284,438589.74231695238,396842.00919827737,-266760.81924511422,266760.81924511422,-396842.00919827737,763061.98191498208,1.0
643523.2936376977,3632751.2368613081,-2500.0,1090995.6096444475,-357322.52987941471,-564987.66151565383,-425470.92169895308,77546.572488103207,136928.73775569754,980721.93197591952,762231.01457879995,-724497.28537100134,724497.28537100134,-762231.01457879995,1736882.4112207992,1.0
648523.2936376977,3632751.2368613081,-2500.0,118854.82741537415,-155760.674136085,127364.2319858136,-144531.80636813396,246650.93139247721,40234.884993118823,315921.86008863128,-7084.0731932863182,-4474.8930978127337,4474.8930978127337,7084.0731932863182,569986.88761972205,0.0
653523.2936376977,3632751.2368613081,-2500.0,-15063.530045287434,-9840.4017455682315,174456.39487275953,947.87163756094981,48511.376250426845,-5899.6011480564302,103740.92984830859,-65827.846880957979,108110.87170172375,-108110.87170172375,65827.846880957979,204005.61069690192,0.0
658523.2936376977,3632751.2368613081,-2500.0,-35529.109561998601,5916.4022589477709,98922.916918244766,-6462.359118479585,-10292.328923681096,-1858.6341353748346,68561.448689566954,-60301.432051948083,71778.119262945038,-71778.119262945038,60301.432051948083,123418.30696316298,0.0
663523.2936376977,3632751.2368613081,-2500.0,-40068.332672605982,-2901.3432596094722,27598.402340711822,-5647.9036154607757,-10282.098374404761,1599.4345567839196,36137.151740343965,-39683.969575186304,22558.183986327109,-22558.183986327109,39683.969575186304,62718.279268161634,0.0
668523.2936376977,3632751.2368613081,-2500.0,-41373.090099117202,-18667.105186167719,-15321.60916611135,-1296.9230197752918,-4447.7922582350775,1461.1135048603703,27132.734289401131,-25278.682323376495,-14403.944639748932,14403.944639748932,25278.682323376495,50073.258958145816,0.0
673523.2936376977,3632751.2368613081,-2500.0,-45332.217514562522,-30438.863089615767,-28983.720885361377,1519.0512131283144,-538.43659641687407,774.54783399544442,34872.365306862128,-22946.186542949938,-30071.954845244582,30071.954845244582,22946.186542949938,66533.422467901401,0.0
678523.2936376977,3632751.2368613081,-2500.0,-48347.262895202417,-33174.944032442472,-26801.344857301217,2900.3438964833208,1264.8088954621674,277.58008980390963,36568.592441949237,-25309.119364162925,-30041.650083139637,30041.650083139637,25309.119364162925,71503.153785679358,0.0
683523.2936376977,3632751.2368613081,-2500.0,-47609.565816791219,-29762.10288162102,-20274.704736036587,3290.7764066698351,1721.875504443977,23.794932384130782,33598.316354113398,-26575.97967737048,-23875.860452857167,23875.860452857167,26575.97967737048,66428.991301389833,0.0
688523.2936376977,3632751.2368613081,-2500.0,-43745.467933886895,-24228.077318622356,-14283.091352091207,3108.9478384380245,1578.8527621540859,-74.507375905366473,28871.653604808125,-25623.065100420634,-17171.124527755612,17171.124527755612,25623.065100420634,57323.71528475645,0.0
693523.2936376977,3632751.2368613081,-2500.0,-38412.851495782583,-18835.18169215681,-9901.7407290192077,2685.8600067973362,1265.624156973854,-97.446789623205163,24027.980912382529,-23235.507149038629,-11810.991565629247,11810.991565629247,23235.507149038629,47741.785480634455,0.0
698523.2936376977,3632751.2368613081,-2500.0,-32864.859979759989,-14373.181932263347,-6933.6887565713041,2216.1922511433813,959.63727453271315,-90.73221842305351,19731.591643315256,-20309.728753150725,-7982.1974963849325,7982.1974963849325,20309.728753150725,39165.799938272736,0.0
703523.2936376977,3632751.2368613081,-2500.0,-27752.340475270685,-10927.293986083543,-4963.5356296157488,1787.9039940269117,712.16200587268941,-75.3932651908803,16150.019034560422,-17400.620662022498,-5371.6046490509734,5371.6046490509734,17400.620662022498,31999.172993800628,0.0
708523.2936376977,3632751.2368613081,-2500.0,-23316.751167071649,-8342.3670464327588,-3648.9548630605505,1428.9736412902507,526.01546490375472,-59.708354943027494,13247.259875374986,-14766.614749398981,-3621.982023967098,3621.982023967098,14766.614749398981,26192.34065106299,0.0
713523.2936376977,3632751.2368613081,-2500.0,-19585.775550239476,-6421.8185141927797,-2756.3775486710847,1140.0759885090274,390.0293336887467,-46.331397453905865,10921.670817430824,-12491.445346685665,-2452.8004181442457,2452.8004181442457,12491.445346685665,21546.609478713774,0.0
718523.2936376977,3632751.2368613081,-2500.0,-16495.088345862212,-4994.1611464233156,-2136.2402633574848,911.91886687641158,291.5954793560299,-35.705276846217181,9063.5183490988111,-10573.287116153449,-1668.2426173569756,1668.2426173569756,10573.287116153449,17841.660145532423,0.0
723523.2936376977,3632751.2368613081,-2500.0,-13951.197707597623,-3926.6679647576921,-1694.5097814137459,733.07868186442988,220.27688130544871,-27.523405149084461,7575.6672014828482,-8975.1452038945808,-1137.8301212490896,1137.8301212490896,8975.1452038945808,14881.226998493026,0.0
728523.2936376977,3632751.2368613081,-2500.0,-11859.996873732465,-3121.5707664315159,-1371.9408287131778,593.041207981198,168.2811403915367,-21.303958323451379,6378.6067947089296,-7649.9208056477964,-776.09433905138621,776.09433905138621,7649.9208056477964,12504.469447021111,0.0
733523.2936376977,3632751.2368613081,-2500.0,-10137.849238590883,-2508.3099837291738,-1130.7465045159699,483.09376748242249,130.03166841469056,-16.592442972156658,5409.5338199706621,-6551.6116338103293,-527.21638087454494,527.21638087454494,6551.6116338103293,10584.434770987338,0.0
738523.2936376977,3632751.2368613081,-2500.0,-8714.5400509522624,-2036.2812699016765,-946.40403300165121,396.35508864188586,101.60382827753172,-13.017101215847232,4619.6383663862589,-5639.5882994843851,-354.58664141851432,354.58664141851432,5639.5882994843851,9022.6055723607788,0.0
743523.2936376977,3632751.2368613081,-2500.0,-7532.7908980178809,-1669.1468421514958,-802.68052275134039,327.51509804025397,80.2468873572641,-10.291404522604168,3971.2172234702525,-4879.6522560130579,-234.00170698414831,234.00170698414831,4879.6522560130579,7743.0228627400138,0.0
748523.2936376977,3632751.2368613081,-2500.0,-6546.5459505794533,-1380.6731025325691,-688.60581178665484,272.51895484742869,64.027872309395079,-8.200541014577583,3435.1602720176556,-4243.7218355323612,-149.30255426022086,149.30255426022086,4243.7218355323612,6687.1563795231978,0.0
753523.2936376977,3632751.2368613081,-2500.0,-5719.0151055825572,-1151.7764508660221,-596.61102254528487,228.28098264197507,51.579937923401893,-6.5853167956549257,2988.9305761964233,-3709.0292290991056,-89.586364966869951,89.586364966869951,3709.0292290991056,5809.783909664473,0.0
543523.2936376977,3637751.2368613081,-2500.0,-5657.9505291551786,496.45539996965908,-517.57577967442899,-208.71046306002705,18.75331780689341,-5.337269873905087,2857.7553900476169,-3742.9140340373269,1125.146185810815,-1125.146185810815,3742.9140340373269,5494.5498344220887,0.0
548523.2936376977,3637751.2368613081,-2500.0,-6489.9190750154294,611.91287681473216,-586.51573841338393,-248.4438055217953,24.072053189580096,-6.5699604893404624,3282.5600849026578,-4295.8950513785721,1325.3133405223134,-1325.3133405223134,4295.8950513785721,6318.2580963076325,0.0
553523.2936376977,3637751.2368613081,-2500.0,-7488.4599492389907,759.94586078090333,-668.91843179783814,-297.73220520400503,31.142888977810664,-8.1372023654733372,3793.8219749634895,-4959.5853258896004,1572.4631218422342,-1572.4631218422342,4959.5853258896004,7310.9780152819612,0.0
558523.2936376977,3637751.2368613081,-2500.0,-8695.9760873872801,951.64672313868311,-768.44298410228316,-359.3124543392999,40.636487250396797,-10.136302624939706,4414.0776024209563,-5761.9880081411166,1880.3695112549797,-1880.3695112549797,5761.9880081411166,8517.1284007878148,0.0
563523.2936376977,3637751.2368613081,-2500.0,-10167.93392730025,1202.6001577907516,-890.07804538114999,-436.79138481207229,53.517392725944816,-12.688165512149828,5173.0503646791003,-6739.5921582100091,2267.662242199387,-2267.662242199387,6739.5921582100091,9995.4196269442309,0.0
568523.2936376977,3637751.2368613081,-2500.0,-11977.504985269046,1535.0140796964554,-1040.7620894791742,-534.90927813809071,71.187752804111156,-15.932565767195069,6110.3442476373002,-7940.2792041340208,2759.817466331805,-2759.817466331805,7940.2792041340208,11824.267812625707,0.0
573523.2936376977,3637751.2368613081,-2500.0,-14221.997000156796,1981.0192851180084,-1230.3653873612045,-659.82834174109212,95.705869552287524,-20.005090679711621,7279.2773192484465,-9427.2529309996171,3392.0636892342709,-3392.0636892342709,9427.2529309996171,14109.533319346037,0.0
578523.2936376977,3637751.2368613081,-2500.0,-17031.692665156555,2587.8643155311297,-1473.2844483831777,-819.34294409542736,130.1160740352085,-24.962934414874674,8752.3509248955143,-11284.236767488514,4213.641599468574,-4213.641599468574,11284.236767488514,16995.621880240858,0.0
583523.2936376977,3637751.2368613081,-2500.0,-20581.763827660263,3426.2369568889762,-1791.117487434944,-1022.6955256493718,178.93355391919187,-30.57934717942636,10629.039692730506,-13622.023863713115,5294.0377198893193,-5294.0377198893193,13622.023863713115,20681.40718393448,0.0
588523.2936376977,3637751.2368613081,-2500.0,-25107.561626083469,4603.8278517522112,-2217.3155400936862,-1279.1031301834778,248.80635340210426,-35.795066737335567,13046.745335088952,-16585.784046879002,6731.9779982374839,-6731.9779982374839,16585.784046879002,25442.831187835978,0.0
593523.2936376977,3637751.2368613081,-2500.0,-30921.867563797499,6287.7641352010405,-2805.6052691530253,-1592.5135026428986,349.23112065700491,-37.258820849964273,16195.64785568693,-20360.340370386552,8667.8308954544809,-8667.8308954544809,20360.340370386552,31663.948280291595,0.0
598523.2936376977,3637751.2368613081,-2500.0,-38427.0335523346,8742.126945275535,-3646.0359688910503,-1945.671073035378,492.58874022248341,-25.377052838671599,20337.203005712101,-25164.197239360026,11298.68283893634,-11298.68283893634,25164.197239360026,39876.262139922852,0.0
603523.2936376977,3637751.2368613081,-2500.0,-48097.462646329695,12390.585812103827,-4897.5311160493275,-2253.7183191917684,690.41998325490397,26.706548541655671,25822.692711741016,-31204.341964048115,14889.16787915954,-14889.16787915954,31204.341964048115,50798.194447198563,0.0
608523.2936376977,3637751.2368613081,-2500.0,-60356.372877654088,17917.810326361683,-6859.7382872620365,-2229.0225551979474,933.92843433415578,194.93616655608031,33103.847436106742,-38509.285154944926,19748.033547532097,-19748.033547532097,38509.285154944926,65343.138567472481,0.0
613523.2936376977,3637751.2368613081,-2500.0,-75121.674634998068,26414.958842734894,-10151.096068489884,-980.19285688681498,1111.3666973787567,698.5939190930925,42767.398386171335,-46397.847508490166,26056.421570155064,-26056.421570155064,46397.847508490166,84520.059049685544,0.0
618523.2936376977,3637751.2368613081,-2500.0,-90384.731761297153,39493.842212740441,-16226.038018762063,4192.2451848354849,667.03103346551575,2172.1044549984108,55778.627362218067,-51880.823636861845,33126.23899345057,-33126.23899345057,51880.823636861845,109250.79398187318,0.0
623523.2936376977,3637751.2368613081,-2500.0,-98215.073505920591,58862.568200700058,-29212.349018979272,21240.237619566808,-2844.5313610745156,6249.7602294157214,74926.341045992289,-45115.12570242212,36527.338211812683,-36527.338211812683,45115.12570242212,142260.47341796744,0.0
628523.2936376977,3637751.2368613081,-2500.0,-75206.725349657587,83014.193793166516,-64029.831245599358,69847.211725802365,-19780.128467530652,13847.199659203234,116905.78369300473,1542.0726648653017,17501.169482839396,-17501.169482839396,-1542.0726648653017,208671.76797423698,0.0
633523.2936376977,3637751.2368613081,-2500.0,44750.310717370201,93903.826961918487,-188455.29570201406,143219.55721797576,-77944.411422112695,-23990.370641739293,222748.74054803079,147710.44838345383,-90604.218700092242,90604.218700092242,-147710.44838345383,386386.76030158461,0.0
638523.2936376977,3637751.2368613081,-2500.0,612445.65373554802,-114601.53735333972,-352720.31526322552,-536960.34532983811,-651666.68963513314,-33517.520374330539,972936.7678580822,277202.56058342551,-384164.1895066938,384164.1895066938,-277202.56058342551,1704036.4710720461,1.0
643523.2936376977,3637751.2368613081,-2500.0,325074.62651018862,-251446.88187459894,-21009.791681781164,35359.561631252487,194956.58121202147,204584.65738509496,354630.95592419768,249363.82347805769,-237168.05137040606,237168.05137040606,-249363.82347805769,632490.52245523129,0.0
648523.2936376977,3637751.2368613081,-2500.0,81177.209399802538,-114106.12324185476,175271.7511424582,71689.821158266845,103646.85367957049,-22074.445328358346,195382.98798369814,22250.868160505284,14271.539882599631,-14271.539882599631,-22250.868160505284,340495.26929999021,0.0
653523.2936376977,3637751.2368613081,-2500.0,32224.322780002625,-2462.636050015662,161757.72278110392,40452.150107607442,26154.382667050257,-14643.491259136841,103219.68006178748,-15806.005504133645,88164.463230498077,-88164.463230498077,15806.005504133645,178957.87013645135,0.0
658523.2936376977,3637751.2368613081,-2500.0,34301.015155078472,17429.550959424247,82783.111691577127,12792.819064178459,-5199.3669022948752,-4300.1511938821204,48856.671567088808,1264.5731421916134,53807.574102643011,-53807.574102643011,-1264.5731421916134,84826.091792255742,0.0
663523.2936376977,3637751.2368613081,-2500.0,23791.038412823029,6060.4805080535116,23439.526356309991,1347.0179898584065,-6989.5216527277016,-387.27348507759785,16420.995759616537,8859.0410137307645,13155.203825768252,-13155.203825768252,-8859.0410137307645,28955.262768314456,0.0
668523.2936376977,3637751.2368613081,-2500.0,9057.9080408091013,-8537.0527939831027,-10095.693241328252,-394.61310003652738,-3061.1135617946643,357.05537328384935,13166.407918508343,8615.3016727607337,-13918.589205736405,13918.589205736405,-8615.3016727607337,22872.141020053448,0.0
673523.2936376977,3637751.2368613081,-2500.0,-4521.6628750021373,-19201.49642966039,-23497.951896712682,409.30950217177542,-169.17997111779388,271.26253059437579,21431.204694115335,3548.8233712289875,-26642.31972845467,26642.31972845467,-3548.8233712289875,39758.074406887106,0.0
678523.2936376977,3637751.2368613081,-2500.0,-14843.601899051191,-23976.253612292268,-24779.839432720633,1303.9830794063528,1194.7242646587013,98.550730284752859,24527.291833230855,-3003.3140506727214,-28703.596763124853,28703.596763124853,3003.3140506727214,46951.367871192,0.0
683523.2936376977,3637751.2368613081,-2500.0,-21022.474608454595,-23952.544924450151,-20973.349030791782,1785.274891234908,1584.2199802427297,-11.928445862898092,24019.025655456742,-8301.8716080443064,-25208.790226948448,25208.790226948448,8301.8716080443064,46676.304602851313,0.0
688523.2936376977,3637751.2368613081,-2500.0,-23510.363506472655,-21318.157415014528,-16159.151818102411,1894.8186664514535,1504.4445030537161,-60.950314085824438,21704.514331831964,-11394.832850065508,-20019.779185134405,20019.779185134405,11394.832850065508,42573.304685539035,0.0
693523.2936376977,3637751.2368613081,-2500.0,-23449.153802763638,-17818.771834097854,-11969.549767614601,1781.0562897203442,1259.6967440462593,-73.566654334901543,18786.104529816355,-12565.854767953952,-15096.704555671469,15096.704555671469,12565.854767953952,37103.366154484887,0.0
698523.2936376977,3637751.2368613081,-2500.0,-21953.376673790943,-14409.125292871104,-8769.2849192143021,1568.0084951416973,995.13010889930763,-69.308230084787212,15900.736300900578,-12467.989550662271,-11102.08762412404,11102.08762412404,12467.989550662271,31582.06199026672,0.0
703523.2936376977,3637751.2368613081,-2500.0,-19819.538992700327,-11470.951688309779,-6452.8685228784398,1331.2373143609025,765.18529592305981,-59.112659290391392,13320.489109187014,-11677.333238983383,-8083.8482402089667,8083.8482402089667,11677.333238983383,26586.32210487924,0.0
708523.2936376977,3637751.2368613081,-2500.0,-17525.751186642141,-9083.4855556666371,-4808.224360060166,1108.2965526038711,582.18981220359422,-48.090604776593878,11173.899923028916,-10583.094216466183,-5878.766727931371,5878.766727931371,10583.094216466183,22297.13925331712,0.0
713523.2936376977,3637751.2368613081,-2500.0,-15323.027614605775,-7198.6393763758397,-3642.3206395328816,913.8878017236184,442.32984678775529,-38.238101110769257,9412.1489882988644,-9413.1341802265415,-4290.5559671709188,4290.5559671709188,9413.1341802265415,18710.433582960686,0.0
718523.2936376977,3637751.2368613081,-2500.0,-13323.896358784816,-5729.7595395552034,-2809.1627695653938,750.96682575611908,337.33167722900095,-30.101171490277594,7949.1526628951005,-8286.6712234027927,-3150.7604459107993,3150.7604459107993,8286.6712234027927,15748.890843321682,0.0
723523.2936376977,3637751.2368613081,-2500.0,-11564.427666414384,-4589.6151582558314,-2205.9593081843987,617.26848234901331,258.97040854050567,-23.630833485779384,6741.3391535598594,-7258.00817451906,-2330.8316844039432,2330.8316844039432,7258.00817451906,13315.581084552128,0.0
728523.2936376977,3637751.2368613081,-2500.0,-10042.02028789344,-3703.5681831238812,-1762.3974894507098,508.69182266898508,200.44276905658742,-18.578743195984316,5745.273286674349,-6345.5804619618248,-1737.6323147442263,1737.6323147442263,6345.5804619618248,11317.124406651146,0.0
733523.2936376977,3637751.2368613081,-2500.0,-8736.6587042356823,-3012.0630678437315,-1430.7964474843982,420.886707504149,156.52718336713792,-14.664657592503547,4922.3900181623394,-5549.3830164819119,-1305.2495129429644,1305.2495129429644,5549.3830164819119,9672.1056274415405,0.0
738523.2936376977,3637751.2368613081,-2500.0,-7622.1739682868365,-2469.1490049758518,-1178.7567735710406,349.90715417471495,123.3521583842939,-11.637562951421607,4240.241079549096,-4860.8082379721864,-987.45883456787419,987.45883456787419,4860.8082379721864,8312.82570055621,0.0
743523.2936376977,3637751.2368613081,-2500.0,-6671.85012960531,-2039.9353475967018,-984.08865751926771,292.41576840406185,98.091575839840885,-9.2923684648535136,3672.2624416916237,-4267.9458121354346,-751.88171519958155,751.88171519958155,4267.9458121354346,7184.3345292536624,0.0
748523.2936376977,3637751.2368613081,-2500.0,-5860.9677981713421,-1698.0995215615371,-831.42342437900982,245.68935081886977,78.693640712342983,-7.4684224410231526,3197.0089645838025,-3758.2973895489085,-575.76205703592427,575.76205703592427,3758.2973895489085,6242.5660181840003,0.0
753523.2936376977,3637751.2368613081,-2500.0,-5167.7567022077574,-1423.8010136042044,-709.97832972706237,207.54806199347374,63.668291980180086,-6.0425417502165431,2797.2801511020007,-3320.069321364499,-443.01129931716878,443.01129931716878,3320.069321364499,5452.3683725839155,0.0
543523.2936376977,3642751.2368613081,-2500.0,-5484.1181320551004,830.54041811148147,-599.05133914194687,-202.76954961724371,32.740965321507893,-5.2023733277621886,2815.6320125975521,-3569.3848351343549,1267.5182695690519,-1267.5182695690519,3569.3848351343549,5414.1925131881835,0.0
548523.2936376977,3642751.2368613081,-2500.0,-6262.9906450657954,1012.0679628976867,-689.96005350242922,-240.42922954510956,41.40387221652415,-6.3822569378825964,3226.5919355465653,-4072.8883373474114,1488.5916018328739,-1488.5916018328739,4072.8883373474114,6211.83988204453,0.0
553523.2936376977,3642751.2368613081,-2500.0,-7189.7833140724933,1242.7196064149491,-801.62708855393737,-286.82422812426864,52.790561082244174,-7.8738582522133473,3719.0266149720915,-4670.3191336052732,1759.7278259677305,-1759.7278259677305,4670.3191336052732,7169.1997319061384,0.0
558523.2936376977,3642751.2368613081,-2500.0,-8299.2478264766596,1538.6062724437261,-940.62592954055719,-344.32291910983247,67.901075933147553,-9.7638567374847831,4313.4195246011395,-5382.9422805035729,2094.8081771758543,-2094.8081771758543,5382.9422805035729,8326.8911800039587,0.0
563523.2936376977,3642751.2368613081,-2500.0,-9635.5425685463288,1922.1043938491378,-1116.2364767818676,-415.97760492033711,88.153342415515681,-12.157233134314364,5036.4669457085301,-6237.3372051370316,2512.2045192295614,-2512.2045192295614,6237.3372051370316,9738.0407335824493,0.0
568523.2936376977,3642751.2368613081,-2500.0,-11254.8531352026,2424.6848603785766,-1341.8264730135834,-505.68494959025702,115.57403482075173,-15.170860297988439,5923.2429906049747,-7266.5730472774349,3036.3761001391658,-3036.3761001391658,7266.5730472774349,11472.741567478992,0.0
573523.2936376977,3642751.2368613081,-2500.0,-13228.525017914732,3091.1956768737718,-1637.0806853658387,-618.31260082413553,153.07697187569477,-18.908162028741593,7020.1828765228838,-8511.3265420600801,3700.023627010346,-3700.023627010346,8511.3265420600801,13624.269594650706,0.0
578523.2936376977,3642751.2368613081,-2500.0,-15646.39489919743,3986.41129317996,-2031.687321066828,-759.65890704980291,204.85720599603673,-23.386200384669817,8389.1538221570754,-10020.411628114445,4546.8944890102248,-4546.8944890102248,10020.411628114445,16317.706263478447,0.0
583523.2936376977,3642751.2368613081,-2500.0,-18619.33513276323,5205.1493719375912,-2571.6082980049464,-935.90151954168607,276.90906997422292,-28.34404554376307,10112.925073647204,-11849.441389179785,5635.1792331230463,-5635.1792331230463,11849.441389179785,19721.811540207498,0.0
588523.2936376977,3642751.2368613081,-2500.0,-22278.228543643803,6887.9555517249028,-3330.0662055999592,-1151.6605854713175,377.57231397690128,-32.754117352129796,12302.211834076052,-14054.52709806802,7040.853494171648,-7040.853494171648,14054.52709806802,24064.944870918098,0.0
593523.2936376977,3642751.2368613081,-2500.0,-26762.254344209225,9245.2701786913949,-4427.4475695301899,-1404.4754580169131,517.62462508330941,-33.579015840675645,15103.932343058465,-16673.705384714078,8858.5853420991334,-8858.5853420991334,16673.705384714078,29655.225532683777,0.0
598523.2936376977,3642751.2368613081,-2500.0,-32178.654713308937,12593.543059678612,-6068.6998488961644,-1670.1195101064689,708.11603733042921,-22.576540396078766,18708.736888330073,-19678.729547527375,11192.792609184995,-11192.792609184995,19678.729547527375,36902.757615954637,0.0
603523.2936376977,3642751.2368613081,-2500.0,-38489.741647653027,17404.299447407648,-8616.4853818704996,-1864.5593474614263,949.67422572078658,22.060800933429348,23353.637642462152,-22855.679700562781,14116.96068682734,-14116.96068682734,22855.679700562781,46335.318384650862,0.0
608523.2936376977,3642751.2368613081,-2500.0,-45218.123275448408,24350.842435863142,-12740.722035487719,-1746.8914529748831,1191.7401238374644,157.7838039130294,29406.626488513484,-25514.903616270403,17537.297474780764,-17537.297474780764,25514.903616270403,58586.425036479806,0.0
613523.2936376977,3642751.2368613081,-2500.0,-50708.004231931998,34264.798138451122,-19738.499329416252,-680.68486400547113,1187.1088825706527,534.41908133046388,37709.045620337776,-25798.809559711779,20773.34475110007,-20773.34475110007,25798.809559711779,74335.661384436258,0.0
618523.2936376977,3642751.2368613081,-2500.0,-50369.008703319654,47624.680131392386,-32244.835723539119,2871.7427306188715,-13.812785725981794,1516.6522998816633,48775.860957295052,-19117.721155944557,21311.92887040395,-21311.92887040395,19117.721155944557,94389.059392028706,0.0
623523.2936376977,3642751.2368613081,-2500.0,-33045.895316283291,62098.945600493913,-55797.351960198874,11725.677114942369,-5681.1693860139185,3720.2877103048286,64676.730414063313,4709.6514586799894,11288.679095061208,-11288.679095061208,-4709.6514586799894,121589.48932833351,0.0
628523.2936376977,3642751.2368613081,-2500.0,23365.144171197593,62870.397782383567,-101380.61115695471,24211.161457488208,-24246.631271213708,5860.7382071929678,94167.80206733034,62123.456772217454,-30720.111361123021,30720.111361123021,-62123.456772217454,170483.44937356029,0.0
633523.2936376977,3642751.2368613081,-2500.0,142710.91178328093,-12813.212809139315,-174387.59708624645,-4984.6773790602783,-42978.813294168467,-5688.3965925759476,164286.70156040264,149877.57733039549,-146118.72341149449,146118.72341149449,-149877.57733039549,285701.29702222039,1.0
638523.2936376977,3642751.2368613081,-2500.0,145353.44428730063,-225749.11428389515,-18240.018677796503,-96905.396860336856,107602.70329527471,13629.37282076148,272292.39436616231,61330.528734376858,-166022.03741853754,166022.03741853754,-61330.528734376858,488221.09337141708,0.0
643523.2936376977,3642751.2368613081,-2500.0,25627.539513883232,-95310.078846287724,223139.72492501175,60570.805503618183,226877.03214956139,-1800.3093404462377,281261.84800255194,-24681.315897620698,79534.901731072401,-79534.901731072401,24681.315897620698,487707.64667483716,1.0
648523.2936376977,3642751.2368613081,-2500.0,54603.784838088694,14093.840528877092,202936.71971221722,84819.498099400051,87337.773088285641,-25094.033488470923,168445.73707159027,7613.6809405570239,119257.35338578044,-119257.35338578044,-7613.6809405570239,291956.88676576008,0.0
653523.2936376977,3642751.2368613081,-2500.0,66573.567433877601,44988.960111205502,145382.2957130209,36982.392623325744,17513.699143256148,-12995.001483393718,99385.093781705698,14740.907557803665,103263.41216676254,-103263.41216676254,-14740.907557803665,172939.21244478301,0.0
658523.2936376977,3642751.2368613081,-2500.0,66558.583634607989,43056.175832262918,78927.799637719276,11152.291248036696,-2190.4781645832118,-4235.4573292417545,61836.685757867606,26082.273505504767,63121.173955689592,-63121.173955689592,-26082.273505504767,109496.47821206716,0.0
663523.2936376977,3642751.2368613081,-2500.0,54614.358023177061,25915.001147686271,28233.678066332701,1391.6100124284028,-4442.2772682930645,-957.47933118520439,36440.95733179681,29956.654117742528,23881.638647441829,-23881.638647441829,-29956.654117742528,66316.812323760649,0.0
668523.2936376977,3642751.2368613081,-2500.0,37506.823300050928,8220.4433722886752,-1770.1390726932229,-942.08278042309098,-2374.6646571454648,-62.231675912721855,21840.027496004841,26331.3077203422,-2735.1854458292346,2735.1854458292346,-26331.3077203422,41241.023637328275,0.0
673523.2936376977,3642751.2368613081,-2500.0,21074.667679850612,-4801.9849525137206,-15841.959830740776,-718.81278829769485,-379.85455838852738,75.290980076502635,19089.554459830313,19093.164052631379,-16914.915549340119,16914.915549340119,-19093.164052631379,33162.405873783762,0.0
678523.2936376977,3642751.2368613081,-2500.0,7781.1590103592052,-12407.251476427484,-19892.598824272762,1.9255530316676523,742.71660911386141,37.765389537922701,18597.461245952138,11153.708532051778,-22022.993169127862,22022.993169127862,-11153.708532051778,32786.930020688822,0.0
683523.2936376977,3642751.2368613081,-2500.0,-1713.7428284133036,-15563.58088766501,-18804.553245605523,573.76190066272056,1176.9458767130006,-10.876319686392932,17786.346076093872,4307.1535377542732,-21728.189289409325,21728.189289409325,-4307.1535377542732,32494.880932481537,0.0
688523.2936376977,3642751.2368613081,-2500.0,-7700.2085004908431,-15797.243877325576,-15783.176745687028,887.90220263558797,1221.9071119689531,-38.980925955373166,16346.849230111528,-699.40707043541443,-18934.01201467705,18934.01201467705,699.40707043541443,30683.175635845473,0.0
693523.2936376977,3642751.2368613081,-2500.0,-10938.780139575711,-14483.469316245651,-12504.781892009682,997.7287761012966,1092.627804737082,-48.997657547906222,14546.422779009024,-3888.5053158558503,-15444.016126835795,15444.016126835795,3888.5053158558503,27820.382589747209,0.0
698523.2936376977,3642751.2368613081,-2500.0,-12276.206917848625,-12563.175644091943,-9646.6581462264257,981.5084526906162,909.90862039324963,-48.505569124547002,12669.807358984512,-5642.6870680997163,-12149.954265712444,12149.954265712444,5642.6870680997163,24559.150929298248,0.0
703523.2936376977,3642751.2368613081,-2500.0,-12425.336495768923,-10566.390047764624,-7374.5526757804855,900.8989029091897,730.56041241832793,-43.261586051172472,10896.468647545538,-6405.4273758132122,-9380.3097925515613,9380.3097925515613,6405.4273758132122,21337.029329948851,0.0
708523.2936376977,3642751.2368613081,-2500.0,-11900.998245590905,-8741.5689836118217,-5644.6144561206183,795.18517995106515,575.98627116391265,-36.572481825308941,9311.2659827583375,-6545.4942166876999,-7182.0401290579694,7182.0401290579694,6545.4942166876999,18379.76767143526,0.0
713523.2936376977,3642751.2368613081,-2500.0,-11040.220518364462,-7176.2301708504447,-4351.9289728292933,686.25187411765705,450.65896286498258,-30.041148839365519,7939.0367078280487,-6326.5347428740315,-5488.5936121115265,5488.5936121115265,6326.5347428740315,15774.503090648122,0.0
718523.2936376977,3642751.2368613081,-2500.0,-10048.306776059768,-5877.8376109219516,-3391.0163862397008,584.80940189740568,352.12927007683561,-24.307309666175087,6773.8474850265629,-5921.1291089248753,-4202.9927911647974,4202.9927911647974,5921.1291089248753,13531.900141545146,0.0
723523.2936376977,3642751.2368613081,-2500.0,-9042.5458782805526,-4819.8453574174209,-2674.8713533804275,495.14271216342922,275.82336937939175,-19.531213743307603,5835.7956983008917,-5435.5284953586242,-3232.6020326631888,3232.6020326631888,5435.5284953586242,11625.958635403369,0.0
728523.2936376977,3642751.2368613081,-2500.0,-8085.1009458543804,-3965.1416698174517,-2137.3102032504421,418.1519059626645,217.0847043699913,-15.661854523678345,5048.1852589255759,-4931.7858532301334,-2500.4229730128345,2500.4229730128345,4931.7858532301334,10016.471563491865,0.0
733523.2936376977,3642751.2368613081,-2500.0,-7205.1951949480908,-3276.7763917730013,-1729.84070099122,353.12165437391047,171.89975669977923,-12.572442523173354,4380.1597763344234,-4444.0492276770019,-1946.3984602948137,1946.3984602948137,4444.0492276770019,8660.5827422197417,0.0
738523.2936376977,3642751.2368613081,-2500.0,-6413.1796202728719,-2722.1607212396534,-1417.5200246157526,298.68403082210625,137.05127053090055,-10.122620745620543,3814.1041526431541,-3989.5098603592132,-1525.1603164861774,1525.1603164861774,3989.5098603592132,7518.1595602577454,0.0
743523.2936376977,3642751.2368613081,-2500.0,-5709.1025855738235,-2274.1646378812311,-1175.3032671019109,253.31023581988543,110.0517057442905,-8.184289713023956,3334.0194931356505,-3575.3912050668632,-1202.9776584802974,1202.9776584802974,3575.3912050668632,6553.8761777220425,0.0
748523.2936376977,3642751.2368613081,-2500.0,-5087.7754366859508,-1910.8785325666513,-985.21758867528786,215.54208113123224,89.012661571061685,-6.6494810872614929,2925.9740799839583,-3203.2686603294642,-954.94321933893502,954.94321933893502,3203.2686603294642,5737.6584016223669,0.0
543523.2936376977,3647751.2368613081,-2500.0,-5197.3694264060396,1122.1136941789425,-707.94529489071022,-192.90191835019016,45.188082781852927,-4.9783141859065081,2735.8010367236325,-3311.0359712217196,1342.1450580857481,-1342.1450580857481,3311.0359712217196,5263.0965507204783,0.0
548523.2936376977,3647751.2368613081,-2500.0,-5896.036308494653,1355.5512442060265,-827.15825827750564,-227.37211646466577,56.61554412867644,-6.0764602212748926,3123.6503618644269,-3745.0137927894621,1565.2999854897823,-1565.2999854897823,3745.0137927894621,6017.2195601644662,0.0
553523.2936376977,3647751.2368613081,-2500.0,-6716.0973993692705,1649.086415451676,-976.1080256151979,-269.38592117858934,71.486354013721026,-7.4530147994552225,3585.1939951558265,-4250.4595139951907,1835.2262352927398,-1835.2262352927398,4250.4595139951907,6916.4539502988155,0.0
558523.2936376977,3647751.2368613081,-2500.0,-7681.9934499229976,2021.2757318351512,-1164.7511338820971,-320.80334005552857,91.004569350595858,-9.1800341684399509,4137.855302135461,-4840.0626849384535,2163.3504469544123,-2163.3504469544123,4840.0626849384535,7995.6979331983857,0.0
563523.2936376977,3647751.2368613081,-2500.0,-8822.9132964235505,2497.3341388176768,-1407.2315772858942,-383.92600838639277,116.8459159755535,-11.34158243313898,4803.8735717444997,-5528.0177034044009,2564.0245821248013,-2564.0245821248013,5528.0177034044009,9299.7585990572225,0.0
568523.2936376977,3647751.2368613081,-2500.0,-10173.015664671624,3111.8093327678944,-1723.9994954068388,-461.53408039395805,151.35260658465759,-14.025248143043521,5611.7446740840942,-6329.2739691536799,3055.0897401138945,-3055.0897401138945,6329.2739691536799,10886.474275270235,0.0
573523.2936376977,3647751.2368613081,-2500.0,-11770.761178758814,3912.3897821207424,-2145.1846629475513,-556.82751416959331,197.80051059821972,-17.296492280836979,6598.0508209618356,-7257.6331765892119,3658.2535852139486,-3658.2535852139486,7257.6331765892119,12830.810922219949,0.0
578523.2936376977,3647751.2368613081,-2500.0,-13656.154456762755,4965.2603287188631,-2716.0666408494285,-673.11912010063054,260.74163045068536,-21.131590604954042,7809.673411809883,-8321.501414719587,4398.789496666308,-4398.789496666308,8321.501414719587,15230.091250275618,0.0
583523.2936376977,3647751.2368613081,-2500.0,-15863.463166029318,6362.4515532932328,-3506.1301641310592,-812.94064054656405,346.3748424194257,-25.254678345320976,9306.2529992225973,-9514.9724889985337,5303.4199942230798,-5303.4199942230798,9514.9724889985337,18210.420751231897,0.0
588523.2936376977,3647751.2368613081,-2500.0,-18404.254358384889,8231.2828244416487,-4624.3410398649303,-975.80598577695162,462.72853440613761,-28.749815014013006,11162.320878756251,-10799.543929508802,6393.705916056575,-6393.705916056575,10799.543929508802,21933.839480601349,0.0
593523.2936376977,3647751.2368613081,-2500.0,-21230.019521118353,10744.524904787588,-6245.3415179736221,-1152.9745690827913,618.93091231997653,-29.148307424956826,13467.585733997863,-12067.056880063325,7668.7465515176027,-7668.7465515176027,12067.056880063325,26604.529883772426,0.0
598523.2936376977,3647751.2368613081,-2500.0,-24152.162376412882,14124.967778761411,-8654.8439442868803,-1315.6703136438255,821.36595814034911,-20.28927522978957,16322.712854794221,-13065.10890046948,9062.8317873140331,-9062.8317873140331,13065.10890046948,32469.922876917291,0.0
603523.2936376977,3647751.2368613081,-2500.0,-26674.014091480258,18622.696329494043,-12327.859294452772,-1389.6636411708591,1060.2918902746126,12.620886476618036,20004.883576844815,-13248.598077713759,10344.65555414946,-10344.65555414946,13248.598077713759,39808.524903940153,0.0
608523.2936376977,3647751.2368613081,-2500.0,-27648.168267392757,24397.502637108908,-18057.28682573108,-1204.8341914234272,1268.8771418988267,103.81896801557878,24908.105335358927,-11493.867105672774,10881.736965389531,-10881.736965389531,11493.867105672774,48896.740296980388,0.0
613523.2936376977,3647751.2368613081,-2500.0,-24624.46159721844,31106.299422879416,-27129.086331800863,-417.70292452023955,1208.1672481409382,326.52244241922602,31172.145545430318,-5601.3340938759748,9107.2321721486169,-9107.2321721486169,5601.3340938759748,59991.879652504336,0.0
618523.2936376977,3647751.2368613081,-2500.0,-12847.83277527292,36640.976938049338,-41367.7082435376,1482.3312837999038,191.88370134234202,801.74547420150282,39398.199529167439,8293.4204443037943,1426.3843581548099,-1426.3843581548099,-8293.4204443037943,73643.49600661626,0.0
623523.2936376977,3647751.2368613081,-2500.0,15077.463092216009,33750.635358649211,-61960.464548934578,4362.6971683598931,-3232.7706855756678,1522.0865667918258,51514.128090114711,34975.514162864012,-19295.891783328017,19295.891783328017,-34975.514162864012,92628.723256220648,0.0
628523.2936376977,3647751.2368613081,-2500.0,62805.769563761787,3701.8857383550867,-82009.058594180053,3429.7246351070194,-9164.3960507982829,1268.2359190174111,73092.624879003517,71414.571656510496,-61347.235059310013,61347.235059310013,-71414.571656510496,127181.03047888153,1.0
633523.2936376977,3647751.2368613081,-2500.0,99741.413029826916,-77746.452364004668,-58221.113175541708,-14183.785573606645,-1138.2907748855112,-4024.1279294092965,111657.36768245956,76562.80109482682,-104933.36360921325,104933.36360921325,-76562.80109482682,195113.657122153,0.0
638523.2936376977,3647751.2368613081,-2500.0,45113.529842042561,-144048.48899685199,89279.901245806919,-25821.172934023311,53070.06443908003,-13437.874077960889,154477.1259649985,-15898.150466681313,-41350.299228222313,41350.299228222313,15898.150466681313,284014.67214973335,0.0
643523.2936376977,3647751.2368613081,-2500.0,-18336.297537883478,-60929.400137606674,228766.16005946137,13606.634729578258,80546.64881702124,-18425.512133713488,164821.80836431199,-83426.296940004933,108987.13153477082,-108987.13153477082,83426.296940004933,303706.37545516039,0.0
648523.2936376977,3647751.2368613081,-2500.0,11177.481146141614,35395.842517556812,217210.93736359442,30350.198733081859,40881.484433296391,-14606.163547961716,133617.91544012545,-48808.759770531389,154788.72522635121,-154788.72522635121,48808.759770531389,244872.95245746319,0.0
653523.2936376977,3647751.2368613081,-2500.0,48357.297943900812,64341.128587800478,150017.61445016685,16906.425199628218,8502.427878275761,-7274.7379908184539,97613.259164399555,-5851.1026671411819,124843.71733410633,-124843.71733410633,5851.1026671411819,180496.56982289435,0.0
658523.2936376977,3647751.2368613081,-2500.0,61442.551192544772,58062.260367021416,86039.298011637118,4867.8339617589763,-2488.0235665987075,-2664.6540275258549,68656.270776261372,18957.198285719518,79520.344395541732,-79520.344395541732,-18957.198285719518,128432.46806907278,0.0
663523.2936376977,3647751.2368613081,-2500.0,57582.947760010073,40313.911299420157,38958.618631489888,-443.54643440312373,-3770.8297165454869,-737.44125794143349,45690.285328359554,28798.157795232706,39976.8567418803,-39976.8567418803,-28798.157795232706,87068.003847931934,0.0
668523.2936376977,3647751.2368613081,-2500.0,45865.588310949315,22191.141203736315,9499.620207020871,-1792.3223357479776,-2350.9659291695307,-111.77708680843544,29262.099713870601,28961.942931726218,12174.117946203594,-12174.117946203594,-28961.942931726218,57165.977519289001,0.0
673523.2936376977,3647751.2368613081,-2500.0,32330.577098990812,7969.3365873497632,-6295.8735113000193,-1534.6410016719692,-821.16040262822651,30.659956134809079,20950.000997800031,24177.885555630128,-4473.81041996153,4473.81041996153,-24177.885555630128,38565.210217365166,0.0
678523.2936376977,3647751.2368613081,-2500.0,20062.985404824773,-1549.5517752672001,-13062.319058346357,-870.26892365423214,180.31598239233227,30.418915077151961,16654.844690076654,17684.514986586742,-12742.019540286921,12742.019540286921,-17684.514986586742,29061.617805345719,0.0
683523.2936376977,3647751.2368613081,-2500.0,10271.327123465418,-7006.6947014568805,-14612.817840934087,-268.41209355788368,680.42668327092997,4.1074129668761934,14297.605065631193,11370.270923752905,-15565.882247824415,15565.882247824415,-11370.270923752905,24860.246901903651,0.0
688523.2936376977,3647751.2368613081,-2500.0,3145.8255026705788,-9502.06371805257,-13599.77295710721,147.7807757329951,850.25382695621431,-16.505767960099782,12687.248979870099,6141.9157609161766,-15321.726651646903,15321.726651646903,-6141.9157609161766,22595.624224086467,0.0
693523.2936376977,3647751.2368613081,-2500.0,-1633.2903059239998,-10109.281262691964,-11619.565424958255,388.57256785313444,840.64412177791462,-27.075152087777422,11300.109613077188,2252.9661745258836,-13643.453389456869,13643.453389456869,-2252.9661745258836,20676.349793534009,0.0
698523.2936376977,3647751.2368613081,-2500.0,-4578.4581925668435,-9662.7430590817312,-9499.5999633899828,501.05352455446791,750.60413749325903,-30.208015111345535,9995.6244443272626,-405.44544508541276,-11504.071374686264,11504.071374686264,405.44544508541276,18703.903171056645,0.0
703523.2936376977,3647751.2368613081,-2500.0,-6205.2325242965671,-8720.8959579940129,-7596.7392038595108,531.70728332543877,635.62532217636738,-29.099097199625763,8770.9212675207073,-2085.4699051125444,-9404.126163856643,9404.126163856643,2085.4699051125444,16700.219200738597,0.0
708523.2936376977,3647751.2368613081,-2500.0,-6943.7093825316624,-7616.3495038750998,-6019.6062287739032,515.57346190981184,522.88802776286741,-26.031869092687632,7649.7439312867236,-3053.9849317367348,-7556.0948687326218,7556.0948687326218,3053.9849317367348,14763.455021099286,0.0
713523.2936376977,3647751.2368613081,-2500.0,-7116.3250688966746,-6526.6688582213937,-4763.9397541516955,475.85951054791457,423.53169433981333,-22.349108906809061,6648.2022664790165,-3536.4127865501905,-6018.4800876876488,6018.4800876876488,3536.4127865501905,12968.428200163902,0.0
718523.2936376977,3647751.2368613081,-2500.0,-6948.6219454738148,-5534.4707170001939,-3783.9410424628418,426.67460146883349,340.53211893751438,-18.740295460266925,5769.8980034344368,-3702.9263481570943,-4777.9137634421804,4777.9137634421804,3702.9263481570943,11353.093814192267,0.0
723523.2936376977,3647751.2368613081,-2500.0,-6590.813564983725,-4669.1422864067681,-3025.4439299934238,375.98710556814888,273.16691114145533,-15.507436750001679,5009.2576767346445,-3673.6740378678473,-3793.6649375245602,3793.6649375245602,3673.6740378678473,9927.4237831651153,0.0
728523.2936376977,3647751.2368613081,-2500.0,-6139.1514666162948,-3932.6855562847745,-2439.1730523870897,327.93030565982713,219.32848678982765,-12.744771463384163,4355.9237553667263,-3529.7945290791854,-3019.3192911984493,3019.3192911984493,3529.7945290791854,8684.4748601522897,0.0
733523.2936376977,3647751.2368613081,-2500.0,-5653.1581737569441,-3314.5322914419239,-1984.6704110476599,284.37424392531744,176.62347724144681,-10.445577357279555,3813.8733575930964,-3324.2957610833205,-2412.0589945476745,2412.0589945476745,3324.2957610833205,7608.7024140344811,0.0
738523.2936376977,3647751.2368613081,-2500.0,-5168.2138705171064,-2799.507104367789,-1630.3233351419451,245.92073209049767,142.83871314824216,-8.5606398519229625,3363.3964962241039,-3090.827880927684,-1935.7726520049705,1935.7726520049705,3090.827880927684,6681.2246157405189,0.0
743523.2936376977,3647751.2368613081,-2500.0,-4704.238430540041,-2371.8220270183001,-1352.0465524967476,212.50280835433543,116.09814608497817,-7.0277193975322616,2972.6852232572232,-2850.1190777050697,-1561.3686981763949,1561.3686981763949,2850.1190777050697,5882.8186364648018,0.0
748523.2936376977,3647751.2368613081,-2500.0,-4271.4750797567585,-2016.8920833187726,-1131.7135520307183,183.73239229589507,94.880534933103618,-5.7856583180021373,2634.0256251872734,-2614.4590501023226,-1265.9888354335321,1265.9888354335321,2614.4590501023226,5195.4597397561856,0.0
543523.2936376977,3652751.2368613081,-2500.0,-4818.2454678073691,1357.4967616082047,-834.10872226080483,-179.78404016328145,55.567159231143769,-4.6794841152631177,2622.8225689893402,-2986.6051686474025,1350.0143608440635,-1350.0143608440635,2986.6051686474025,5049.8000334675689,0.0
548523.2936376977,3652751.2368613081,-2500.0,-5417.3790342151369,1625.1457328473721,-984.13402840785579,-210.23480222082296,69.018220949335372,-5.673587569399718,2980.0416851109958,-3337.9925748192513,1557.9059388560058,-1557.9059388560058,3337.9925748192513,5746.2147104130763,0.0
553523.2936376977,3652751.2368613081,-2500.0,-6106.9507106121118,1957.3016222353513,-1172.867678456864,-246.80373472206671,86.326043387266395,-6.9057245977110107,3401.1559670439851,-3735.7618873588517,1803.9500600786871,-1803.9500600786871,3735.7618873588517,6569.3057066678539,0.0
558523.2936376977,3652751.2368613081,-2500.0,-6900.1918331089673,2372.1436863886811,-1413.2536460468496,-290.77799489513291,108.75531651834767,-8.4311980797822894,3899.9228640289857,-4183.7328189442505,2095.2654164103315,-2095.2654164103315,4183.7328189442505,7547.0872795354035,0.0
563523.2936376977,3652751.2368613081,-2500.0,-7810.4665416764174,2893.5186344273625,-1723.5012491868622,-343.63395890743936,138.02175570386424,-10.310737675846493,4493.3391240722349,-4683.6858739598538,2439.6458603309666,-2439.6458603309666,4683.6858739598538,8714.5311150580601,0.0
568523.2936376977,3652751.2368613081,-2500.0,-8849.398777147313,3552.7027029622432,-2129.5804886683445,-406.95960726021514,176.44987308362846,-12.600644060475267,5202.317481453324,-5233.0768846005576,2844.8579914143443,-2844.8579914143443,5233.0768846005576,10115.266822711763,0.0
573523.2936376977,3652751.2368613081,-2500.0,-10023.110018085665,4390.5201881274452,-2669.0413257486316,-482.23620983308888,227.16510448205068,-15.327857009355338,6052.3409935364552,-5820.9327803696306,3316.9854942706902,-3316.9854942706902,5820.9327803696306,11803.498737748812,0.0
578523.2936376977,3652751.2368613081,-2500.0,-11324.986110826692,5459.5786645783419,-3396.9080729241518,-570.32967218643216,294.29101117651493,-18.432118655675481,7073.8859816387676,-6420.556063196811,3856.8688038049845,-3856.8688038049845,6420.556063196811,13845.93764069897,0.0
583523.2936376977,3652751.2368613081,-2500.0,-12722.068019370803,6825.7909051653642,-4394.8006677478152,-670.39687105858161,383.04653592139641,-21.637312073074547,8302.1343373516429,-6976.6171684758392,4452.7622930418602,-4452.7622930418602,6976.6171684758392,16323.209672095158,0.0
588523.2936376977,3652751.2368613081,-2500.0,-14129.815051504474,8566.8689775856255,-5784.9419846815463,-777.64189901573741,499.44120027958485,-24.173015317131831,9774.9903067057949,-7382.4541251937208,5065.5103544063877,-5065.5103544063877,7382.4541251937208,19329.575499236849,0.0
593523.2936376977,3652751.2368613081,-2500.0,-15366.008536174533,10761.894245779895,-7751.0621500875532,-878.88970432548854,648.77368832500792,-24.185226492399249,11528.262625715694,-7440.6676258298294,5599.0351392414641,-5599.0351392414641,7440.6676258298294,22968.825731098743,0.0
598523.2936376977,3652751.2368613081,-2500.0,-16068.466929824495,13457.481209126172,-10567.184192990078,-944.2874795904994,830.9547846188799,-17.533824011236121,13767.701420219226,-6796.7152481563016,5842.3985566949823,-5842.3985566949823,6796.7152481563016,27343.257664172357,0.0
603523.2936376977,3652751.2368613081,-2500.0,-15555.004748301706,16576.110701107977,-14628.355943121011,-913.20315347970325,1028.0301372393626,4.4796364258007157,16615.719273938619,-4834.7773642072179,5359.0489056780089,-5359.0489056780089,4834.7773642072179,32534.792922751756,0.0
608523.2936376977,3652751.2368613081,-2500.0,-12611.098194481548,19688.624380258134,-20449.154788135511,-675.86945058504091,1174.4016839178578,58.560728009156087,20106.371460803224,-544.24696362663303,3288.3209844695248,-3288.3209844695248,544.24696362663303,38596.563817045942,0.0
613523.2936376977,3652751.2368613081,-2500.0,-5268.1218039954074,21492.823399075849,-28497.071843433234,-72.59628537863864,1096.9906289097075,170.64606442100407,24458.689766114803,7534.9450837759141,-1951.1979673205315,1951.1979673205315,-7534.9450837759141,45661.269495339824,0.0
618523.2936376977,3652751.2368613081,-2500.0,9026.0897878315718,18776.619254748417,-38422.168350666747,992.93016354309464,445.92966771007576,354.62273239336633,30294.081255811601,20814.380693864863,-12841.639613227853,12841.639613227853,-20814.380693864863,54555.697380138299,0.0
623523.2936376977,3652751.2368613081,-2500.0,31415.479070170721,5078.9428802263528,-46500.331859095561,2072.5594153649363,-1132.4072826002957,495.93211634666125,39367.930946457542,38166.428221225207,-31620.488423743107,31620.488423743107,-38166.428221225207,68643.214747094127,0.0
628523.2936376977,3652751.2368613081,-2500.0,54964.183475840706,-27762.775622137375,-39589.095507419348,1331.0401736658637,-2624.5400406304548,38.067764455018782,54907.25350857895,49209.487900493928,-53980.738458055464,53980.738458055464,-49209.487900493928,95404.670625410334,0.0
633523.2936376977,3652751.2368613081,-2500.0,56424.670128331432,-74305.448573253583,8748.2661048288301,-2709.6540479946989,1026.0050269614155,-2046.9750748841313,78077.045964802499,29324.369531380922,-54834.320909872746,54834.320909872746,-29324.369531380922,139618.54751392591,1.0
638523.2936376977,3652751.2368613081,-2500.0,19536.388704489975,-90262.266584898331,105726.16228186477,-3677.9329214297309,12661.597351611819,-5393.3490845505712,100707.41215185396,-29228.409931692397,2437.9272806642639,-2437.9272806642639,29228.409931692397,187515.91231750615,0.0
643523.2936376977,3652751.2368613081,-2500.0,-12652.689721020535,-41309.543331730667,184263.91637154992,3721.7511168895148,17856.622910150079,-7038.58627833015,109094.05757642936,-70956.470444132006,89249.062463669819,-89249.062463669819,70956.470444132006,209331.61267834602,0.0
648523.2936376977,3652751.2368613081,-2500.0,-1784.8940791347284,22368.650058365223,186647.13918091773,7821.3622133478257,9232.9097661886608,-5586.9649432657297,100891.10152517857,-58751.415400606529,130095.20070049132,-130095.20070049132,58751.415400606529,195391.52834775153,0.0
653523.2936376977,3652751.2368613081,-2500.0,25432.293221042004,53403.190427258814,141459.07489858891,4646.5728952269437,-199.11908744379258,-3043.393199458556,83686.389757839046,-24521.436571426602,117596.62139134933,-117596.62139134933,24521.436571426602,161856.77045669936,0.0
658523.2936376977,3652751.2368613081,-2500.0,42668.67429511236,55245.990613959875,89634.63440436883,456.10791684362448,-3925.5674622050315,-1234.1053735312157,64173.742459846006,2997.0356110409484,83933.531546592931,-83933.531546592931,-2997.0356110409484,124090.30763911546,0.0
663523.2936376977,3652751.2368613081,-2500.0,46581.016745063862,43754.499371143793,48198.018599598559,-1757.3331713383409,-3866.5031429968176,-359.57048462895483,46157.8691556415,17934.433137198626,50264.750658721801,-50264.750658721801,-17934.433137198626,89885.589979802942,0.0
668523.2936376977,3652751.2368613081,-2500.0,41943.104278685234,29202.037621848671,20090.757357696308,-2264.0734609698256,-2561.3874624872237,-37.40832957201949,31687.302391960231,23043.75601737879,24220.31653783267,-24220.31653783267,-23043.75601737879,62576.776732932354,0.0
673523.2936376977,3652751.2368613081,-2500.0,33523.447901094049,16311.066551116613,3217.2849689812679,-1924.2815552460177,-1256.4716667629973,43.527494174227407,22345.6245647953,22230.095531347222,6802.4912178166551,-6802.4912178166551,-22230.095531347222,42880.276084462828,0.0
678523.2936376977,3652751.2368613081,-2500.0,24401.974053249876,6618.5700758320563,-5652.8292730778958,-1329.8049872813012,-329.19488238437361,41.425352581818807,16456.816525086651,18550.740608543529,-3470.9830161269047,3470.9830161269047,-18550.740608543529,30027.032772691888,0.0
683523.2936376977,3652751.2368613081,-2500.0,16186.625207227256,138.02948554867294,-9430.9545899062468,-766.86210526249386,214.6691990530874,20.583299509811184,12830.164761418229,13976.861682891247,-8645.563820184334,8645.563820184334,-13976.861682891247,22481.68308928395,0.0
688523.2936376977,3652751.2368613081,-2500.0,9524.266236381638,-3722.9850388228983,-10297.020483497714,-334.02878409066415,477.97915035039944,2.113189693421607,10602.927394523726,9609.9127791787905,-10561.110608491257,10561.110608491257,-9609.9127791787905,18368.871789945315,0.0
693523.2936376977,3652751.2368613081,-2500.0,4508.3291910987236,-5696.4380267175757,-9698.2865316664193,-39.865049452349041,566.83425900465841,-9.5830486915406041,9120.8138298467766,5950.5517962075955,-10608.944243635286,10608.944243635286,-5950.5517962075955,16011.624143591329,0.0
698523.2936376977,3652751.2368613081,-2500.0,954.58166175183953,-6435.3098474477147,-8499.7951533865689,140.73589929537766,560.17490095122753,-15.415394234901262,8000.3681435393173,3130.5634753671243,-9723.6475479663186,9723.6475479663186,-3130.5634753671243,14366.484037904585,0.0
703523.2936376977,3652751.2368613081,-2500.0,-1424.4709551471362,-6436.8837474593283,-7166.43096184755,239.46287804920965,508.44433734661663,-17.335766546464949,7062.824579187627,1088.6023036980023,-8472.4839037381807,8472.4839037381807,-1088.6023036980023,12972.194864858448,0.0
708523.2936376977,3652751.2368613081,-2500.0,-2921.0641726601575,-6042.1719023975184,-5917.830632846043,283.87094254078994,440.65553107784694,-17.009943376369744,6238.6156894054202,-313.92015150904217,-7166.7782504859279,7166.7782504859279,313.92015150904217,11681.811350044412,0.0
713523.2936376977,3652751.2368613081,-2500.0,-3786.6733544704093,-5466.8693561282753,-4837.6131333023886,294.59815215502192,371.9343083216408,-15.570976907551573,5503.9220426885886,-1227.8257713212197,-5957.5503188591929,5957.5503188591929,1227.8257713212197,10470.159518040915,0.0
718523.2936376977,3652751.2368613081,-2500.0,-4218.6524838017203,-4837.941708312389,-3941.1480648740944,285.84415050581129,309.22645927709073,-13.701812013175163,4850.1725064607253,-1786.3678216478074,-4903.9936036420759,4903.9936036420759,1786.3678216478074,9345.6273211313783,0.0
723523.2936376977,3652751.2368613081,-2500.0,-4363.0877924264232,-4224.5244081673973,-3213.6911772628664,266.82655206103476,255.01970599161814,-11.777410585525347,4272.1651735594996,-2095.8209408269067,-4017.1315749188143,4017.1315749188143,2095.8209408269067,8318.7827833911324,0.0
728523.2936376977,3652751.2368613081,-2500.0,-4323.8588261349778,-3660.3459560211581,-2630.0920341031447,243.25353752309863,209.56212549234968,-9.9827677366353473,3764.438340104733,-2235.9843320249624,-3285.3759887624706,3285.3759887624706,2235.9843320249624,7394.2772356405758,0.0
733523.2936376977,3652751.2368613081,-2500.0,-4172.6778481208521,-3158.6143349560443,-2164.0837125980834,218.50048081671395,172.09894805025382,-8.3940967780355944,3320.7305143504291,-2264.4831537058772,-2688.4479616535473,2688.4479616535473,2264.4831537058772,6570.6901248221438,0.0
738523.2936376977,3652751.2368613081,-2500.0,-3957.8788350906698,-2721.3206111713048,-1792.1060324410209,194.4541517287964,141.52118690618241,-7.0293246635229112,2934.4423229043427,-2221.8101381754573,-2204.4088664692431,2204.4088664692431,2221.8101381754573,5842.3814379459636,0.0
743523.2936376977,3652751.2368613081,-2500.0,-3711.3312815619461,-2344.7942799711518,-1494.462341471376,172.08235923805134,116.68254285795499,-5.8776202783001201,2605.0495099254513,-2135.8338660791355,-1812.8658944342089,1812.8658944342089,2135.8338660791355,5201.3701763551271,0.0
543523.2936376977,3657751.2368613081,-2500.0,-4371.3070568452049,1528.543761893254,-966.06835192412473,-164.2317680477212,63.542641003690306,-4.3233250743031952,2482.4814839691703,-2617.6678522535021,1297.4620030808715,-1297.4620030808715,2617.6678522535021,4785.1794995079417,0.0
548523.2936376977,3657751.2368613081,-2500.0,-4860.3311789629133,1811.4938191127867,-1145.3931046369498,-190.16002735696378,78.204011549650843,-5.1987882315225429,2803.6581132558281,-2880.9544570167241,1476.1114160772545,-1476.1114160772545,2880.9544570167241,5413.6788724227608,0.0
553523.2936376977,3657751.2368613081,-2500.0,-5408.0082432452964,2156.9333755640164,-1370.7738192222344,-220.69588687419602,96.822140995650699,-6.2684759883080341,3177.8038213645032,-3165.9643365233987,1680.7624692127702,-1680.7624692127702,3165.9643365233987,6148.2756065399853,0.0
558523.2936376977,3657751.2368613081,-2500.0,-6017.1464549717348,2580.213041087492,-1657.017948436712,-256.564354292693,120.5883534636168,-7.5707552534791311,3614.8386700199703,-3468.7515945569653,1913.4041801097515,-1913.4041801097515,3468.7515945569653,7009.7643920797873,0.0
563523.2936376977,3657751.2368613081,-2500.0,-6686.9826873281709,3100.3561801187939,-2024.5170869715193,-298.45802188557502,151.06343807549248,-9.143368200428327,4126.4012335307016,-3780.7531232008832,2174.4136602391454,-2174.4136602391454,3780.7531232008832,8023.0446045569824,0.0
568523.2936376977,3657751.2368613081,-2500.0,-7410.0072364014604,3740.5056484696761,-2501.5805191080631,-346.87678389730769,190.27106390458607,-11.013007987350266,4725.8674984351337,-4085.7334074087171,2460.8003477031666,-2460.8003477031666,4085.7334074087171,9217.595930658772,0.0
573523.2936376977,3657751.2368613081,-2500.0,-8166.5926085941255,4527.8504779493524,-3127.7590233669971,-401.81074340470985,240.77936848206124,-13.172300146031628,5428.0623088737429,-4354.87252496576,2763.0466378987749,-2763.0466378987749,4354.87252496576,10627.650169560071,0.0
578523.2936376977,3657751.2368613081,-2500.0,-8916.0243403236618,5492.2133714568072,-3958.4977411033724,-462.1401920702026,305.71269588594299,-15.532186775912159,6248.3573979606035,-4538.9386866291952,3059.4922196827006,-3059.4922196827006,4538.9386866291952,12291.693477363548,0.0
583523.2936376977,3657751.2368613081,-2500.0,-9581.6856831565365,6661.5256362814507,-5071.363813319932,-524.53426472511728,388.54995102612259,-17.826226535142418,7200.6062493357304,-4555.9776720141526,3306.4400131287448,-3306.4400131287448,4555.9776720141526,14250.628750856375,0.0
588523.2936376977,3657751.2368613081,-2500.0,-10027.123962125239,8050.5304989336018,-6573.5846686571967,-581.49982026054795,492.38304213726661,-19.42517069052516,8294.1067811958656,-4272.5195402729305,3420.9719913003646,-3420.9719913003646,4272.5195402729305,16543.695505672895,0.0
593523.2936376977,3657751.2368613081,-2500.0,-10018.773176773904,9635.2403630376375,-8608.7767560300417,-618.0890897222996,617.92408707977597,-18.994086241991837,9682.6097739375455,-3476.51795086933,3251.794354480603,-3251.794354480603,3476.51795086933,19201.280751587386,0.0
598523.2936376977,3657751.2368613081,-2500.0,-9172.2354661714926,11298.559454044864,-11355.278140870809,-606.83048380097523,758.82010007460883,-13.911038101066161,11374.626022216564,-1843.423514548497,2532.1575263357436,-2532.1575263357436,1843.423514548497,22235.963785169522,0.0
603523.2936376977,3657751.2368613081,-2500.0,-6888.1076233710482,12720.586071265454,-14993.495211353429,-501.44163120625558,891.70665253228935,0.530862665025289,13374.867850828101,1090.6491194168891,811.89691860351934,-811.89691860351934,-1090.6491194168891,25643.038361434112,0.0
608523.2936376977,3657751.2368613081,-2500.0,-2317.6511442285891,13173.84818559962,-19581.673422039072,-234.02842632832085,957.83100170000807,31.506464328755484,15773.525904830263,5895.8946303415314,-2612.7644924689293,2612.7644924689293,-5895.8946303415314,29456.550589214006,0.0
613523.2936376977,3657751.2368613081,-2500.0,5502.3467717456424,11197.36127248796,-24694.444649107598,267.48199724829459,838.25900627759881,85.732129462019643,18820.934953486663,13003.563117895443,-8670.1867226727845,8670.1867226727845,-13003.563117895443,34001.278159483263,0.0
618523.2936376977,3657751.2368613081,-2500.0,16990.294375159028,4281.8349371319437,-28540.49498212141,1002.6095064181344,353.71740926850998,154.37916603931771,23196.461690115044,21906.84380849214,-18044.447269005181,18044.447269005181,-21906.84380849214,40599.774237952544,0.0
623523.2936376977,3657751.2368613081,-2500.0,30273.140960647743,-10680.255676846302,-26300.384088844999,1730.5896407974947,-597.9986738864028,170.38207685094838,30288.180775452369,29385.259885205294,-29476.397876397055,29476.397876397055,-29385.259885205294,52497.446203554675,0.0
628523.2936376977,3657751.2368613081,-2500.0,38677.970125792897,-34140.651234543657,-8724.7219020283555,1898.2933441247428,-1617.544253455625,-46.884747640242544,41619.199581621455,27552.154286953541,-36178.83157982328,36178.83157982328,-27552.154286953541,73663.962208928482,1.0
633523.2936376977,3657751.2368613081,-2500.0,32251.227611076152,-56607.348994931104,33481.627934395765,1305.9782202053839,-1585.1691682272597,-699.19163559178378,56634.631203764831,7157.3915307928874,-24000.103675672282,24000.103675672282,-7157.3915307928874,103699.64861027189,0.0
638523.2936376977,3657751.2368613081,-2500.0,10920.049652973403,-57572.733289484568,93183.861072760526,1066.1078814310927,-312.20788879980671,-1596.7688861634847,70777.557960983482,-27546.009730043916,16339.518639441092,-16339.518639441092,27546.009730043916,133795.54420883988,1.0
643523.2936376977,3657751.2368613081,-2500.0,-5991.4127736820019,-28283.626041362841,138655.33552868103,1781.1337965718087,-143.65305462799603,-2049.8385908725882,77812.916426968222,-51986.681703925715,67206.591330497875,-67206.591330497875,51986.681703925715,150922.33645255084,0.0
648523.2936376977,3657751.2368613081,-2500.0,-3039.9781031421894,10907.786448075522,145096.94008979222,1781.0752992849204,-2168.9202260226812,-1713.9810508162468,75457.30685181162,-49441.792851109349,96836.789071851352,-96836.789071851352,49441.792851109349,148763.04793568386,0.0
653523.2936376977,3657751.2368613081,-2500.0,12301.821640715829,36508.009537838414,120055.74509453149,367.69394306139128,-4212.0325778985589,-1003.7140952575023,66661.315525642683,-29365.563252623135,95780.98977256332,-95780.98977256332,29365.563252623135,131429.83874745452,0.0
658523.2936376977,3657751.2368613081,-2500.0,26292.585664851227,43814.795260442675,84338.770685484211,-1246.5667118671154,-4686.5991964986015,-414.36271788438944,54516.235793993459,-7920.5250609182476,76255.661085970612,-76255.661085970612,7920.5250609182476,107063.62793899346,0.0
663523.2936376977,3657751.2368613081,-2500.0,33116.125586528018,39278.94601258605,51758.271006476469,-2139.0303452371359,-3899.8552391489593,-90.159182879886416,41785.110418694741,7068.9896356485333,52046.936237114329,-52046.936237114329,-7068.9896356485333,82201.478625779462,0.0
668523.2936376977,3657751.2368613081,-2500.0,33339.503092234459,29884.645021936973,27233.848006871453,-2270.808300075033,-2675.5321628586316,37.522639110413863,30495.525771849185,14803.514427028656,30700.813506793093,-30700.813506793093,-14803.514427028656,60491.252856487394,0.0
673523.2936376977,3657751.2368613081,-2500.0,29470.41435179301,19962.728167402634,10874.418693108595,-1952.1477194360773,-1544.9944767511831,64.590721072457498,22112.189936450839,17123.144075068638,14725.834035452075,-14725.834035452075,-17123.144075068638,43333.683930331099,0.0
678523.2936376977,3657751.2368613081,-2500.0,23795.393277131981,11525.427411131814,1027.0401781525659,-1469.9464364126572,-702.86316185964847,53.07301254725504,16246.947748398343,16171.664466123719,4052.776558993256,-4052.776558993256,-16171.664466123719,30789.49255332517,0.0
683523.2936376977,3657751.2368613081,-2500.0,17843.339406484654,5182.5378695438258,-4244.4809492721388,-995.11489158119571,-156.15353762908171,32.865986982713956,12226.400635510476,13624.209172895688,-2363.9572132095627,2363.9572132095627,-13624.209172895688,22255.566566279111,0.0
688523.2936376977,3657751.2368613081,-2500.0,12455.426465203471,839.99061011177253,-6587.7305702362419,-602.36221053335669,158.36630107907877,15.273640674691922,9575.2807640776991,10578.459835938123,-5744.5624599196071,5744.5624599196071,-10578.459835938123,16845.769837585176,0.0
693523.2936376977,3657751.2368613081,-2500.0,7990.1665245105396,-1878.3564461613873,-7214.6747512572856,-309.27422403659904,313.98979469374689,3.0295256493067533,7843.3137061449015,7657.4493648488433,-7147.470565422359,7147.470565422359,-7657.4493648488433,13590.650998806397,0.0
698523.2936376977,3657751.2368613081,-2500.0,4512.2761062477366,-3403.9348595440852,-6933.0207502365583,-106.35508428494663,371.09497601373812,-4.3529730054471507,6669.0900096029764,5152.8871429290966,-7369.1022161409755,7369.1022161409755,-5152.8871429290966,11614.989625888991,0.0
703523.2936376977,3657751.2368613081,-2500.0,1932.3940536200828,-4117.8655813970645,-6238.3896067337946,25.173544954850129,372.42984589963663,-8.1907503541688182,5810.4448754042778,3152.3042698843574,-6953.6212760139251,6953.6212760139251,-3152.3042698843574,10293.684487572416,0.0
708523.2936376977,3657751.2368613081,-2500.0,98.486154232659047,-4315.6008106537492,-5411.5508640416829,104.53608117353923,345.51497338151529,-9.7328059322472367,5129.1529086983928,1633.6051551271257,-6244.7196206155595,6244.7196206155595,-1633.6051551271257,9275.7794846333363,0.0
713523.2936376977,3657751.2368613081,-2500.0,-1151.2565642130369,-4207.6144607083424,-4597.6479062009821,147.88206452559018,306.7996379936838,-9.9166331109486805,4555.1510804607997,526.7428443259887,-5443.9718208586219,5443.9718208586219,-526.7428443259887,8400.8224535341305,0.0
718523.2936376977,3657751.2368613081,-2500.0,-1962.3692243078822,-3934.7055845932432,-3862.274997778035,167.48382918330722,265.43761013371295,-9.3702415256492024,4055.2193341041975,-250.79949148527476,-4660.1513363172817,4660.1513363172817,250.79949148527476,7607.6020534597446,0.0
723523.2936376977,3657751.2368613081,-2500.0,-2454.5590691723514,-3586.222114473876,-3227.5539706627942,172.10681897365089,226.09585362310079,-8.4840511867607535,3613.5515923176604,-776.35638587765584,-3945.3424972641151,3945.3424972641151,776.35638587765584,6877.2665404521158,0.0
728523.2936376977,3657751.2368613081,-2500.0,-2720.9915326574046,-3216.0282425393839,-2693.7185754461798,167.74637173097182,190.83530630144853,-7.486141815295305,3221.7600157142474,-1115.099508770197,-3319.0730689621705,3319.0730689621705,1115.099508770197,6205.8064626944715,0.0
733523.2936376977,3657751.2368613081,-2500.0,-2831.5318665121372,-2854.7062010822174,-2251.2577814594697,158.36681030952951,160.28755301403399,-6.5009914251771219,2874.3362279484591,-1318.7053746650413,-2783.4095855859837,2783.4095855859837,1318.7053746650413,5592.7260057113481,0.0
738523.2936376977,3657751.2368613081,-2500.0,-2837.2038567222971,-2518.169296482647,-1887.3453399462619,146.51181669891236,134.35425691722747,-5.5903296178819994,2566.8119534301918,-1426.5941710940579,-2331.9079762386473,2331.9079762386473,1426.5941710940579,5037.1335397655084,0.0
743523.2936376977,3657751.2368613081,-2500.0,-2774.5328164450707,-2213.4318305815673,-1589.0012545018658,133.76350314477369,112.60482605997485,-4.7795104841532909,2295.1263584357253,-1468.0578506350464,-1954.661249772005,1954.661249772005,1468.0578506350464,4536.8433373881653,0.0
543523.2936376977,3662751.2368613081,-2500.0,-3882.458669283611,1632.8349970312713,-1092.5382343720826,-147.11426774288154,68.981204898533534,-3.9285945516464116,2321.2659414725499,-2226.2515539746209,1194.8506447390678,-1194.8506447390678,2226.2515539746209,4481.4634536747371,0.0
548523.2936376977,3662751.2368613081,-2500.0,-4259.2998280897664,1913.1659580303044,-1296.1178081849516,-168.34191577397291,84.054251545683528,-4.6785873155133633,2603.2142783664422,-2402.9820979900524,1334.7886652792949,-1334.7886652792949,2402.9820979900524,5036.0556714251425,0.0
553523.2936376977,3662751.2368613081,-2500.0,-4665.3103542444369,2248.6248081674635,-1550.2788068338912,-192.71637476220917,102.9047670454123,-5.5790780603349353,2926.9536776539144,-2579.720366995939,1487.1318877823983,-1487.1318877823983,2579.720366995939,5675.6880411195207,0.0
558523.2936376977,3662751.2368613081,-2500.0,-5094.9045600008094,2650.0902114928208,-1870.1658739769866,-220.47136462894642,126.54738053219468,-6.6528053695518272,3298.7814968365774,-2746.8074389177164,1648.9587936929538,-1648.9587936929538,2746.8074389177164,6414.340434357352,0.0
563523.2936376977,3662751.2368613081,-2500.0,-5536.6191655322218,3129.6984465372425,-2275.9739388375638,-251.64409546765287,156.24813963965923,-7.9171085387849471,3725.4329844766235,-2888.6863544498274,1813.9617198474962,-1813.9617198474962,2888.6863544498274,7267.7004308078167,0.0
568523.2936376977,3662751.2368613081,-2500.0,-5969.5789702477423,3700.0068928464002,-2794.6282975901095,-285.87445685770871,193.54561969270082,-9.373621725415104,4213.6449075133223,-2980.9017995404533,1970.1471700326379,-1970.1471700326379,2980.9017995404533,8252.799945908364,0.0
573523.2936376977,3662751.2368613081,-2500.0,-6358.0845872089121,4371.9909878322123,-3461.8502298963849,-322.0594121350648,240.22023475298852,-10.988072014467395,4769.2901676290876,-2985.7171255953153,2096.1277859085467,-2096.1277859085467,2985.7171255953153,9387.1363205523521,0.0
578523.2936376977,3662751.2368613081,-2500.0,-6643.4861567444241,5150.7999051856859,-4324.4084579063401,-357.77337740683959,298.13781246239296,-12.652484519077495,5395.8321254057209,-2845.8914517788703,2155.2245257081336,-2155.2245257081336,2845.8914517788703,10686.97997060856,0.0
583523.2936376977,3662751.2368613081,-2500.0,-6732.3478102767785,6027.316795561419,-5441.8304442285562,-388.3247481880403,368.8173341090029,-14.117001820453275,6093.6427493093788,-2476.2798250312312,2086.2850586501513,-2086.2850586501513,2476.2798250312312,12164.545902354292,0.0
588523.2936376977,3662751.2368613081,-2500.0,-6480.1792704104082,6962.0978516849409,-6885.565021875912,-405.29031281403633,452.43127904287741,-14.872961037390391,6979.6312697032108,-1753.6395351927135,1789.9560021810144,-1789.9560021810144,1753.6395351927135,13824.064117590364,0.0
593523.2936376977,3662751.2368613081,-2500.0,-5671.5546744564172,7855.9878695451589,-8730.603774206571,-394.41699204880041,545.7069060244088,-13.966936343643987,8019.483843397471,-507.28027945485547,1109.7280028735208,-1109.7280028735208,507.28027945485547,15658.308902246717,0.0
598523.2936376977,3662751.2368613081,-2500.0,-4002.5260097925348,8499.043682670761,-11028.04981437041,-333.10242247472695,637.86515534203932,-9.7520280970005011,9213.4754400075144,1480.8002400503651,-189.72337939885495,189.72337939885495,-1480.8002400503651,17652.373085591305,0.0
603523.2936376977,3662751.2368613081,-2500.0,-1084.5192850672256,8488.9738038684718,-13733.842502898457,-188.72147767387904,703.53261094070263,0.30072394444456663,10603.568129193554,4443.6650475880178,-2433.8119021655025,2433.8119021655025,-4443.6650475880178,19816.261044126066,0.0
608523.2936376977,3662751.2368613081,-2500.0,3481.6939615394685,7122.3510430689239,-16545.782178197755,78.311998534725731,692.47362355129167,19.244343235668858,12306.135144966931,8514.5078444852643,-5997.4237644551831,5997.4237644551831,-8514.5078444852643,22302.12638693484,0.0
613523.2936376977,3662751.2368613081,-2500.0,9863.7674196569351,3315.024886295841,-18575.617749840603,498.24069809940852,520.81586388059964,48.41395278166344,14621.615612245134,13438.407233166301,-11108.817375300056,11108.817375300056,-13438.407233166301,25700.658037134523,0.0
618523.2936376977,3662751.2368613081,-2500.0,17457.509046730269,-4241.3808013885873,-17813.958998862356,1051.5970955449015,81.785553582324994,80.881907123442531,18169.572666986507,18019.702176623479,-17304.489896132294,17304.489896132294,-18019.702176623479,31471.098634094826,0.0
623523.2936376977,3662751.2368613081,-2500.0,24096.248790336376,-16215.874495842474,-10634.348494881286,1613.5083394229953,-688.84265931204629,89.954614139599897,23809.867593083436,19459.709327105174,-22376.378694211369,22376.378694211369,-19459.709327105174,41795.467572750997,0.0
628523.2936376977,3662751.2368613081,-2500.0,25849.375094770738,-30609.561064519123,7552.920332785031,1959.5845813075343,-1689.1943428760028,25.412599967063503,32016.790033757687,13594.170529387211,-21358.269841545156,21358.269841545156,-13594.170529387211,57966.076869963486,1.0
633523.2936376977,3662751.2368613081,-2500.0,19390.551110651217,-40736.949836830718,38539.459758952929,1940.320482425951,-2634.5816717012353,-147.42658431934007,41922.683713877203,-2012.2278982128541,-7957.9419391450883,7957.9419391450883,2012.2278982128541,78314.48820867858,0.0
638523.2936376977,3662751.2368613081,-2500.0,7060.9313648293346,-37762.620458340141,75337.458547376926,1645.494216428589,-3368.052501622501,-366.22706089245958,50982.926173135995,-22735.102795807456,19031.76205854088,-19031.76205854088,22735.102795807456,97694.156574406836,1.0
643523.2936376977,3662751.2368613081,-2500.0,-2305.7491692921426,-19648.148406331711,102673.09775936564,1161.956468658442,-4061.4171637673544,-478.24073625563119,56145.736718804495,-37238.799002629632,49869.330999446742,-49869.330999446742,37238.799002629632,109743.94436834365,0.0
648523.2936376977,3662751.2368613081,-2500.0,-1963.9608569950167,4536.7963643438306,109095.5772112967,381.24911083575483,-4722.1024514408982,-403.86020793543287,55910.081935367612,-37759.46050651867,70123.940966131078,-70123.940966131078,37759.46050651867,110871.40850393644,0.0
653523.2936376977,3662751.2368613081,-2500.0,6143.2873713732706,23293.332891497379,96175.593210292573,-621.34644007607949,-4959.6957430172142,-221.81961003198327,51408.622157193575,-26925.104559802385,73406.186430379836,-73406.186430379836,26925.104559802385,102088.62802179695,0.0
658523.2936376977,3662751.2368613081,-2500.0,15674.086640808326,31832.553559070966,73541.730972709891,-1485.9124172665313,-4537.7400316553467,-53.933933123622857,44152.533224536433,-12497.648570458994,63588.262362108166,-63588.262362108166,12497.648570458994,87261.158893908942,0.0
663523.2936376977,3662751.2368613081,-2500.0,22203.325501798168,31773.613138379453,50035.494093325455,-1944.2032985633984,-3636.6319640444581,43.987113042155393,35657.575827171517,-265.14766099758344,47988.073554356757,-47988.073554356757,265.14766099758344,70442.251947063036,0.0
668523.2936376977,3662751.2368613081,-2500.0,24620.41272578538,26831.383623178226,30362.478388977786,-1988.5992219347686,-2592.4448498607644,78.477648384373381,27438.153870516999,7681.9465410086705,32185.897391410137,-32185.897391410137,-7681.9465410086705,54479.304612280423,0.0
673523.2936376977,3662751.2368613081,-2500.0,23715.276186111761,20143.484317963583,15879.632707953606,-1758.5275282502357,-1652.064587681482,76.066589962876137,20610.341897518785,11585.973818249469,18981.239112544201,-18981.239112544201,-11585.973818249469,40862.283481949074,0.0
678523.2936376977,3662751.2368613081,-2500.0,20789.365896623749,13617.970023863589,6186.1640808761194,-1406.2517544574303,-922.08928729011109,58.874020878178229,15501.882601898476,12544.87576419998,9180.3531777474491,-9180.3531777474491,-12544.87576419998,30084.978656217645,0.0
683523.2936376977,3662751.2368613081,-2500.0,16978.951700995836,8147.8716900230293,243.14638087307986,-1039.0729653257231,-411.94894432960979,39.446283671114202,11710.21895629479,11707.892938049145,2545.7004774069173,-2545.7004774069173,-11707.892938049145,22055.596149829253,0.0
688523.2936376977,3662751.2368613081,-2500.0,13064.952634156254,3987.2664731915156,-3046.4794223247854,-714.47991489804326,-85.542366359321136,23.1025282701446,9007.5318767359058,9976.3623142552351,-1562.8793991356406,1562.8793991356406,-9976.3623142552351,16394.922816031449,0.0
693523.2936376977,3662751.2368613081,-2500.0,9496.1946825837294,1054.8330476616798,-4600.7376449602853,-454.04655678823917,105.13999315348393,11.180992946281043,7139.3415867284275,7954.4854351684453,-3842.877959628403,3842.877959628403,-7954.4854351684453,12608.292746772275,0.0
698523.2936376977,3662751.2368613081,-2500.0,6476.3873393831882,-869.43805930497388,-5099.849533456113,-258.64990054285693,203.75421670952881,3.2820095089320103,5862.0230871588556,5996.4958646107043,-4895.9672717392477,4895.9672717392477,-5996.4958646107043,10176.893750983412,0.0
703523.2936376977,3662751.2368613081,-2500.0,4052.6701022506618,-2033.2086408047946,-5007.3926827764089,-119.56153468705033,244.12873214138344,-1.5281105502880867,4972.7270720952038,4277.8050958975537,-5181.7561841143006,5181.7561841143006,-4277.8050958975537,8626.3238979776652,0.0
708523.2936376977,3662751.2368613081,-2500.0,2185.2783780786058,-2658.3336474786843,-4618.6061151594931,-25.095137822700202,250.1033740863588,-4.1825672027379781,4323.8889006199852,2860.2107877163508,-5023.692454647231,5023.692454647231,-2860.2107877163508,7588.1158260173515,0.0
713523.2936376977,3662751.2368613081,-2500.0,795.14110975068047,-2921.8374734062686,-4110.0982933940904,36.010386887044405,237.38230344387307,-5.4311039166139361,3820.6774949332039,1741.357053564614,-4635.1782846582755,4635.1782846582755,-1741.357053564614,6823.462104003811,0.0
718523.2936376977,3662751.2368613081,-2500.0,-207.20833602011166,-2954.957518167821,-3580.6271872462348,73.21469999728852,215.75171684525853,-5.8148606982558695,3407.8422114177069,887.89236757065146,-4149.1022674383694,4149.1022674383694,-887.89236757065146,6200.8828414392956,0.0
723523.2936376977,3662751.2368613081,-2500.0,-906.22543028179928,-2849.9573727201214,-3080.7475202325036,93.874768728613702,190.99296193432332,-5.6993395961519084,3055.1580365391405,255.47822994116859,-3643.3878736565543,3643.3878736565543,-255.47822994116859,5656.885261923233,0.0
728523.2936376977,3662751.2368613081,-2500.0,-1374.6103890994743,-2669.0027715755377,-2632.7123522788715,103.43457915118999,166.31699138140013,-5.3195798225160695,2746.4507459214801,-200.39378366789288,-3160.4088648279449,3160.4088648279449,200.39378366789288,5163.941602190499,0.0
733523.2936376977,3662751.2368613081,-2500.0,-1671.5491593392339,-2452.4137203318264,-2243.067950346102,105.78365840999238,143.35588873672899,-4.8203621609830805,2472.8203191127864,-519.36767967378,-2720.6063799485028,2720.6063799485028,519.36767967378,4711.2002595515414,0.0
738523.2936376977,3662751.2368613081,-2500.0,-1843.4816709086101,-2225.3338905823375,-1910.2501176012172,103.62747746417311,122.81180624468445,-4.2870658620732973,2228.9310985544948,-734.4988707763066,-2331.515045974088,2331.515045974088,734.4988707763066,4294.6119665098249,0.0
543523.2936376977,3667751.2368613081,-2500.0,-3376.4999986108355,1673.1157555617049,-1203.7147217323209,-129.27395449290944,71.936437950661599,-3.5136880207434507,2145.8484609178954,-1832.7369704970265,1054.9150808949457,-1054.9150808949457,1832.7369704970265,4151.248767522553,0.0
548523.2936376977,3667751.2368613081,-2500.0,-3646.3509894039712,1935.6203648245023,-1423.9586075702846,-145.90976722031084,86.708876085805144,-4.1384568965099717,2387.5048528203947,-1930.1916069136546,1151.5021507849015,-1151.5021507849015,1930.1916069136546,4629.9694927483188,0.0
553523.2936376977,3667751.2368613081,-2500.0,-3920.4308471052191,2242.2147446139925,-1695.8987505238927,-164.38546014367327,104.86312206962896,-4.8728984441579621,2660.2754405013752,-2010.5285239707853,1247.3869419494056,-1247.3869419494056,2010.5285239707853,5173.634139533483,0.0
558523.2936376977,3667751.2368613081,-2500.0,-4187.4178816642288,2598.6348520440251,-2033.4745882413436,-184.55115462657093,127.17526866694948,-5.7265509932481882,2967.3342922359607,-2060.8053892832568,1335.7510923229872,-1335.7510923229872,2060.8053892832568,5790.3622870338613,0.0
563523.2936376977,3667751.2368613081,-2500.0,-4429.2678119958391,3009.6087731605526,-2454.4475627552215,-205.96360782111663,154.54526161482795,-6.7003301069280052,3311.3604378763589,-2062.1494449286952,1405.4316178115209,-1405.4316178115209,2062.1494449286952,6488.2503782732083,0.0
568523.2936376977,3667751.2368613081,-2500.0,-4618.0935934370473,3477.0995504679076,-2981.1509840519025,-227.6840234681633,187.95490872931038,-7.776989510852613,3693.8783955844319,-1987.4223014918443,1438.6460267983121,-1438.6460267983121,1987.4223014918443,7274.6093806817034,0.0
573523.2936376977,3667751.2368613081,-2500.0,-4711.8479982853005,3997.127171060064,-3640.9741599404156,-247.96231524571587,228.34933037885526,-8.904098588817547,4114.2389439250528,-1798.2181264315773,1407.6706770844321,-1407.6706770844321,1798.2181264315773,8154.7627531544094,0.0
578523.2936376977,3667751.2368613081,-2500.0,-4648.6087439704652,4554.2041875258774,-4465.9607917876683,-263.75800460836172,276.36854231754199,-9.9652772004349401,4571.8487144510955,-1441.3212412099742,1270.1504969562907,-1270.1504969562907,1441.3212412099742,9130.3507966398029,0.0
583523.2936376977,3667751.2368613081,-2500.0,-4339.6251073021276,5111.8971382955397,-5490.1809740772906,-270.04550363210802,331.79952172779025,-10.733231629324589,5154.1083311684206,-845.27682639927309,962.87242015831191,-962.87242015831191,845.27682639927309,10197.41335660774,0.0
588523.2936376977,3667751.2368613081,-2500.0,-3662.2700819605634,5597.3914686603684,-6742.1040376875026,-258.88093834090745,392.53209126294786,-10.798420345769376,5816.2009199771019,81.054685959674089,394.47273265891914,-394.47273265891914,-81.054685959674089,11345.493599278023,0.0
593523.2936376977,3667751.2368613081,-2500.0,-2456.4346201719381,5877.5779256346614,-8226.5215621377447,-218.32895326927235,452.69057720953538,-9.4727526132396598,6559.1836972172277,1443.4743503879988,-560.58158834607502,560.58158834607502,-1443.4743503879988,12561.698297042974,0.0
598523.2936376977,3667751.2368613081,-2500.0,-532.95449886402332,5725.3777265481986,-9886.0556486839414,-131.68040260670762,499.54701310129838,-5.6937152258584831,7404.8675069364454,3341.4500125350532,-2059.8023042456171,2059.8023042456171,-3341.4500125350532,13850.29023773786,0.0
603523.2936376977,3667751.2368613081,-2500.0,2288.2353171524828,4781.0776492613213,-11525.949371217097,21.88182913927913,509.02543025835905,1.9753291743195327,8413.1561324467802,5813.4631549661444,-4265.4965605080197,4265.4965605080197,-5813.4631549661444,15291.524881173293,0.0
608523.2936376977,3667751.2368613081,-2500.0,6080.0706032982453,2531.8386447857661,-12681.802944547697,262.77449222591969,440.67713647286394,15.002594092169822,9730.7101872200328,8722.0552648933262,-7258.2617971271275,7258.2617971271275,-8722.0552648933262,17176.183249507474,0.0
613523.2936376977,3667751.2368613081,-2500.0,10616.121342452097,-1625.8509963920092,-12424.521816442711,599.14337726984058,235.92255404700143,33.745637104988525,11653.289070804094,11556.716789690403,-10836.527544763339,10836.527544763339,-11556.716789690403,20204.139215663105,0.0
618523.2936376977,3667751.2368613081,-2500.0,15094.525183919399,-8111.7839169756717,-9173.4068302395044,1005.9646724504026,-171.6820380498871,55.110630754352506,14625.581271061401,13194.707511483117,-14159.754904438196,14159.754904438196,-13194.707511483117,25508.203745406463,0.0
623523.2936376977,3667751.2368613081,-2500.0,17959.977745525041,-16532.355237340653,-789.10511549218336,1404.0070860418964,-823.62293954901781,69.940351043236731,19053.254894339938,11849.759153069641,-15340.978819439231,15340.978819439231,-11849.759153069641,34118.394358804588,0.0
628523.2936376977,3667751.2368613081,-2500.0,17305.737386216591,-24825.557572520396,14519.428404694327,1666.0287375917696,-1687.5043498775269,64.553308296943555,24933.738759736465,5718.2426205981101,-11501.771176662554,11501.771176662554,-5718.2426205981101,46073.610391594229,0.0
633523.2936376977,3667751.2368613081,-2500.0,12315.759682633008,-29096.03855079777,36172.48726037726,1673.0766728902718,-2638.5059270576839,32.379858213637633,31534.040216617341,-5321.33695864539,-187.7375048988547,187.7375048988547,5321.33695864539,59850.540449730135,0.0
638523.2936376977,3667751.2368613081,-2500.0,4959.8988628904526,-25542.391587485665,59377.775103317275,1380.5359089820672,-3513.9007501781475,-10.513352883582073,37421.685024167411,-18047.528286319084,17860.418387372436,-17860.418387372436,18047.528286319084,72501.661819538102,0.0
643523.2936376977,3667751.2368613081,-2500.0,-504.16076390583214,-13906.96907375927,76454.790886394272,822.77175831692284,-4175.7428946335231,-31.154059181050719,41031.326706881955,-26930.83641855017,37285.092301710341,-37285.092301710341,26930.83641855017,80753.046921198853,0.0
648523.2936376977,3667751.2368613081,-2500.0,-893.12733313469289,1414.1204397389661,81750.352360875113,92.838202474404468,-4503.4144203379237,-11.96830069579519,41489.979587823393,-28169.703005585121,51033.357697068772,-51033.357697068772,28169.703005585121,82612.144503963806,0.0
653523.2936376977,3667751.2368613081,-2500.0,3388.180349024271,14606.818282167027,75270.118764801548,-651.98197677140081,-4408.538799166301,31.697919463376579,39325.715488014117,-22395.114306687086,55249.764307626145,-55249.764307626145,22395.114306687086,78225.365537752441,0.0
658523.2936376977,3667751.2368613081,-2500.0,9473.8850895716187,22292.283740448991,61395.239757832802,-1234.6077321326595,-3914.7476331269545,71.433106682386551,35045.921929984805,-13214.530639447003,50868.786898636317,-50868.786898636317,13214.530639447003,69381.60762750305,0.0
663523.2936376977,3667751.2368613081,-2500.0,14632.912133679565,24332.1565481012,45241.72663390496,-1551.1689764250307,-3168.8094359713541,90.849730557516281,29518.27996249231,-4192.7142679077406,41436.247370851823,-41436.247370851823,4192.7142679077406,58369.429984727882,0.0
668523.2936376977,3667751.2368613081,-2500.0,17554.626771157895,22378.594025382106,30357.550685829352,-1606.149988882431,-2354.6446470818969,89.928656351027499,23754.101805186488,2688.6569425171438,30483.18778415053,-30483.18778415053,-2688.6569425171438,47109.514553048029,0.0
673523.2936376977,3667751.2368613081,-2500.0,18178.57704967184,18361.265174203938,18383.200802925006,-1472.8483423871662,-1611.4755580035817,76.480538945084987,18465.909367555902,6939.9950810874934,20330.704741813552,-20330.704741813552,-6939.9950810874934,36839.360355837984,0.0
678523.2936376977,3667751.2368613081,-2500.0,17066.666122437597,13755.262748427267,9622.5060967509562,-1238.9803480680589,-1008.9631960912428,58.466451269012744,14297.438017330769,8912.3114895552771,12060.942226421599,-12060.942226421599,-8912.3114895552771,28166.711050068814,0.0
683523.2936376977,3667751.2368613081,-2500.0,14916.473138330417,9446.0875133330246,3691.9534981578995,-974.81275182086358,-561.46497469671579,41.044552815099294,11018.699281987678,9247.7966039556777,5911.9802587619042,-5911.9802587619042,-9247.7966039556777,21255.138033583655,0.0
688523.2936376977,3667751.2368613081,-2500.0,12320.183711698852,5847.5062689207443,-32.413643651940461,-724.60128465669675,-252.14446359989412,26.603178357740784,8525.5690252520144,8575.0929227845627,1674.6488340686383,-1674.6488340686383,-8575.0929227845627,16006.467243622945,0.0
693523.2936376977,3667751.2368613081,-2500.0,9692.0586140054074,3068.9003050271008,-2173.7701197734732,-510.26258894770098,-52.175633033480686,15.721850667130196,6692.837448157069,7388.1471499410309,-1033.5609101759383,1033.5609101759383,-7388.1471499410309,12192.429936580993,0.0
698523.2936376977,3667751.2368613081,-2500.0,7278.7789494519511,1054.1799948111454,-3251.9099077205838,-338.56918289154964,67.940427346355818,8.0712052784259622,5378.7348935921364,6025.4142869766974,-2613.5587445442934,2613.5587445442934,-6025.4142869766974,9533.3445991756744,0.0
703523.2936376977,3667751.2368613081,-2500.0,5199.1754719153387,-324.03568121074119,-3658.0823737115034,-207.69298564584125,133.23988589170472,2.9954356928020447,4446.9408255919479,4692.574430053889,-3412.6605550074091,3412.6605550074091,-4692.574430053889,7741.1279680782945,0.0
708523.2936376977,3667751.2368613081,-2500.0,3486.9509849428446,-1208.9401144160524,-3666.4286730846084,-111.85127675563551,162.87620097106873,-0.18403469602637185,3780.644048047634,3497.7487620725205,-3701.7403869831851,3701.7403869831851,-3497.7487620725205,6548.8836574174766,0.0
713523.2936376977,3667751.2368613081,-2500.0,2125.8514727020433,-1731.4861537276186,-3458.3957867623403,-44.128799215330645,170.52270233257258,-2.0426437232076498,3289.8566719442306,2484.7353086255689,-3677.5465535193071,3677.5465535193071,-2484.7353086255689,5737.2705067757588,0.0
718523.2936376977,3667751.2368613081,-2500.0,1074.7620728384802,-1999.4061980120305,-3148.1207016791882,2.0426425988355166,165.4454787450384,-3.0212311487120997,2911.8497602018178,1658.9977722459421,-3475.3612652707975,3475.3612652707975,-1658.9977722459421,5149.5638455141016,0.0
723523.2936376977,3667751.2368613081,-2500.0,283.76519268602982,-2095.6100403794362,-2803.7777443399164,32.254458501342491,153.65568079996865,-3.4369226231287513,2606.4345645259064,1005.7669626242566,-3183.9073771282501,3183.9073771282501,-1005.7669626242566,4688.0009769003282,0.0
728523.2936376977,3667751.2368613081,-2500.0,-296.64231686104631,-2080.9615846451557,-2463.6449657127355,50.968089848470875,138.89489742215798,-3.5079718572314271,2349.3873567583792,501.5435477743622,-2858.7473799471068,2858.7473799471068,-501.5435477743622,4298.1301856607924,0.0
733523.2936376977,3667751.2368613081,-2500.0,-710.95310599650645,-1998.536919674201,-2147.3618755050334,61.594270673047355,123.38873837252846,-3.3794776483467044,2126.5894848353978,120.79166673983036,-2532.9010553018343,2532.9010553018343,-120.79166673983036,3952.189383139465,0.0
738523.2936376977,3667751.2368613081,-2500.0,-996.89569739119315,-1877.8921890126232,-1863.4231290718083,66.662516247084653,108.38534025514942,-3.1450241998699253,1929.8363986859647,-160.55576419395743,-2224.6466307611918,2224.6466307611918,160.55576419395743,3636.9676172221125,0.0
548523.2936376977,3672751.2368613081,-2500.0,-3048.6971113151635,1889.4275521687402,-1520.1587619178963,-123.84026981239684,86.508645064986169,-3.6008555599747272,2164.7755052216144,-1483.7340347249599,944.12289922210289,-944.12289922210289,1483.7340347249599,4211.0288750900536,0.0
553523.2936376977,3672751.2368613081,-2500.0,-3207.202641425386,2153.8819530484411,-1797.5852343833606,-136.96992648883736,103.24886707811841,-4.1801699505972554,2388.4264511894144,-1484.1977283633094,985.29713778082419,-985.29713778082419,1484.1977283633094,4662.3195543655984,0.0
558523.2936376977,3672751.2368613081,-2500.0,-3336.3778178259504,2450.3598074748352,-2135.9423975515024,-150.43837127596495,123.35246535577375,-4.8325504053746497,2634.2949433828931,-1441.7720539729094,1005.3364660281632,-1005.3364660281632,1441.7720539729094,5164.0358524037601,0.0
563523.2936376977,3672751.2368613081,-2500.0,-3415.4896084259603,2776.9404246469926,-2548.9362399032821,-163.50416741601978,147.34592487224884,-5.5469879557338952,2902.0454236751571,-1337.4916163979115,990.50061322629915,-990.50061322629915,1337.4916163979115,5718.6758799823838,0.0
568523.2936376977,3672751.2368613081,-2500.0,-3415.1719534793224,3126.7994056545722,-3052.2880150001538,-174.92203757599404,175.67898444889514,-6.2938330478107956,3189.6699214536784,-1145.9713144288271,920.77613653085245,-920.77613653085245,1145.9713144288271,6326.9355709261572,0.0
573523.2936376977,3672751.2368613081,-2500.0,-3294.7065879075608,3484.7240931512251,-3662.7755245669828,-182.69225730816234,208.55533982614227,-7.0111811502185128,3499.1217776548797,-834.03231155838284,767.54579836434186,-767.54579836434186,834.03231155838284,6986.7757778741643,0.0
578523.2936376977,3672751.2368613081,-2500.0,-2999.1156292143846,3821.6932096083083,-4395.7119034320558,-183.71808437297128,245.61905872164863,-7.5837469787894012,3891.8595096894605,-359.83639244304129,490.85130479248483,-490.85130479248483,359.83639244304129,7692.5916680415366,0.0
583523.2936376977,3672751.2368613081,-2500.0,-2456.8862048108022,4086.7662998665737,-5259.4078171182364,-173.37206275206313,285.40303098760484,-7.8115036224937189,4327.7691313237001,326.36178242287372,36.783421807838693,-36.783421807838693,-326.36178242287372,8435.3537990757213,0.0
588523.2936376977,3672751.2368613081,-2500.0,-1580.2210471535705,4195.650869165599,-6244.0914994439963,-145.02331434110002,324.40717121937342,-7.367680977029238,4808.1803538162212,1277.6276613350992,-663.51580802584044,663.51580802584044,-1277.6276613350992,9205.9987844149855,0.0
593523.2936376977,3672751.2368613081,-2500.0,-271.63720958556598,4016.1991305409556,-7301.1904972005314,-89.698154006955704,355.65273907860222,-5.7506299388726578,5345.5045378536179,2537.8783242652689,-1689.8076484219062,1689.8076484219062,-2537.8783242652689,10007.374742366535,0.0
598523.2936376977,3672751.2368613081,-2500.0,1556.2539527647116,3353.8996607048743,-8307.194997909106,3.7129673169286339,366.6254925883498,-2.2523251558094897,5973.0307381841612,4114.9752389907362,-3116.6870027388009,3116.6870027388009,-4114.9752389907362,10885.473477315865,0.0
603523.2936376977,3672751.2368613081,-2500.0,3937.6350269702198,1947.0831686010831,-9006.072019055533,146.90277917179355,336.82146434506751,4.0020874212278486,6768.1042076522572,5930.8171974379848,-4973.1479444045444,4973.1479444045444,-5930.8171974379848,11994.820289307667,0.0
608523.2936376977,3672751.2368613081,-2500.0,6776.8334253331559,-505.47207550903431,-8930.5167806273494,348.02948196591018,235.91288957128126,13.839416370710422,7881.8514526812814,7742.776653218385,-7160.4405961354241,7160.4405961354241,-7742.776653218385,13694.052264069687,0.0
613523.2936376977,3672751.2368613081,-2500.0,9741.3205787841307,-4243.9295806954296,-7325.7381359875253,603.92117467089975,25.035049002157926,27.518608877215101,9547.9473588161927,9049.2607017092832,-9315.6331551577077,9315.6331551577077,-9049.2607017092832,16582.679843570324,0.0
618523.2936376977,3672751.2368613081,-2500.0,12171.891446805659,-9226.6958986540776,-3154.2670911222804,889.38276642256028,-334.72076229851535,43.915429296079779,12021.492239352587,9042.1862156016814,-10646.243710172503,10646.243710172503,-9042.1862156016814,21312.168480071177,0.0
623523.2936376977,3672751.2368613081,-2500.0,13139.07716595208,-14797.360615947764,4661.6116214588092,1149.2454099790937,-863.48503338207013,59.921793269488745,15434.976558086591,6748.9845627529357,-9862.7027010186284,9862.7027010186284,-6748.9845627529357,28198.198455553113,1.0
628523.2936376977,3672751.2368613081,-2500.0,11824.831408867114,-19429.563540655854,16598.012949818345,1304.1497158273096,-1537.9580464757964,71.281795728874584,19635.818104705442,1531.1252605889279,-5472.7293686107505,5472.7293686107505,-1531.1252605889279,36901.940315227999,0.0
633523.2936376977,3672751.2368613081,-2500.0,8227.4565010537681,-20984.05236147048,31610.654650431323,1277.4188641989012,-2277.6902131449497,75.676024971232508,24099.094730426939,-6132.7761594822905,3342.7038390606058,-3342.7038390606058,6132.7761594822905,46317.281378310261,0.0
638523.2936376977,3672751.2368613081,-2500.0,3672.5878035767719,-17797.420513147161,46676.162121854417,1032.1218065899131,-2959.247309887664,75.831885451902636,28004.42132108839,-14208.492793940097,15608.717169331247,-15608.717169331247,14208.492793940097,54741.476127991838,0.0
643523.2936376977,3672751.2368613081,-2500.0,333.89644760220227,-10045.891767291936,57738.339899232284,593.94546567388636,-3453.137510313034,77.895812402085852,30512.555273201029,-19843.073832232127,28303.870842943907,-28303.870842943907,19843.073832232127,60412.100213019788,0.0
648523.2936376977,3672751.2368613081,-2500.0,-180.2133228565518,-20.576318222989947,61834.455310084923,47.680154781928557,-3663.2407667927623,85.066830188012133,31129.637034314605,-21068.5810711999,37749.299154939763,-37749.299154939763,21068.5810711999,62206.947582402317,0.0
653523.2936376977,3672751.2368613081,-2500.0,2131.0382461321256,9201.6451166723982,58646.181394794105,-489.72636628877706,-3558.1296066702967,94.062152671316809,30223.813264852135,-17952.290223197451,41659.060534914977,-41659.060534914977,17952.290223197451,60049.494963955098,0.0
658523.2936376977,3672751.2368613081,-2500.0,5951.638518150743,15454.790068669239,50192.850235620113,-912.07492932157925,-3183.3375121635668,98.699457510963882,27680.837402376434,-12190.106961965297,40045.380451443212,-40045.380451443212,12190.106961965297,54771.625769259183,0.0
663523.2936376977,3672751.2368613081,-2500.0,9712.5016807900502,18157.47612484487,39330.317954054772,-1161.5886972634173,-2640.2508731987214,95.366619628946367,24104.394008880008,-5839.8274824575183,34554.318454188964,-34554.318454188964,5839.8274824575183,47629.668521795931,0.0
668523.2936376977,3672751.2368613081,-2500.0,12376.33608757512,17912.57922081045,28453.256339181014,-1237.8377394801375,-2042.4538166963862,84.684685553066373,20126.892835515147,-378.14897823564388,27253.213656329324,-27253.213656329324,378.14897823564388,39835.373990078951,0.0
673523.2936376977,3672751.2368613081,-2500.0,13598.570866293914,15782.00012719253,18997.704620906596,-1179.327631109574,-1479.1714465969264,69.735289322052068,16234.398949547278,3533.5527890612484,19805.418709285419,-19805.418709285419,-3533.5527890612484,32298.218212883876,0.0
678523.2936376977,3672751.2368613081,-2500.0,13520.228610889648,12768.247113256768,11532.992947264915,-1037.5868552710733,-1001.5785407481848,53.804622868082987,12849.650937966999,5850.1230501131849,13213.946638617917,-13213.946638617917,-5850.1230501131849,25570.615240928018,0.0
683523.2936376977,3672751.2368613081,-2500.0,12500.08657302231,9597.8414867852589,6062.0822381354119,-858.81139122785942,-627.30398441706438,39.193976435137941,10152.417774874233,6849.7113508134316,7907.9403082150402,-7907.9403082150402,-6849.7113508134316,19905.962651084956,0.0
688523.2936376977,3672751.2368613081,-2500.0,10925.979528676653,6701.9622207914399,2303.2885453404474,-676.15442339710296,-352.02201646126662,27.041041166495951,7988.9204579397774,6910.934209527697,3936.6324829930004,-3936.6324829930004,-6910.934209527697,15350.950689265264,0.0
693523.2936376977,3672751.2368613081,-2500.0,9120.482308515886,4280.4612525375705,-118.10029068561361,-509.34369511147571,-160.50782548511259,17.613296049521153,6311.138924436299,6388.0971905607876,1147.3089786920086,-1147.3089786920086,-6388.0971905607876,11829.566869831224,0.0
698523.2936376977,3672751.2368613081,-2500.0,7312.0915044786561,2381.5680060008667,-1563.8435371805156,-367.58710264409279,-34.328197579123319,10.681630935392118,5045.7500265728222,5560.0630329480764,-690.48619568987397,690.48619568987397,-5560.0630329480764,9203.8287612432378,0.0
703523.2936376977,3672751.2368613081,-2500.0,5641.0148676022145,968.65345836362087,-2336.4366455560325,-253.13275942992689,43.862623504366987,5.8075185318303113,4111.0214200755927,4621.8579285163014,-1812.3627392989124,1812.3627392989124,-4621.8579285163014,7311.1948446281258,0.0
708523.2936376977,3672751.2368613081,-2500.0,4178.5266156364605,-33.11541244923135,-2667.7059447276501,-164.27420711801949,88.474958862853299,2.5175486695338614,3427.9600364142334,3696.1910710138313,-2423.9812100786226,2423.9812100786226,-3696.1910710138313,5985.6289680676073,0.0
713523.2936376977,3672751.2368613081,-2500.0,2948.3322738911593,-708.22698477230892,-2724.6770554084578,-97.470369887243848,110.58634614501531,0.388991387318952,2927.2866656945334,2851.2696121702443,-2689.1787015419691,2689.1787015419691,-2851.2696121702443,5071.4534926436618,0.0
718523.2936376977,3672751.2368613081,-2500.0,1944.780280091456,-1135.6206881969429,-2621.9609037388623,-48.658549379637527,118.25826080197643,-0.91983615208114922,2553.3015408499714,2118.03341076064,-2730.5661475046868,2730.5661475046868,-2118.03341076064,4435.4623416977474,0.0
723523.2936376977,3672751.2368613081,-2500.0,1146.3868503009276,-1382.1381815325249,-2434.9328225374402,-13.968410353187963,117.11397890229156,-1.6683993234706067,2264.7760147684808,1504.0693367965544,-2635.6296151090464,2635.6296151090464,-1504.0693367965544,3975.5476181829954,0.0
728523.2936376977,3672751.2368613081,-2500.0,524.91938334504425,-1500.9791250753699,-2211.15813138782,9.9549183290687928,110.93839424569325,-2.0453736761341501,2033.3508655612684,1003.6872184725314,-2464.3422316640117,2464.3422316640117,-1003.6872184725314,3621.8820913874538,0.0
733523.2936376977,3672751.2368613081,-2500.0,50.960541428314677,-1532.6876329938668,-1979.3061379241315,25.856932899652591,102.19567489762768,-2.1835844588270223,1840.6153139028156,604.64427506027437,-2256.3113924121344,2256.3113924121344,-604.64427506027437,3331.3123677089252,0.0
548523.2936376977,3677751.2368613081,-2500.0,-2487.2940488215604,1788.2053484102235,-1579.9464604179309,-102.90508820320829,83.924683460708721,-3.0840779151281357,1942.2633780267047,-1078.8368139310091,728.91383468971935,-728.91383468971935,1078.8368139310091,3792.9500962717243,0.0
553523.2936376977,3677751.2368613081,-2500.0,-2550.193634490648,2003.0422627565977,-1850.9639160362324,-111.42108521133517,98.766036913836388,-3.5244956054925733,2120.4650392700423,-1017.930882153233,721.52492789676432,-721.52492789676432,1017.930882153233,4158.9400381755804,0.0
558523.2936376977,3677751.2368613081,-2500.0,-2569.8100701182661,2232.7807011675427,-2174.60636254059,-119.28377503894853,116.12514930977095,-4.0008394453025584,2310.9542417873554,-908.2752746409152,683.68812806557014,-683.68812806557014,908.2752746409152,4556.8207825389281,0.0
563523.2936376977,3677751.2368613081,-2500.0,-2525.7944761368399,2470.406622720222,-2559.7239716994668,-125.61408591837683,136.19543666865869,-4.4945427203823698,2511.5107542048968,-733.13030100152321,601.23997440767323,-601.23997440767323,733.13030100152321,4985.5152122131858,1.0
568523.2936376977,3677751.2368613081,-2500.0,-2391.2580930129811,2703.0401105196515,-3014.7721085143935,-129.0826672794351,158.98339386339785,-4.9694368387560894,2727.0638643516659,-471.6738530578142,454.97506220293064,-454.97506220293064,471.6738530578142,5442.0694024472268,0.0
573523.2936376977,3677751.2368613081,-2500.0,-2131.6092059993721,2908.8316928151526,-3545.8488553125371,-127.7359732213183,184.12468509020815,-5.3614365217952846,2998.4172296395532,-99.031747797667947,219.49660800614373,-219.49660800614373,99.031747797667947,5921.3670591914288,0.0
578523.2936376977,3677751.2368613081,-2500.0,-1704.004714985572,3052.6468052673922,-4152.9715234337882,-118.78794384656862,210.5814128252623,-5.5635736268638363,3294.2765559955219,412.59923929482932,-137.56537040586747,137.56537040586747,-412.59923929482932,6416.6104443897229,0.0
583523.2936376977,3677751.2368613081,-2500.0,-1058.3967472622758,3080.4446849847473,-4823.4084989147623,-98.405897328441313,236.16460849210301,-5.406111927341521,3615.7065115358696,1090.6465430524556,-655.1170545193504,655.1170545193504,-1090.6465430524556,6921.8794835761501,0.0
588523.2936376977,3677751.2368613081,-2500.0,-141.92334253794175,2912.7795361587218,-5520.3468936455611,-61.567851603586867,256.8210748442296,-4.6325615145704688,3970.2873109544848,1954.8990291522052,-1375.2590191169959,1375.2590191169959,-1954.8990291522052,7439.5425596584873,0.0
593523.2936376977,3677751.2368613081,-2500.0,1090.5789098468483,2439.1142838266073,-6164.7359394129389,-2.1567019322904861,265.6499978337294,-2.8777085914394016,4377.6482620012021,3003.7170531964393,-2334.0194153240036,2334.0194153240036,-3003.7170531964393,7997.5888919321978,0.0
598523.2936376977,3677751.2368613081,-2500.0,2656.2225596326712,1517.2219482706669,-6608.4655516513139,86.407471179289558,251.71884065025114,0.33814788697000747,4881.2030363273416,4190.7508049503931,-3541.3864797644542,3541.3864797644542,-4190.7508049503931,8683.3519030303141,0.0
603523.2936376977,3677751.2368613081,-2500.0,4510.5377775962306,-13.618201279414963,-6599.7387300828022,209.54252842131595,199.00783624293524,5.5696965191775654,5563.014949195358,5390.6430900493506,-4944.5622412293542,4944.5622412293542,-5390.6430900493506,9691.884924311762,0.0
608523.2936376977,3677751.2368613081,-2500.0,6501.9940902941617,-2291.2801130926618,-5749.5536742620479,368.39527092154157,86.297935457226302,13.321079591775538,6550.809236533094,6358.4457656946597,-6370.3341581358854,6370.3341581358854,-6358.4457656946597,11352.814349124163,0.0
613523.2936376977,3677751.2368613081,-2500.0,8329.0755308833395,-5344.5310805251784,-3525.2556500256337,555.15120284555928,-110.5374394410388,23.802497568976204,7996.7364883842256,6702.6395377272102,-7453.8440999382756,7453.8440999382756,-6702.6395377272102,14060.673610553096,0.0
618523.2936376977,3677751.2368613081,-2500.0,9538.8193598801372,-8958.0236754751477,677.95560633862181,747.92872586506883,-412.07190744074558,36.611280829906505,10018.005213425638,5916.2789640535366,-7589.9184086614305,7589.9184086614305,-5916.2789640535366,18097.935244355231,0.0
623523.2936376977,3677751.2368613081,-2500.0,9629.0288034910827,-12531.35169195577,7323.4826052137805,908.55319786776033,-824.11491910569248,50.538704017620077,12619.950000409501,3528.5366454183859,-5987.5635376423834,5987.5635376423834,-3528.5366454183859,23464.816066745905,0.0
628523.2936376977,3677751.2368613081,-2500.0,8295.4342499418963,-15055.450538351537,16363.198005337308,987.96918269151899,-1324.8642668561604,63.828107192128215,15635.426503083963,-597.47537162971571,-1928.5796794547375,1928.5796794547375,597.47537162971571,29790.143058103378,0.0
633523.2936376977,3677751.2368613081,-2500.0,5745.1482585945987,-15372.228603347268,26858.011205897114,941.66438079693364,-1858.2386243262781,74.982881315153946,18710.096642889312,-5935.3323057408243,4762.4105143050028,-4762.4105143050028,5935.3323057408243,36325.648875278501,0.0
638523.2936376977,3677751.2368613081,-2500.0,2822.5590291183312,-12742.406434128288,36931.240356906936,750.16619802449543,-2341.5813490528312,83.528180466057236,21362.522930391089,-11226.992824964453,13278.578429478564,-13278.578429478564,11226.992824964453,42066.295119589231,0.0
643523.2936376977,3677751.2368613081,-2500.0,698.65866259265931,-7405.3240242532856,44337.05754126847,433.06728907466243,-2688.3803082867285,89.795433953883531,23122.989685226792,-14922.322713509624,21858.211625659693,-21858.211625659693,14922.322713509624,46021.860752783527,0.0
648523.2936376977,3677751.2368613081,-2500.0,235.44391556405938,-630.93951958372338,47439.114711036389,46.792010068692584,-2836.6179138460934,93.819889801395618,23846.353193583458,-15948.58378000529,28470.701666031229,-28470.701666031229,15948.58378000529,47541.89514414654,0.0
653523.2936376977,3677751.2368613081,-2500.0,1520.1458609900124,5873.8994826206017,45920.540703295141,-334.32050494576021,-2769.3131572692532,94.731366138510609,23461.667744128546,-14233.112731348419,31743.526985597768,-31743.526985597768,14233.112731348419,46514.153943773141,0.0
658523.2936376977,3677751.2368613081,-2500.0,3930.5806283056945,10752.711098710975,40733.914770972093,-644.17388879435032,-2517.3207038222859,91.445567999605501,21931.924767855122,-10595.4171130457,31453.622202896218,-31453.622202896218,10595.4171130457,43331.689454289874,0.0
663523.2936376977,3677751.2368613081,-2500.0,6582.1020775623247,13426.924541853881,33466.47035172912,-844.62332829698494,-2143.7395250864529,83.756313632711624,19606.472882881604,-6204.2369804557238,28344.399069151252,-28344.399069151252,6204.2369804557238,38684.306985795149,0.0
668523.2936376977,3677751.2368613081,-2500.0,8755.7916071381478,14033.055060220884,25654.68431066821,-930.13192575379435,-1719.7599063908228,72.665706648491749,16870.924235399689,-2059.4085461385494,23583.013296171528,-23583.013296171528,2059.4085461385494,33315.950001570905,0.0
673523.2936376977,3677751.2368613081,-2500.0,10082.221550943492,13106.210949558208,18396.776788619616,-919.33447561627963,-1304.754742687295,59.871927510180249,14056.367745279977,1245.5877618706236,18274.023024839553,-18274.023024839553,-1245.5877618706236,27854.473233986366,0.0
678523.2936376977,3677751.2368613081,-2500.0,10510.182125526233,11272.563279913378,12281.294388332835,-841.84751337206671,-937.15438288075541,47.050369144382678,11399.230338491023,3509.6766438794466,13212.799737543428,-13212.799737543428,-3509.6766438794466,22740.235073065614,0.0
683523.2936376977,3677751.2368613081,-2500.0,10185.217427869444,9065.0556864052051,7492.3685861270087,-727.4002803969438,-634.84873798590957,35.407442519944162,9190.4177033605902,4796.6228897411311,8847.4136493138576,-8847.4136493138576,-4796.6228897411311,18228.008931784992,0.0
688523.2936376977,3677751.2368613081,-2500.0,9331.2506298817061,6857.1264583805587,3961.2759436767851,-599.86459681077179,-400.47903580353352,25.57790782495114,7382.6435262930681,5300.3562588448522,5348.3177686749941,-5348.3177686749941,-5300.3562588448522,14425.053163212389,0.0
693523.2936376977,3677751.2368613081,-2500.0,8171.4018761271982,4868.0699017097941,1495.7705060361259,-475.49937512482893,-227.62543853624345,17.731272724499878,5915.5740053140553,5248.0635113986718,2705.7804684677658,-2705.7804684677658,-5248.0635113986718,11337.704879229748,0.0
698523.2936376977,3677751.2368613081,-2500.0,6888.5343038637029,3198.2897375828661,-132.73019617875116,-363.67136858474032,-105.81798373378081,11.740832096416893,4758.2060281131116,4845.8881551555005,814.47534014994267,-814.47534014994267,-4845.8881551555005,8911.9129496459573,0.0
703523.2936376977,3677751.2368613081,-2500.0,5613.5192697914936,1869.3471091544998,-1140.1950917335951,-268.55512468929334,-23.823395052079366,7.3343185777298086,3866.1416255560462,4256.5077106280041,-467.18830580195754,467.18830580195754,-4256.5077106280041,7062.6368756199427,0.0
708523.2936376977,3677751.2368613081,-2500.0,4428.8001443127205,857.52443953453565,-1708.1425693015697,-190.91065645842554,28.569822250954182,4.1975505533984254,3190.6197974213001,3595.8746772498807,-1281.5536941554928,1281.5536941554928,-3595.8746772498807,5692.4050425238265,0.0
713523.2936376977,3677751.2368613081,-2500.0,3378.3377814621872,117.81140862513431,-1978.1911073962494,-129.53642650244171,59.812272270389315,2.0333263799900623,2684.273191901636,2939.3225005633094,-1753.9180796049368,1753.9180796049368,-2939.3225005633094,4702.0496939607001,0.0
718523.2936376977,3677751.2368613081,-2500.0,2478.7090561997052,-400.90687371689984,-2055.0599729098299,-82.299527340216713,76.474866552518392,0.58840382395554025,2304.7631678616899,2330.8620497493971,-1986.0964940731351,1986.0964940731351,-2330.8620497493971,3997.6193827489928,0.0
723523.2936376977,3677751.2368613081,-2500.0,1728.8279498387399,-747.35467334691452,-2012.9788618013256,-46.788796047960496,83.439709191580917,-0.33944330582022447,2016.905266846253,1792.360087846235,-2056.3659381440161,2056.3659381440161,-1792.360087846235,3496.2835857311884,0.0
728523.2936376977,3677751.2368613081,-2500.0,1117.4237941272456,-963.87757809732886,-1902.6932570646129,-20.684390580391728,84.206833216235097,-0.90470050315191297,1793.4250694912571,1331.1732680225564,-2022.4231457164938,2022.4231457164938,-1331.1732680225564,3131.1369389302363,0.0
553523.2936376977,3682751.2368613081,-2500.0,-1964.7176893464516,1809.5902298383551,-1856.6751418597939,-88.365435030686129,92.168510021679623,-2.9223016113085771,1863.5626115187313,-620.7548662062004,472.16351183118513,-472.16351183118513,620.7548662062004,3677.1072620866585,0.0
558523.2936376977,3682751.2368613081,-2500.0,-1902.8908630479536,1972.5880578439326,-2153.1142231137928,-91.767436181481116,106.55572438536458,-3.250780155722059,2005.9142823905613,-467.75145730530267,389.63941581383187,-389.63941581383187,467.75145730530267,3984.8733469187978,0.0
563523.2936376977,3682751.2368613081,-2500.0,-1773.0666615458429,2125.3889070405171,-2495.5879502238195,-92.965572264746314,122.57861160623446,-3.5646359206264386,2160.0613229673636,-252.55852279866212,258.78562754377214,-258.78562754377214,252.55852279866212,4307.495290144815,0.0
568523.2936376977,3682751.2368613081,-2500.0,-1553.0734982770171,2251.9044048829237,-2885.783148304833,-90.70214629079851,139.91837985778491,-3.8258892701060341,2351.9326986605311,39.86959918405956,63.278710563810982,-63.278710563810982,-39.86959918405956,4640.86337305696,0.0
573523.2936376977,3682751.2368613081,-2500.0,-1216.5392346607107,2327.8799551653278,-3320.6605007790527,-83.252134913461603,157.83795410300635,-3.9735723508770722,2558.2797492766767,425.43419195941385,-216.71032896691108,216.71032896691108,-425.43419195941385,4980.1238392961832,0.0
578523.2936376977,3682751.2368613081,-2500.0,-733.89090809719835,2318.0522793766299,-3788.433362566177,-68.32391429915964,174.9250169739714,-3.9137089369075055,2779.9081457180741,918.67697453835558,-603.80594690141743,603.80594690141743,-918.67697453835558,5321.5357303443707,0.0
583523.2936376977,3682751.2368613081,-2500.0,-75.141575421975091,2173.1293535375416,-4262.2152712383568,-43.000592920387376,188.72462116285524,-3.5072690343200179,3021.7029387468478,1528.5248395861331,-1121.0666318868011,1121.0666318868011,-1528.5248395861331,5667.14455352394,1.0
588523.2936376977,3682751.2368613081,-2500.0,784.3447602366615,1827.4978035170454,-4690.4957917205556,-3.793960505670726,195.24844762442837,-2.5575241989309401,3295.8013673442688,2250.9344311162022,-1786.6081653782098,1786.6081653782098,-2250.9344311162022,6034.7811438557155,0.0
593523.2936376977,3682751.2368613081,-2500.0,1853.6442671428317,1199.6309875521658,-4983.8871667494632,53.064904451881546,188.38970057633989,-0.80180500626005757,3627.8526421093534,3057.3427531524753,-2603.2372840076691,2603.2372840076691,-3057.3427531524753,6476.3597986975856,0.0
598523.2936376977,3682751.2368613081,-2500.0,3110.4424145329949,198.80828131150611,-4998.7657772929779,130.91676974807677,159.36622681414832,2.0838117982449527,4064.8231365540232,3878.5249264716822,-3540.782088218175,3540.782088218175,-3878.5249264716822,7103.5912213364436,0.0
603523.2936376977,3682751.2368613081,-2500.0,4480.1188454702642,-1256.2721591088953,-4521.4910835625533,231.33841726209266,96.488863429154819,6.4523042105373074,4679.5768103840965,4585.8024704944501,-4509.6650030617775,4509.6650030617775,-4585.8024704944501,8105.2831156796437,0.0
608523.2936376977,3682751.2368613081,-2500.0,5814.7784562221623,-3200.4991275987231,-3262.8064379505199,352.06575328075149,-14.201484137001319,12.60984659179052,5563.1828881634428,4976.7225799087601,-5328.1451702728145,5328.1451702728145,-4976.7225799087601,9721.1146423084483,0.0
613523.2936376977,3682751.2368613081,-2500.0,6885.3287400341878,-5564.0046686799096,-880.67270552102173,484.41611722622486,-186.67236949471612,20.690260354614743,6799.0086079451494,4780.6459888961772,-5694.9233891049635,5694.9233891049635,-4780.6459888961772,12157.557651782572,0.0
618523.2936376977,3682751.2368613081,-2500.0,7408.890056831875,-8102.8059728421722,2943.4602147148466,611.1598735180828,-430.38134845920177,30.506267582039982,8425.4365438563782,3707.5388673461489,-5193.7983705728075,5193.7983705728075,-3707.5388673461489,15494.372631575179,0.0
623523.2936376977,3682751.2368613081,-2500.0,7133.9853426118916,-10354.567383911746,8357.9674821034096,706.64486834945319,-743.77013083522036,41.454209564133549,10401.65896268203,1559.0949696422895,-3369.7612794226843,3369.7612794226843,-1559.0949696422895,19628.858388557717,0.0
628523.2936376977,3682751.2368613081,-2500.0,5979.8413062454229,-11681.989709963933,15147.778413129037,741.17643159121337,-1107.8760195246123,52.572350189003735,12587.597005238578,-1612.1750607739782,96.189933059017335,-96.189933059017335,1612.1750607739782,24254.097863271971,0.0
633523.2936376977,3682751.2368613081,-2500.0,4167.6936790207101,-11456.230540163064,22591.488095825447,690.09927176778376,-1484.0113872767265,62.775361053573739,14748.255455058468,-5374.7490666988706,5149.25561727083,-5149.25561727083,5374.7490666988706,28873.620508577551,0.0
638523.2936376977,3682751.2368613081,-2500.0,2231.2452553105818,-9347.6904684602232,29515.471220511048,544.69311450088981,-1819.2499645725024,71.126194867089055,16593.247992882709,-8946.1723037733536,11193.904761839778,-11193.904761839778,8946.1723037733536,32878.401904327089,0.0
643523.2936376977,3682751.2368613081,-2500.0,832.27054318507908,-5564.8250768543394,34621.427291927641,319.16205807853765,-2059.8627021999937,76.942485414625708,17851.502706652376,-11444.420802762288,17167.236198075283,-17167.236198075283,11444.420802762288,35689.439097978735,0.0
648523.2936376977,3682751.2368613081,-2500.0,456.7134553498301,-849.24276105969477,36963.232265082603,48.794922935222985,-2167.6823084122525,79.728325147963474,18578.583637997071,-12257.150693774038,21892.393150042644,-21892.393150042644,12257.150693774038,36917.445341548613,0.0
653523.2936376977,3682751.2368613081,-2500.0,1192.6098619979291,3809.311360067426,36292.350666699735,-220.82480381001375,-2131.6988139180398,79.151438761402318,18435.952202388442,-11293.863713757224,24526.19632221599,-24526.19632221599,11293.863713757224,36464.022894703565,0.0
658523.2936376977,3682751.2368613081,-2500.0,2736.1977694223083,7557.9767832336292,33069.273076530502,-448.29124136069237,-1969.433189876426,75.192889972753335,17503.50793350369,-8963.4983055223493,24826.744666195118,-24826.744666195118,8963.4983055223493,34518.122798077784,0.0
663523.2936376977,3682751.2368613081,-2500.0,4586.4441636943857,9933.4441957196359,28185.849355703362,-607.4383473477676,-1718.3659515065046,68.309760945882999,15975.488048473055,-5933.7121113887733,23118.378561062589,-23118.378561062589,5933.7121113887733,31463.565878904195,0.0
668523.2936376977,3682751.2368613081,-2500.0,6271.1015225663823,10890.471893398897,22608.850105336165,-690.81184274792793,-1422.7382627351722,59.39845450661921,14086.394336057594,-2855.0886902959519,20050.274702333867,-20050.274702333867,2855.0886902959519,27754.348784254467,0.0
673523.2936376977,3682751.2368613081,-2500.0,7483.093878238069,10673.975745905696,17124.603581524887,-706.22355665218834,-1122.0110927362393,49.553955984177399,12056.495085645753,-189.31380819277729,16327.606042911726,-16327.606042911726,189.31380819277729,23810.94346953995,0.0
678523.2936376977,3682751.2368613081,-2500.0,8105.8772386826431,9652.3136769701123,12238.607624740251,-670.05569249989173,-844.49753058592273,39.785413876965322,10059.817179920468,1832.8161768173431,12532.055306801787,-12532.055306801787,-1832.8161768173431,19961.568341131682,0.0
683523.2936376977,3682751.2368613081,-2500.0,8169.4890261116252,8189.3528240441883,8191.3891417670529,-600.88428170905945,-606.17406244276629,30.832322892720647,8214.7440385637801,3169.3032002984655,9052.7827063642435,-9052.7827063642435,-3169.3032002984655,16425.543395668457,0.0
688523.2936376977,3682751.2368613081,-2500.0,7786.3486056816919,6576.5770570249924,5028.1834359971372,-515.23841609493729,-412.75567053171346,23.114329241314714,6736.2348642915595,3896.243858175179,6094.8878673382187,-6094.8878673382187,-3896.243858175179,13323.836163683172,0.0
693523.2936376977,3682751.2368613081,-2500.0,7096.5520561742587,5013.5273172851375,2676.1843704720081,-425.66809258034311,-262.96255804763666,16.776569725917639,5491.2718324876059,4143.6044481216295,3723.5681838513688,-3723.5681838513688,-4143.6044481216295,10701.638052766188,0.0
698523.2936376977,3682751.2368613081,-2500.0,6232.5667618249427,3616.2423084085558,1006.8832771336074,-340.47863856347635,-151.61512133762506,11.773412520371329,4470.2092702818418,4050.6636991756095,1914.5679435708505,-1914.5679435708505,-4050.6636991756095,8552.5729785936383,0.0
703523.2936376977,3682751.2368613081,-2500.0,5301.8714513866471,2437.0386443213042,-122.19182358712369,-264.35939725122694,-71.965891175910045,7.9515755206659087,3652.4423030745083,3741.1695403265676,596.39279727863482,-596.39279727863482,-3741.1695403265676,6839.1637417625352,0.0
708523.2936376977,3682751.2368613081,-2500.0,4382.117461441313,1485.5399681320337,-843.7974102055548,-199.32258095376139,-17.186198988743239,5.1140351410770046,3010.2659394189427,3313.1479286413246,-320.00413338120188,320.00413338120188,-3313.1479286413246,5507.7272537487434,0.0
713523.2936376977,3682751.2368613081,-2500.0,3523.3844600662578,746.26210474512743,-1270.2245151693114,-145.61373750259261,18.8373495337927,3.0609892080751231,2513.624216144312,2837.7100701039981,-923.10611167214324,923.10611167214324,-2837.7100701039981,4497.9668926185386,0.0
718523.2936376977,3682751.2368613081,-2500.0,2753.5291931060701,191.41308693982765,-1490.5621614349393,-102.44623762198489,41.180958762993335,1.6123282819534785,2133.1857464619193,2362.4168621888357,-1291.4477432271769,1291.4477432271769,-2362.4168621888357,3748.6612944670846,0.0
723523.2936376977,3682751.2368613081,-2500.0,2084.1676448864905,-210.75041978456667,-1572.2540768041176,-68.527509034078577,53.845766796073825,0.61678321548434945,1842.3200078921377,1916.2942189929458,-1489.995978038829,1489.995978038829,-1916.2942189929458,3201.2961043562927,0.0
553523.2936376977,3687751.2368613081,-2500.0,-1457.9327890195573,1591.834037602385,-1819.1775913247004,-68.134576004581021,84.178725283079245,-2.3833649695142332,1623.0770719628763,-294.83829788316513,248.2872084741945,-248.2872084741945,294.83829788316513,3226.7512363835203,0.0
558523.2936376977,3687751.2368613081,-2500.0,-1340.1584234490458,1693.0612463603532,-2079.687027864461,-68.165665835594837,95.613906895312553,-2.5922028252751899,1735.9608803057429,-118.92055561797471,134.81557646610725,-134.81557646610725,118.92055561797471,3459.1746580806043,0.0
563523.2936376977,3687751.2368613081,-2500.0,-1156.6424578162632,1770.8940720706232,-2370.4464954586269,-65.687523384106683,107.77939131247223,-2.765474677463748,1874.5744273036244,111.4621798583108,-25.866672249865076,25.866672249865076,-111.4621798583108,3696.122841889262,0.0
568523.2936376977,3687751.2368613081,-2500.0,-890.72458284191032,1808.4556595729543,-2687.6127632010339,-59.604969157110489,120.15012089482971,-2.8667361080906719,2022.0226392650643,405.59771521436397,-246.15606967046273,246.15606967046273,-405.59771521436397,3934.206653059593,0.0
573523.2936376977,3687751.2368613081,-2500.0,-524.34838961249022,1782.2843228096983,-3021.3750656296002,-48.505910253210907,131.79312995850142,-2.8414426044811294,2178.9298446027415,771.35079469686343,-539.56685784664137,539.56685784664137,-771.35079469686343,4171.103865192862,0.0
578523.2936376977,3687751.2368613081,-2500.0,-39.812615262433447,1660.8843961360064,-3352.2957133653285,-30.638040217800516,141.17073469847594,-2.6106196861256947,2348.575957401129,1212.6298782942017,-919.14405481246183,919.14405481246183,-1212.6298782942017,4408.5568811993026,0.0
583523.2936376977,3687751.2368613081,-2500.0,576.96151933365843,1403.7964437243481,-3646.1129291229781,-3.9428066948046352,145.88574164551412,-2.0641389266290608,2538.7642785109297,1725.3124795217807,-1394.2879237421437,1394.2879237421437,-1725.3124795217807,4658.3460584193344,0.0
588523.2936376977,3687751.2368613081,-2500.0,1331.0376329101623,962.13180033623109,-3846.8413415454756,33.798991712781046,142.38209840800397,-1.0549533209485997,2765.3118502154384,2291.2049638782964,-1965.1259193454146,1965.1259193454146,-2291.2049638782964,4952.65838142968,0.0
593523.2936376977,3687751.2368613081,-2500.0,2210.4972965884576,282.17989412211938,-3868.5611433077861,84.632328515859996,125.65223758397423,0.60214430688409359,3056.3379592461024,2869.9499283501891,-2613.4862392799369,2613.4862392799369,-2869.9499283501891,5358.3799929128036,0.0
598523.2936376977,3687751.2368613081,-2500.0,3176.1582674756091,-685.56352416277639,-3587.5304914548356,149.81325647614815,89.069593021067362,3.1222950594211634,3455.1252460828018,3389.748489441095,-3289.9204161943421,3289.9204161943421,-3389.748489441095,5987.9328170291064,0.0
603523.2936376977,3687751.2368613081,-2500.0,4150.9101360049399,-1969.2405929805509,-2838.5171933292413,228.84908167567397,24.561654481808681,6.7254845956597835,4017.302470130815,3739.709498914322,-3897.6858679360253,3897.6858679360253,-3739.709498914322,6989.5303438030596,0.0
608523.2936376977,3687751.2368613081,-2500.0,5013.5385136732757,-3548.7241497163172,-1422.5091729987469,318.23776553416081,-76.560393392734213,11.588549565146124,4798.9688847847992,3769.7135687159102,-4277.9049087653511,4277.9049087653511,-3769.7135687159102,8505.9487626775444,0.0
613523.2936376977,3687751.2368613081,-2500.0,5605.511603221943,-5321.5401735195437,864.04246264529536,410.18884995864045,-221.7787008617527,17.774488452940417,5837.9174626004324,3306.9390827736465,-4205.5151118847261,4205.5151118847261,-3306.9390827736465,10621.626245023957,0.0
618523.2936376977,3687751.2368613081,-2500.0,5760.9218932397071,-7072.8796689941701,4169.0726777849695,491.95983296212205,-414.4227011737579,25.153572488032932,7134.7001550216137,2198.6096750775087,-3411.398465233041,3411.398465233041,-2198.6096750775087,13327.44297479325,0.0
623523.2936376977,3687751.2368613081,-2500.0,5364.3271364919019,-8472.200675039845,8494.9562761704292,546.72515324938786,-650.04709714695787,33.349494340400526,8638.7814919004049,382.5410698619454,-1646.2608309232978,1646.2608309232978,-382.5410698619454,16504.800425341982,0.0
628523.2936376977,3687751.2368613081,-2500.0,4424.0187172654651,-9123.9071311024491,13603.762739159059,556.7427705233498,-913.45769752347746,41.748275103061097,10243.097190638226,-2033.1968156968144,1212.7245834271814,-1212.7245834271814,2033.1968156968144,19921.602894183325,0.0
633523.2936376977,3687751.2368613081,-2500.0,3123.5433156434974,-8683.4460008072037,18971.571160322506,508.63679964039511,-1178.3627819832357,49.586531223883682,11791.67796107359,-4726.0104526605464,5044.932633703389,-5044.932633703389,4726.0104526605464,23248.092473524812,0.0
638523.2936376977,3687751.2368613081,-2500.0,1803.4390660564334,-7006.9992961198732,23852.176410312524,399.08259251978228,-1411.2298078576337,56.087448534863761,13104.503847248645,-7201.4760442079605,9426.8104034147909,-9426.8104034147909,7201.4760442079605,26105.048934645387,0.0
643523.2936376977,3687751.2368613081,-2500.0,853.75283984698183,-4256.9106242795469,27465.530265237488,238.08167023646013,-1579.0731094913999,60.590093153508214,14125.364409250498,-8936.8992546003028,13696.007642709079,-13696.007642709079,8936.8992546003028,28141.385961749664,0.0
648523.2936376977,3687751.2368613081,-2500.0,560.62375059722331,-885.82787670591722,29242.297059186869,47.591528105281121,-1658.4752531144925,62.641821036963769,14697.454170182284,-9568.2585475337473,17141.165212142816,-17141.165212142816,9568.2585475337473,29116.693034026543,0.0
653523.2936376977,3687751.2368613081,-2500.0,994.272918570049,2508.806493448014,29001.040762277295,-144.40495316774329,-1641.9425266186138,62.063135864672894,14673.838079256735,-9018.477029103984,19230.73083443044,-19230.73083443044,9018.477029103984,28954.948753442881,0.0
658523.2936376977,3687751.2368613081,-2500.0,2001.7936330909199,5382.6138655341383,26969.092646900222,-311.77090594281032,-1538.8662513792985,58.989751022558579,14098.265702909524,-7498.1957217578683,19761.71801673841,-19761.71801673841,7498.1957217578683,27748.16389973458,0.0
663523.2936376977,3687751.2368613081,-2500.0,3295.0541351678207,7391.4679926155204,23656.688092913111,-436.53796846332096,-1371.1714509402968,53.861930730418919,13080.954178270615,-5394.9689714097885,18866.144182696815,-18866.144182696815,5394.9689714097885,25714.020698515713,0.0
668523.2936376977,3687751.2368613081,-2500.0,4569.8822287720304,8434.2462017586986,19670.426629640726,-511.47986118564359,-1166.199330947682,47.335263915121189,11765.587776853516,-3126.6058755801932,16903.425826254625,-16903.425826254625,3126.6058755801932,23131.087697277166,0.0
673523.2936376977,3687751.2368613081,-2500.0,5595.130973694434,8606.3097406307443,15555.499066776483,-538.95850256190579,-949.9654123611715,40.1378305901274,10297.407907935389,-1029.7885114325463,14315.40064243599,-14315.40064243599,1029.7885114325463,20277.600734332802,0.0
678523.2936376977,3687751.2368613081,-2500.0,6247.8002107152479,8113.8361346946886,11710.037125556988,-527.61601502788767,-742.82009811825162,32.927928199843208,8800.8897478606214,688.06205645113096,11509.046901155398,-11509.046901155398,-688.06205645113096,17389.688494590679,0.0
683523.2936376977,3687751.2368613081,-2500.0,6504.0948613591108,7193.3835258811023,8367.9136279130853,-488.72251838975785,-557.90191299832316,26.202376916957647,7369.0732247289634,1944.1399940278748,8792.9309422056358,-8792.9309422056358,-1944.1399940278748,14642.238264676314,0.0
688523.2936376977,3687751.2368613081,-2500.0,6408.8181296663615,6058.0346317859594,5624.0182588087564,-433.34602695555486,-401.66989072757599,20.267590106204096,6085.2790575838872,2748.0034161872468,6361.7779095434234,-6361.7779095434234,-2748.0034161872468,12147.530137264046,0.0
693523.2936376977,3687751.2368613081,-2500.0,6041.9023262592109,4871.9203389478935,3475.6664536536191,-370.71366970466653,-275.48606116904136,15.258495881186411,5049.0518893835488,3163.4738803588425,4310.742783495708,-4310.742783495708,-3163.4738803588425,9964.286215014281,0.0
698523.2936376977,3687751.2368613081,-2500.0,5492.0604653441678,3745.5039631539044,1862.8950799425527,-307.60689182012408,-177.41846259064647,11.181894636705801,4170.1149162285237,3276.8676387067999,2661.7827537239691,-2661.7827537239691,-3276.8676387067999,8110.767797029519,0.0
703523.2936376977,3687751.2368613081,-2500.0,4840.2677375114554,2742.446566364084,699.83004390484155,-248.43692718684269,-103.79147047511772,7.9634951841236372,3442.1566221609501,3175.5383064614948,1390.6042521571194,-1390.6042521571194,-3175.5383064614948,6577.769697217489,0.0
708523.2936376977,3687751.2368613081,-2500.0,4151.8079922847528,1890.9302423088582,-104.4216305388025,-195.66108045920902,-50.310172576130142,5.487842764852779,2851.2818621104116,2936.012354990261,448.63235034248078,-448.63235034248078,-2936.012354990261,5339.3881108107034,0.0
713523.2936376977,3687751.2368613081,-2500.0,3474.2794832439508,1195.1298696072247,-633.81253728235367,-150.29957674235621,-12.767417281412282,3.6267516585947206,2379.7107369682903,2619.1976759714007,-221.49685811974314,221.49685811974314,-2619.1976759714007,4360.8892171838297,0.0
718523.2936376977,3687751.2368613081,-2500.0,2839.0396115235571,644.78617772449638,-959.83799690947285,-112.4164427333464,12.579234955991929,2.2570286753227298,2008.3489057683978,2270.004351883661,-676.31871100301669,676.31871100301669,-2270.004351883661,3603.8661737681623,0.0
723523.2936376977,3687751.2368613081,-2500.0,2264.1954017423532,222.28320298185471,-1140.0992706977156,-81.505782625636584,28.857189461289259,1.2696150742871875,1718.4876802590259,1919.2624474277918,-966.40455358732788,966.40455358732788,-1919.2624474277918,3029.3640240203003,0.0
558523.2936376977,3692751.2368613081,-2500.0,-878.3023199756168,1412.7418637500489,-1965.0291700948956,-48.444102608927075,84.112426456266178,-2.0271946373341008,1515.5493813322678,145.46933954702689,-75.435093893951517,75.435093893951517,-145.46933954702689,2986.1160331968445,0.0
563523.2936376977,3692751.2368613081,-2500.0,-666.75197277182247,1428.4387967442674,-2200.2826065833297,-43.522186055140182,92.812998370389465,-2.0950632252809536,1623.2088600585994,372.68630815094338,-249.85683028587582,249.85683028587582,-372.68630815094338,3156.8329433436252,0.0
568523.2936376977,3692751.2368613081,-2500.0,-384.51883160181717,1396.4005451500216,-2443.3127900210457,-35.158445544243214,100.90601263046928,-2.0824613290291936,1736.9094676404313,648.73994792632561,-475.26974771255135,475.26974771255135,-648.73994792632561,3325.1023586723436,0.0
573523.2936376977,3692751.2368613081,-2500.0,-20.78069504770702,1295.9545371021688,-2680.0480530383047,-22.267581744406446,107.40064755859835,-1.9428013039480516,1858.9262457609739,975.18730920731139,-759.26398018986526,759.26398018986526,-975.18730920731139,3492.3830636152156,0.0
578523.2936376977,3692751.2368613081,-2500.0,432.84023928653045,1101.3043762185007,-2887.2210395187149,-3.5951393719707458,110.80668806297177,-1.6121698351513625,1994.4420552885977,1348.4943956832881,-1106.830515144281,1106.830515144281,-1348.4943956832881,3666.6925557617778,0.0
583523.2936376977,3692751.2368613081,-2500.0,979.2968941297604,781.97858526537232,-3028.6106497701048,22.204673387612804,108.97570106793953,-1.0059351996402239,2153.5718938764708,1756.7287832096174,-1517.1811090676022,1517.1811090676022,-1756.7287832096174,3868.7118255223395,0.0
588523.2936376977,3692751.2368613081,-2500.0,1611.8861252216889,304.85594126240443,-3050.7008233486654,56.400294459403959,98.94417805980747,-0.016988789932092435,2353.8169365191879,2175.2794616412843,-1978.8942063806157,1978.8942063806157,-2175.2794616412843,4140.0524810343359,0.0
593523.2936376977,3692751.2368613081,-2500.0,2308.8983369031635,-361.17677530422827,-2878.5264269378044,99.882316840719071,76.829356062100047,1.4823218934050626,2621.8454651343754,2562.0156442452176,-2463.1631659995824,2463.1631659995824,-2562.0156442452176,4550.0528613036795,0.0
598523.2936376977,3692751.2368613081,-2500.0,3027.9579205917066,-1236.7263600478198,-2413.4170278447032,152.69770394284382,37.86895016378719,3.6314606052851039,2992.5034843280755,2853.0923485849303,-2915.5257165947346,2915.5257165947346,-2853.0923485849303,5192.4315920598265,0.0
603523.2936376977,3692751.2368613081,-2500.0,3702.022253341238,-2318.7178478295009,-1535.6669022552887,213.42236845678491,-23.25930277285703,6.5628957809235198,3503.1399748056328,2961.834906541706,-3247.7372297866505,3247.7372297866505,-2961.834906541706,6164.5573914994875,0.0
608523.2936376977,3692751.2368613081,-2500.0,4240.4861980080404,-3563.1650469853557,-116.4908505981052,278.45980968750087,-111.67728599492871,10.370921247433268,4183.8021759412877,2784.5219952711263,-3333.5455629957037,3333.5455629957037,-2784.5219952711263,7536.9144604798066,0.0
613523.2936376977,3692751.2368613081,-2500.0,4539.9218008877424,-4867.6206460694957,1956.1045740614527,341.4908947920141,-230.98770367815877,15.070006599630426,5046.5359957163409,2217.5443855592139,-3014.6200919483981,3014.6200919483981,-2217.5443855592139,9330.0649258488065,0.0
618523.2936376977,3692751.2368613081,-2500.0,4508.0221834858612,-6061.5780975118314,4735.646493399383,393.45023561870249,-381.45297536375256,20.551005747216998,6076.7460786695601,1188.5599989561174,-2124.1164448340724,2124.1164448340724,-1188.5599989561174,11503.902964005749,0.0
623523.2936376977,3692751.2368613081,-2500.0,4099.3763003921649,-6916.9466672527587,8165.5098130134465,423.46326509469782,-558.05913103248213,26.551399359374869,7227.9296307097075,-301.96668757884942,-532.32589862720351,532.32589862720351,301.96668757884942,13953.017638588442,0.0
628523.2936376977,3692751.2368613081,-2500.0,3352.3470904270307,-7189.143814109425,12035.04495292866,420.98176239542744,-749.24320301050204,32.657720995015076,8421.2115259548918,-2142.8751862705876,1791.3852615442584,-1791.3852615442584,2142.8751862705876,16507.591552905924,0.0
633523.2936376977,3692751.2368613081,-2500.0,2407.0047452322174,-6687.5983309650646,15971.299159897235,378.82474796058568,-937.24841225987166,38.350042526785657,9552.1041633412678,-4101.1899849149368,4722.0293318706636,-4722.0293318706636,4101.1899849149368,18946.437144206589,0.0
638523.2936376977,3692751.2368613081,-2500.0,1484.1581438683777,-5353.9536357260768,19490.361926935304,296.13677515229392,-1100.7244034738853,43.081959415137838,10521.984371598535,-5858.34232051461,7961.1653109247709,-7961.1653109247709,5858.34232051461,21027.142432994468,0.0
643523.2936376977,3692751.2368613081,-2500.0,822.31223083332281,-3309.8964117600772,22107.254685250726,179.88695252641625,-1219.2348775268645,46.375250612340672,11349.007407921728,-7093.3091046971049,11083.63589055929,-11083.63589055929,7093.3091046971049,22529.748095217157,0.0
648523.2936376977,3692751.2368613081,-2500.0,596.42706168215364,-842.32432947448558,23467.178660257858,43.918132301789086,-1278.2312288746584,47.904241208583322,11794.685307887074,-7581.8279481928394,13643.498078160133,-13643.498078160133,7581.8279481928394,23301.356775948792,0.0
653523.2936376977,3692751.2368613081,-2500.0,858.59520046344903,1674.9660844630325,23440.741693793156,-94.334443673250675,-1272.5580603594994,47.553399792117681,11827.411623468652,-7264.7685360333053,15296.911110074841,-15296.911110074841,7264.7685360333053,23285.781862945132,0.0
658523.2936376977,3692751.2368613081,-2500.0,1529.7535174405093,3887.6614439116115,22141.78105331961,-218.16900183869518,-1207.1378784742365,45.43433976457009,11468.408311601208,-6253.8273621263515,15887.022262581515,-15887.022262581515,6253.8273621263515,22527.977795261784,0.0
663523.2936376977,3692751.2368613081,-2500.0,2440.8749732231518,5547.3149279065301,19868.360456651422,-315.27309467795124,-1094.8088292696766,41.857204559905675,10781.584720240215,-4778.6018295830017,15458.82821337868,-15458.82821337868,4778.6018295830017,21154.04223986706,0.0
668523.2936376977,3692751.2368613081,-2500.0,3396.6165734725696,6547.7389075721239,17003.492530166641,-379.52923683396358,-952.49022071281843,37.261921355859847,9856.1020638310074,-3107.5731127322215,14211.135059724955,-14211.135059724955,3107.5731127322215,19336.885830380001,0.0
673523.2936376977,3692751.2368613081,-2500.0,4230.698407246854,6911.7351321858987,13919.996936668611,-410.80666134498608,-797.25195062924092,32.129273296239028,8787.7742721740578,-1478.9302075740688,12418.845775766973,-12418.845775766973,1478.9302075740688,17260.389464607149,0.0
678523.2936376977,3692751.2368613081,-2500.0,4836.0055924259441,6748.7746205638496,10917.59611771591,-413.38468527024082,-643.44905219967586,26.899550888343164,7664.3027451342114,-61.136641828709799,10359.998013602893,-10359.998013602893,61.136641828709799,15091.48353718939,0.0
683523.2936376977,3692751.2368613081,-2500.0,5168.9797522940362,6207.1542602369564,8198.0322022321088,-393.9114631779488,-501.33187798188368,21.918723197133023,6556.4935834600556,1055.8444015780369,8267.1610816673365,-8267.1610816673365,-1055.8444015780369,12963.946371037473,0.0
688523.2936376977,3692751.2368613081,-2500.0,5237.3086900127328,5435.935001050756,5869.1443223816677,-359.59941669282119,-376.92528965131402,17.417583051304465,5515.1517336835113,1848.7159806678646,6306.3502447407018,-6306.3502447407018,-1848.7159806678646,10973.008424478214,0.0
693523.2936376977,3692751.2368613081,-2500.0,5081.291741596785,4561.9217038408206,3964.4736935412911,-316.99238314512002,-272.69714020417422,13.517953358250889,4605.8047490460349,2340.2917305102801,4576.8604344815021,-4576.8604344815021,-2340.2917305102801,9177.5685827302314,0.0
698523.2936376977,3692751.2368613081,-2500.0,4756.2041005417823,3680.1863991665232,2467.2242132698198,-271.33329058916627,-188.54345327656108,10.254363477324391,3861.5134748703549,2578.8883533419257,3122.7880575633717,-3122.7880575633717,-2578.8883533419257,7606.5045388687231,0.0
703523.2936376977,3692751.2368613081,-2500.0,4319.1354579315312,2853.8965370582105,1331.8535565960774,-226.39757285056828,-122.76190037832275,7.6009096343635214,3226.7904990423494,2622.0673976309658,1948.5919997689848,-1948.5919997689848,-2622.0673976309658,6266.3042987334802,0.0
708523.2936376977,3692751.2368613081,-2500.0,3820.943051036912,2119.144471566296,500.47138981812304,-184.61445971706516,-72.844483967563562,5.4958977574413694,2696.3079393112234,2525.880203831367,1033.9200190511228,-1033.9200190511228,-2525.880203831367,5148.2590467007858,0.0
713523.2936376977,3692751.2368613081,-2500.0,3302.4864546450726,1491.5721035185652,-86.269322405417327,-147.32415550147434,-36.040364850520177,3.8612918307092117,2260.555560630577,2338.9819111627075,345.48438936073103,-345.48438936073103,-2338.9819111627075,4234.351257099087,0.0
718523.2936376977,3692751.2368613081,-2500.0,2793.8243335834095,972.84406273040452,-482.8897584791506,-115.06647658634431,-9.7073378584599457,2.6160597398473469,1907.8250415710904,2100.3086544859311,-154.54014078076716,154.54014078076716,-2100.3086544859311,3501.5693160075512,0.0
563523.2936376977,3697751.2368613081,-2500.0,-288.47900085283288,1112.3246659843521,-2000.796194803391,-25.973061135201704,78.415048252188072,-1.5445746388402408,1405.2254820242742,547.85001333408013,-416.05497585453179,416.05497585453179,-547.85001333408013,2690.3444641813062,0.0
568523.2936376977,3697751.2368613081,-2500.0,-10.439285496855465,1029.4985656167876,-2173.7821812420448,-16.490567960966562,82.998957915406905,-1.4556141182127293,1494.9158636268025,794.11324076496351,-632.27984321336146,632.27984321336146,-794.11324076496351,2810.8098726058543,0.0
573523.2936376977,3697751.2368613081,-2500.0,330.371704719923,879.7154616292421,-2323.3927086965768,-3.1199970988163801,85.479323621604109,-1.247057787234918,1593.732741567715,1072.0507911611369,-891.97859706160421,891.97859706160421,-1072.0507911611369,2935.3101578086512,0.0
578523.2936376977,3697751.2368613081,-2500.0,735.74441970001578,643.33845275985607,-2425.5165932188156,14.978418033602503,84.515195187791008,-0.86878641457147521,1708.3502384984367,1373.631064429283,-1194.1398655554935,1194.1398655554935,-1373.631064429283,3077.5474334611672,0.0
583523.2936376977,3697751.2368613081,-2500.0,1201.7416936677826,299.21335852316878,-2445.6481888987128,38.607358077397862,78.292239980277586,-0.25748570349434385,1850.0323732607383,1683.2645167612234,-1531.3251774326402,1531.3251774326402,-1683.2645167612234,3264.2827462611622,0.0
588523.2936376977,3697751.2368613081,-2500.0,1715.7754426278007,-172.79963937473141,-2336.5990126832735,68.377561949832497,64.460318409856782,0.66299372181243821,2035.7553526675356,1975.1545227016713,-1885.9793992449072,1885.9793992449072,-1975.1545227016713,3539.6528896919508,0.0
593523.2936376977,3697751.2368613081,-2500.0,2253.4786758163145,-787.37381740396552,-2037.1217929063853,104.47088513323077,40.135945413126855,1.9785403560467203,2287.9132850661576,2210.9248414453527,-2225.9504094040735,2225.9504094040735,-2210.9248414453527,3964.2988624106097,0.0
598523.2936376977,3697751.2368613081,-2500.0,2776.2255709268302,-1546.9108945782698,-1472.8162583944238,146.31775445985048,2.0306164608184885,3.7770650448037735,2631.5131202537059,2338.599973691892,-2499.9254415792802,2499.9254415792802,-2338.599973691892,4604.7384819631434,0.0
603523.2936376977,3697751.2368613081,-2500.0,3230.7955304441816,-2432.5012902351868,-561.29670167988002,192.21768915440359,-53.218507354837023,6.1347825324380896,3088.890888123135,2294.6333547423524,-2634.3644266150318,2634.3644266150318,-2294.6333547423524,5515.4978553437222,0.0
608523.2936376977,3697751.2368613081,-2500.0,3553.236951500754,-3393.9586358750066,776.11878461744084,238.98525216949298,-128.44605950689748,9.0960251024602883,3673.5043939734928,2011.0897356762603,-2534.6012515479538,2534.6012515479538,-2011.0897356762603,6723.7284861357293,0.0
613523.2936376977,3697751.2368613081,-2500.0,3678.9451684723367,-4342.0978755484921,2594.6404240416186,281.77351095431277,-225.06625027687213,12.648322284473084,4384.5703836125194,1429.7137988758509,-2093.6131581899585,2093.6131581899585,-1429.7137988758509,8221.5364468172829,0.0
618523.2936376977,3697751.2368613081,-2500.0,3559.5555537522005,-5148.4305511572584,4899.123332298007,314.28074899315976,-341.99172159662749,16.698158014081315,5203.3083276778543,522.67371371572381,-1211.5090145432839,1211.5090145432839,-522.67371371572381,9962.8500727413011,0.0
623523.2936376977,3697751.2368613081,-2500.0,3183.9409460623215,-5658.1611127298038,7615.6784302922815,329.52758177692021,-474.63872350959809,21.055924768086967,6091.1342553377499,-684.12531140113106,174.2108876467376,-174.2108876467376,684.12531140113106,11862.006047127044,0.0
628523.2936376977,3697751.2368613081,-2500.0,2596.0669418870998,-5719.7316014659473,10572.870617284238,321.24185935146556,-614.4557632665834,25.438974843874767,6990.713885750778,-2094.0827244674565,2053.5943649781511,-2053.5943649781511,2094.0827244674565,13796.056141753734,0.0
633523.2936376977,3697751.2368613081,-2500.0,1899.3947867210661,-5227.0506618658328,13506.302681526471,285.60381311590743,-749.43367641875898,29.499301634341901,7831.1225723793086,-3540.8275506925461,4317.4319790364734,-4317.4319790364734,3540.8275506925461,15614.620125297461,0.0
638523.2936376977,3697751.2368613081,-2500.0,1239.7490073342885,-4161.0906745667698,16095.695783399084,222.79481544008243,-865.8128657330376,32.872615455712207,8620.9716128567306,-4814.8819092909562,6754.896679450736,-6754.896679450736,4814.8819092909562,17158.87035420012,0.0
643523.2936376977,3697751.2368613081,-2500.0,767.75381359587618,-2611.9907471646425,18030.240558964026,137.67300219801649,-950.71776529076089,35.238996389486992,9240.8609103704493,-5712.7762377894705,9085.6645872544723,-9085.6645872544723,5712.7762377894705,18286.907756052995,0.0
648523.2936376977,3697751.2368613081,-2500.0,593.96393452310065,-767.58915412211115,19081.932347168589,39.135193441881228,-994.94406652605403,36.379933983116167,9590.5158186514127,-6091.9392961065005,11021.164171568291,-11021.164171568291,6091.9392961065005,18898.846166875817,0.0
653523.2936376977,3697751.2368613081,-2500.0,756.07577597399325,1130.6867468707765,19158.869878550082,-61.737220571938899,-994.92806255899882,36.216421962623564,9647.570190356153,-5908.6690959864773,12333.468064750499,-12333.468064750499,5908.6690959864773,18953.756601447465,0.0
658523.2936376977,3697751.2368613081,-2500.0,1212.3038244157917,2847.3984849848894,18318.305728745054,-154.10585970408127,-953.21939449374031,34.818733046317845,9422.1099225801827,-5223.7148884781291,12905.090933583362,-12905.090933583362,5223.7148884781291,18473.332032786733,0.0
663523.2936376977,3697751.2368613081,-2500.0,1861.3402030934233,4204.6344676243407,16738.12409990724,-229.51898002211328,-877.40523066439471,32.385789291614188,8951.9874468790567,-4176.0991019825906,12742.820143815787,-12742.820143815787,4176.0991019825906,17532.174498717621,0.0
668523.2936376977,3697751.2368613081,-2500.0,2577.0073699555255,5108.9104552570443,14662.876535654706,-283.13232022235348,-778.02787632877357,29.201484314067919,8293.380498591021,-2939.708278322827,11956.428835590215,-11956.428835590215,2939.708278322827,16239.19237202299,0.0
673523.2936376977,3697751.2368613081,-2500.0,3242.1044067986913,5550.4958451615239,12346.678157852026,-313.8358880029204,-666.28953503964681,25.580200111134101,7509.8747139140005,-1680.9345599636708,10716.866718513807,-10716.866718513807,1680.9345599636708,14716.510779773302,0.0
678523.2936376977,3697751.2368613081,-2500.0,3770.7708315378231,5583.3443601487306,10009.887987041417,-323.53805605259424,-552.20310721318799,21.81771547606559,6662.9305392532797,-529.89844038564661,9211.8684368833347,-9211.8684368833347,529.89844038564661,13081.338166110247,0.0
683523.2936376977,3697751.2368613081,-2500.0,4116.4966270017258,5297.5870534532478,7816.1742568587615,-316.04817833009099,-443.50532280680329,18.156864580364967,5805.3251170663898,431.23993541144182,7611.6909706446731,-7611.6909706446731,-431.23993541144182,11433.703483368367,0.0
688523.2936376977,3697751.2368613081,-2500.0,4268.7993146855197,4794.2822018777988,5867.9371626009697,-295.96272442516812,-345.32060715520754,14.771278356560435,4977.8831889052053,1166.1713305648568,6049.7587199692316,-6049.7587199692316,-1166.1713305648568,9850.5187625397648,0.0
693523.2936376977,3697751.2368613081,-2500.0,4243.7811714452519,4167.3886026031651,4213.8435122925521,-267.79960268849891,-260.36841609727418,11.76533405205698,4208.9923320561247,1674.4687358306007,4616.7868780097988,-4616.7868780097988,-1674.4687358306007,8384.7519925718316,0.0
698523.2936376977,3697751.2368613081,-2500.0,4073.2162370751807,3493.8365612176945,2861.9471837112828,-235.46128454165839,-189.46140789869344,9.1843868773275155,3552.7384400418905,1979.1780554147758,3364.1074685016224,-3364.1074685016224,-1979.1780554147758,7067.9265885645073,0.0
703523.2936376977,3697751.2368613081,-2500.0,3795.0859329928112,2830.1986839361939,1793.5557114840508,-201.99441072485314,-132.08485974790071,7.0294933155605746,3007.1279822838274,2115.5065320165413,2311.6684001760177,-2311.6684001760177,-2115.5065320165413,5914.2542726092615,0.0
708523.2936376977,3697751.2368613081,-2500.0,3446.7855963170368,2213.6855846530725,975.11826312766698,-169.56365137076764,-86.925350015552368,5.2725292210843602,2539.2824293568028,2122.2352554486088,1457.2613415178912,-1457.2613415178912,-2122.2352554486088,4925.1407411757491,0.0
713523.2936376977,3697751.2368613081,-2500.0,3061.0701986615395,1665.3808030712096,367.10399056432448,-139.5519562777682,-52.287194940893912,3.8690464281494896,2144.9807454235433,2036.135586542006,784.91634856729922,-784.91634856729922,-2036.135586542006,4093.292314945973,0.0
563523.2936376977,3702751.2368613081,-2500.0,-4.8349661884020652,830.71227805301692,-1785.9037158920478,-12.425974773405752,65.067581403353003,-1.1011657857523744,1219.0765459923462,654.09714458869973,-530.80823932728833,530.80823932728833,-654.09714458869973,2293.9667040677587,0.0
568523.2936376977,3702751.2368613081,-2500.0,256.03198997165362,713.74622859575686,-1896.2341405087034,-2.6525847699911576,66.894706245204034,-0.96492175760801613,1292.6083978048205,865.09087071959596,-728.50667367514473,728.50667367514473,-865.09087071959596,2384.7259822862475,0.0
573523.2936376977,3702751.2368613081,-2500.0,562.90883662402598,535.16016889376124,-1971.6256198801455,10.336045165608269,66.393141474720167,-0.72098584243950103,1376.9905626987629,1092.5229699641179,-955.69224600652376,955.69224600652376,-1092.5229699641179,2487.1144224845643,0.0
578523.2936376977,3702751.2368613081,-2500.0,913.39617933195848,281.02494082215503,-1989.1546345366453,27.059052315974466,62.417719515435486,-0.33102252547116556,1479.6880243369576,1326.1924998598124,-1207.3725642639961,1207.3725642639961,-1326.1924998598124,2618.8487045371417,0.0
583523.2936376977,3702751.2368613081,-2500.0,1299.9054344608578,-62.050788837480518,-1918.1214340441218,47.933001198689723,53.502227484257482,0.25118884145545567,1611.8251168423367,1549.7191768265575,-1472.432647242113,1472.432647242113,-1549.7191768265575,2808.8266031284006,0.0
588523.2936376977,3702751.2368613081,-2500.0,1707.8639509329735,-504.47363701027382,-1719.2021765147811,73.145927815382748,37.852997647894341,1.0785942787666334,1788.1497703536422,1739.1579719741808,-1731.103158541659,1731.103158541659,-1739.1579719741808,3097.1701104155313,0.0
593523.2936376977,3702751.2368613081,-2500.0,2114.1854871636351,-1049.9811912234309,-1344.7231857897621,102.48567027993811,13.402237090583908,2.2075859162978317,2025.6104287100538,1862.2467508761138,-1952.3230011601049,1952.3230011601049,-1862.2467508761138,3529.7013311274945,0.0
598523.2936376977,3702751.2368613081,-2500.0,2486.6914829566317,-1690.716058967552,-741.00048008203771,135.13173621234526,-22.042186667264485,3.6918244466544619,2340.4296127458283,1879.0784365395923,-2091.7023902065325,2091.7023902065325,-1879.0784365395923,4147.3758424998705,0.0
603523.2936376977,3702751.2368613081,-2500.0,2785.4519613994162,-2401.5378568892738,146.12732376424847,169.4425213260638,-70.512610707713506,5.5725514826558822,2744.4168657501732,1745.2190504714918,-2091.2898205619404,2091.2898205619404,-1745.2190504714918,4975.9381510809189,0.0
608523.2936376977,3702751.2368613081,-2500.0,2967.1105899094237,-3134.8443699951013,1361.6097628362677,202.80042405150175,-133.44108320199769,7.8655967345228168,3241.5818947460875,1418.2569454273405,-1882.8028561203389,1882.8028561203389,-1418.2569454273405,6020.1532229357445,0.0
613523.2936376977,3702751.2368613081,-2500.0,2992.8653501506287,-3818.1339302542215,2927.2241983237714,231.60819252282027,-211.08239151097223,10.546680354408707,3825.602875736914,868.15519516339214,-1396.0422172525998,1396.0422172525998,-868.15519516339214,7261.6668263596894,0.0
618523.2936376977,3702751.2368613081,-2500.0,2839.6199366001129,-4357.2386565711895,4825.0076404320089,251.54148006233564,-301.89233617830973,13.538230644621454,4478.2350301793185,90.341394222821805,-573.37306347382651,573.37306347382651,-90.341394222821805,8657.8976916888932,0.0
623523.2936376977,3702751.2368613081,-2500.0,2511.8915387471152,-4647.8118239107735,6982.281245380058,258.12878285357573,-402.03963325104269,16.702456375369803,5168.8896744112053,-881.69551778080563,611.00214826200363,-611.00214826200363,881.69551778080563,10141.798831226892,0.0
628523.2936376977,3702751.2368613081,-2500.0,2050.0296280724383,-4595.48611516856,9264.7323021335851,247.63109166049986,-505.28870499215896,19.845578587252888,5855.9812833050692,-1969.5666704186601,2131.5054596837022,-2131.5054596837022,1969.5666704186601,11624.377301323122,0.0
633523.2936376977,3702751.2368613081,-2500.0,1529.578940882893,-4141.1432888521404,11484.237856803591,218.04640315825549,-603.46565961182262,22.735766405938605,6511.1736671653007,-3054.5042963130168,3898.8842684170027,-3898.8842684170027,3054.5042963130168,13001.856354062953,0.0
638523.2936376977,3702751.2368613081,-2500.0,1048.6581226119374,-3283.4554616290916,13424.567565040041,169.92906934988554,-687.56668425199962,25.133969416832013,7143.5049177478541,-3995.9940269502345,5763.0059326917972,-5763.0059326917972,3995.9940269502345,14167.776440170555,0.0
643523.2936376977,3702751.2368613081,-2500.0,705.13830278187572,-2089.1666655540976,14881.095716559728,106.68703689666245,-749.32140976102585,26.831232864578947,7615.5779191152378,-4661.4316160435865,7534.5205045031671,-7534.5205045031671,4661.4316160435865,15028.172456464781,0.0
648523.2936376977,3702751.2368613081,-2500.0,570.92303615591311,-684.7668691586,15703.257712470913,34.158669543912922,-782.78932396889684,27.683791679546975,7892.2406500112729,-4957.6232288120063,9021.4187670961073,-9021.4187670961073,4957.6232288120063,15516.173320314367,0.0
653523.2936376977,3702751.2368613081,-2500.0,673.13469162294507,769.34967036176522,15825.484716258141,-40.46180610236437,-785.49246537525528,27.63676487530244,7957.3730569713798,-4852.6565480602585,10069.138445048522,-10069.138445048522,4852.6565480602585,15602.012460812701,0.0
658523.2936376977,3702751.2368613081,-2500.0,989.33394421332503,2113.4953960467797,15276.264696025297,-110.02072612421152,-758.73391643738762,26.730529765561656,7815.5093950564305,-4380.2753388067567,10590.575432078163,-10590.575432078163,4380.2753388067567,15295.737232313159,0.0
663523.2936376977,3702751.2368613081,-2500.0,1457.4850132235836,3220.0625270532473,14163.984572812224,-168.68315222526553,-707.05740541893886,25.088406835414251,7489.5221227714546,-3626.5108869841119,10576.876323828377,-10576.876323828377,3626.5108869841119,14642.376805684629,0.0
668523.2936376977,3702751.2368613081,-2500.0,1995.2384262158396,4012.388247443514,12646.921538949447,-212.74270572291647,-637.10079756169512,22.890701673028563,7015.3844636152589,-2705.3042681415805,10088.251693848966,-10088.251693848966,2705.3042681415805,13711.622100630502,0.0
673523.2936376977,3702751.2368613081,-2500.0,2520.5869914382079,4468.1844140049416,10898.794987643079,-240.8318503964812,-556.24765419409721,20.342042791736954,6435.6865665848782,-1732.568442664995,9231.3132488730243,-9231.3132488730243,1732.568442664995,12585.285710848199,0.0
678523.2936376977,3702751.2368613081,-2500.0,2967.4954646851106,4610.5529448505031,9079.7785119722757,-253.62049039051507,-471.44770710679046,17.641102389921819,5793.5212584013116,-806.22888589477589,8132.2616783847097,-8132.2616783847097,806.22888589477589,11345.631047781535,0.0
683523.2936376977,3702751.2368613081,-2500.0,3293.7292629780959,4492.5533333353642,7318.2067654469738,-253.21628349257824,-388.42468864741704,14.957994610387507,5127.8210468879533,4.4367287184418274,6913.7110740234803,-6913.7110740234803,-4.4367287184418274,10066.587526910847,0.0
688523.2936376977,3702751.2368613081,-2500.0,3481.4615408705217,4181.0683476159029,5703.4262260636342,-242.49220821987785,-311.31699223101202,12.421961720148456,4470.5490814364239,660.72985853368891,5679.221545602597,-5679.221545602597,-660.72985853368891,8808.5529972164259,0.0
693523.2936376977,3702751.2368613081,-2500.0,3533.0701825748624,3743.7093681474144,4287.2321919780161,-224.50454016352114,-242.67429772629944,10.118600082169497,3845.6231130777392,1150.4530793392294,4506.0625027569404,-4506.0625027569404,-1150.4530793392294,7616.4810275451018,0.0
698523.2936376977,3702751.2368613081,-2500.0,3464.8258483747595,3240.2303522136435,3090.3418887750299,-202.08011238915421,-183.68159842387902,8.0939138399382724,3269.3505396769392,1480.9454072266703,3444.5224949447334,-3444.5224949447334,-1480.9454072266703,6520.4100600804886,0.0
703523.2936376977,3702751.2368613081,-2500.0,3300.5508805002182,2718.2590570233851,2110.7587485505651,-177.58217843080973,-134.48557436098821,6.3622948381045346,2787.3973852095428,1671.6994970236251,2521.3183040613299,-2521.3183040613299,-1671.6994970236251,5537.4675075767254,0.0
708523.2936376977,3702751.2368613081,-2500.0,3066.4330807609053,2212.3218740952993,1331.884877944,-152.82346064201755,-94.530918677254817,4.9152616652942447,2379.9465598142119,1748.0338058985571,1744.8724816026361,-1744.8724816026361,-1748.0338058985571,4674.5241609663726,0.0
568523.2936376977,3707751.2368613081,-2500.0,437.59636477585821,449.65290759598128,-1623.7246842674845,7.2739743462281172,52.794011358375649,-0.58840175626338409,1125.5118658016365,881.98641844471285,-776.08427295673232,776.08427295673232,-881.98641844471285,2037.8651675638423,0.0
573523.2936376977,3707751.2368613081,-2500.0,706.05915527534171,258.08442943770433,-1638.6756463941681,19.364545059161756,50.188737335383507,-0.3325220075689026,1201.5383966149177,1061.4605099763498,-967.56240302159335,967.56240302159335,-1061.4605099763498,2132.832329461542,0.0
578523.2936376977,3707751.2368613081,-2500.0,1001.7798741331591,3.1822239742726208,-1591.2906158533465,34.319967780106289,44.28746532548525,0.045981235176851432,1297.7434663797058,1235.0371777915004,-1169.2864577843795,1169.2864577843795,-1235.0371777915004,2267.0171725628279,0.0
583523.2936376977,3707751.2368613081,-2500.0,1315.7402699591348,-322.47720656654764,-1455.5637938640482,52.299103659726335,33.945098466253704,0.58015383101212314,1424.0633158444498,1387.2819296583189,-1368.6666019737186,1368.6666019737186,-1387.2819296583189,2467.5292936332835,0.0
588523.2936376977,3707751.2368613081,-2500.0,1633.6819887641657,-722.53922550891593,-1200.0864473612262,73.239262509502737,17.834470721641154,1.3060247950709882,1592.1539585187238,1497.5378614651095,-1546.2259938072839,1546.2259938072839,-1497.5378614651095,2766.2889085727893,0.0
593523.2936376977,3707751.2368613081,-2500.0,1935.5955425582033,-1194.0878853878251,-789.14735166617936,96.739495579611287,-5.4831320406848159,2.2597004744272451,1813.7318987964009,1540.1046370609786,-1674.2801011670565,1674.2801011670565,-1540.1046370609786,3193.723788676908,0.0
598523.2936376977,3707751.2368613081,-2500.0,2196.1279348609769,-1724.3409766239763,-185.46493387636119,121.93463077115454,-37.419387071057827,3.4726691810235075,2098.3407342946512,1485.6314847287051,-1716.4356485536789,1716.4356485536789,-1485.6314847287051,3771.8125307755704,0.0
603523.2936376977,3707751.2368613081,-2500.0,2386.4642283082489,-2287.3543441918205,644.89555121302965,147.38654433977138,-79.136803963986239,4.9651622320407842,2451.1691779449902,1304.2626885089758,-1628.7160982943615,1628.7160982943615,-1304.2626885089758,4509.6542051484312,0.0
608523.2936376977,3707751.2368613081,-2500.0,2478.1462509212201,-2841.7261506551076,1725.1542142311803,171.03504825537249,-131.24269812665634,6.7379514297636334,2871.3421950443358,970.88664036076,-1363.2396869081465,1363.2396869081465,-970.88664036076,5401.8108693074628,0.0
613523.2936376977,3707751.2368613081,-2500.0,2448.8833403338876,-3330.7209879268075,3058.4278058447981,190.26210473161865,-193.42796885737246,8.7637691900206853,3350.7469968151386,472.29862074595349,-875.16421674213893,875.16421674213893,-472.29862074595349,6427.6775275240634,0.0
618523.2936376977,3707751.2368613081,-2500.0,2289.6212045398402,-3686.3469661584245,4617.8604263735942,202.11904293447154,-264.11970904601054,10.980362363983547,3873.39606716972,-184.83696537102506,-132.85857495185323,132.85857495185323,184.83696537102506,7550.9879348552276,0.0
623523.2936376977,3707751.2368613081,-2500.0,2011.1061149771413,-3838.3604754813218,6339.0955586132195,203.73697410363818,-340.25716401421755,13.287886658713356,4415.5440997714468,-967.4466343046671,870.10088030232862,-870.10088030232862,967.4466343046671,8720.1026941283162,0.0
628523.2936376977,3707751.2368613081,-2500.0,1647.3455267930274,-3727.6942463865576,8118.7295312663746,192.88047982779025,-417.31734832432147,15.552956575620795,4946.9437649376232,-1813.9161618353587,2104.178565148532,-2104.178565148532,1813.9161618353587,9870.2936832121195,0.0
633523.2936376977,3707751.2368613081,-2500.0,1253.4221461934437,-3321.6615981196078,9821.8988503007986,168.52982013429724,-489.68484845590825,17.620946755100764,5495.0218105206468,-2639.0239961385923,3498.5904155731841,-3498.5904155731841,2639.0239961385923,10928.852610963866,0.0
638523.2936376977,3707751.2368613081,-2500.0,896.5629381545142,-2626.3870498618512,11299.846464327606,131.31952400037403,-551.37080270314118,19.335043399417344,5979.901969503012,-3346.7139412168362,4945.3000639041184,-4945.3000639041184,3346.7139412168362,11822.917489219984,0.0
643523.2936376977,3707751.2368613081,-2500.0,641.98655259176064,-1691.5359849448419,12414.57549620885,83.662495571898049,-596.95695635870038,20.558905697289592,6344.8207604529325,-3848.3983338954304,6313.5909775425616,-6313.5909775425616,3848.3983338954304,12488.786491433384,0.0
648523.2936376977,3707751.2368613081,-2500.0,537.66807094759247,-604.40830970068441,13064.229484079578,29.469684556801493,-622.53223431159279,21.198134149742543,6565.70947427383,-4081.6352253498444,7472.5263540604647,-7472.5263540604647,4081.6352253498444,12880.692806041841,0.0
653523.2936376977,3707751.2368613081,-2500.0,603.17948098859824,525.73225941959186,13201.617900171712,-26.489318736361632,-626.35964988001297,21.2144705188235,6630.8550248528945,-4023.1363329064488,8315.0787412243189,-8315.0787412243189,4023.1363329064488,12976.881433252016,0.0
658523.2936376977,3707751.2368613081,-2500.0,826.36412649898125,1588.4335295653586,12840.41264894865,-79.410138591515093,-609.08926550983244,20.630062924891288,6542.0244927353287,-3691.9548795991313,8776.693116657254,-8776.693116657254,3691.9548795991313,12781.547158341276,0.0
663523.2936376977,3707751.2368613081,-2500.0,1168.4427093536965,2491.563869890671,12047.958872323661,-125.22995618225642,-573.48320180148608,19.520539207584182,6313.2956175360659,-3142.4573128966404,8843.1909025716614,-8843.1909025716614,3142.4573128966404,12322.377187082557,0.0
668523.2936376977,3707751.2368613081,-2500.0,1574.9882489067857,3174.2852937578364,10928.197100772719,-161.16121484525692,-523.77344754374951,18.000163668251471,5968.0806547731236,-2450.3170222073686,8547.0601935300001,-8547.0601935300001,2450.3170222073686,11644.687996179617,0.0
673523.2936376977,3707751.2368613081,-2500.0,1988.6122850730594,3611.2633243752839,9600.6690330912024,-185.89237433759232,-464.86204189960432,16.202102547505824,5535.2200803631586,-1696.5168271019538,7955.0638681445926,-7955.0638681445926,1696.5168271019538,10803.866649277668,0.0
678523.2936376977,3707751.2368613081,-2500.0,2359.5936852946884,3809.0682279411162,8181.3453710623871,-199.47985124919464,-401.57172499760674,14.259897879324555,5045.0582872569239,-953.8170966991197,7152.0425623193114,-7152.0425623193114,953.8170966991197,9857.8645088655885,0.0
683523.2936376977,3707751.2368613081,-2500.0,2652.3369102811025,3797.6933388658722,6768.9494667143435,-203.032474558865,-338.08949109065264,12.292422095424509,4526.2003328722567,-278.20488416323633,6225.5510390265499,-6225.5510390265499,278.20488416323633,8861.0596593366772,0.0
688523.2936376977,3707751.2368613081,-2500.0,2847.3920088491245,3620.4919021387109,5437.8877374673939,-198.3120965502238,-277.65599101605113,10.394730686960578,4003.301696341081,294.30704813723469,5254.3031203464161,-5254.3031203464161,-294.30704813723469,7860.1270637809375,0.0
693523.2936376977,3707751.2368613081,-2500.0,2940.0295546638149,3325.0766054547071,4236.9421769269275,-187.35312215141758,-222.48021396304156,8.6346936098404861,3495.9277308805026,746.63926399389834,4301.4498065254184,-4301.4498065254184,-746.63926399389834,6891.9533071342366,0.0
698523.2936376977,3707751.2368613081,-2500.0,2936.8456904264126,2956.5539380193482,3191.9309860770727,-172.16285499420741,-173.81833091206414,7.0541468076989515,3018.325373607147,1077.0527517984262,3412.2463473406597,-3412.2463473406597,-1077.0527517984262,5983.2504449397111,0.0
703523.2936376977,3707751.2368613081,-2500.0,2851.7425598361465,2553.4158497064864,2310.4251126245827,-154.52426623219608,-132.14557904490684,5.6724525028310611,2580.3414139073338,1294.5853612046194,2614.9028272189362,-2614.9028272189362,-1294.5853612046194,5151.3425767239678,0.0
573523.2936376977,3712751.2368613081,-2500.0,783.79887522182514,41.155310487206911,-1333.1082954840481,25.041914710355435,36.71247440010967,-0.052872690763341376,1060.1673002891164,998.01841465454049,-942.54440840216125,942.54440840216125,-998.01841465454049,1856.713261307676,0.0
578523.2936376977,3712751.2368613081,-2500.0,1028.7054822973412,-203.31809734978248,-1238.3042262983465,38.108549583770738,29.711110697487001,0.30051565931360164,1152.6234334829624,1120.881676888722,-1098.1927181302547,1098.1927181302547,-1120.881676888722,1999.1411985192583,0.0
583523.2936376977,3712751.2368613081,-2500.0,1279.6345880225344,-502.3192268012337,-1059.734064945739,53.314319438178963,18.837618551271049,0.77818787668653577,1274.1968032983168,1216.4492372036266,-1240.8611039591815,1240.8611039591815,-1216.4492372036266,2209.7439776968799,0.0
588523.2936376977,3712751.2368613081,-2500.0,1523.8129900917966,-855.13090636840582,-773.14609642908874,70.463056249203419,3.135635355361944,1.4041450138640093,1433.3708583994089,1267.7657702685751,-1352.7652573831542,1352.7652573831542,-1267.7657702685751,2511.0774841122279,0.0
593523.2936376977,3712751.2368613081,-2500.0,1744.8301684270257,-1255.2257693782826,-352.65618726551412,89.089491109057263,-18.367813372634853,2.2008460169665178,1637.5963743414229,1255.1527640666995,-1410.4671671164811,1410.4671671164811,-1255.1527640666995,2921.0722139603604,0.0
598523.2936376977,3712751.2368613081,-2500.0,1923.4591689281679,-1688.194502459314,226.6702874094878,108.38804791878476,-46.547367709183355,3.1858294144035906,1891.8632101778348,1157.764777800501,-1385.2022479334444,1385.2022479334444,-1157.764777800501,3449.6361646480191,0.0
603523.2936376977,3712751.2368613081,-2500.0,2039.5125839385873,-2130.0204578571197,984.83966472756367,127.165050942242,-82.01531617341854,4.3671738562288258,2197.5281649425679,956.30955516488189,-1244.495771257604,1244.495771257604,-956.30955516488189,4097.2421084798007,0.0
608523.2936376977,3712751.2368613081,-2500.0,2074.8731391126612,-2546.3905005985994,1931.6152812567975,143.84096065281889,-124.91626858816915,5.7385106949709002,2551.4766498533459,636.96717071090552,-955.52758286891117,955.52758286891117,-636.96717071090552,4854.5460923599285,0.0
613523.2936376977,3712751.2368613081,-2500.0,2017.5203578392827,-2893.882717844373,3060.4135132230181,156.53182990458149,-174.70657332289056,7.274007950946987,2945.5806401051345,196.1518267409873,-490.44830864680659,490.44830864680659,-196.1518267409873,5702.0990902684971,0.0
618523.2936376977,3712751.2368613081,-2500.0,1865.8896216904839,-3123.7729685703075,4342.6025649501225,163.23129359054414,-229.96629782229434,8.9249739259769978,3366.4923288191967,-354.78571184011616,166.70492942860645,-166.70492942860645,354.78571184011616,6610.1477004819326,0.0
623523.2936376977,3712751.2368613081,-2500.0,1632.379809955479,-3188.7049686831297,5723.9936611952398,162.09290852576663,-288.30834749152433,10.619215674749075,3795.9514598160945,-986.34696667198557,1012.6491379720079,-1012.6491379720079,986.34696667198557,7539.1468362387632,0.0
628523.2936376977,3712751.2368613081,-2500.0,1344.5350723263491,-3051.5466563891068,7125.5302947801856,151.77798239511768,-346.45113092772732,12.264547711156006,4230.0160149709236,-1650.8161998920425,2019.0232771551512,-2019.0232771551512,1650.8161998920425,8441.6648751979537,0.0
633523.2936376977,3712751.2368613081,-2500.0,1042.6697771185804,-2694.6187338871919,8449.6172953127552,131.79618062703952,-400.49502620974363,13.757081054065287,4675.2649893737243,-2286.5582114339823,3130.4355042427169,-3130.4355042427169,2286.5582114339823,9266.0048065359024,0.0
638523.2936376977,3712751.2368613081,-2500.0,773.64371242141942,-2126.6538890728193,9592.0968865248415,102.74278163206411,-446.39054045187589,14.993206887918944,5052.3953013395967,-2826.7324843068664,4268.246940682835,-4268.246940682835,2826.7324843068664,9961.3364065787355,0.0
643523.2936376977,3712751.2368613081,-2500.0,581.90642982042857,-1384.8880820498407,10457.881958562453,66.344593510336296,-480.51932074846655,15.883435170543736,5338.3459639156581,-3210.8327036800501,5340.4273624275493,-5340.4273624275493,3210.8327036800501,10483.556180331383,0.0
648523.2936376977,3712751.2368613081,-2500.0,500.20346442155727,-530.89304291872293,10976.554486654974,25.273081798619501,-500.25628851419015,16.365296989469552,5516.300147087456,-3396.083857570512,6255.711502986439,-6255.711502986439,3396.083857570512,10800.699797278477,0.0
653523.2936376977,3712751.2368613081,-2500.0,542.75981152417751,359.21527917192282,11113.801806127158,-17.245694541990094,-504.37261460699375,16.412005302956011,5577.6692064005583,-3365.411885989166,6938.5604632373415,-6938.5604632373415,3365.411885989166,10896.751347237123,0.0
658523.2936376977,3712751.2368613081,-2500.0,702.992540054806,1207.6225939442081,10875.621949241809,-57.929505022581964,-493.17697380096956,16.035244811661268,5522.8597404300008,-3129.6947472964594,7340.9111719929942,-7340.9111719929942,3129.6947472964594,10772.987350773348,0.0
663523.2936376977,3712751.2368613081,-2500.0,956.18466663586048,1947.2034714320262,10304.615932303792,-93.920440310695227,-468.37411017828606,15.281533960808959,5360.6785470517107,-2723.9734316892727,7447.8255571803102,-7447.8255571803102,2723.9734316892727,10446.71356185816,0.0
668523.2936376977,3712751.2368613081,-2500.0,1265.8717656754582,2530.4033966233887,9470.0556605110905,-123.13708727049192,-432.69885058310234,14.223481122045941,5106.6061211936067,-2199.2240365961443,7276.2396753052544,-7276.2396753052544,2199.2240365961443,9947.8644275160495,0.0
673523.2936376977,3712751.2368613081,-2500.0,1591.7174640935586,2933.0599182686256,8454.9162280730452,-144.4389187036852,-389.43560018042155,12.9482503346843,4780.403124624997,-1612.378046995801,6868.1301141583835,-6868.1301141583835,1612.378046995801,9314.3709361886304,0.0
678523.2936376977,3712751.2368613081,-2500.0,1896.6603058059488,3153.3315786124372,7343.2214720104394,-157.60399112825397,-341.94148396776217,11.545662932536104,4403.5765690776379,-1017.226999830149,6280.6836975548667,-6280.6836975548667,1017.226999830149,8587.308488994473,0.0
683523.2936376977,3712751.2368613081,-2500.0,2151.8654535030778,3207.1441998979139,6210.1506138429841,-163.16710369764084,-293.26322457486287,10.098820073646417,3997.1474159517575,-457.95822681520576,5576.2055285573588,-5576.2055285573588,457.95822681520576,7806.6602798336471,0.0
688523.2936376977,3712751.2368613081,-2500.0,2339.0031679137278,3122.017451037133,5115.9953722663386,-162.18553805605816,-245.89197464117873,8.6770349881483639,3579.9847817212358,34.09134306928172,4813.7893549364262,-4813.7893549364262,-34.09134306928172,7008.1868570371407,0.0
693523.2936376977,3712751.2368613081,-2500.0,2450.1837367612729,2930.9136970559907,4103.8658007573231,-155.99492519340581,-201.65776502914591,7.3329662304896246,3167.7919432677231,440.8172187105406,4043.7416569831325,-4043.7416569831325,-440.8172187105406,6221.547144523618,0.0
698523.2936376977,3712751.2368613081,-2500.0,2486.304218637707,2667.183288484302,3200.3095693555692,-145.99930986833706,-161.73702377791238,6.1020731387726936,2772.6961070075622,755.72426218414466,3304.8353254554345,-3304.8353254554345,-755.72426218414466,5469.561956800283,0.0
583523.2936376977,3717751.2368613081,-2500.0,1212.8766033079385,-619.64544020096025,-727.56277791897742,52.159541286076141,7.3978878543424624,0.88334665741254337,1152.2965246317876,1049.864973719601,-1103.6083253774264,1103.6083253774264,-1049.864973719601,2010.6319045408743,0.0
588523.2936376977,3717751.2368613081,-2500.0,1398.0611633772935,-925.24149638279494,-428.42662512721483,66.060843255746633,-7.3797620440263163,1.4166413289835658,1301.3865575148259,1058.8096504253663,-1164.1539548084966,1164.1539548084966,-1058.8096504253663,2305.9033730200331,0.0
593523.2936376977,3717751.2368613081,-2500.0,1557.5191383546862,-1260.2005167682673,-16.194640247341699,80.713955332731913,-26.771423879694353,2.0772444535136652,1487.401376844894,1010.1284817092723,-1170.5160995798983,1170.5160995798983,-1010.1284817092723,2689.6402332975044,0.0
598523.2936376977,3717751.2368613081,-2500.0,1677.0767951485807,-1610.3607827628894,525.1114757386938,95.416683804352985,-51.292467153747154,2.8740983135709643,1712.4635169434021,889.48118208540257,-1100.5545666720959,1100.5545666720959,-889.48118208540257,3164.8612381877392,0.0
603523.2936376977,3717751.2368613081,-2500.0,1742.9431990514081,-1954.7635290395133,1206.2189063752921,109.21019828870901,-81.218267370228986,3.8086638570139497,1975.8799061025243,684.95503197526523,-930.79026259897068,930.79026259897068,-684.95503197526523,3728.0151999512245,0.0
608523.2936376977,3717751.2368613081,-2500.0,1743.9758901630155,-2265.7839141842164,2028.9039573487037,120.90289550594434,-116.44991702256473,4.8717714680922546,2273.7302757485254,389.86394713064885,-639.19314260627914,639.19314260627914,-389.86394713064885,4368.8729932996384,0.0
613523.2936376977,3717751.2368613081,-2500.0,1674.3829139648858,-2510.6204141321482,2982.1274125012519,129.14722176769146,-156.38252599968092,6.0409568710101578,2598.624458977552,5.823932523385011,-209.07892159084031,209.07892159084031,-5.823932523385011,5070.3425589278622,0.0
618523.2936376977,3717751.2368613081,-2500.0,1536.3508451878363,-2654.4646218436933,4038.8516679232475,132.57727154492829,-199.80744923018216,7.2787072806581596,2939.6931841123228,-454.55034787962876,366.28249466633628,-366.28249466633628,454.55034787962876,5808.4527017790015,0.0
623523.2936376977,3717751.2368613081,-2500.0,1341.8407295767386,-2665.3011010061441,5154.6400175584895,130.00020731115436,-244.88605880049158,8.5328275520355206,3283.0570032690771,-966.21699139315308,1079.1998987692343,-1079.1998987692343,966.21699139315308,6552.9292210199337,0.0
628523.2936376977,3717751.2368613081,-2500.0,1112.7289150819754,-2519.7335711902797,6269.1190224236807,120.61523437596306,-289.22891933864793,9.7392682202273306,3656.5889208065259,-1492.4407158315535,1904.4648620056105,-1904.4648620056105,1492.4407158315535,7268.7114415651431,0.0
633523.2936376977,3717751.2368613081,-2500.0,878.71265943353649,-2208.6435519427996,7310.9366146911862,104.21496978781867,-330.09658019771479,10.827512724299988,4007.7186838889761,-1988.2307574355336,2798.9371847696711,-2798.9371847696711,1988.2307574355336,7918.5196738227614,0.0
638523.2936376977,3717751.2368613081,-2500.0,672.98605330580574,-1741.1346897846097,8205.9583067892363,81.314844814101988,-364.70676239744608,11.728440275449014,4304.8482657688037,-2406.3012692036436,3704.7047674764081,-3704.7047674764081,2406.3012692036436,8466.267610783103,0.0
643523.2936376977,3717751.2368613081,-2500.0,526.46138371073903,-1145.3669092126195,8887.3790355976071,53.164599876937729,-390.59865280269878,12.382622679548007,4531.7091547672999,-2704.4945447984169,4555.8092757678041,-4555.8092757678041,2704.4945447984169,8880.8315240552984,0.0
648523.2936376977,3717751.2368613081,-2500.0,461.94922688557529,-465.61063827603493,9305.5653166057255,21.622658227869064,-405.97834574634044,12.74826652689088,4676.3379862256652,-2852.9215704900244,5287.3852046474085,-5287.3852046474085,2852.9215704900244,9139.4816896150514,0.0
653523.2936376977,3717751.2368613081,-2500.0,489.88318195815606,244.03843237908819,9435.285532341788,-11.087654168314645,-409.96735706677129,12.80649143697304,4732.3701544848864,-2838.9688289734158,5845.176354929944,-5845.176354929944,2838.9688289734158,9230.3153308448182,0.0
658523.2936376977,3717751.2368613081,-2500.0,606.74721300700151,927.81383656852427,9278.5841797329122,-42.686769915732512,-402.69698273895239,12.563274759706168,4699.5686191938557,-2668.875807330412,6193.1416162233072,-6193.1416162233072,2668.875807330412,9153.1936381437645,0.0
663523.2936376977,3717751.2368613081,-2500.0,796.50021807725795,1536.3059176702461,8862.857657596247,-71.14199741013627,-385.23527767040122,12.047352188114633,4583.5246205333224,-2365.6490133111811,6317.4661157200235,-6317.4661157200235,2365.6490133111811,8919.09612452291,0.0
668523.2936376977,3717751.2368613081,-2500.0,1034.3726913400146,2032.5602986336212,8234.9435736467931,-94.901241990046586,-359.37410774024409,11.305292431983533,4394.6291801567768,-1964.1194155877474,6226.368795534534,-6226.368795534534,1964.1194155877474,8548.0950711212827,0.0
673523.2936376977,3717751.2368613081,-2500.0,1291.8184434775219,2395.2024370286222,7452.9988430191961,-113.01909119117158,-327.33663453517335,10.394452718750113,4146.5846631413579,-1504.6357414192576,5946.3146457381954,-5946.3146457381954,1504.6357414192576,8066.4755401628227,0.0
678523.2936376977,3717751.2368613081,-2500.0,1541.3100582801244,2618.4852277241939,6578.1195676691168,-125.16925421111748,-291.47226342720808,9.3756604148761866,3854.7541857139581,-1026.9551763060454,5516.0064838515236,-5516.0064838515236,1026.9551763060454,7503.5724629827437,0.0
683523.2936376977,3717751.2368613081,-2500.0,1759.9988702261358,2709.9253716216967,5667.299074240228,-131.56484334614098,-253.99532832293076,8.3069507945518879,3534.6293350432707,-565.50073360004626,4979.7721377516646,-4979.7721377516646,565.50073360004626,6888.8577444142429,0.0
688523.2936376977,3717751.2368613081,-2500.0,1931.7858670766036,2686.5643442266432,4768.6036989263512,-132.82242730071493,-216.80046058482122,7.238683114972166,3200.6031127678975,-146.53198422992818,4381.6757007099422,-4381.6757007099422,146.53198422992818,6249.625883348157,0.0
693523.2936376977,3717751.2368613081,-2500.0,2047.8441652989359,2570.885682568653,3918.7401970183782,-129.807351762986,-181.36332033288724,6.211008959545171,2865.1362700327309,212.79972599004418,3761.152840643429,-3761.152840643429,-212.79972599004418,5609.4374640512069,0.0
588523.2936376977,3722751.2368613081,-2500.0,1268.7566242921275,-950.90415430031726,-154.60561383676338,60.862430346479734,-14.672279812460207,1.3749499736187822,1188.9563697550116,874.27355985732743,-988.13825177272724,988.13825177272724,-874.27355985732743,2133.7028421203991,0.0
593523.2936376977,3722751.2368613081,-2500.0,1381.99263687793,-1228.6081008730134,238.30929239456282,72.327617423977884,-31.894608595876438,1.9200911736629551,1356.7091924947763,803.4645635296265,-958.31479962540334,958.31479962540334,-803.4645635296265,2486.2471893691713,0.0
598523.2936376977,3722751.2368613081,-2500.0,1459.4317727626419,-1509.8215015503708,735.08523694077132,83.484345066395122,-53.036667736343027,2.5636628888495148,1554.5896029307467,672.72869950556924,-860.42134057764974,860.42134057764974,-672.72869950556924,2908.5899842718659,0.0
603523.2936376977,3722751.2368613081,-2500.0,1491.881736242485,-1776.8948288192842,1340.4590954627286,93.578277079317203,-78.175128841987075,3.3037259113102881,1780.9176966050582,475.16145021116296,-677.78536022743879,677.78536022743879,-475.16145021116296,3395.5941052836602,0.0
608523.2936376977,3722751.2368613081,-2500.0,1472.8008234920535,-2007.9856448431608,2051.7242885346136,101.71921373815189,-107.09613384422245,4.1306953884752282,2031.6985212658963,208.43505470082874,-395.94594984667907,395.94594984667907,-208.43505470082874,3937.4941414304549,0.0
613523.2936376977,3722751.2368613081,-2500.0,1400.0704141441445,-2178.4987772200739,2856.3426511109024,106.94579790041963,-139.21845848335929,5.0258372133153557,2300.5285167598536,-123.26174918194351,-5.4348393335753613,5.4348393335753613,123.26174918194351,4519.7866323711432,0.0
618523.2936376977,3722751.2368613081,-2500.0,1277.5441208910904,-2263.5792930584457,3730.2489843566777,108.3261780723214,-173.5458662177457,5.9605895246263536,2578.6879926588149,-507.73279106200135,495.19337421406993,-495.19337421406993,507.73279106200135,5123.3228250516704,0.0
623523.2936376977,3722751.2368613081,-2500.0,1115.903164076818,-2241.515035820159,4637.5125773212058,105.08703468577873,-208.67008802414497,6.8971460396201154,2869.8179361723728,-924.27095756566757,1096.6759342306939,-1096.6759342306939,924.27095756566757,5724.8617170083162,0.0
628523.2936376977,3722751.2368613081,-2500.0,932.36359201238486,-2097.5768234057014,5531.9262491708369,96.752047963414512,-242.84158430262443,7.7905968160359595,3179.3094103387716,-1344.6187520618537,1777.4586882625126,-1777.4586882625126,1344.6187520618537,6298.2479988419454,0.0
633523.2936376977,3722751.2368613081,-2500.0,748.97456133338494,-1827.5233294725801,6360.77341277921,83.262189531009369,-274.11318173842301,8.5927038681803207,3459.3149083262006,-1735.6107038078958,2503.9436560002309,-2503.9436560002309,1735.6107038078958,6816.2351886089746,0.0
638523.2936376977,3722751.2368613081,-2500.0,589.60594877266908,-1439.8579550446129,7070.4828755923945,65.046708671072537,-300.5439162265796,9.2566771636740377,3696.1757905868617,-2063.2785766168904,3232.9913851016804,-3232.9913851016804,2063.2785766168904,7252.7918192440684,0.0
643523.2936376977,3722751.2368613081,-2500.0,476.15072510465518,-956.07117359041445,7613.2890790078145,43.020321619219473,-320.43139287872742,9.7425643635182535,3878.2005641310279,-2297.7162493710262,3916.5585944334912,-3916.5585944334912,2297.7162493710262,7585.5716575295337,0.0
648523.2936376977,3722751.2368613081,-2500.0,424.79298533812715,-408.5461361669814,7953.5896750075162,18.497875239731577,-332.5287990656978,10.022059419361099,3996.7365989105051,-2417.6608204428339,4507.7267508478171,-4507.7267508478171,2417.6608204428339,7798.1422817433122,0.0
653523.2936376977,3722751.2368613081,-2500.0,443.2623054343415,163.57349859372047,8072.6186794277091,-6.9614378233110008,-336.20125464594634,10.081804785542186,4047.016153770543,-2413.7106263462674,4966.8966994276252,-4966.8966994276252,2413.7106263462674,7881.568406434285,0.0
658523.2936376977,3722751.2368613081,-2500.0,529.74672405459455,719.68459485202811,7970.4362595622042,-31.749479897861427,-331.48969929092618,9.9245971532134831,4028.528252760073,-2289.433834820567,5266.8189009420366,-5266.8189009420366,2289.433834820567,7835.0768321836176,0.0
663523.2936376977,3722751.2368613081,-2500.0,673.66081518275087,1223.0279267873173,7664.9187574684993,-54.403945820983587,-319.07262368665073,9.5684220442758008,3944.8652829207654,-2060.194934421881,5395.4352975243564,-5395.4352975243564,2060.194934421881,7665.7185478443853,0.0
668523.2936376977,3722751.2368613081,-2500.0,857.94877543221969,1644.9048336669277,7188.177140551611,-73.76481497742374,-300.14019515009107,9.0433967822352592,3803.1015954284226,-1750.1265388482379,5356.1157336714741,-5356.1157336714741,1750.1265388482379,7387.1447997977011,0.0
673523.2936376977,3722751.2368613081,-2500.0,1062.241338814338,1967.1148611803269,6581.3932953223702,-89.068039232131227,-276.21359163828947,8.3876426022593193,3612.8523369684581,-1388.086884345224,5165.5538900353731,-5165.5538900353731,1388.086884345224,7017.7865772658752,0.0
678523.2936376977,3722751.2368613081,-2500.0,1266.0825178737791,2182.4433835616978,5889.2311829400369,-99.969441565477467,-248.94815565846474,7.6425539131277809,3385.1858600354831,-1003.5395431949717,4850.0640559205913,-4850.0640559205913,1003.5395431949717,6578.7699723704127,0.0
683523.2936376977,3722751.2368613081,-2500.0,1451.5855364196243,2293.5018207607623,5154.8627018158959,-106.50811830908728,-219.95585054075806,6.8488309497964739,3131.5714495980715,-623.12641229999463,4441.2428298637788,-4441.2428298637788,623.12641229999463,6091.9136431100933,0.0
688523.2936376977,3722751.2368613081,-2500.0,1605.1512241493772,2310.4900932032951,4416.2499772879992,-109.0284509820068,-190.66964149341169,6.0429504599944206,2862.9843788381399,-268.3679223559725,3971.8454825165604,-3971.8454825165604,268.3679223559725,5578.0367965338146,0.0
598523.2936376977,3727751.2368613081,-2500.0,1269.8154637435387,-1399.0728103747981,877.21545705575966,72.777349508701562,-52.781235103448395,2.2693993271202775,1414.4816107494394,499.22017999700444,-660.51431450508028,660.51431450508028,-499.22017999700444,2675.7486032199704,0.0
603523.2936376977,3727751.2368613081,-2500.0,1280.4037799232817,-1605.2688386781767,1411.5506954333034,80.134115491923055,-73.852689854080495,2.8567076585131859,1608.6957514658802,314.08511258774007,-475.62014701422794,475.62014701422794,-314.08511258774007,3095.6685247831488,0.0
608523.2936376977,3727751.2368613081,-2500.0,1250.294664010956,-1775.9355183467637,2024.8782383413231,85.74757894363141,-97.618389118594408,3.502716642207349,1820.1982900403543,76.337707148989907,-210.38070107179863,210.38070107179863,-76.337707148989907,3554.2511622321153,0.0
613523.2936376977,3727751.2368613081,-2500.0,1179.4565313712089,-1892.702038565229,2704.7473012764758,88.932128670278175,-123.55744864021088,4.1922338625928157,2043.5885480809266,-208.78000046691233,140.08450555245872,-140.08450555245872,208.78000046691233,4039.4141910907756,0.0
618523.2936376977,3727751.2368613081,-2500.0,1072.2816628848393,-1937.8029467488593,3430.4265696666548,89.050235830032918,-150.86356222790448,4.9035947716467261,2272.1453014871877,-530.22979075881199,574.32796950376087,-574.32796950376087,530.22979075881199,4535.9106643116265,0.0
623523.2936376977,3727751.2368613081,-2500.0,937.93626174552026,-1896.4724471506108,4173.0660579020714,85.599175370318875,-178.45959809010864,5.6093315519007714,2529.0751324111625,-871.13174577478321,1082.9782479922094,-1082.9782479922094,871.13174577478321,5025.8178741077254,0.0
628523.2936376977,3727751.2368613081,-2500.0,789.9238898357753,-1759.4871324596133,4897.1535640724478,78.299236576297318,-205.05583685224568,6.2777403244959968,2779.4687806844445,-1209.703922976274,1647.986167955587,-1647.986167955587,1209.703922976274,5489.4419126034909,0.0
633523.2936376977,3727751.2368613081,-2500.0,644.75522523089933,-1525.3576922520976,5563.3339689312006,67.166234019209455,-229.25215184127001,6.8753603595690205,3005.0658989950803,-1521.2540610843137,2243.1149396331302,-2243.1149396331302,1521.2540610843137,5906.616776858451,0.0
638523.2936376977,3727751.2368613081,-2500.0,519.83704018515812,-1201.6272933965408,6132.347205326424,52.550490275725316,-249.6747486802318,7.3701848147540288,3195.9147199732433,-1781.0314439689716,2835.8716632845862,-2835.8716632845862,1781.0314439689716,6258.2856778760424,0.0
643523.2936376977,3727751.2368613081,-2500.0,430.9324437179252,-804.84663906481933,6569.4937130138724,35.128932764489583,-265.12708163365375,7.734961545964687,3343.4800413837279,-1967.4727301399867,3390.743244405066,-3390.743244405066,1967.4727301399867,6528.1519444925143,0.0
648523.2936376977,3727751.2368613081,-2500.0,389.71647349862047,-359.07286943471712,6848.8241604655832,15.846426949428984,-274.72872663226156,7.950281472992426,3441.4074531528508,-2065.2026341086903,3873.2486978404677,-3873.2486978404677,2065.2026341086903,6704.1529969781177,0.0
653523.2936376977,3727751.2368613081,-2500.0,401.97432268603615,106.90593875007507,6956.2286955219543,-4.1858008604224208,-278.01599548771532,8.0065778453820755,3486.088934947602,-2067.1482853074313,4254.0612799976234,-4254.0612799976234,2067.1482853074313,6779.5164772599683,0.0
658523.2936376977,3727751.2368613081,-2500.0,466.84381398827378,563.09154544539717,6890.8227631718864,-23.816455473830569,-274.98529342151079,7.905035070542529,3476.923907252793,-1975.3201276957636,4512.3950899463616,-4512.3950899463616,1975.3201276957636,6753.2297508810434,0.0
663523.2936376977,3727751.2368613081,-2500.0,577.23231272929854,981.84350079763396,6664.4233443612302,-41.981556674582691,-266.07326880345215,7.6569643269080645,3416.2438635283502,-1800.1419412329476,4638.0306989976307,-4638.0306989976307,1800.1419412329476,6629.8677944824112,0.0
668523.2936376977,3727751.2368613081,-2500.0,721.24018135590063,1340.8211189918836,6299.3366288387006,-57.810226045281148,-252.08098001301914,7.2820805440373393,3308.929200847615,-1558.5591424616869,4631.6897072530992,-4631.6897072530992,1558.5591424616869,6418.8384962147484,0.0
673523.2936376977,3727751.2368613081,-2500.0,884.20203230935181,1624.842484998828,5825.0269803302617,-70.693274130108321,-234.06072413975559,6.8059587868640889,3161.8051268373833,-1271.4105247861446,4503.8706609381406,-4503.8706609381406,1271.4105247861446,6133.2145432979687,0.0
678523.2936376977,3727751.2368613081,-2500.0,1050.8713234840052,1826.4958973187795,5274.3588402547539,-80.308437254201024,-213.187852674814,6.2570232265928913,2982.9173953367172,-960.63092031193423,4272.5482937868892,-4272.5482937868892,960.63092031193423,5788.3450660125591,0.0
608523.2936376977,3732751.2368613081,-2500.0,1067.2074926463094,-1569.710608596341,1965.911219309181,72.474683819579468,-88.461785481107185,2.9734524593921172,1634.9256059063991,-18.867574571609421,-69.948301261352384,69.948301261352384,18.867574571609421,3213.7053325784595,0.0
613523.2936376977,3732751.2368613081,-2500.0,1000.8569354385726,-1647.6535314802793,2541.5055533138616,74.28361961795575,-109.4997129453065,3.507970665659339,1821.4321541455481,-263.39242607809655,242.30092283418443,-242.30092283418443,263.39242607809655,3619.6241012908554,0.0
618523.2936376977,3732751.2368613081,-2500.0,907.90990117703336,-1665.736170119131,3146.7931125957989,73.646988337551974,-131.35973971936579,4.0535701395642389,2020.9701494831668,-532.75791922859617,618.54860036749324,-618.54860036749324,532.75791922859617,4030.5398909183523,0.0
623523.2936376977,3732751.2368613081,-2500.0,796.06063287381028,-1613.8980056051025,3758.6740126845093,70.237567571322572,-153.21700246211137,4.5902044228187506,2238.1060761736421,-813.30601743024829,1050.0202639860897,-1050.0202639860897,813.30601743024829,4432.5558059784207,0.0
628523.2936376977,3732751.2368613081,-2500.0,675.90210567238091,-1486.4314245020475,4349.7090465601241,63.895035942798543,-174.11360167830972,5.0952316281577215,2442.4133108469978,-1088.1808892927295,1521.770586008972,-1521.770586008972,1088.1808892927295,4810.7051204582203,0.0
633523.2936376977,3732751.2368613081,-2500.0,559.90633356407864,-1283.3653162846522,4890.2205032193451,54.670095056391155,-193.0314140264208,5.5452576287316182,2625.9051362884597,-1338.8181267572122,2013.2241096503635,-2013.2241096503635,1338.8181267572122,5149.8858313625078,0.0
638523.2936376977,3732751.2368613081,-2500.0,460.93296760032825,-1011.2112298125251,5351.0587728215114,42.845707883409929,-208.98474334817328,5.9180459615337915,2781.1946277809579,-1546.9441869522127,2499.6470127070588,-2499.6470127070588,1546.9441869522127,5435.9566560704416,0.0
643523.2936376977,3732751.2368613081,-2500.0,390.50346536161169,-682.82979189955392,5706.6475180895413,28.928172196212724,-221.12004456963726,6.1947947150391984,2901.9612632828494,-1696.7783964964733,2954.4320810621061,-2954.4320810621061,1696.7783964964733,5656.8616132486604,0.0
648523.2936376977,3732751.2368613081,-2500.0,357.16826969309449,-316.34436709132308,5937.7968969148615,13.60631337724393,-228.8064682914297,6.3619805622291397,2983.4733871775666,-1777.0366910942371,3351.8713873131742,-3351.8713873131742,1777.0366910942371,5803.6225254622113,0.0
653523.2936376977,3732751.2368613081,-2500.0,365.30137859537558,66.758457984393331,6033.7845763160294,-2.3160119647753641,-231.70173149890101,6.4127256011856844,3022.9727747237998,-1782.3475978271836,3669.9516606145171,-3669.9516606145171,1782.3475978271836,5871.0561546837471,0.0
658523.2936376977,3732751.2368613081,-2500.0,414.56732709170046,444.01477539569902,5993.3320454423692,-18.003126614833857,-229.78195768322865,6.3473472100082891,3019.8600476605202,-1713.8064818547512,3892.6754823206657,-3892.6754823206657,1713.8064818547512,5858.1090379081897,0.0
663523.2936376977,3732751.2368613081,-2500.0,500.14695111521536,794.42324804268412,5824.3392127999432,-32.672213294034883,-223.33143198923207,6.1730702141788774,2975.6597485168804,-1578.5883895626534,4011.5141705088922,-4011.5141705088922,1578.5883895626534,5767.7728323646188,0.0
668523.2936376977,3732751.2368613081,-2500.0,613.63314737058261,1100.5199700785793,5542.4951246591327,-45.665684828007095,-212.89624080047415,5.9029531189836675,2893.7806454268548,-1388.7448597321527,4025.796743375844,-4025.796743375844,1388.7448597321527,5606.6119656207193,0.0
628523.2936376977,3737751.2368613081,-2500.0,583.49545662478954,-1264.1316353758332,3876.4663963955559,52.549453049192167,-148.63603834241471,4.1644439378556983,2156.5894945687432,-979.56706066566767,1401.9319663764059,-1401.9319663764059,979.56706066566767,4237.4108777796473,0.0
633523.2936376977,3737751.2368613081,-2500.0,489.99763324822135,-1087.7496268539335,4318.8577350653159,44.871840249235305,-163.5715793146023,4.5068008470123102,2307.1455016065011,-1182.9984181247667,1810.830300318017,-1810.830300318017,1182.9984181247667,4515.6010329295568,0.0
638523.2936376977,3737751.2368613081,-2500.0,410.80335729864453,-857.50325795596166,4695.5591625116813,35.231078379725744,-176.16071301778041,4.790600697761195,2434.6436696288524,-1351.3566831747964,2213.4036603848012,-2213.4036603848012,1351.3566831747964,4750.4106321417194,0.0
643523.2936376977,3737751.2368613081,-2500.0,354.45025377753439,-583.47208287087756,4987.4657439364664,24.009698201318621,-185.78611381897284,5.0026790569382991,2534.3416331528133,-1472.9347661144316,2589.4687024304953,-2589.4687024304953,1472.9347661144316,4932.8024507135669,0.0
648523.2936376977,3737751.2368613081,-2500.0,327.28750717368462,-279.48393896692926,5180.1974288410802,11.716567482332636,-191.9895835267304,5.1334984369252039,2602.6712973940057,-1539.3381896150986,2919.6053784921241,-2919.6053784921241,1539.3381896150986,5056.0090930789493,0.0
633523.2936376977,3517751.2368613081,-7500.0,467.51521847620779,905.66789665244096,5474.4896765518779,109.1298664910247,600.84483555115776,47.610319297746386,2858.834768199878,-1360.216839464563,3929.3523561288648,-3929.3523561288648,1360.216839464563,5561.2984997004751,0.0
638523.2936376977,3517751.2368613081,-7500.0,368.20343857448012,568.0006527229275,5685.7464554108928,69.230239253369859,622.11468763246341,49.011087064455289,2916.3503107719457,-1536.6138476276146,3858.9460239599675,-3858.9460239599675,1536.6138476276146,5676.1606134106423,0.0
643523.2936376977,3517751.2368613081,-7500.0,304.62964743117101,194.7352041686261,5773.7533680280958,25.558819115260096,630.88555189695114,49.523680518612338,2934.3283579774488,-1652.214654411875,3681.3412062925017,-3681.3412062925017,1652.214654411875,5716.7625731847638,0.0
648523.2936376977,3517751.2368613081,-7500.0,283.68823516321271,-193.77613308648657,5726.5185092977208,-19.731863066429298,625.99739842930489,49.07463488657865,2910.3661192209961,-1696.0992190055667,3401.1166203902676,-3401.1166203902676,1696.0992190055667,5678.5421348988957,0.0
653523.2936376977,3517751.2368613081,-7500.0,307.83614763516925,-574.52408333608139,5540.9715106879958,-64.22398233482275,607.15324386587599,47.648462851918502,2844.1364027964746,-1663.0158599322283,3031.0135158357907,-3031.0135158357907,1663.0158599322283,5560.8914613529259,0.0
658523.2936376977,3517751.2368613081,-7500.0,374.47063293573797,-924.28457516735818,5223.87415243545,-105.47606486858813,575.00463366138376,45.292718610323853,2737.5363355462405,-1554.3721483003264,2591.0145003734378,-2591.0145003734378,1554.3721483003264,5367.4539257585302,0.0
663523.2936376977,3517751.2368613081,-7500.0,476.1048662614341,-1222.2482986549121,4791.4505915605987,-141.28274009973498,531.11804778754311,42.115486880404688,2594.6135870873768,-1378.2802004949374,2106.3483029232571,-2106.3483029232571,1378.2802004949374,5105.9949093308132,0.0
668523.2936376977,3517751.2368613081,-7500.0,601.35162571335024,-1452.3612967982833,4267.7300892785843,-169.90773318964995,477.82134185141882,38.275186380114064,2421.2809716327201,-1148.5959725803525,1604.7280440366369,-1604.7280440366369,1148.5959725803525,4787.8432589247632,0.0
673523.2936376977,3517751.2368613081,-7500.0,736.53067640801066,-1604.9442636137323,3681.8759664468867,-190.24898424978872,417.95472223808946,33.964378841341826,2225.0154139516662,-883.12199736436685,1113.3136472789704,-1113.3136472789704,883.12199736436685,4426.9785814905654,0.0
678523.2936376977,3517751.2368613081,-7500.0,867.56849255548832,-1677.3229984422353,3064.9888216171776,-201.90985431775204,354.57032429715707,29.390297327830403,2027.4116840541271,-601.33145502586513,655.94199637148881,-655.94199637148881,601.33145502586513,4038.9019585570968,0.0
683523.2936376977,3517751.2368613081,-7500.0,981.80692622200934,-1673.431005107956,2446.9506619548492,-205.17114009351874,290.63191844985533,24.755225627215804,1845.319413053619,-322.05707804038252,251.07665256565394,-251.07665256565394,322.05707804038252,3639.4522583329358,0.0
618523.2936376977,3522751.2368613081,-7500.0,1044.1840237521769,1857.830465347047,4759.3563047905536,235.49773513857346,555.85256147376049,47.414831918308813,2806.5069908387145,-613.21344807531659,3997.1092373475067,-3997.1092373475067,613.21344807531659,5472.3960972914892,0.0
623523.2936376977,3522751.2368613081,-7500.0,874.60102129595862,1691.7565125609412,5318.2895774874769,212.54583124173499,615.13839146424459,51.726381754539936,2990.3739643354138,-932.48911047403499,4270.5178918546317,-4270.5178918546317,932.48911047403499,5825.5405313335286,0.0
628523.2936376977,3522751.2368613081,-7500.0,703.50508308454528,1441.3831944469164,5816.5488167672256,180.12839167359192,667.66223677813923,55.490686136760971,3146.6547599425367,-1242.6321482598514,4450.9280134344981,-4450.9280134344981,1242.6321482598514,6127.3059881382478,0.0
633523.2936376977,3522751.2368613081,-7500.0,546.42261031497208,1110.6651041457696,6220.6181795748016,138.79480788704612,710.0143502392292,58.469889926249749,3267.0365874260756,-1521.5606980118014,4517.0253081916817,-4517.0253081916817,1521.5606980118014,6361.9349595078429,0.0
638523.2936376977,3522751.2368613081,-7500.0,419.2572889199995,711.45475729317025,6498.5493567257863,89.925698983456968,738.96994173971359,60.44264383207932,3344.0653727029967,-1746.5644536238535,4453.5971652646476,-4453.5971652646476,1746.5644536238535,6515.27990606191,0.0
643523.2936376977,3522751.2368613081,-7500.0,336.08082271884371,263.50846285515303,6623.7796668213032,35.723126216877887,751.86407303740771,61.22945958399491,3371.8986422103021,-1897.0702196097529,4254.3424127839453,-4254.3424127839453,1897.0702196097529,6576.2390416125918,0.0
648523.2936376977,3522751.2368613081,-7500.0,306.82527144631155,-206.78202345945311,6578.910847471032,-20.926863324948329,746.95909472568906,60.716907914949296,3347.0029580709765,-1957.6019155406925,3923.8362953956507,-3923.8362953956507,1957.6019155406925,6538.0940189557969,0.0
653523.2936376977,3522751.2368613081,-7500.0,335.3697996954225,-668.938693874151,6358.7122410228294,-76.71814954655774,723.73493923133469,58.876267428089413,3268.6808752603802,-1920.3564306997062,3478.0927788533481,-3478.0927788533481,1920.3564306997062,6399.5303581769394,0.0
658523.2936376977,3522751.2368613081,-7500.0,418.5123015831897,-1091.9116005907272,5971.6369857975469,-128.2832011539947,683.03543143285845,55.772565216876508,3139.3215344499426,-1786.7918035070807,2943.3947692018373,-2943.3947692018373,1786.7918035070807,6165.1364648414628,0.0
663523.2936376977,3522751.2368613081,-7500.0,546.15762214664869,-1447.9439832497594,5439.3889594202938,-172.58639391653992,627.02760779400387,51.560982927804787,2964.3127620045088,-1567.7823660349993,2353.4452837542135,-2353.4452837542135,1567.7823660349993,5845.2535375918224,0.0
668523.2936376977,3522751.2368613081,-7500.0,702.76087404205953,-1716.0198109997079,4794.503704936843,-207.27740848566879,558.9703637704647,46.471153918186303,2751.6379658311062,-1282.219132440825,1745.3153645087323,-1745.3153645087323,1282.219132440825,5455.1674308295078,0.0
673523.2936376977,3522751.2368613081,-7500.0,869.73270264581481,-1884.1907503897667,4076.3737632950565,-230.93616127615175,482.83218579994053,40.781394474867469,2512.1826865145526,-954.32091856425575,1154.9759827931939,-1154.9759827931939,954.32091856425575,5013.7566861058249,0.0
678523.2936376977,3522751.2368613081,-7500.0,1028.261470724362,-1950.3585768185981,3326.5165047500436,-243.16670161024297,402.83209729138161,34.788015762616162,2289.3971245666648,-610.24439606961357,613.29453852476001,-613.29453852476001,610.24439606961357,4541.8199040500112,0.0
683523.2936376977,3522751.2368613081,-7500.0,1161.9303116839428,-1921.4836080095517,2584.0081171924194,-244.53446076931274,322.99035581291713,28.775224086315504,2070.4289933851014,-274.71739780662648,143.20954519156385,-143.20954519156385,274.71739780662648,4060.3494705066564,0.0
688523.2936376977,3522751.2368613081,-7500.0,1258.6194780977999,-1811.5588258466585,1881.866672788512,-236.37684191463109,246.7641697735495,22.990269338258397,1856.0770807623769,31.66354666122632,-241.55506201045083,241.55506201045083,-31.66354666122632,3588.9907891228031,0.0
693523.2936376977,3522751.2368613081,-7500.0,1311.4315096502391,-1638.9176678233473,1244.8493207925972,-220.54006839117002,176.81508918699811,17.627129615060316,1653.8758042747043,294.07887446904533,-536.27004691514549,536.27004691514549,-294.07887446904533,3144.8492002631951,0.0
698523.2936376977,3522751.2368613081,-7500.0,1318.6492687838575,-1423.4761767509947,688.74007251169633,-199.10035098464155,114.91916017483312,12.819575972990158,1469.7136497497804,503.99195986703546,-743.82491696947852,743.82491696947852,-503.99195986703546,2741.6816038069255,0.0
613523.2936376977,3527751.2368613081,-7500.0,1441.3200857848715,2266.3169761111953,4534.2972398689053,303.25779944671547,561.76668983271429,51.107711126303386,2911.1126023391553,-210.4349283752781,4048.1451670938859,-4048.1451670938859,210.4349283752781,5694.7618444765058,1.0
618523.2936376977,3527751.2368613081,-7500.0,1261.5331841574205,2198.409825133283,5251.666392466781,290.20941543748472,641.48240384909241,57.221508974820985,3163.4414892344535,-577.37478605640717,4487.4767548931613,-4487.4767548931613,577.37478605640717,6177.6269274562401,0.0
623523.2936376977,3527751.2368613081,-7500.0,1057.51041837357,2029.5455123574629,5945.8651612439926,265.17492853182978,718.0024655341058,63.002464295283701,3395.260737539711,-965.1720780693604,4850.7117318651071,-4850.7117318651071,965.1720780693604,6622.7839045906821,0.0
628523.2936376977,3527751.2368613081,-7500.0,845.96882606843576,1753.077359697289,6575.8569072900109,227.59088188877834,786.93923928709808,68.125988877072913,3595.3740344442972,-1349.6684510914442,5104.6221718746983,-5104.6221718746983,1349.6684510914442,7009.041512173897,0.0
633523.2936376977,3527751.2368613081,-7500.0,647.24384789939666,1371.3721403346342,7096.9538297495956,177.90069191636499,843.57273844730048,72.24993483680403,3752.5085126663507,-1702.0038753003987,5218.9303920589318,-5218.9303920589318,1702.0038753003987,7315.0322170299005,0.0
638523.2936376977,3527751.2368613081,-7500.0,482.98182256749487,897.67695983388148,7465.2676258797783,117.7359503380939,883.31201713295604,75.048024113130225,3856.3053583752844,-1991.4488327507938,5170.7586597493137,-5170.7586597493137,1991.4488327507938,7521.0911965077985,0.0
643523.2936376977,3527751.2368613081,-7500.0,372.98764590415033,356.57772551384608,7643.2227855139199,49.947449282462344,902.25649356955103,76.248986868480245,3898.4256409567656,-2189.3209376451673,4948.9771889487565,-4948.9771889487565,2189.3209376451673,7611.3638889372169,0.0
648523.2936376977,3527751.2368613081,-7500.0,331.75195228758378,-217.4604119940673,7605.2711802478552,-21.5627776802813,897.77053027422505,75.67574116713547,3873.6150760466298,-2273.4001670245652,4557.4769151091841,-4557.4769151091841,2273.4001670245652,7575.8478045959837,0.0
653523.2936376977,3527751.2368613081,-7500.0,365.43614816876823,-783.59655806022556,7342.6302216866334,-92.217755097844062,868.95584208751268,73.276688020596239,3780.5390301921748,-2231.9368879110489,4016.4003032448691,-4016.4003032448691,2231.9368879110489,7412.0094003263557,0.0
658523.2936376977,3527751.2368613081,-7500.0,470.14549224630849,-1299.7381004881595,6865.8417785412939,-157.30542523383804,816.90524739042394,69.141333231686872,3622.2090285228346,-2066.2431705540521,3360.6997242371599,-3360.6997242371599,2066.2431705540521,7125.6319763457323,0.0
663523.2936376977,3527751.2368613081,-7500.0,632.08880757555119,-1728.3253892890586,6204.3176040259505,-212.58518189444314,744.65818195042948,63.49586022008792,3405.8870062574701,-1791.0788168839458,2636.0204745573451,-2636.0204745573451,1791.0788168839458,6730.6621108766185,0.0
668523.2936376977,3527751.2368613081,-7500.0,829.73134462482597,-2041.5115824979723,5402.7469609362697,-254.83460204162157,656.84573556190537,56.677957016210605,3142.5192834126096,-1432.5799227489019,1892.6434702047568,-1892.6434702047568,1432.5799227489019,6248.0187411281822,1.0
673523.2936376977,3527751.2368613081,-7500.0,1037.4637165816614,-2224.5646681719627,4515.0703151151465,-282.21917588265069,559.09274513586979,49.09535142309273,2859.6483216684892,-1024.1587010318074,1178.7897226200714,-1178.7897226200714,1024.1587010318074,5703.5547686686114,0.0
678523.2936376977,3527751.2368613081,-7500.0,1229.8721290535088,-2276.8057796570888,3597.3482525495865,-294.41387155856904,457.30339652554977,41.176803635654451,2596.4600697812461,-601.36013578982954,534.74110510777848,-534.74110510777848,601.36013578982954,5125.5340229669682,0.0
683523.2936376977,3527751.2368613081,-7500.0,1385.5729598524267,-2210.0912553921635,2701.0591310250807,-292.47267336748956,356.97887534825622,33.324893595451947,2331.1186273254939,-196.8866191224335,-11.073689659151384,11.073689659151384,196.8866191224335,4542.0672549199262,0.0
688523.2936376977,3527751.2368613081,-7500.0,1489.8094772158929,-2045.4768781955484,1868.0695154275918,-278.50442719157661,262.69029203651718,25.878961374564085,2074.7826497024503,163.1852491972904,-443.51963512358884,443.51963512358884,-163.1852491972904,3978.8892066461513,0.0
693523.2936376977,3527751.2368613081,-7500.0,1535.4590805176176,-1809.0465968109265,1127.9215602425295,-255.2496055206345,177.77495494957554,19.092915828677885,1837.0130509048661,461.43829130415872,-759.89985323170197,759.89985323170197,-461.43829130415872,3457.7007858887823,0.0
698523.2936376977,3527751.2368613081,-7500.0,1522.5713837422952,-1527.8806043394216,497.42011800479969,-225.65581830390579,104.26151180263199,13.12840075070282,1624.7427807490724,689.38049632465197,-967.47861456665566,967.47861456665566,-689.38049632465197,2995.0920367922658,0.0
703523.2936376977,3527751.2368613081,-7500.0,1456.8792936571147,-1226.8610772694649,-17.991756678259868,-192.52603366675348,42.979942147880799,8.0608410957059071,1441.9965760955997,846.33543349003162,-1080.2445695474141,1080.2445695474141,-846.33543349003162,2601.8847181766396,0.0
708523.2936376977,3527751.2368613081,-7500.0,1347.8373866161091,-926.63586088353827,-421.79869645047472,-158.27808280549635,-6.2116359365465623,3.8940544922035145,1289.8980713424567,937.53845338148346,-1115.6847122088232,1115.6847122088232,-937.53845338148346,2282.7042287837571,0.0
603523.2936376977,3532751.2368613081,-7500.0,1998.9664142146989,2431.5727530091672,3276.708026579428,354.74986921385192,447.32037324537453,45.391821945064493,2616.5203965379837,615.07065879994843,3260.7284397379481,-3260.7284397379481,-615.07065879994843,5163.4008156004957,0.0
608523.2936376977,3532751.2368613081,-7500.0,1900.5969525100288,2579.1344026826314,4062.0736862961576,367.8281800702332,540.31670125390735,53.083299371544989,2936.125024522059,307.48748987512272,3868.7371231850525,-3868.7371231850525,-307.48748987512272,5772.0159450809942,0.0
613523.2936376977,3532751.2368613081,-7500.0,1744.9810993015649,2645.8500861351517,4908.5733394920499,370.19846178643917,639.39193373016803,61.133929284422337,3259.0610506997523,-69.142098808870287,4473.0150516148415,-4473.0150516148415,69.142098808870287,6388.2578116330014,0.0
618523.2936376977,3532751.2368613081,-7500.0,1538.1740544890465,2607.892008160532,5785.7215544718883,359.22575761069282,740.9796206420574,69.248418247285358,3574.1900261632136,-503.44588615459224,5037.6784239989429,-5037.6784239989429,503.44588615459224,6991.1599689460963,0.0
623523.2936376977,3532751.2368613081,-7500.0,1293.4297850634066,2445.0047404841489,6651.2432449760245,332.76552082894926,840.27078031556641,77.04364221301843,3868.2188086567021,-974.82923360227096,5520.435266536535,-5520.435266536535,974.82923360227096,7555.6229749530421,0.0
628523.2936376977,3532751.2368613081,-7500.0,1031.3169067091401,2144.4999177517402,7452.341510557796,289.60140571474136,931.37740606740385,84.064266565276057,4126.2995278283106,-1453.3555328835673,5875.9817945348996,-5875.9817945348996,1453.3555328835673,8053.5591677096236,0.0
633523.2936376977,3532751.2368613081,-7500.0,778.41276497732918,1705.3740776548175,8129.247792165118,229.88276559727262,1007.7340346691664,89.815307220379296,4333.0452453997359,-1901.3372934514546,6061.1785473158025,-6061.1785473158025,1901.3372934514546,8455.8105769778995,0.0
638523.2936376977,3532751.2368613081,-7500.0,564.32572470858997,1141.6223277598742,8621.2170246659189,155.46242525197644,1062.7474704398808,93.811494872357642,4473.9216459075333,-2276.9668549827684,6041.5456015810569,-6041.5456015810569,2276.9668549827684,8734.7850538622079,0.0
643523.2936376977,3532751.2368613081,-7500.0,417.20922082086258,483.63512889383588,8874.5066415048586,70.019673507427555,1090.6410164388446,95.638626679213246,4536.8829389737411,-2539.8477973930776,5798.0253132468997,-5798.0253132468997,2539.8477973930776,8867.5710328859386,0.0
648523.2936376977,3532751.2368613081,-7500.0,358.49033587900772,-223.29636144096946,8851.1083075308889,-21.128306223891773,1087.3634092191085,95.017476193226912,4514.0178620720762,-2657.6364295404187,5332.4640919704943,-5332.4640919704943,2657.6364295404187,8839.0923100520522,0.0
653523.2936376977,3532751.2368613081,-7500.0,398.04375493932275,-923.77523811990909,8536.3458283389027,-111.56269286744542,1051.3703047441827,91.856521863928577,4402.8965405852405,-2612.3766985981219,4670.1307262101254,-4670.1307262101254,2612.3766985981219,8644.7160035184424,0.0
658523.2936376977,3532751.2368613081,-7500.0,531.24061371794971,-1559.8692587601049,7943.2644003369996,-194.58726763351515,984.07134211673122,86.280303681251965,4207.3057509275559,-2404.8106772281976,3858.0478700261788,-3858.0478700261788,2404.8106772281976,8291.7127808182067,0.0
663523.2936376977,3532751.2368613081,-7500.0,738.97409879039037,-2079.9392307665366,7112.2793144430898,-264.18217621457063,889.79286847061655,78.623603475433228,3937.1644166961973,-2055.2400533154505,2958.9683949401269,-2958.9683949401269,2055.2400533154505,7799.1480129918864,0.0
668523.2936376977,3532751.2368613081,-7500.0,990.9254936073828,-2446.594482299286,6105.7501490772265,-315.86832144341389,775.22391237114505,69.390641550732155,3607.80370732247,-1600.4131217365318,2042.139493181525,-2042.139493181525,1600.4131217365318,7196.1000088099026,0.0
673523.2936376977,3532751.2368613081,-7500.0,1251.283614412419,-2641.763503261011,4998.6445452041889,-347.27595197997886,648.46022128551488,59.187035636995617,3281.7465188204374,-1087.1348138279373,1173.0544285714786,-1173.0544285714786,1087.1348138279373,6518.5175693183191,0.0
678523.2936376977,3532751.2368613081,-7500.0,1485.3335644645524,-2667.7392593972236,3867.5815599740208,-358.29611243675788,517.87115739889998,48.640152672797107,2957.6022375896091,-564.30618492832104,404.67246893099508,-404.67246893099508,564.30618492832104,5805.3382037521224,0.0
683523.2936376977,3532751.2368613081,-7500.0,1665.1503828747664,-2544.3183405775017,2780.8516914751322,-350.81873142175561,391.04778051397204,38.324459834032638,2634.2275252440095,-75.461206041788245,-228.01526749292029,228.01526749292029,75.461206041788245,5094.6096716600769,0.0
688523.2936376977,3532751.2368613081,-7500.0,1773.1128671073297,-2303.2494774053462,1791.4209036825746,-328.17224575254994,274.03784864373227,28.706137805048808,2326.8600347300153,346.53260411259583,-709.37666515313322,709.37666515313322,-346.53260411259583,4420.2355644534582,0.0
693523.2936376977,3532751.2368613081,-7500.0,1802.8050637682381,-1981.7216304535348,933.77870784738491,-294.43717382716522,170.96474131050118,20.113625491726591,2047.4188509869582,681.84380304776323,-1041.004574650666,1041.004574650666,-681.84380304776323,3809.6480369166738,0.0
698523.2936376977,3532751.2368613081,-7500.0,1757.6885291356853,-1616.4769832896955,224.33991653468985,-253.7988080036431,84.014355749948749,12.733736928155224,1803.7546319730222,923.29912391826065,-1237.3532222033864,1237.3532222033864,-923.29912391826065,3282.3484638586224,0.0
703523.2936376977,3532751.2368613081,-7500.0,1648.4106784966596,-1239.5487347999688,-335.65100392247638,-210.05124439884318,13.694347284208554,6.6275995764237949,1599.4202773060902,1074.0810234124815,-1320.6213295632615,1320.6213295632615,-1074.0810234124815,2849.0215722662856,0.0
708523.2936376977,3532751.2368613081,-7500.0,1489.6888647565197,-875.93253775467906,-755.99652478278654,-166.29706773009036,-40.759698218829918,1.7579904369673363,1433.905516391844,1144.5252816496363,-1316.0631180574073,1316.0631180574073,-1144.5252816496363,2511.043242506069,0.0
713523.2936376977,3532751.2368613081,-7500.0,1297.4978423417911,-542.96968644976255,-1053.3016092808359,-124.83096764883992,-80.944487641442834,-1.9796740086972329,1303.3578247499913,1148.896163387597,-1248.403954835268,1248.403954835268,-1148.896163387597,2260.7391329647294,0.0
598523.2936376977,3537751.2368613081,-7500.0,2389.2460562470783,2448.488056967084,2543.5739914951346,388.95273715729974,386.27293937659493,43.73016968022975,2498.5669448697736,1137.3304047179945,2735.5865270143954,-2735.5865270143954,-1137.3304047179945,4977.3481746048765,0.0
603523.2936376977,3537751.2368613081,-7500.0,2375.0043819120092,2729.6853797303011,3349.5607918270439,420.35609396759639,487.8694545270813,52.730987868209709,2864.8753257131134,897.64747233707362,3428.2423093977368,-3428.2423093977368,-897.64747233707362,5674.8211163577253,0.0
608523.2936376977,3537751.2368613081,-7500.0,2288.675843048014,2953.4405449529986,4268.5348198945067,442.97717987515529,601.95611130598877,62.621228470412703,3252.6479925932954,564.29792856801214,4167.9589944365252,-4167.9589944365252,-564.29792856801214,6413.0030336892087,0.0
613523.2936376977,3537751.2368613081,-7500.0,2126.5337352225974,3087.7534300439343,5281.7707369475174,452.96915497677287,726.02837806331547,73.158173402717665,3651.0133381819815,137.0553299791527,4922.7315857294752,-4922.7315857294752,-137.0553299791527,7172.8876196138772,0.0
618523.2936376977,3537751.2368613081,-7500.0,1892.6118308057878,3099.0984782539153,6355.2270875841186,446.432223652831,855.85044908980638,83.96537466129233,4046.2689185533354,-374.12805726386841,5648.4752607478204,-5648.4752607478204,374.12805726386841,7928.8088324148002,0.0
623523.2936376977,3537751.2368613081,-7500.0,1600.8190337615506,2956.7110754605428,7437.8287384851583,419.92721243279811,985.30772059965977,94.527392345902598,4421.398328366784,-946.60787380288184,6290.3604922887944,-6290.3604922887944,946.60787380288184,8648.685876271682,0.0
628523.2936376977,3537751.2368613081,-7500.0,1275.8909844366226,2638.2908296781775,8462.0529740164548,371.13209358154359,1106.5210788850304,104.20515605066031,4756.6868365472001,-1543.9260677070974,6786.743344529219,-6786.743344529219,1543.9260677070974,9295.2576767511036,0.0
633523.2936376977,3537751.2368613081,-7500.0,952.3439666778479,2136.4029049438168,9347.8679568087391,299.55364706529872,1210.3278390795256,112.27914365571174,5031.0131352279022,-2117.0803778375644,7076.0340137732273,-7076.0340137732273,2117.0803778375644,9828.5220691622999,0.0
638523.2936376977,3537751.2368613081,-7500.0,670.80238504165777,1464.2246149204234,10010.632920042757,207.14116079105841,1287.1826524448516,118.02202514953849,5223.790787370308,-2608.9703033164324,7106.1155358036913,-7106.1155358036913,2608.9703033164324,10209.406276853411,0.0
643523.2936376977,3537751.2368613081,-7500.0,471.6715735128214,658.79344334862617,10372.625136868239,98.602614721535232,1328.4289548181896,120.79514835456811,5317.4008041694351,-2962.1382979875111,6844.8962490858539,-6844.8962490858539,2962.1382979875111,10404.391919535967,0.0
648523.2936376977,3537751.2368613081,-7500.0,387.08300435190085,-220.08558144116725,10376.502871714409,-18.767130727186665,1327.7516358425487,120.15391930635582,5299.7666179620928,-3128.8240406107384,6289.5504995523352,-6289.5504995523352,3128.8240406107384,10390.446090170566,0.0
653523.2936376977,3537751.2368613081,-7500.0,433.04929338384278,-1096.3164020231277,9997.6889367951517,-135.84485531870689,1282.4912481033355,115.93814096998612,5166.5646304617294,-3081.1324083306299,5471.5067640546458,-5471.5067640546458,3081.1324083306299,10159.300503952789,0.0
658523.2936376977,3537751.2368613081,-7500.0,604.32006520594769,-1888.8371750309711,9252.0495241479439,-242.95496825039962,1194.4467907603962,108.3230012457377,4922.5185531074103,-2818.3597177234478,4454.7940236927179,-4454.7940236927179,2818.3597177234478,9720.020302605888,0.0
663523.2936376977,3537751.2368613081,-7500.0,874.01978689632438,-2525.3838284219319,8195.9612611688935,-331.40112417276612,1069.874820885474,97.81229380766591,4581.369282550856,-2368.8304946573198,3327.1180056106596,-3327.1180056106596,2368.8304946573198,9099.0514789320223,0.0
668523.2936376977,3537751.2368613081,-7500.0,1198.6953631147514,-2955.0124423223074,6917.9686393953598,-394.86541490137995,918.60843934051184,85.170584638926613,4173.7218928609691,-1785.1430191455211,2185.4683812372318,-2185.4683812372318,1785.1430191455211,8337.5147876359242,0.0
673523.2936376977,3537751.2368613081,-7500.0,1527.4459125722556,-3155.8193808787651,5523.9763316275503,-430.3005493154555,752.49351251418807,71.309768272310265,3787.3261031391862,-1133.9714860581987,1120.064856753718,-1120.064856753718,1133.9714860581987,7486.2462755170563,0.0
678523.2936376977,3537751.2368613081,-7500.0,1812.3127263476808,-3135.911032746591,4120.0434532907611,-438.10315973716837,583.55275945880544,57.157465632226376,3384.3498415848053,-483.46744812464408,200.99871871208282,-200.99871871208282,483.46744812464408,6599.6844957800549,0.0
683523.2936376977,3537751.2368613081,-7500.0,2016.8411235727672,-2928.0320603669707,2797.3085110292063,-421.59522717406657,422.34037618704679,43.537898444752031,2988.2824782630028,108.10454502988591,-529.28487269909783,529.28487269909783,-108.10454502988591,5729.8875032910182,0.0
688523.2936376977,3537751.2368613081,-7500.0,2120.7383564383558,-2580.213142941062,1622.3138067473985,-386.04431497710067,276.83352000465857,31.089363459327327,2619.1528454980798,599.75142521184296,-1056.7805505412632,1056.7805505412632,-599.75142521184296,4921.6895685369554,0.0
693523.2936376977,3537751.2368613081,-7500.0,2120.1938139860849,-2145.5380855292233,633.78546500248024,-337.54162944091047,151.99184355521973,20.22753588985195,2291.5214309873663,970.17277365784923,-1391.286634525798,1391.286634525798,-970.17277365784923,4209.3906193689472,0.0
698523.2936376977,3537751.2368613081,-7500.0,2024.8474372481708,-1673.6050119095426,-155.10988077797637,-282.01751765308808,49.908846225261918,11.151185446530588,2013.6444010847351,1215.9254048883076,-1558.8271905326778,1558.8271905326778,-1215.9254048883076,3614.740675316747,0.0
703523.2936376977,3537751.2368613081,-7500.0,1853.0670107820504,-1205.0375229145884,-751.13212201576459,-224.55856085949367,-29.645733257214598,3.8774258872265697,1787.4526103471735,1346.9970095267583,-1593.6467999652962,1593.6467999652962,-1346.9970095267583,3145.7844611399955,0.0
708523.2936376977,3537751.2368613081,-7500.0,1627.1040971442903,-769.16582481452645,-1174.1711791070609,-169.06288221650522,-88.51920597972763,-1.7086262493665756,1609.3549902917243,1381.5647141972522,-1531.5340717463682,1531.5340717463682,-1381.5647141972522,2796.6986200946985,0.0
713523.2936376977,3537751.2368613081,-7500.0,1369.1634567271487,-384.19592262714428,-1450.9423241165723,-118.17978423973611,-129.48609974035088,-5.8030819168628307,1471.8415118405424,1341.2566780784773,-1405.2548753185933,1405.2548753185933,-1341.2566780784773,2549.7053493725375,0.0
718523.2936376977,3537751.2368613081,-7500.0,1098.8052744628019,-58.894975858308669,-1610.0627671241316,-73.439418825954618,-155.68254346229179,-8.6397301597327463,1365.5845329101671,1247.5986989390781,-1242.0921049262065,1242.0921049262065,-1247.5986989390781,2379.8687330251119,0.0
593523.2936376977,3542751.2368613081,-7500.0,2689.9997423595428,2265.0567296534159,1687.0715872741873,400.9991233250675,302.08840783795398,39.762139856518772,2348.7391310568155,1615.0489126572543,2017.8848598052223,-2017.8848598052223,-1615.0489126572543,4638.8840683493054,0.0
598523.2936376977,3542751.2368613081,-7500.0,2793.9551678876983,2662.9330050632839,2443.6632191074536,451.26159041769307,404.77187531157631,49.621067805039267,2705.6665563750184,1488.4483534171761,2733.4122572500182,-2733.4122572500182,-1488.4483534171761,5391.5512065350422,1.0
603523.2936376977,3542751.2368613081,-7500.0,2824.0293730955432,3041.4947925176671,3356.4527712355575,496.81168966578025,526.14235319441957,60.95792177517572,3127.013599269666,1257.2404453587428,3548.5562593666168,-3548.5562593666168,-1257.2404453587428,6221.9110426444631,0.0
608523.2936376977,3542751.2368613081,-7500.0,2764.8781471486486,3366.6671010704281,4425.0465235902002,533.15116452797861,665.66310029875217,73.661337990756124,3597.2188975801046,906.86235258124998,4443.6878246139431,-4443.6878246139431,-906.86235258124998,7117.0285009295058,0.0
613523.2936376977,3542751.2368613081,-7500.0,2606.71168688119,3596.7806199424931,5633.8211924472162,554.98508742961246,820.92383462306202,87.45934866301647,4089.5310664025737,430.66245862175083,5383.5852897832119,-5383.5852897832119,-430.66245862175083,8055.5783563187988,0.0
618523.2936376977,3542751.2368613081,-7500.0,2349.1751223612264,3685.4166963660832,6946.8634520795067,556.62083769493063,987.0971535460061,101.88248281649511,4587.1391530298142,-165.4351778778996,6315.3868588494424,-6315.3868588494424,165.4351778778996,9006.7121996499081,1.0
623523.2936376977,3542751.2368613081,-7500.0,2005.1236680854156,3586.7460377488724,8304.0566062456528,532.65237571136709,1156.553152727475,116.24325401337802,5068.4222175783707,-858.42353586358922,7168.9191319506372,-7168.9191319506372,858.42353586358922,9929.7834365999788,0.0
628523.2936376977,3542751.2368613081,-7500.0,1603.1718715937654,3263.454811891856,9620.0075796979218,478.9243767244788,1318.8208391395672,129.64626656700304,5507.2371284558922,-1605.1774427794294,7860.7379589239681,-7860.7379589239681,1605.1774427794294,10775.450245232316,0.0
633523.2936376977,3542751.2368613081,-7500.0,1187.573143712752,2696.5283365823152,10787.740586562562,393.67456727050279,1461.1007299243424,141.04217652427039,5874.4694292302684,-2342.5991537284749,8302.8845650854091,-8302.8845650854091,2342.5991537284749,11488.624580377425,0.0
638523.2936376977,3542751.2368613081,-7500.0,814.07256960128063,1895.0265020737013,11688.699972177164,278.62755162050127,1569.4785798254645,149.33387489359438,6140.7009122255904,-2992.5983697781039,8416.3562933105568,-8416.3562933105568,2992.5983697781039,12013.502803427509,0.0
643523.2936376977,3542751.2368613081,-7500.0,541.15711761191972,902.86733485544562,12209.25666936467,139.70039263341059,1630.8321561365601,153.52866842772983,6279.8280743126224,-3472.709367782546,8147.5633430916032,-8147.5633430916032,3472.709367782546,12300.43038820278,0.0
648523.2936376977,3542751.2368613081,-7500.0,417.71199096351984,-200.80244888770102,12261.607953639872,-13.049224144820872,1635.1735583986135,152.91322640726347,6273.1371143449478,-3711.352888304184,7484.010133867343,-7484.010133867343,3711.352888304184,12313.695318396894,0.0
653523.2936376977,3542751.2368613081,-7500.0,470.07418624380784,-1310.0967092441451,11804.297059375558,-166.47609810495376,1577.8959573043403,147.21011832137992,6112.9995802460271,-3664.4052000656311,6464.035900284226,-6464.035900284226,3664.4052000656311,12038.676531928542,0.0
658523.2936376977,3542751.2368613081,-7500.0,692.87144879515995,-2309.5193187011159,10855.92829812241,-306.34812627631436,1461.2424552491102,136.67020226393859,5805.1982864509273,-3327.9350007075172,5175.903573767413,-5175.903573767413,3327.9350007075172,11486.455665274254,0.0
663523.2936376977,3542751.2368613081,-7500.0,1047.6800912220003,-3095.9205470394795,9496.4350103109809,-419.86165108247377,1294.416881725851,122.06478229844561,5369.06577155163,-2742.0644943415709,3744.4458329918898,-3744.4458329918898,2742.0644943415709,10694.301706393888,0.0
668523.2936376977,3542751.2368613081,-7500.0,1470.9782149232951,-3598.7577274551572,7853.9937402845862,-497.96464889850057,1092.1527091295941,104.57114019418435,4885.9294710487375,-1983.5841471541687,2308.0815347433286,-2308.0815347433286,1983.5841471541687,9721.482582426519,0.0
673523.2936376977,3542751.2368613081,-7500.0,1889.1119219269201,-3792.1356159802326,6080.921387545397,-536.7876004964063,872.09132991997626,85.579671423657942,4396.1021236581737,-1149.2413813729934,993.00863620312089,-993.00863620312089,1149.2413813729934,8641.237699029236,0.0
678523.2936376977,3542751.2368613081,-7500.0,2235.0760333810217,-3695.1876754556383,4325.9950425184079,-537.80078680605789,651.73907728189363,66.473351093980455,3891.2431652586752,-335.3038846732743,-107.53173062907892,107.53173062907892,335.3038846732743,7530.8942943058919,0.0
683523.2936376977,3542751.2368613081,-7500.0,2461.5403068322994,-3361.936811524412,2711.3564018314009,-506.78963882293289,445.85711458252183,48.437299341842156,3404.1339803253463,380.00585533391313,-943.51291320657401,943.51291320657401,-380.00585533391313,6462.4327048114883,0.0
688523.2936376977,3542751.2368613081,-7500.0,2546.7489583341985,-2865.3293018776621,1319.3602101444135,-452.12062535945904,264.87185664517364,32.337118940176673,2960.8841346562731,946.63122940760854,-1506.9975406537521,1506.9975406537521,-946.63122940760854,5495.1465624522507,0.0
693523.2936376977,3542751.2368613081,-7500.0,2493.1592446782429,-2281.08186630709,190.37383274265574,-382.89635601177929,114.45944644200799,18.678817990830332,2578.6336403639784,1344.3094096840844,-1822.6765389974273,1822.6765389974273,-1344.3094096840844,4670.8470112124623,0.0
698523.2936376977,3542751.2368613081,-7500.0,2321.1507115760564,-1675.4896706251948,-671.06838941465867,-307.47231908668226,-3.9231032448155525,7.6381242574233958,2264.7272685337803,1577.6789097588037,-1934.8550290688047,1934.8550290688047,-1577.6789097588037,4011.0646776391145,0.0
703523.2936376977,3542751.2368613081,-7500.0,2060.9441007003502,-1098.8201315610404,-1285.873923931015,-232.5570090244376,-91.972420531203682,-0.86730144748767657,2017.360446638874,1668.1629156066338,-1895.113852003456,1895.113852003456,-1668.1629156066338,3515.9055297677064,0.0
708523.2936376977,3542751.2368613081,-7500.0,1745.2729422337104,-583.77046051248067,-1689.4885341701765,-162.88433960816872,-153.34080735047593,-7.0905744563322433,1827.6909663703891,1645.6274345178756,-1753.1089919711496,1753.1089919711496,-1645.6274345178756,3165.7402894423008,0.0
713523.2936376977,3542751.2368613081,-7500.0,1404.1505759516458,-147.35823709955065,-1922.8319949623376,-101.30912366288635,-192.58281823022514,-11.374351401037302,1683.0514458464786,1541.6729644375832,-1551.1612167451467,1551.1612167451467,-1541.6729644375832,2927.5066996496103,0.0
718523.2936376977,3542751.2368613081,-7500.0,1061.9833513435754,205.52101171122732,-2025.985034615911,-49.140242045710409,-214.37551766583002,-14.087170833123224,1570.2987471437123,1385.2234148702869,-1322.095752884366,1322.095752884366,-1385.2234148702869,2764.4956691033435,0.0
723523.2936376977,3542751.2368613081,-7500.0,736.61708393136564,478.22218689429997,-2034.5329489334076,-6.5551312653710436,-223.02814643564997,-15.580574950737248,1478.2220619121035,1200.2527213057253,-1089.3096413393862,1089.3096413393862,-1200.2527213057253,2645.0074115588773,0.0
588523.2936376977,3547751.2368613081,-7500.0,2832.6982283053535,1878.8791232419585,790.42390827773681,385.68702699109485,201.21288767255109,33.575602156952769,2163.1520157221662,1971.7801300556198,1171.6800008909581,-1171.6800008909581,-1971.7801300556198,4177.0419225328251,0.0
593523.2936376977,3547751.2368613081,-7500.0,3073.3710328735688,2352.6176395413349,1429.4576737045954,452.25414738139187,296.2735098688176,43.640945349664086,2523.6243134497977,1989.2015985579958,1836.7001073341664,-1836.7001073341664,-1989.2015985579958,4937.8605147583121,0.0
598523.2936376977,3547751.2368613081,-7500.0,3255.7205474938496,2853.1635716481646,2248.9443668706367,519.91558589448664,414.68479675067687,55.732185926389192,2937.2707949188748,1910.4177632832129,2643.8984831526536,-2643.8984831526536,-1910.4177632832129,5812.0827525437589,0.0
603523.2936376977,3547751.2368613081,-7500.0,3354.7225195201599,3352.4999672753124,3269.3584909916976,584.46283858496361,558.47155441270388,69.939889616977979,3405.6532529787937,1707.9925426642731,3592.6013224241897,-3592.6013224241897,-1707.9925426642731,6796.6838691393505,0.0
608523.2936376977,3547751.2368613081,-7500.0,3346.0618740347081,3810.2252424517774,4500.5068149801618,640.1804869872924,728.16125988426381,86.203853149149268,3966.2547668819147,1356.9723297731348,4667.1893701412519,-4667.1893701412519,-1356.9723297731348,7880.1232770823426,0.0
613523.2936376977,3547751.2368613081,-7500.0,3210.4648982129147,4173.412596911965,5934.2879355513733,679.91945172603846,921.92044394868628,104.24439517408531,4574.9760206703841,840.22735755373833,5831.6330882384736,-5831.6330882384736,-840.22735755373833,9039.7684775149592,0.0
618523.2936376977,3547751.2368613081,-7500.0,2939.3821779402042,4379.0502390872698,7536.5324892327662,695.50370545742032,1134.6211799969808,123.49431429943873,5203.224725627656,155.33174719106864,7024.8854348373825,-7024.8854348373825,-155.33174719106864,10239.608883286361,1.0
623523.2936376977,3547751.2368613081,-7500.0,2541.288642831556,4360.1906559358486,9239.4275759379289,678.59086000779985,1357.0278148120588,143.04887636896393,5823.8230538321804,-677.88228863583026,8158.9557427793497,-8158.9557427793497,677.88228863583026,11428.918588388618,0.0
628523.2936376977,3547751.2368613081,-7500.0,2047.0674305317566,4056.5250804980774,10937.040266491345,622.04496482198715,1575.4038776456068,161.65845400690205,6402.2786270293736,-1610.8913396600033,9122.004725098257,-9122.004725098257,1610.8913396600033,12542.739643030682,0.0
633523.2936376977,3547751.2368613081,-7500.0,1512.1343307307668,3428.9756394448541,12487.27450357739,521.73573323785263,1771.9153656376554,177.79087776807236,6898.3865721280063,-2563.9223118238388,9788.7314213448735,-9788.7314213448735,2563.9223118238388,13505.11307697054,0.0
638523.2936376977,3547751.2368613081,-7500.0,1012.6247134039231,2475.9972496856317,13723.592144290591,378.45419594045978,1926.1793778312849,189.78379088498588,7269.7797592214147,-3430.4735199337292,10039.136614270283,-10039.136614270283,3430.4735199337292,14235.755520629991,0.0
643523.2936376977,3547751.2368613081,-7500.0,633.76257818745705,1246.9565948917823,14478.188421022742,199.3824342302137,2018.0904953020024,196.08517272013654,7477.2850224847516,-4091.303911163287,9784.0394491198676,-9784.0394491198676,4091.303911163287,14660.187954717863,0.0
648523.2936376977,3547751.2368613081,-7500.0,451.00952633015203,-153.64858771742055,14614.518312334851,-1.5882278609838576,2031.6181514232676,195.5461766510866,7491.4289559109766,-4437.5150186980054,8991.8195027845431,-8991.8195027845431,4437.5150186980054,14722.151616677726,0.0
653523.2936376977,3547751.2368613081,-7500.0,508.40209342678651,-1576.5913619431701,14061.845814605842,-205.25905935990428,1958.7096771958188,187.69436056493907,7298.73713140974,-4397.927172300957,7707.3664845952117,-7707.3664845952117,4397.927172300957,14395.774726356562,0.0
658523.2936376977,3547751.2368613081,-7500.0,801.8609119577643,-2854.0254553233067,12840.299981227628,-390.29488579512645,1802.0314572720342,172.89964003041069,6906.0188574894382,-3961.7586257504845,6053.8297204852151,-6053.8297204852151,3961.7586257504845,13694.036868895266,0.0
663523.2936376977,3547751.2368613081,-7500.0,1275.4846068938664,-3835.3897217056897,11065.225838578135,-537.45336494237529,1575.3735794312142,152.36531206041531,6341.3663772426544,-3186.7640061467146,4212.5091475951622,-4212.5091475951622,3186.7640061467146,12670.362846318489,0.0
668523.2936376977,3547751.2368613081,-7500.0,1834.3375218524168,-4421.2223504262793,8926.2248477796529,-633.55049568015545,1301.2728026674495,127.92959684696196,5761.9597891890098,-2187.568836329086,2385.1461936247183,-2385.1461936247183,2187.568836329086,11412.013810661079,1.0
673523.2936376977,3547751.2368613081,-7500.0,2369.7280230330266,-4582.4566718825445,6646.7457830407438,-673.80849476875244,1006.4964765944482,101.73233558857198,5133.8883513884994,-1107.4506475862549,751.20308352892732,-751.20308352892732,1107.4506475862549,10026.705828766002,0.0
678523.2936376977,3547751.2368613081,-7500.0,2787.0364300277288,-4358.9057904559668,4438.3677449024772,-661.88042463807039,716.87909441309148,75.844996335640388,4496.8065783910697,-84.275884549649163,-565.0102860898096,565.0102860898096,84.275884549649163,8626.1644132531892,0.0
683523.2936376977,3547751.2368613081,-7500.0,3025.7127421219129,-3839.888010570628,2464.9311535283287,-607.8137959379485,453.12803765904101,51.965445336753547,3896.0458402499539,777.03866316632229,-1507.8612080687381,1507.8612080687381,-777.03866316632229,7310.8504245664453,0.0
688523.2936376977,3547751.2368613081,-7500.0,3065.9964332477434,-3136.5887595443273,825.38144970565293,-524.94317385131455,228.60487104059035,31.244438736694391,3365.1511677630169,1417.8565235396925,-2084.2979201757712,2084.2979201757712,-1417.8565235396925,6158.6043947014223,0.0
693523.2936376977,3547751.2368613081,-7500.0,2923.4385382492624,-2356.5611235717115,-444.67897201270836,-426.84981956278915,49.184612480033309,14.255237523855252,2922.8260369537725,1824.5173319341216,-2345.161633814469,2345.161633814469,-1824.5173319341216,5217.5753464136378,0.0
698523.2936376977,3547751.2368613081,-7500.0,2636.5123842072012,-1586.8649396939488,-1359.0193146592485,-325.17225574574195,-85.396576430303213,1.0746510415252541,2572.6381535509177,2017.31561855991,-2363.0927678087637,2363.0927678087637,-2017.31561855991,4502.5926223450269,0.0
703523.2936376977,3547751.2368613081,-7500.0,2253.1426490000981,-887.20129224683092,-1962.303609964832,-228.51895908350437,-179.53432351287236,-8.5771386963484115,2305.4925842720531,2036.1483225068623,-2213.9607858175314,2213.9607858175314,-2036.1483225068623,3995.7407580122067,0.0
708523.2936376977,3547751.2368613081,-7500.0,1820.0535967809642,-290.8192992500762,-2313.145951340698,-142.31969008720748,-239.78137152359088,-15.187560015769252,2104.4582509583056,1927.6914031987649,-1964.8654722798078,1964.8654722798078,-1927.6914031987649,3654.1768270877174,0.0
713523.2936376977,3547751.2368613081,-7500.0,1376.3487680694304,190.25625775067112,-2471.6798112352944,-69.267962393636594,-273.29730373580253,-19.325789373344382,1950.4480480262032,1736.4195338797272,-1668.5779636003454,1668.5779636003454,-1736.4195338797272,3425.1564291811396,0.0
718523.2936376977,3547751.2368613081,-7500.0,950.9391087245674,558.67016249102653,-2492.1067082937643,-10.014246142216111,-286.83667656054985,-21.553755373663449,1826.6728246881353,1499.6967470865552,-1362.6816435575724,1362.6816435575724,-1499.6967470865552,3261.201178217525,0.0
723523.2936376977,3547751.2368613081,-7500.0,562.6472889058914,825.7316009880152,-2419.3082210297448,36.130235924970492,-286.21582528660349,-22.37366528541753,1720.7283445129083,1246.0584679574804,-1071.394004815761,1071.394004815761,-1246.0584679574804,3128.0943768831494,0.0
728523.2936376977,3547751.2368613081,-7500.0,221.75854419683455,1006.7842963955891,-2288.1849269781078,70.605619951034853,-276.12745416750772,-22.204466672828161,1624.6543314144403,995.51252960562874,-808.46485448028579,808.46485448028579,-995.51252960562874,3005.2519436435286,0.0
583523.2936376977,3552751.2368613081,-7500.0,2762.2449362411767,1322.7736201456112,-53.217934289025465,341.3468557265719,93.11855773700951,25.570664309928972,1951.7771037883526,2141.0485110978175,288.03933529290134,-288.03933529290134,-2141.0485110978175,3651.8445777736183,0.0
588523.2936376977,3552751.2368613081,-7500.0,3133.8759971727022,1814.0230415767633,416.59122903137239,418.54750453959747,172.26930727169477,35.080067698357091,2292.6613483862452,2308.875210266478,832.65828121259631,-832.65828121259631,-2308.875210266478,4364.9142848889323,0.0
593523.2936376977,3552751.2368613081,-7500.0,3479.4471908781393,2375.7984265856849,1065.9355370093344,503.3634743207291,276.76382256059094,47.011750067371416,2698.9087501954318,2408.6593554044362,1541.3699369749629,-1541.3699369749629,-2408.6593554044362,5219.7319964459884,0.0
598523.2936376977,3552751.2368613081,-7500.0,3770.1206910842634,2993.4783871800641,1933.0634864194117,592.93628523257644,411.18524131061486,61.693950049535296,3175.436304067503,2406.0727038000532,2434.2127790591112,-2434.2127790591112,-2406.0727038000532,6225.6963297960938,0.0
603523.2936376977,3552751.2368613081,-7500.0,3971.8632955728576,3638.6913728000777,3053.5723244248115,682.51405901227781,579.49809299706885,79.358923531734717,3724.2037742057414,2262.3657445271169,3521.5574171857393,-3521.5574171857393,-2262.3657445271169,7385.4960656093208,0.0
608523.2936376977,3552751.2368613081,-7500.0,4048.3529108996486,4265.8222447498238,4453.386678527384,765.08717621930532,784.11145499719487,100.05589060303392,4353.8293989010854,1938.2474657663131,4796.8506410800474,-4796.8506410800474,-1938.2474657663131,8691.6385731271803,0.0
613523.2936376977,3552751.2368613081,-7500.0,3966.241566115325,4809.9034075386235,6138.8308705124964,831.24914069499823,1024.6126327105824,123.54198360893783,5103.770636038038,1400.510885708135,6227.9902373181812,-6227.9902373181812,-1400.510885708135,10122.402051516452,0.0
618523.2936376977,3552751.2368613081,-7500.0,3702.9993812613538,5187.5757678027903,8084.1860693868384,869.4944190891631,1296.2481794478467,149.163040399989,5898.1566896032655,631.63414890577678,7748.637873636465,-7748.637873636465,-631.63414890577678,11637.707536492077,0.0
623523.2936376977,3552751.2368613081,-7500.0,3256.795621417647,5303.2069854590036,10218.367709693355,867.19876228737223,1588.3855463839373,175.74920142576926,6701.7022478382141,-358.30195421409553,9251.9691571333333,-9251.9691571333333,358.30195421409553,13175.821786370176,0.0
628523.2936376977,3552751.2368613081,-7500.0,2656.5827106976567,5062.1019071571172,12414.135031264508,812.48160639041839,1883.3979592220003,201.56726715918327,7469.3776849658043,-1519.5295121431336,10590.622031875308,-10590.622031875308,1519.5295121431336,14652.25032582512,0.0
633523.2936376977,3552751.2368613081,-7500.0,1968.8805571463245,4391.479829132275,14485.214802532382,696.96367001950603,2156.6263255401104,224.38059535125825,8145.7663926814357,-2754.4385586334292,11587.333981218311,-11587.333981218311,2754.4385586334292,15962.528600972459,0.0
638523.2936376977,3552751.2368613081,-7500.0,1296.3751995430173,3266.9945254583658,16197.893958829063,519.05565681847429,2378.1550596466736,241.66452645827414,8669.5019192065283,-3919.1324536194079,12059.857000749435,-12059.857000749435,3919.1324536194079,16990.566420628355,0.0
643523.2936376977,3552751.2368613081,-7500.0,763.6518244021288,1738.1204732083047,17302.26584128305,286.8929751362424,2516.8965429557529,250.98778919469456,8981.0694830828234,-4840.4103691095288,11859.916891092944,-11859.916891092944,4840.4103691095288,17623.329603412927,0.0
648523.2936376977,3552751.2368613081,-7500.0,488.82364835622337,-58.631327825480462,17582.612819745813,19.593882559351457,2546.7518586345486,250.50633890486489,9033.2429888807455,-5350.1627005785967,10918.884556932921,-10918.884556932921,5350.1627005785967,17770.691291180512,0.0
653523.2936376977,3552751.2368613081,-7500.0,546.89455842481243,-1910.4577351018015,16916.398005187959,-254.43811323368092,2453.487542492614,239.44063822162494,8802.0258587122571,-5331.0925107323174,9284.703456166877,-9284.703456166877,5331.0925107323174,17386.506403238523,0.0
658523.2936376977,3552751.2368613081,-7500.0,938.60837704575852,-3568.1097103701459,15321.188807571629,-502.57662178766702,2239.9575902890838,218.36854454065966,8294.8198113429025,-4758.1287750210604,7131.115784020908,-7131.115784020908,4758.1287750210604,16484.552559716074,0.0
663523.2936376977,3552751.2368613081,-7500.0,1581.1141343560328,-4806.1730751897348,12966.600106408054,-695.2585616863006,1927.2331175020333,189.20510586617726,7592.3797375851327,-3715.8116408172727,4727.419102209632,-4727.419102209632,3715.8116408172727,15142.819983016678,0.0
668523.2936376977,3552751.2368613081,-7500.0,2328.9482457014301,-5481.529457128473,10140.018949689262,-812.95612084830077,1550.561838059102,154.8493418656648,6848.2101019646234,-2379.5912643153238,2374.7181998870906,-2374.7181998870906,2379.5912643153238,13492.905039834524,1.0
673523.2936376977,3552751.2368613081,-7500.0,3018.2077080025438,-5565.2591964974372,7176.5362192055909,-850.12155137841057,1151.3578826362557,118.60556319734913,6034.2335276778067,-966.51710565833434,332.79571845838393,-332.79571845838393,966.51710565833434,11696.931714163748,0.0
678523.2936376977,3552751.2368613081,-7500.0,3514.0632403716145,-5135.975442558858,4381.1730502484634,-814.75830159814609,768.22234999115642,83.565312411728911,5225.1112834073656,323.28555624478372,-1233.181806697484,1233.181806697484,-323.28555624478372,9919.2507332493733,0.0
683523.2936376977,3552751.2368613081,-7500.0,3741.5645978254629,-4342.1398393969666,1972.5966027124462,-724.3312682955642,430.14313098152775,52.129206594573134,4483.6760569637245,1350.2792122931342,-2269.0311282543194,2269.0311282543194,-1350.2792122931342,8300.9794602441434,0.0
688523.2936376977,3552751.2368613081,-7500.0,3691.172593973431,-3353.5657415056576,62.80726273807926,-600.13595421573268,153.58134482304462,25.771808398954171,3851.6340331717415,2051.4841614415745,-2813.5778355564426,2813.5778355564426,-2051.4841614415745,6941.9914640685593,1.0
693523.2936376977,3552751.2368613081,-7500.0,3403.9130835602955,-2321.4905893271543,-1331.1541966648422,-462.30925467360493,-56.756676928923511,5.0535025798798232,3346.0029580780151,2431.2002068008851,-2962.4385716278157,2962.4385716278157,-2431.2002068008851,5890.5083803100706,0.0
698523.2936376977,3552751.2368613081,-7500.0,2947.8436186563004,-1356.7421413913805,-2258.066535520215,-326.72904748482415,-204.89405336102402,-10.194448750742799,2960.9998582447201,2538.1054483811772,-2831.1129291028969,2831.1129291028969,-2538.1054483811772,5140.102856503293,0.0
703523.2936376977,3552751.2368613081,-7500.0,2396.3464597920652,-525.25446510110817,-2800.7930878202783,-203.93989961231887,-299.93390859437369,-20.612429204175097,2674.9512056616963,2440.7759455992882,-2528.1412693261436,2528.1412693261436,-2440.7759455992882,4638.2118728406876,0.0
708523.2936376977,3552751.2368613081,-7500.0,1813.6287064695423,145.2595990507298,-3051.0756114305659,-99.546946384685342,-352.91759257505151,-27.066690095684418,2459.9543648197382,2208.9331731152834,-2140.9838375014015,2140.9838375014015,-2208.9331731152834,4308.7992664224057,0.0
713523.2936376977,3552751.2368613081,-7500.0,1248.0169808847827,654.17213272580921,-3093.7247369774664,-15.343981626600257,-374.66690810061954,-30.462279022602218,2290.3030011108694,1902.5018596810119,-1732.1466139975514,1732.1466139975514,-1902.5018596810119,4079.2228857437826,0.0
718523.2936376977,3552751.2368613081,-7500.0,731.05884723303268,1016.9673036452276,-2999.0995872063695,49.40174876639653,-374.59825078126181,-31.626380042466174,2146.8573066143972,1567.2968384958426,-1341.4659933897842,1341.4659933897842,-1567.2968384958426,3896.3822458068294,0.0
723523.2936376977,3552751.2368613081,-7500.0,279.87475431501019,1256.6343956330941,-2821.2712725284582,96.83972990451575,-360.27358117816397,-31.252030673213966,2017.5354836327256,1235.0174308168653,-991.00966931331584,991.00966931331584,-1235.0174308168653,3728.803016471446,0.0
728523.2936376977,3552751.2368613081,-7500.0,-99.273461621879292,1397.900406584851,-2599.3498158581856,129.72035952471705,-337.40771583820703,-29.884049129741214,1895.7901903203176,925.41323763534024,-690.32994415995063,690.32994415995063,-925.41323763534024,3561.3292676079341,0.0
733523.2936376977,3552751.2368613081,-7500.0,-407.44297825648931,1463.8963942336138,-2360.1408054531253,150.86869434599589,-310.10584795564591,-27.929317380554604,1778.6850638724825,649.14128423120383,-440.95644298413396,440.95644298413396,-649.14128423120383,3388.7894420978992,0.0
578523.2936376977,3557751.2368613081,-7500.0,2452.4302466906888,661.00465654248353,-759.92769771530368,270.62892279092279,-11.366507441968645,16.41333325356387,1752.5174630171873,2083.2453623336205,-532.5068191284397,532.5068191284397,-2083.2453623336205,3155.7808515314659,0.0
583523.2936376977,3557751.2368613081,-7500.0,2922.240965130698,1106.2395311954576,-483.39623123679979,350.51296375609326,45.696377944916449,24.622874284348409,2051.2008754185704,2379.0384189565502,-158.98150666593097,158.98150666593097,-2379.0384189565502,3764.6327249709179,0.0
588523.2936376977,3557751.2368613081,-7500.0,3408.5862011943223,1652.6703289677646,-52.935175359279768,443.86201821079993,126.88357344857221,35.409577407263541,2420.4629120996551,2648.8543041552689,374.40989950314315,-374.40989950314315,-2648.8543041552689,4529.6163448449097,0.0
593523.2936376977,3557751.2368613081,-7500.0,3886.8286654289859,2302.6852380407386,579.4248626643431,549.97367725627487,238.65522776838199,49.321974722178531,2871.4112188063596,2860.169080618246,1104.1835720165327,-1104.1835720165327,-2860.169080618246,5473.4407186433618,0.0
598523.2936376977,3557751.2368613081,-7500.0,4322.5822615990664,3047.7852851422363,1467.8135233788951,666.38808436164516,387.99658126504551,66.903637989572019,3413.6932489708479,2970.3145784006565,2065.489051273823,-2065.489051273823,-2970.3145784006565,6615.3122006992216,0.0
603523.2936376977,3557751.2368613081,-7500.0,4671.7983807134469,3862.9361802986937,2668.2198662048468,788.15965234090504,581.72823946915742,88.612079458761997,4053.8776350860176,2927.2426582837447,3285.691930931855,-3285.691930931855,-2927.2426582837447,7967.6086676197383,0.0
608523.2936376977,3557751.2368613081,-7500.0,4883.0793759197104,4700.3640042778807,4230.4646681477579,907.11874766920675,825.33067459328788,114.69577550075768,4793.4454614306396,2672.9809057722314,4774.8220071011028,-4774.8220071011028,-2672.9809057722314,9531.2035756319328,0.0
613523.2936376977,3557751.2368613081,-7500.0,4903.3561896453984,5484.1166191014627,6185.4235618864159,1011.3207460890435,1121.1826968674764,145.02657522488258,5665.9136163406693,2151.0624342877472,6512.8920405065892,-6512.8920405065892,-2151.0624342877472,11289.462465540293,0.0
618523.2936376977,3557751.2368613081,-7500.0,4687.8918547841522,6107.7224329258752,8527.1508249866092,1085.004648210697,1466.2188193544623,178.89917106961624,6669.7994373098954,1318.9954435616391,8435.20948232718,-8435.20948232718,-1318.9954435616391,13201.364821911457,0.0
623523.2936376977,3557751.2368613081,-7500.0,4214.7566306703902,6438.3554512298178,11191.135740633654,1109.5024681286445,1849.2320696458262,214.83139744362842,7713.0033010257976,165.88934334270925,10418.659652311226,-10418.659652311226,-165.88934334270925,15194.850768189428,0.0
628523.2936376977,3557751.2368613081,-7500.0,3502.1227731227509,6331.5428408184725,14032.710835440104,1065.5755277520625,2248.4125978289603,250.43312890885676,8737.7068182337607,-1266.7234162316445,12274.446353634306,-12274.446353634306,1266.7234162316445,17162.363185524533,0.0
633523.2936376977,3557751.2368613081,-7500.0,2623.7670918729882,5659.6099957656197,16813.537947429279,937.46931794399018,2630.1787650132196,282.44014214052589,9668.1133141562605,-2866.2597402992533,13755.247803583552,-13755.247803583552,2866.2597402992533,18961.485300997101,0.0
638523.2936376977,3557751.2368613081,-7500.0,1714.6388128251192,4353.3143165581723,19207.965919505114,718.41369449062461,2950.7382905090717,307.01496558905217,10415.135623265527,-4442.2086479128657,14585.398885878574,-14585.398885878574,4442.2086479128657,20424.125030518499,0.0
643523.2936376977,3557751.2368613081,-7500.0,956.36678237005992,2448.3983364382393,20841.814623660903,416.29455851414622,3161.7098427238452,320.36124595338782,10887.362287671373,-5743.1157836925586,14518.502430581655,-14518.502430581655,5743.1157836925586,21376.994361250479,0.0
648523.2936376977,3557751.2368613081,-7500.0,536.05962512959138,118.55579305232918,21369.029748559562,57.098334997359871,3220.0476101701101,319.56807527059823,11007.755366648442,-6506.0233419153046,13415.015321271192,-13415.015321271192,6506.0233419153046,21673.203308882119,0.0
653523.2936376977,3557751.2368613081,-7500.0,584.05681530125503,-2329.8898181342774,20573.413105000793,-316.67630422916716,3100.2917509059271,303.43831192993679,10732.979631070175,-6533.1960264430518,11314.477747288747,-11314.477747288747,6533.1960264430518,21229.317771126778,1.0
658523.2936376977,3557751.2368613081,-7500.0,1114.3503287969029,-4518.0339064499431,18458.817141660777,-654.10593342471986,2804.7171077256039,272.97566381709856,10069.837560809729,-5769.7079427396593,8464.0921011949558,-8464.0921011949558,5769.7079427396593,20056.231059756883,0.0
663523.2936376977,3557751.2368613081,-7500.0,2001.7475864742453,-6098.4246507688822,15279.715925257273,-908.70710423781316,2366.2036142733477,231.29713413614127,9195.7261067240306,-4341.4315938391255,5274.0700440393912,-5274.0700440393912,4341.4315938391255,18270.010321869908,0.0
668523.2936376977,3557751.2368613081,-7500.0,3016.9614832058269,-6860.3003451438854,11483.99159116722,-1051.0805318220596,1841.194442816907,182.97837465840115,8207.4401049217595,-2524.7301683039759,2206.1857213797512,-2206.1857213797512,2524.7301683039759,16074.605552635843,0.0
673523.2936376977,3557751.2368613081,-7500.0,3906.8719430356587,-6784.2727803219359,7586.661849718188,-1075.6901330468288,1295.0433611051701,133.06555742224975,7141.2064181743845,-656.83102771940185,-356.31740029404199,356.31740029404199,656.83102771940185,13720.462609651877,0.0
678523.2936376977,3557751.2368613081,-7500.0,4478.3093334675596,-6022.4031985869551,4033.1156521063735,-999.14096951567376,786.01380024354421,86.084287229433329,6108.4872651789392,968.18972319813827,-2197.1347054891721,2197.1347054891721,-968.18972319813827,11453.853910605341,1.0
683523.2936376977,3557751.2368613081,-7500.0,4645.0899294814699,-4823.2229491191965,1110.4427630217326,-851.85708346720241,354.23245031426603,45.327224637662226,5195.8544513504967,2168.9787615417745,-3282.2091207404619,3282.2091207404619,-2168.9787615417745,9472.9547412846568,0.0
688523.2936376977,3557751.2368613081,-7500.0,4425.9451752318928,-3445.6677316638697,-1070.5248500695709,-667.79870327902927,18.397887282145007,12.565355095338015,4451.4471733012233,2891.3041757575729,-3714.3133174102541,3714.3133174102541,-2891.3041757575729,7898.5981924856023,1.0
693523.2936376977,3557751.2368613081,-7500.0,3909.2034381505205,-2098.0504431084287,-2538.9221492580373,-476.40295184714262,-221.02359667853486,-11.837218219986898,3882.6605750849271,3179.385184989128,-3663.8538479695508,3663.8538479695508,-3179.385184989128,6760.3551258958423,0.0
698523.2936376977,3557751.2368613081,-7500.0,3209.5716506207336,-913.75802281086169,-3406.2296996958889,-298.55087388187064,-375.45901354277925,-28.549447357891864,3464.7497706722311,3130.7583217781116,-3308.872767371869,3308.872767371869,-3130.7583217781116,6002.2210287294411,0.0
703523.2936376977,3557751.2368613081,-7500.0,2434.9412830619031,44.354318964099285,-3813.9921746363607,-146.1209359233155,-461.8376316261087,-38.822981123538639,3157.075321674427,2856.3889179247058,-2799.0107663976846,2799.0107663976846,-2856.3889179247058,5515.4445524463945,0.0
708523.2936376977,3557751.2368613081,-7500.0,1668.9158091267147,765.51624510754834,-3898.8014721615382,-23.657433236831736,-497.84264428433482,-44.103796787037496,2919.3856464470855,2455.3968639278978,-2242.3708855353129,2242.3708855353129,-2455.3968639278978,5186.4794720490281,0.0
713523.2936376977,3557751.2368613081,-7500.0,966.43598018573766,1270.36193042436,-3774.7917373087757,69.263961912896235,-499.16663024065161,-45.76854067014726,2721.2367499544762,2004.0370314720076,-1707.2272815655588,1707.2272815655588,-2004.0370314720076,4930.3203645844033,0.0
718523.2936376977,3557751.2368613081,-7500.0,357.12126916173287,1594.179909626069,-3528.651578301271,135.86445632810219,-478.38726324072132,-44.985844381892676,2543.7314178283436,1554.3841728314724,-1230.4336459557849,1230.4336459557849,-1554.3841728314724,4697.296368593592,0.0
723523.2936376977,3557751.2368613081,-7500.0,-148.36272309514806,1775.7624003842659,-3221.5924957376228,180.54878384001273,-444.8678780395349,-42.671196174090284,2377.0506587288892,1137.9517146918677,-827.09560681949688,827.09560681949688,-1137.9517146918677,4464.5535573220377,0.0
728523.2936376977,3557751.2368613081,-7500.0,-551.80556349196684,1851.1611351064707,-2894.1659958552204,207.87962135275362,-405.17165836542426,-39.498334022575357,2217.115461668594,770.88788835184369,-498.85411969880352,498.85411969880352,-770.88788835184369,4225.1208207015097,0.0
733523.2936376977,3557751.2368613081,-7500.0,-862.13796466712245,1850.9076843359851,-2571.5338278875338,222.02076287082951,-363.64996871346591,-35.936967849524713,2062.9243899618104,458.92402417869187,-239.97760432108396,239.97760432108396,-458.92402417869187,3979.8402222904856,0.0
738523.2936376977,3557751.2368613081,-7500.0,-1091.6232147374169,1799.3334359281014,-2268.077100835781,226.49828956915732,-323.01944830978817,-32.297757096962222,1914.8471546146625,201.34195930132398,-41.395284570361227,41.395284570361227,-201.34195930132398,3732.5853347303359,0.0
578523.2936376977,3562751.2368613081,-7500.0,2428.4684734056923,321.39102928234854,-1181.7446816858899,254.09123083962646,-70.044946933833089,13.240107891890153,1849.3550458137797,2173.0088589622274,-1019.3059265595914,1019.3059265595914,-2173.0088589622274,3265.8475761587092,0.0
583523.2936376977,3562751.2368613081,-7500.0,3000.9386608120562,778.25249752407956,-980.47980605736927,345.28733726025609,-17.965279453846929,22.008667391803659,2158.2419252960294,2569.0630051603484,-706.0530743629057,706.0530743629057,-2569.0630051603484,3878.2752823948517,0.0
588523.2936376977,3562751.2368613081,-7500.0,3619.2124940705789,1364.7481560905198,-620.93981980900423,455.51340092672876,61.243756512649171,33.926587198764452,2549.3076144050424,2962.1157936795353,-217.26989713371108,217.26989713371108,-2962.1157936795353,4674.6497945871752,0.0
593523.2936376977,3562751.2368613081,-7500.0,4258.9950945467017,2093.80911978422,-42.916201091320815,585.35491376835239,176.31812416155049,49.790368055737787,3039.7064344550367,3317.2014528501759,498.13565396635386,-498.13565396635386,-3317.2014528501759,5691.1787113676146,0.0
598523.2936376977,3562751.2368613081,-7500.0,4882.2128988331624,2967.8709130964712,826.27486306183096,733.4372504749,337.35922455550849,70.445175956391836,3646.0595577873059,3584.3520346771702,1494.9146818132783,-1494.9146818132783,-3584.3520346771702,6961.8609475603153,0.0
603523.2936376977,3562751.2368613081,-7500.0,5435.2054270556919,3971.0606626583308,2068.5830365750221,895.31648047609337,555.17877415378553,96.684911783667374,4382.4385475302297,3697.4015239281161,2824.6968962081519,-2824.6968962081519,-3697.4015239281161,8514.6097084538869,0.0
608523.2936376977,3562751.2368613081,-7500.0,5849.303653846664,5059.4381323366379,3767.1640358238365,1062.1873666256145,839.95181886631565,129.08424321373153,5257.5056023566722,3575.7853381102213,4524.4258399552909,-4524.4258399552909,-3575.7853381102213,10365.372441952753,0.0
613523.2936376977,3562751.2368613081,-7500.0,6045.70333864841,6150.5220975488319,5991.295577014871,1219.6283209975056,1198.9242637334553,167.74858943807763,6270.9783500399999,3131.5218211583096,6599.0810883737986,-6599.0810883737986,-3131.5218211583096,12509.796560670207,0.0
618523.2936376977,3562751.2368613081,-7500.0,5946.7969398377027,7114.9078731885338,8772.4372245704799,1346.8211182639559,1633.005582919953,211.98679358452318,7505.4606393337244,2283.8249883063381,8998.9546451374899,-8998.9546451374899,-2283.8249883063381,14912.560015438314,1.0
623523.2936376977,3562751.2368613081,-7500.0,5495.6270894910313,7774.9042375615618,12071.218650858356,1416.9571461539115,2132.3451800388739,259.9493833859915,8860.4347686551409,983.19105439920622,11594.24977672696,-11594.24977672696,-983.19105439920622,17495.422310959133,0.0
628523.2936376977,3562751.2368613081,-7500.0,4683.1198584163467,7917.3073869385671,15738.871624133862,1399.7764797932707,2671.5466497910497,308.33730748323859,10233.949790361909,-755.53110236912471,14153.93636075955,-14153.93636075955,755.53110236912471,20126.493863790976,0.0
633523.2936376977,3562751.2368613081,-7500.0,3578.3519502908316,7328.3182885544447,19483.201288424534,1267.1557646052165,3206.0658250778588,352.36129560480146,11524.097885798807,-2816.6727291217803,16341.368670632153,-16341.368670632153,2816.6727291217803,22615.183300969744,0.0
638523.2936376977,3562751.2368613081,-7500.0,2349.9725580229097,5855.3557994184212,22858.181061498148,1001.9699068532624,3672.3811913442973,386.17258359255078,12602.014084609735,-4957.7783378510285,17744.072025820533,-17744.072025820533,4957.7783378510285,24719.298174422536,0.0
643523.2936376977,3562751.2368613081,-7500.0,1259.2913750630232,3489.0803381783103,25303.605380847563,608.70879695543192,3995.0258916239641,403.89740212917883,13326.173032451257,-6817.1540686808421,17953.691191249141,-17953.691191249141,6817.1540686808421,26171.385438739613,0.0
648523.2936376977,3562751.2368613081,-7500.0,605.09700986714597,437.71206660262919,26256.724848738748,121.72958712936175,4102.2658267001525,401.13197773833326,13568.629195442451,-7979.3569694069611,16695.391450581599,-16695.391450581599,7979.3569694069611,26727.974711718176,0.0
653523.2936376977,3562751.2368613081,-7500.0,618.67588268810414,-2856.0054023215439,25328.011003246949,-394.84554576068825,3948.0616656277321,376.36925896179702,13249.59912549712,-8103.0668401840157,13969.450274834719,-13969.450274834719,8103.0668401840157,26235.410660091748,0.0
658523.2936376977,3562751.2368613081,-7500.0,1347.1771055684046,-5801.4379635494652,22479.102984190158,-859.91735985176456,3532.1353153730947,331.67510743893956,12374.365015490683,-7070.0675265643222,10128.437486075505,-10128.437486075505,7070.0675265643222,24691.403548446015,1.0
663523.2936376977,3562751.2368613081,-7500.0,2597.7054920898299,-7844.6277094884736,18099.816932104579,-1198.6727218886131,2906.9609651427349,272.25923366204961,11257.478165332499,-5070.8473159724663,5815.1929840728817,-5815.1929840728817,5070.8473159724663,22272.15196580693,0.0
668523.2936376977,3562751.2368613081,-7500.0,3996.8801158426318,-8666.7790570298657,12910.968845669797,-1366.2357616552692,2165.1502949661221,205.19100786615218,9924.858694562181,-2555.4439462174087,1760.5263118220107,-1760.5263118220107,2555.4439462174087,19303.884139156249,0.0
673523.2936376977,3562751.2368613081,-7500.0,5143.4240629596607,-8282.0434723243397,7726.3080713043992,-1359.5361617355222,1411.7889460786118,137.83252109358293,8513.8190574362834,-62.861151913151161,-1458.8699082070225,1458.8699082070225,62.861151913151161,16185.094713123406,1.0
678523.2936376977,3562751.2368613081,-7500.0,5761.2399812611857,-6983.652386356207,3202.9122495647598,-1212.1289831110428,735.28861218228622,76.455145699026801,7192.7021872206878,1970.9305284294828,-3570.3337876118844,3570.3337876118844,-1970.9305284294828,13291.433207932954,1.0
683523.2936376977,3562751.2368613081,-7500.0,5768.5983795570082,-5190.6628255013447,-297.02664705719957,-977.04809103367711,189.65616314650288,25.310119329766273,6077.9386354126282,3322.7699467554185,-4604.5054104609944,4604.5054104609944,-3322.7699467554185,10896.846011512665,1.0
688523.2936376977,3562751.2368613081,-7500.0,5250.2733884958843,-3294.3920389786786,-2702.4620086826835,-708.01663711474589,-207.63276999121246,-13.692986359833824,5215.4780446794166,3979.918219525071,-4787.3975614003011,4787.3975614003011,-3979.918219525071,9126.0431771140775,0.0
693523.2936376977,3562751.2368613081,-7500.0,4378.8820396254378,-1570.4320575164952,-4141.0810966147001,-446.89802197687629,-466.63659863940603,-40.706581502621241,4586.5181278539367,4066.9854857596802,-4410.4289698608609,4410.4289698608609,-4066.9854857596802,7944.7452134775331,0.0
698523.2936376977,3562751.2368613081,-7500.0,3338.8766459707354,-162.54866103518501,-4830.5134147422132,-219.40038019120786,-612.34850276105021,-57.279578684547147,4133.5015554953025,3761.1976108290141,-3737.6956125987795,3737.6956125987795,-3761.1976108290141,7202.5602398460614,0.0
703523.2936376977,3562751.2368613081,-7500.0,2280.3128803348895,889.98580046587529,-4997.3531588889655,-36.760654249065325,-674.04053945888847,-65.615606925014873,3792.0787156311294,3231.8489405857786,-2964.5276847379405,2964.5276847379405,-3231.8489405857786,6718.4960759330479,0.0
708523.2936376977,3562751.2368613081,-7500.0,1303.1555888849916,1612.4667764389885,-4834.126138159907,99.978910720263784,-678.64250296848411,-67.98614394680007,3512.1439475166062,2611.1823371071068,-2213.6509842467985,2213.6509842467985,-2611.1823371071068,6351.6120119357101,0.0
713523.2936376977,3562751.2368613081,-7500.0,460.99392227452068,2060.4593622231523,-4485.4813063064548,195.58629535961265,-647.81138538047446,-66.381330125092092,3263.0933184211463,1988.4243585938382,-1549.5506841516765,1549.5506841516765,-1988.4243585938382,6020.5740873815184,0.0
718523.2936376977,3562751.2368613081,-7500.0,-227.22338470122344,2296.9805505965219,-4050.7846886446728,257.29548811078615,-597.43093107953473,-62.369006589133441,3029.7955257328185,1415.8319448646801,-997.10243153525585,997.10243153525585,-1415.8319448646801,5689.8911973978693,0.0
723523.2936376977,3562751.2368613081,-7500.0,-764.67005808198951,2380.1550672451513,-3593.2556458744502,292.70295600923328,-538.33350606220517,-57.089905974635784,2806.5502338318452,918.58938301417504,-557.62688123837177,557.62688123837177,-918.58938301417504,5350.2210706285732,0.0
728523.2936376977,3562751.2368613081,-7500.0,-1166.5446671186698,2358.115632244027,-3150.0301499190787,308.66718242452248,-477.43007174379449,-51.319726335362766,2592.3765578244938,504.22398234106026,-220.36776693117949,220.36776693117949,-504.22398234106026,5004.1729109774196,0.0
733523.2936376977,3562751.2368613081,-7500.0,-1453.1020359786885,2268.0809427941967,-2740.7246811816635,310.87325134389954,-418.81727728898022,-45.552435326281646,2388.1555014067103,169.92892060609586,30.260148020665568,-30.260148020665568,-169.92892060609586,4658.3564112734011,0.0
738523.2936376977,3562751.2368613081,-7500.0,-1645.3877247517391,2137.4415829944855,-2373.8639224588887,303.77618428838531,-364.6878963570158,-40.079183964160855,2195.1580105507378,-92.378148824518377,210.56279177940107,-210.56279177940107,92.378148824518377,4319.5975971730804,0.0
743523.2936376977,3562751.2368613081,-7500.0,-1762.9338866827877,1985.5632807166667,-2051.3479145139977,290.72710002973639,-316.0108014996548,-35.052902174091813,2014.4079198487946,-292.85773160672414,335.51330787296439,-335.51330787296439,292.85773160672414,3993.4496751168808,0.0
573523.2936376977,3567751.2368613081,-7500.0,1691.630926402861,-436.31994340185452,-1630.6395626367478,139.71239343733976,-163.84351373245423,2.0057665082876412,1730.9085549321437,1713.8105667202271,-1656.7158810717183,1656.7158810717183,-1713.8105667202271,2998.1895546617484,0.0
578523.2936376977,3567751.2368613081,-7500.0,2274.8322824716529,-123.10485637156233,-1631.3448661509835,218.26233330047981,-142.00812369429309,8.1569145253361306,1973.3528629860525,2167.4100938411825,-1567.3944185878963,1567.3944185878963,-2167.4100938411825,3433.7851259862109,0.0
583523.2936376977,3567751.2368613081,-7500.0,2950.5195997928736,318.84900972897123,-1532.6089217538956,318.91805546671662,-99.728165995880673,17.119252310090452,2285.105341805016,2670.261553332145,-1349.3317002328577,1349.3317002328577,-2670.261553332145,4023.9813057474707,0.0
588523.2936376977,3567751.2368613081,-7500.0,3711.710703321939,918.61602966351938,-1281.1108681574503,445.18224772658237,-28.217228922184912,29.82044905442104,2688.0578809590611,3203.8293555281653,-948.54491385915821,948.54491385915821,-3203.8293555281653,4819.7591818196252,0.0
593523.2936376977,3567751.2368613081,-7500.0,4538.6001487416879,1703.5571887776468,-805.03333275722719,599.70410297017281,83.829884798045029,47.369583870649876,3207.1440549549043,3734.3528892360828,-298.01964343725194,298.01964343725194,-3734.3528892360828,5876.4291385392708,0.0
598523.2936376977,3567751.2368613081,-7500.0,5393.5491334950902,2693.0394211087018,-11.791340133125139,783.20171118716314,250.31887023157014,71.011725946094103,3868.7689617154383,4207.8018308919036,680.58631233978031,-680.58631233978031,-4207.8018308919036,7250.0041766687982,0.0
603523.2936376977,3567751.2368613081,-7500.0,6216.3157553465398,3888.5870185631434,1211.3715989393165,992.90562146773254,487.32422477354964,102.01172281085263,4698.3630038744732,4545.4780843909839,2071.0538118394898,-2071.0538118394898,-4545.4780843909839,8992.541131142747,0.0
608523.2936376977,3567751.2368613081,-7500.0,6921.232003652377,5260.0155556835598,2991.1544114733711,1220.5223362305558,811.75557499906608,141.43083564558569,5716.7740350034692,4642.2957866840725,3950.1633003892907,-3950.1633003892907,-4642.2957866840725,11145.188455422349,0.0
613523.2936376977,3567751.2368613081,-7500.0,7399.0855581658589,6728.1652287324287,5452.5844066549844,1449.8969705747354,1238.6306242210126,189.76109674532765,6935.0842739045365,4370.9583075252922,6366.2149119454116,-6366.2149119454116,-4370.9583075252922,13727.494699984083,0.0
618523.2936376977,3567751.2368613081,-7500.0,7527.5007759673581,8146.9449999820299,8689.7677268531061,1654.8845287688362,1776.4550034622291,246.40175187978059,8374.5873070108646,3596.4029946655901,9306.871156339379,-9306.871156339379,-3596.4029946655901,16722.119849838527,0.0
623523.2936376977,3567751.2368613081,-7500.0,7194.0324518112793,9290.7877589876061,12719.690785733968,1798.4420675572251,2420.4451446455341,309.0204085361749,10129.637706773326,2205.3109200185763,12657.40742458334,-12657.40742458334,-2205.3109200185763,20055.312819520619,0.0
628523.2936376977,3567751.2368613081,-7500.0,6334.9121454951073,9858.2534060602811,17419.628742530625,1834.5805678237764,3144.0421298047495,372.95971477022158,11973.614969890206,153.93838095335832,16156.168189928092,-16156.168189928092,-153.93838095335832,23575.621155299017,0.0
633523.2936376977,3567751.2368613081,-7500.0,4987.3709887577725,9507.3034614985845,22457.857235698975,1715.2757764224484,3890.6453896819794,431.0289880102946,13774.006346899378,-2468.3332101885717,19363.891964225277,-19363.891964225277,2468.3332101885717,27036.715542612259,0.0
638523.2936376977,3567751.2368613081,-7500.0,3341.9693008810277,7938.7912846595136,27243.949556389704,1403.9762619233711,4569.7895091527771,474.17436782224638,15346.927720957116,-5375.6807253678844,21676.931232796815,-21676.931232796815,5375.6807253678844,30095.02423108845,0.0
643523.2936376977,3567751.2368613081,-7500.0,1762.6604080728059,5032.797142897195,30947.232364050466,894.73961613518395,5064.2152618342088,493.40674860784105,16472.766282184519,-8060.6591195963892,22424.261464428651,-22424.261464428651,8060.6591195963892,32337.602210152134,0.0
648523.2936376977,3567751.2368613081,-7500.0,726.51972650274604,1005.0258800767157,32643.763059253721,230.5629335293558,5253.6984706519879,482.69490580082925,16935.44533306158,-9864.6480191690243,21074.047158865455,-21074.047158865455,9864.6480191690243,33354.847329249627,0.0
653523.2936376977,3567751.2368613081,-7500.0,652.32406779377277,-3509.2134823450369,31615.531965323549,-491.44100858187943,5054.3908950609321,441.45772205600821,16584.334162081333,-10184.417380293315,17509.758073430574,-17509.758073430574,10184.417380293315,32857.307999470635,0.0
658523.2936376977,3567751.2368613081,-7500.0,1667.8845817959677,-7564.9213353376972,27710.119814346675,-1139.7235817387775,4458.9944718218994,374.93880977719726,15432.064437270126,-8764.211196577091,12228.52804090957,-12228.52804090957,8764.211196577091,30802.107584900812,0.0
663523.2936376977,3567751.2368613081,-7500.0,3470.6054318382303,-10243.092182881101,21536.940930922443,-1591.2886787961945,3553.3173265426713,292.16731069576377,13943.903311504004,-5896.1355333559686,6270.6063361657389,-6270.6063361657389,5896.1355333559686,27461.887774935669,1.0
668523.2936376977,3567751.2368613081,-7500.0,5428.8962137690523,-11046.032251120849,14300.907487694929,-1777.1686792597827,2492.9429356949654,203.18989705572696,12118.030846016829,-2342.4134099783696,836.37461185792529,-836.37461185792529,2342.4134099783696,23378.342121999118,1.0
673523.2936376977,3567751.2368613081,-7500.0,6888.1667879773831,-10081.298824608466,7328.77801981223,-1703.3404760486042,1449.4265680987271,117.24593590505616,10233.856535355908,1007.5860058565784,-3188.9565414333829,3188.9565414333829,-1007.5860058565784,19207.478430394189,1.0
678523.2936376977,3567751.2368613081,-7500.0,7461.4784269275606,-7918.9801025178558,1594.1506372166914,-1436.5735835267585,556.39064179855359,41.810734002198274,8547.6370219074215,3506.9828780408334,-5493.992887869048,5493.992887869048,-3506.9828780408334,15530.423749336576,0.0
683523.2936376977,3567751.2368613081,-7500.0,7120.0810659138097,-5268.8619365901013,-2488.1515613254924,-1068.860224995103,-117.82560964143283,-18.206772951563359,7205.9635451287213,4916.7745144164273,-6275.4941920115416,6275.4941920115416,-4916.7745144164273,12705.853409305621,1.0
688523.2936376977,3567751.2368613081,-7500.0,6090.7602093292853,-2708.636780237965,-4978.2784702798008,-683.51867586366461,-566.22927923747795,-60.984107946327178,6227.5429926760771,5340.0584469221039,-5989.0978211527445,5989.0978211527445,-5340.0584469221039,10800.33607779683,0.0
693523.2936376977,3567751.2368613081,-7500.0,4688.9469796940812,-574.54646716247191,-6196.4126581898618,-337.11839001748007,-821.28046128913024,-87.521667803140033,5538.1847368968683,5052.0895465751346,-5112.4424513138802,5112.4424513138802,-5052.0895465751346,9626.3643346410208,0.0
698523.2936376977,3567751.2368613081,-7500.0,3194.2732615810141,1015.3591658402062,-6528.7528356006615,-57.48524001515257,-931.19138397107156,-100.65917134819742,5033.5440324473639,4350.9832448556654,-4015.9193553559371,4015.9193553559371,-4350.9832448556654,8891.6382481742639,0.0
703523.2936376977,3567751.2368613081,-7500.0,1797.9555153059305,2084.0342618257605,-6314.914911580252,149.3107938784965,-943.40729397770667,-103.91758725172745,4627.934069793675,3477.0789880759121,-2932.780051015252,2932.780051015252,-3477.0789880759121,8353.003491686939,0.0
708523.2936376977,3567751.2368613081,-7500.0,602.16561990618231,2721.2141581786391,-5807.9540559160105,289.9473945148801,-896.61259467016021,-100.63001326589696,4269.7255926444886,2591.0241139545587,-1982.2854929374705,1982.2854929374705,-2591.0241139545587,7871.3100712414653,0.0
713523.2936376977,3567751.2368613081,-7500.0,-357.73333436127103,3033.514039058874,-5176.2932372469431,376.57976294476265,-818.81348180330974,-93.498541754144384,3934.8724748873647,1783.4796664881985,-1207.4297420539244,1207.4297420539244,-1783.4796664881985,7389.5193702266461,0.0
718523.2936376977,3567751.2368613081,-7500.0,-1087.6874074259974,3118.4063079167881,-4521.9695883443474,422.27090250909868,-728.54089388113039,-84.487774769490017,3615.4238471007034,1095.0127105841993,-607.9429886106916,607.9429886106916,-1095.0127105841993,6895.4043807978387,0.0
723523.2936376977,3567751.2368613081,-7500.0,-1614.6883115398471,3054.39209627011,-3900.9502535050055,438.68547063779158,-637.09813073466478,-74.905185931865276,3310.8084491248251,535.02772474614426,-163.11036777733827,163.11036777733827,-535.02772474614426,6395.4064330907004,0.0
728523.2936376977,3567751.2368613081,-7500.0,-1973.4220023886569,2899.9512818856856,-3339.825003245126,435.2534199640595,-550.77319097595569,-65.549521129629852,3022.8955201567219,95.936562575211099,154.6407779352254,-154.6407779352254,-95.936562575211099,5900.9744537266797,0.0
733523.2936376977,3567751.2368613081,-7500.0,-2198.642768432599,2696.2856428670434,-2847.7286277446456,419.12664529895784,-472.60912258440686,-56.86046135642367,2753.6924565238069,-237.58489737449776,372.64908537203468,-372.64908537203468,237.58489737449776,5422.7016236699574,0.0
738523.2936376977,3567751.2368613081,-7500.0,-2321.4579113483387,2471.1197192541686,-2424.1664840743524,395.48432146489193,-403.67483740381169,-49.041438079881544,2504.501831631741,-483.1438244854329,514.8950581606116,-514.8950581606116,483.1438244854329,4968.4206747008457,0.0
743523.2936376977,3567751.2368613081,-7500.0,-2367.9675131121758,2242.2949060952683,-2063.8437463875052,367.93861012709675,-343.9149548714505,-42.150188863919617,2275.7686243958306,-657.73773217718269,601.05152043342707,-601.05152043342707,657.73773217718269,4543.0396712573502,0.0
568523.2936376977,3572751.2368613081,-7500.0,791.82842027672598,-1074.5290088187924,-1828.9721757949133,20.051908083118782,-228.92004925715159,-8.1042476432501545,1708.3423820595135,1067.8737457944205,-2024.8939993777255,2024.8939993777255,-1067.8737457944205,3005.7081030867726,0.0
573523.2936376977,3572751.2368613081,-7500.0,1307.4794357939372,-927.82269079538548,-1978.0119205145654,77.822504699654203,-233.99719649610549,-4.8045559027033669,1902.0453832158619,1502.9817527350583,-2125.4195519066125,2125.4195519066125,-1502.9817527350583,3312.1055150434868,0.0
578523.2936376977,3572751.2368613081,-7500.0,1943.0790791607515,-677.01696661817766,-2086.589196913344,157.04129860090774,-226.89920420101893,0.68012218009143488,2143.3733733167746,2023.2402548273344,-2155.9825677590693,2155.9825677590693,-2023.2402548273344,3713.1399436487359,0.0
583523.2936376977,3572751.2368613081,-7500.0,2710.1283975990914,-286.51814631419404,-2117.2183378423733,263.18148973476855,-200.33965904606376,9.2601685320421527,2452.3177978260724,2629.1723107063603,-2071.9165100326904,2071.9165100326904,-2629.1723107063603,4258.4524932885943,0.0
588523.2936376977,3572751.2368613081,-7500.0,3612.6730885146862,285.45686548140594,-2013.8510618355308,402.13486291905923,-144.0740174877958,22.120116347336708,2855.6720673878926,3310.8133762819652,-1811.3390388294299,1811.3390388294299,-3310.8133762819652,5013.9184104873584,0.0
593523.2936376977,3572751.2368613081,-7500.0,4641.5028709647386,1084.2346884843757,-1695.8215908886893,579.53550521351133,-44.169116249244482,40.73921710070514,3387.0265557230273,4041.3215401717262,-1291.9316769742679,1291.9316769742679,-4041.3215401717262,6059.068162986935,0.0
598523.2936376977,3572751.2368613081,-7500.0,5766.5603292072492,2152.6608135754491,-1051.8129256471398,799.52493671122875,117.57360247771969,66.860367141851697,4085.4359077998229,4768.901677107393,-409.59399392147634,409.59399392147634,-4768.901677107393,7481.6541274118463,0.0
603523.2936376977,3572751.2368613081,-7500.0,6928.1569273188325,3520.0210738030596,64.206021231657516,1062.7507711975898,363.70193565035157,102.36113193228046,4992.5908173981861,5407.8797445707378,958.58764041742961,-958.58764041742961,-5407.8797445707378,9370.7087792794828,0.0
608523.2936376977,3572751.2368613081,-7500.0,8028.7125954186904,5184.2705846131512,1831.522000427957,1363.4386479386239,720.14431959430954,148.96067116777752,6148.3323045266379,5831.068865813967,2943.4158884842464,-2943.4158884842464,-5831.068865813967,11807.880418992012,0.0
613523.2936376977,3572751.2368613081,-7500.0,8928.4376305721817,7086.7907851634118,4450.1103723868036,1685.5633995816561,1213.3725188288204,207.68527202400776,7584.043277755256,5867.5290731951191,5660.0108612028562,-5660.0108612028562,-5867.5290731951191,14854.647594600319,0.0
618523.2936376977,3572751.2368613081,-7500.0,9450.4949954038057,9081.1978396084742,8109.3835012755699,1998.5640554221529,1864.6694815027922,278.02854776575384,9313.2910199945018,5312.2481416478531,9166.7381377971906,-9166.7381377971906,-5312.2481416478531,18532.394202402582,0.0
623523.2936376977,3572751.2368613081,-7500.0,9403.264515247165,10902.208960337923,12929.779419313381,2253.8275382731513,2680.5061756785049,356.82124799023393,11474.985160090648,3956.6210249796486,13403.732723251222,-13403.732723251222,-3956.6210249796486,22793.549451589919,0.0
628523.2936376977,3572751.2368613081,-7500.0,8628.2701113316998,12148.002151445102,18870.937862945259,2384.4024447393726,3638.7036781018733,437.03914021282196,13944.336511911759,1649.5645620332762,18114.172342241585,-18114.172342241585,-1649.5645620332762,27484.66940036097,0.0
633523.2936376977,3572751.2368613081,-7500.0,7079.4665855332414,12300.321195273238,25609.416876332154,2311.9360241289801,4672.0974159783336,507.19667383586096,16465.315016218785,-1604.4150430737009,22764.889895715343,-22764.889895715343,1604.4150430737009,32307.150233129218,0.0
638523.2936376977,3572751.2368613081,-7500.0,4926.6758683377566,10818.698069911721,32412.362737896277,1965.6023710557329,5655.6934594348586,552.51359923271309,18783.519345257711,-5519.0748568987074,26508.236136616284,-26508.236136616284,5519.0748568987074,36790.042131553208,0.0
643523.2936376977,3572751.2368613081,-7500.0,2642.3307325577434,7345.7200117353368,38080.519045116678,1314.9482891731836,6409.4740926462682,559.08291611843447,20561.11097882484,-9420.4164334676516,28263.80518958532,-28263.80518958532,9420.4164334676516,40303.123820328503,0.0
648523.2936376977,3572751.2368613081,-7500.0,975.80294851556141,2013.1261093872936,41095.261636688272,408.31914394659975,6732.2441597785682,520.54053638794858,21428.528940020562,-12274.213117232068,27016.999949474259,-27016.999949474259,12274.213117232068,42150.571157209386,0.0
653523.2936376977,3572751.2368613081,-7500.0,697.69922118586089,-4296.7263602495032,40102.257463402675,-607.46730277081826,6471.4860206306603,443.02524307296721,21092.422047495606,-12991.480775259464,22344.80350597958,-22344.80350597958,12991.480775259464,41772.627406769134,0.0
658523.2936376977,3572751.2368613081,-7500.0,2132.4028686831712,-10033.186824467575,34650.951789544604,-1516.0199218595137,5604.1392248392167,342.64835887425596,19561.271704425373,-11007.170163712119,14916.468909353942,-14916.468909353942,11007.170163712119,39012.409010928459,0.0
663523.2936376977,3572751.2368613081,-7500.0,4799.340102645634,-13597.202995659802,25710.117894155715,-2112.2883670583078,4274.4247778289027,236.03314886795209,17498.116457336728,-6771.1347614950128,6477.8252849470546,-6477.8252849470546,6771.1347614950128,34298.045014279247,0.0
668523.2936376977,3572751.2368613081,-7500.0,7580.6647101229928,-14181.206211360432,15388.784296553311,-2291.4471203305052,2748.7807429369036,133.30971904818506,14953.77337543829,-1637.3519158248641,-908.35732431717179,908.35732431717179,1637.3519158248641,28571.298036200842,1.0
673523.2936376977,3572751.2368613081,-7500.0,9375.5379595302729,-12137.266578839555,5929.6174284842091,-2084.8064515883066,1308.9515984725072,39.702884198073789,12421.813485033201,2873.3613164118906,-5858.7283730408381,5858.7283730408381,-2873.3613164118906,22956.059674956661,1.0
678523.2936376977,3572751.2368613081,-7500.0,9674.6711026261019,-8591.2926733522745,-1238.5839586028242,-1623.0248509155185,152.4869522969239,-39.934928399127863,10290.165815649256,5818.4822960094461,-8116.9229920889338,8116.9229920889338,-5818.4822960094461,18353.693038270503,0.0
683523.2936376977,3572751.2368613081,-7500.0,8632.9061409000715,-4741.4363385134984,-5761.5624198141422,-1062.9535640905285,-645.40396263466721,-100.69833036571784,8712.2946362488237,7045.9522577020289,-8270.0856676231997,8270.0856676231997,-7045.9522577020289,15160.602974231457,0.0
688523.2936376977,3572751.2368613081,-7500.0,6764.0646623345401,-1395.9950960781096,-8030.3403224930244,-528.70312982351925,-1108.9387345883633,-140.18974480414008,7622.0072776781035,6931.9682931311736,-7183.9154000183908,7183.9154000183908,-6931.9682931311736,13220.17531013048,0.0
693523.2936376977,3572751.2368613081,-7500.0,4606.7687729730787,1104.5815066819857,-8713.1720891698969,-89.718401724842863,-1313.3902409732236,-159.80663541554941,6850.9468835948246,6012.8220537877132,-5597.4595394335065,5597.4595394335065,-6012.8220537877132,12062.752339534569,0.0
698523.2936376977,3572751.2368613081,-7500.0,2548.1719899819773,2749.088890569612,-8440.4485643304306,232.1245269824079,-1343.5773255178524,-163.70379861825288,6246.2136457816014,4749.176652401733,-3984.1399479230336,3984.1399479230336,-4749.176652401733,11249.621887418083,0.0
703523.2936376977,3572751.2368613081,-7500.0,795.50557294746966,3685.592852406824,-7680.8349772746196,444.46980407735464,-1271.1275462232882,-156.91388978653615,5716.319331003675,3447.8576989646995,-2579.743783359329,2579.743783359329,-3447.8576989646995,10529.632481772102,0.0
708523.2936376977,3572751.2368613081,-7500.0,-581.30591999753949,4103.3553727154795,-6735.0351336426465,568.02550834946862,-1147.5372838806436,-143.94678536811125,5221.6609273775312,2274.8325820230957,-1463.0430258938436,1463.0430258938436,-2274.8325820230957,9807.2481493847772,0.0
713523.2936376977,3572751.2368613081,-7500.0,-1594.1780539761298,4173.5914808840125,-5774.5452766875214,625.99919431646458,-1005.8132803161227,-128.19218185644363,4751.3727322177356,1297.8309043292427,-628.60558467862211,628.60558467862211,-1297.8309043292427,9067.5326064536257,0.0
718523.2936376977,3572751.2368613081,-7500.0,-2293.4913411810676,4029.4024482008458,-4885.4724153108245,638.91580762230092,-865.06637324482699,-111.88967768042343,4306.3217707944777,526.98184054650687,-35.135281510436897,35.135281510436897,-526.98184054650687,8325.2828130139842,0.0
723523.2936376977,3572751.2368613081,-7500.0,-2741.1313425222888,3765.3827356129941,-4102.949901869586,622.89440445629612,-735.12254115964879,-96.354042164753281,3890.2768859300377,-56.231659728232273,367.81006708948922,-367.81006708948922,56.231659728232273,7600.6994925378885,0.0
728523.2936376977,3572751.2368613081,-7500.0,-2996.4145452683861,3444.6108205612031,-3434.2199400749791,589.68991675365737,-620.11134269497938,-82.251340107760427,3506.3279285602353,-481.36697868605222,627.31670350204001,-627.31670350204001,481.36697868605222,6910.3332093149957,0.0
733523.2936376977,3572751.2368613081,-7500.0,-3110.1536818762847,3106.924188973644,-2872.7209235855221,547.42782808405434,-520.92458485581392,-69.835026752688066,3155.9096722326935,-779.56207957839615,782.55505778842439,-782.55505778842439,779.56207957839615,6264.9894886843931,0.0
738523.2936376977,3572751.2368613081,-7500.0,-3123.1761012634297,2776.0789912003784,-2406.1027516023833,501.47819592215177,-436.7703794380547,-59.117867574757192,2839.0476905557675,-979.11573247691263,864.11158015598539,-864.11158015598539,979.11573247691263,5670.2806349609846,0.0
743523.2936376977,3572751.2368613081,-7500.0,-3066.9595965321346,2465.1969235091415,-2020.4964830429863,455.23467655356086,-366.09666997285399,-49.985821401222111,2574.1427155764682,-1103.8814164650764,894.94599327982348,-894.94599327982348,1103.8814164650764,5127.9087160581757,0.0
748523.2936376977,3572751.2368613081,-7500.0,-2965.0735125900678,2180.6253406371789,-1702.6072354328548,410.72861480880971,-307.10910952149595,-42.268327071672843,2337.8167978732367,-1173.0857210018785,891.83458330577014,-891.83458330577014,1173.0857210018785,4636.9268811621132,0.0
563523.2936376977,3577751.2368613081,-7500.0,-168.75349454953746,-1531.4128150142326,-1815.0289019723789,-92.619114229922445,-263.58700074060943,-16.372822508577432,1754.3723185382796,327.21159590223215,-2126.9580122919765,2126.9580122919765,-327.21159590223215,3202.2098605579281,0.0
568523.2936376977,3577751.2368613081,-7500.0,215.9638030964465,-1541.7773573927907,-2048.7704913111593,-60.00595043439413,-289.05839321656316,-15.792853774406757,1930.2102915662092,678.63128137412195,-2358.4601472322083,2358.4601472322083,-678.63128137412195,3471.3922263457807,0.0
573523.2936376977,3577751.2368613081,-7500.0,723.45027599598234,-1486.7709293147705,-2288.9957359857954,-9.8579191907519679,-310.40043797584576,-13.811966356606128,2135.3662697768759,1127.9670631119288,-2575.645190067261,2575.645190067261,-1127.9670631119288,3783.9429313230262,0.0
578523.2936376977,3577751.2368613081,-7500.0,1378.8430881712382,-1334.1550101385217,-2516.7411004009027,63.886846072441976,-322.76555939923298,-9.6687859603801414,2381.9449144259233,1691.0759850734271,-2750.4162789113457,2750.4162789113457,-1691.0759850734271,4166.432847398989,0.0
583523.2936376977,3577751.2368613081,-7500.0,2206.9838352011752,-1041.2084525464045,-2699.0827709568607,168.70114635310514,-318.64776517267694,-2.2967624734048826,2688.9131774137495,2380.4331322280227,-2838.9463162366833,2838.9463162366833,-2380.4331322280227,4664.1041036290853,0.0
588523.2936376977,3577751.2368613081,-7500.0,3228.3025386603013,-553.58451999002239,-2782.1584612754286,313.3600181116775,-286.81847180237651,9.7515624253915121,3084.7646554770963,3200.0995145556431,-2775.7160530771494,2775.7160530771494,-3200.0995145556431,5347.9418631729532,0.0
593523.2936376977,3577751.2368613081,-7500.0,4452.0669430302914,194.050486874521,-2682.0048274423307,507.42024343604766,-211.05719226776984,28.361322553156189,3609.7494006656962,4137.8853144829391,-2466.822943861906,2466.822943861906,-4137.8853144829391,6318.5557016542252,0.0
598523.2936376977,3577751.2368613081,-7500.0,5866.3460137445254,1273.7633604809607,-2273.6011920990163,759.99234662730589,-68.833782122589341,55.850453415696904,4316.4543749897384,5154.1366748710652,-1783.879979270341,1783.879979270341,-5154.1366748710652,7703.1078620675798,0.0
603523.2936376977,3577751.2368613081,-7500.0,7424.5821012980987,2753.8094707553164,-1379.7885893872194,1077.4179933252171,169.68103817644672,94.82858169280307,5267.6455793954628,6167.2631761558368,-561.28666648204262,561.28666648204262,-6167.2631761558368,9645.0830076283983,0.0
608523.2936376977,3577751.2368613081,-7500.0,9029.9578241394483,4678.4808069214423,236.02601649868259,1459.4327279862623,541.55422314684495,147.80390259931164,6530.960626152586,7037.671943764788,1398.2628226976635,-1398.2628226976635,-7037.671943764788,12290.283219151122,0.0
613523.2936376977,3577751.2368613081,-7500.0,10521.049315900149,7035.1956363196941,2866.0979325269559,1893.5147915983002,1088.7757828327778,216.37960941241192,8170.422855928824,7554.5024758145692,4302.7045185399684,-4302.7045185399684,-7554.5024758145692,15770.135657452674,0.0
618523.2936376977,3577751.2368613081,-7500.0,11665.641525313145,9707.6310052183799,6832.0364183447946,2347.5577774429344,1851.9380020042238,299.86540888392278,10234.367427868323,7433.5390934855777,8324.6084932672929,-8324.6084932672929,-7433.5390934855777,20177.793150476224,0.0
623523.2936376977,3577751.2368613081,-7500.0,12173.717143962149,12418.611095052629,12420.532718129976,2762.0066761551288,2857.7199636562859,393.20730493884776,12802.752450015865,6339.5378468629006,13520.794521296028,-13520.794521296028,-6339.5378468629006,25530.381522703377,0.0
628523.2936376977,3577751.2368613081,-7500.0,11744.95201189856,14675.740895395627,19763.893550764267,3044.5590347563193,4098.1695346060487,484.47935315897672,16076.372941995591,3951.2043164612423,19712.10970225132,-19712.10970225132,-3951.2043164612423,31713.149513888176,0.0
633523.2936376977,3577751.2368613081,-7500.0,10169.339028876524,15749.011586705308,28652.065726761793,3073.8645600330601,5501.8318096902522,553.10918355121999,19600.978131631546,90.619388385866841,26330.28479278068,-26330.28479278068,-90.619388385866841,38406.610087108915,0.0
638523.2936376977,3577751.2368613081,-7500.0,7495.7299931583311,14738.133071770651,38282.886703205193,2722.7270634550528,6903.3565686996699,571.79837807795411,23042.534222142807,-5066.2727414281744,32271.0004610822,-32271.0004610822,5066.2727414281744,45008.937312895141,0.0
643523.2936376977,3577751.2368613081,-7500.0,4246.9960160888468,10827.15827655294,47023.977775567786,1911.0952380948665,8031.9875773072681,516.61429068244104,25897.169341901666,-10724.681497322272,35868.302112122248,-35868.302112122248,10724.681497322272,50591.874690324381,0.0
648523.2936376977,3577751.2368613081,-7500.0,1541.9570037323931,3819.8463868667691,52420.072743236677,682.54224387911256,8554.5814914758848,386.04093003649177,27531.671887676777,-15318.555978602297,35228.125157679271,-35228.125157679271,15318.555978602297,53976.323507990019,0.0
653523.2936376977,3577751.2368613081,-7500.0,805.49181074456442,-5173.8459737415769,51865.858720227072,-741.53924900204413,8198.4141860776654,215.43096836713516,27355.034288889536,-16854.935710098158,29162.674896869954,-29162.674896869954,16854.935710098158,54048.456381216485,0.0
658523.2936376977,3577751.2368613081,-7500.0,2850.1283798536947,-13559.100072479856,44123.019848382166,-2003.0475678870534,6912.7056333891942,61.596503442272983,25227.197737802358,-14042.367830750687,18441.147317687919,-18441.147317687919,14042.367830750687,50331.490482760855,0.0
663523.2936376977,3577751.2368613081,-7500.0,6916.1040776377095,-18385.208900506488,30737.631542818963,-2762.385521704844,4948.3953175447141,-41.06423244366318,22293.553834022678,-7558.680123961597,6116.9057599152229,-6116.9057599152229,7558.680123961597,43497.099059145738,0.0
668523.2936376977,3577751.2368613081,-7500.0,10911.917679124492,-18274.906404624737,15623.263296701905,-2869.4920741420015,2764.415486917394,-103.14906901958236,18681.978024128537,42.326634952594759,-4056.222755735057,4056.222755735057,-42.326634952594759,35284.115476833584,1.0
673523.2936376977,3577751.2368613081,-7500.0,12928.779862330957,-14221.838788437764,2734.2611341025745,-2417.9776950798519,816.11035294114834,-152.82290592261157,15273.506172420732,6055.0348771514673,-9893.2549110592408,9893.2549110592408,-6055.0348771514673,27713.100710125462,0.0
678523.2936376977,3577751.2368613081,-7500.0,12420.41672505781,-8494.642370711128,-5925.6221259097556,-1654.9391911874902,-620.56459415003701,-201.33822080597,12632.510773206151,9198.066469525369,-11520.8983109617,11520.8983109617,-9198.066469525369,22139.901812686599,1.0
683523.2936376977,3577751.2368613081,-7500.0,10052.511242119625,-3070.3600487521635,-10429.636302875499,-837.11473552745065,-1490.1960557974958,-241.37742622096812,10826.303142841163,9717.3176341357448,-10397.528164715068,10397.528164715068,-9717.3176341357448,18753.325945997178,0.0
688523.2936376977,3577751.2368613081,-7500.0,6876.8517890741241,1054.9596082206083,-11903.383509662135,-135.96710839601047,-1887.8303895675688,-263.4637822600402,9600.3034980977391,8567.0793266755445,-8069.0056159110291,8069.0056159110291,-8567.0793266755445,16842.521456872284,0.0
693523.2936376977,3577751.2368613081,-7500.0,3728.5995279134763,3710.5110963472953,-11585.489290188711,378.56867325064519,-1961.9238980032533,-265.38204692783762,8668.8656410129952,6684.4581862461837,-5574.2707349738157,5574.2707349738157,-6684.4581862461837,15575.303310948048,0.0
698523.2936376977,3577751.2368613081,-7500.0,1060.2515304022493,5142.4999767477748,-10407.198680275998,707.70649563038228,-1848.6782451331792,-251.25777201290359,7859.5109574557082,4699.0218170824273,-3419.2887132976812,3419.2887132976812,-4699.0218170824273,14466.309156275143,0.0
703523.2936376977,3577751.2368613081,-7500.0,-980.21034235928016,5707.083389186675,-8940.936154898809,886.22652626608181,-1646.9151440864171,-227.39551621488187,7104.0895412422933,2934.8987533624731,-1759.0075342119442,1759.0075342119442,-2934.8987533624731,13346.850614278799,0.0
708523.2936376977,3577751.2368613081,-7500.0,-2418.8164240640922,5722.2064363103764,-7489.0421284189306,956.52939378080475,-1418.1408111469841,-199.3866599273824,6388.6952096908572,1509.5481120143654,-572.59546094924008,572.59546094924008,-1509.5481120143654,12202.262988218621,0.0
713523.2936376977,3577751.2368613081,-7500.0,-3355.3070170544438,5423.8363977493755,-6186.3298504722325,955.98550562400612,-1195.9376997926438,-171.09816759925158,5718.255701460409,428.21617364749363,225.99153933205071,-225.99153933205071,-428.21617364749363,11065.937549722503,0.0
718523.2936376977,3577751.2368613081,-7500.0,-3905.36908474861,4969.7472322983176,-5075.9070812510199,913.01136022309413,-995.96382163517012,-144.75407373278802,5100.1761542690665,-353.07397969184512,732.61555165590198,-732.61555165590198,353.07397969184512,9974.2714478533653,0.0
723523.2936376977,3577751.2368613081,-7500.0,-4173.9206585930315,4457.8830182784832,-4155.9942949310516,847.37652941159899,-823.54576155368716,-121.38339112632187,4538.9441921483149,-892.69929631809543,1030.6997631029628,-1030.6997631029628,892.69929631809543,8953.0843415992313,0.0
728523.2936376977,3577751.2368613081,-7500.0,-4246.108251597143,3945.0792679732458,-3405.9155821549125,771.97650817906992,-678.61739439982898,-101.27045303417219,4035.4644009144408,-1246.9412144094267,1185.4104119897265,-1185.4104119897265,1246.9412144094267,8016.4518926433457,0.0
733523.2936376977,3577751.2368613081,-7500.0,-4186.8169753776901,3461.7345703653973,-2799.3684342191937,694.75802559849615,-558.63810818512172,-84.290838876705379,3589.3302897935064,-1463.6573826128963,1244.7165176333635,-1244.7165176333635,1463.6573826128963,7169.2959702485969,0.0
738523.2936376977,3577751.2368613081,-7500.0,-4043.5211666761061,3022.0593238207584,-2310.600195142707,620.31747772072765,-460.19146259738739,-70.12784774424307,3219.6834723927182,-1580.9539376266139,1242.6403786657897,-1242.6403786657897,1580.9539376266139,6410.4235808798812,0.0
743523.2936376977,3577751.2368613081,-7500.0,-3849.9479930838884,2630.790864424936,-1916.8864137181238,551.08181672163221,-379.79545115030538,-58.399198626476434,2892.4427815788499,-1628.0017643341585,1202.6942426332698,-1202.6942426332698,1628.0017643341585,5735.0031392186211,0.0
748523.2936376977,3577751.2368613081,-7500.0,-3629.4847865461393,2287.410427096278,-1599.1986775750145,488.12603070440036,-314.27001095232896,-48.72441520728767,2599.7589245313247,-1626.5646895580824,1140.7962406310646,-1140.7962406310646,1626.5646895580824,5136.3192901746534,0.0
558523.2936376977,3582751.2368613081,-7500.0,-1088.6914741733178,-1783.7961637772753,-1650.4579701513012,-188.65458160844597,-270.67662972716948,-22.422631020804374,1823.9141281380041,-412.97382971842501,-2006.307242714654,2006.307242714654,412.97382971842501,3453.0943199565227,0.0
563523.2936376977,3582751.2368613081,-7500.0,-871.58546265987104,-1917.3220344556726,-1910.7427981299575,-181.52685406512714,-308.65665480526962,-24.14304814382762,2006.7005811419281,-186.92175789184967,-2302.3868386573572,2302.3868386573572,186.92175789184967,3753.8868862220238,0.0
568523.2936376977,3582751.2368613081,-7500.0,-551.27682708230145,-2026.5572936786812,-2206.4571588745789,-162.81931756395721,-348.9268272163809,-25.260596582209935,2211.416587673375,127.63521829646334,-2625.5712681432683,2625.5712681432683,-127.63521829646334,4080.7536437385456,0.0
573523.2936376977,3582751.2368613081,-7500.0,-97.271581320677527,-2089.252077777322,-2534.274429647975,-127.20190394113538,-389.24433864840654,-25.245799358094978,2443.2154038180024,554.2624513052674,-2965.2593262932696,2965.2593262932696,-554.2624513052674,4440.4611026240664,0.0
578523.2936376977,3582751.2368613081,-7500.0,526.55897802608877,-2072.6507657108973,-2883.3629264568267,-67.492580957797102,-425.49966610579094,-23.294009798450496,2710.6712165872059,1119.4739530737463,-3300.3469114332102,3300.3469114332102,-1119.4739530737463,4847.6189194584013,0.0
583523.2936376977,3582751.2368613081,-7500.0,1360.8075383795581,-1930.0501866141574,-3229.9249985843612,25.720779461830354,-450.68518055624293,-18.220044068861547,3028.4080545511388,1850.572779190979,-3593.2902425908537,3593.2902425908537,-1850.572779190979,5332.2052423862615,0.0
588523.2936376977,3582751.2368613081,-7500.0,2447.2836361693107,-1597.2387214653941,-3528.8342644026388,164.31506111862268,-453.44843519243722,-8.3391875582662109,3421.1248728422124,2771.083506663651,-3781.8470729496448,3781.8470729496448,-2771.083506663651,5951.4986741264411,0.0
593523.2936376977,3582751.2368613081,-7500.0,3822.4123629653805,-989.87416686711413,-3701.4564181610067,362.48022928616774,-416.18186026859019,8.6389874746038178,3928.8839475397635,3892.4303053409171,-3768.3594588064957,3768.3594588064957,-3892.4303053409171,6805.3279662391751,0.0
598523.2936376977,3582751.2368613081,-7500.0,5505.7537400085112,-3.9187553680911766,-3619.0895835430219,635.7724124808675,-312.72453288326443,35.64260795362032,4612.388161862109,5200.3124666821741,-3407.3094512471157,3407.3094512471157,-5200.3124666821741,8048.4178622711333,0.0
603523.2936376977,3582751.2368613081,-7500.0,7482.3160911678024,1477.2359231595626,-3082.6619765618102,998.76071883212137,-106.02121985018672,76.075068329811458,5555.4845793698987,6634.559930874575,-2493.6686351668486,2493.6686351668486,-6634.559930874575,9889.254877138841,0.0
608523.2936376977,3582751.2368613081,-7500.0,9678.5049093753969,3563.5774955797551,-1802.042397643818,1460.4729124141627,253.42379689292957,133.2520643696279,6861.8000121375944,8062.7263166489574,-757.64694822491583,757.64694822491583,-8062.7263166489574,12570.559233639413,0.0
613523.2936376977,3582751.2368613081,-7500.0,11934.324866906933,6320.6601728696915,616.81798681861653,2016.8100517297753,826.69237453620644,209.12190284619601,8644.3348057133517,9251.046563750082,2124.1760285236051,-2124.1760285236051,-9251.046563750082,16339.257803719331,0.0
618523.2936376977,3582751.2368613081,-7500.0,13979.148839935231,9707.4863122877359,4661.6344949849472,2639.4308588723188,1680.5596054209852,301.8468811914243,11009.133850178961,9842.0720104704196,6486.5572628643013,-6486.5572628643013,-9842.0720104704196,21413.189960544907,0.0
623523.2936376977,3582751.2368613081,-7500.0,15424.543141754095,13489.078953716862,10857.017011226715,3261.6522800432717,2872.7428980038385,401.80779789337981,14043.410839387385,9355.8908394586815,12584.054289979371,-12584.054289979371,-9355.8908394586815,27936.838959522647,0.0
628523.2936376977,3582751.2368613081,-7500.0,15794.455681267309,17132.406456755438,19630.730219699566,3764.3889456184679,4423.5040836725084,485.95411919092726,18195.377432348396,7240.4414311537239,20432.562522652581,-20432.562522652581,-7240.4414311537239,35910.540621235057,0.0
633523.2936376977,3582751.2368613081,-7500.0,14622.219081964693,19710.289122868558,31067.328786805479,3970.6784372669636,6269.4553238579001,512.10307549827542,23076.67599231004,3007.7956037841705,29571.196390743957,-29571.196390743957,-3007.7956037841705,45080.849331460646,0.0
638523.2936376977,3582751.2368613081,-7500.0,11661.453865498455,19871.695760261435,44509.98056493482,3667.9427170546337,8202.8801466594377,419.89034914725568,28197.405352056445,-3486.2287173133482,38747.897426513984,-38747.897426513984,3486.2287173133482,54786.3420253566,0.0
643523.2936376977,3582751.2368613081,-7500.0,7271.0328772473531,16030.540711732332,58000.561196509509,2687.7545681856354,9825.8623911714985,154.37939704878201,32864.734452300348,-11549.521822395909,45611.312908510117,-45611.312908510117,11549.521822395909,63776.216335659155,0.0
648523.2936376977,3582751.2368613081,-7500.0,2911.6443441954566,7106.187528876384,67781.697522531016,1052.7389672778891,10595.889707841496,-272.23476211269178,36022.348317339129,-19031.960919027697,46788.260056166575,-46788.260056166575,19031.960919027697,70117.304641235751,0.0
653523.2936376977,3582751.2368613081,-7500.0,1153.1053731704271,-5922.5075089743877,68805.160621557152,-894.91804477070048,10046.135594756168,-716.4672520924729,36441.713858894815,-22311.329303543429,39241.067553046902,-39241.067553046902,22311.329303543429,71534.479472027233,0.0
658523.2936376977,3582751.2368613081,-7500.0,4053.4413999774861,-18715.036301744807,57668.146067271999,-2565.0827734676482,8107.346778963989,-958.89776371239827,33359.209181378421,-18299.119868825313,23303.551893446012,-23303.551893446012,18299.119868825313,66603.897033288158,0.0
663523.2936376977,3582751.2368613081,-7500.0,10481.245270438512,-25400.555469342158,36739.781881749936,-3431.495584793402,5240.3532107124602,-911.06674173397209,28963.325435161372,-7905.1922175237341,4563.0315366190134,-4563.0315366190134,7905.1922175237341,56317.981192752413,0.0
668523.2936376977,3582751.2368613081,-7500.0,16233.057304316571,-23460.647856403033,13880.598718374797,-3324.3724721052758,2210.4364626986153,-711.25984331480788,23717.024476008486,3654.5177438666497,-9597.7761325514803,9597.7761325514803,-3654.5177438666497,44179.19849017659,1.0
673523.2936376977,3582751.2368613081,-7500.0,17915.885555391429,-15649.127390163992,-3577.3384407427911,-2467.8904116324238,-297.29089265280601,-545.18630102971417,19149.862012131845,11360.689378273668,-15772.770285498178,15772.770285498178,-11360.689378273668,34047.085900469407,1.0
678523.2936376977,3582751.2368613081,-7500.0,15425.524034884469,-6623.3351205667504,-13247.939213250913,-1291.1909927162542,-1941.1948769668652,-472.14900624101904,15975.863134124014,13868.894847455133,-15511.073501046911,15511.073501046911,-13868.894847455133,27694.297222302182,0.0
683523.2936376977,3582751.2368613081,-7500.0,10701.374262876818,582.16756763102433,-16663.376396142361,-181.2385808846964,-2743.1738357195272,-452.28415875058175,13922.338870927435,12656.477322164248,-12111.27541525056,12111.27541525056,-12656.477322164248,24325.026223045748,0.0
688523.2936376977,3582751.2368613081,-7500.0,5671.1088188408785,5137.0497515437428,-16406.126954570769,654.11841216683945,-2929.3435953374742,-437.82497491904888,12431.097496652479,9755.6629199579529,-8078.1325918689563,8078.1325918689563,-9755.6629199579529,22272.172203040678,0.0
693523.2936376977,3582751.2368613081,-7500.0,1415.1221388875631,7435.6828410049229,-14502.02884569175,1175.3494002875732,-2756.2623540745035,-408.8706949472936,11148.221108800335,6580.0405242751012,-4616.1315567198353,4616.1315567198353,-6580.0405242751012,20504.957914139082,0.0
698523.2936376977,3582751.2368613081,-7500.0,-1727.7138071830723,8199.8238519792703,-12133.809758006237,1434.7680515170712,-2420.2350929496706,-366.02497633217939,9948.8753487888644,3814.7851373227995,-2057.7126291961004,2057.7126291961004,-3814.7851373227995,18702.152802542896,0.0
703523.2936376977,3582751.2368613081,-7500.0,-3821.3702997524597,8061.6734341830625,-9865.6149250311064,1510.5480908879838,-2041.6658479152077,-316.59344434012831,8818.5138416577829,1670.7050246474064,-335.28267544527534,335.28267544527534,-1670.7050246474064,16861.858828554316,0.0
708523.2936376977,3582751.2368613081,-7500.0,-5077.8701526181694,7461.4922109003101,-7909.81370719612,1472.7650098339864,-1682.4792538608654,-267.23185150930055,7772.7033289188084,126.9383973844453,740.73005305832567,-740.73005305832567,-126.9383973844453,15060.096911116165,0.0
713523.2936376977,3582751.2368613081,-7500.0,-5725.2034502051265,6670.4729692803994,-6307.8448350555018,1373.0226589648396,-1368.3404509282573,-221.98975045462544,6825.647198923687,-921.86719485012327,1360.4220130533117,-1360.4220130533117,921.86719485012327,13363.738301700829,0.0
718523.2936376977,3582751.2368613081,-7500.0,-5956.0218760686121,5841.4260786742907,-5029.9483707357376,1245.2738401398817,-1105.43682673693,-182.63939058077688,5982.9027462176964,-1594.3318271966352,1675.7656539988318,-1675.7656539988318,1594.3318271966352,11812.190709069653,0.0
723523.2936376977,3582751.2368613081,-7500.0,-5916.396372409542,5052.9509531204012,-4023.8132031755381,1110.0927465897548,-890.81675403433553,-149.50424932816637,5242.6424979971725,-1994.3715404011973,1796.6860822718877,-1796.6860822718877,1994.3715404011973,10421.089867696823,0.0
728523.2936376977,3582751.2368613081,-7500.0,-5710.5087474268948,4340.2567609003409,-3235.8450772734564,979.0001324080863,-718.03202514003681,-122.15204678241453,4603.3435312100773,-2203.8913218265434,1798.4418483982145,-1798.4418483982145,2203.8913218265434,9190.2071569600994,0.0
733523.2936376977,3582751.2368613081,-7500.0,-5409.7386113676812,3714.5945991092622,-2619.0994787623677,857.80651508247036,-579.92837967109267,-99.838720106156899,4075.8415183444381,-2283.9195404312677,1730.7865956859059,-1730.7865956859059,2283.9195404312677,8110.2265771474513,0.0
738523.2936376977,3582751.2368613081,-7500.0,-5061.5054090810127,3174.8096582811968,-2135.2242534622701,748.90970132278505,-469.87349188299737,-81.753601326010482,3616.1614795975784,-2278.4166656394582,1625.7660179581183,-1625.7660179581183,2278.4166656394582,7167.4322605904399,0.0
743523.2936376977,3582751.2368613081,-7500.0,-4696.4193951087782,2713.9228667345092,-1753.979472855345,652.77160666164514,-382.19131063860004,-67.13794237190524,3212.9585559415027,-2218.3396983824628,1503.5354787570154,-1503.5354787570154,2218.3396983824628,6346.6126234213498,0.0
748523.2936376977,3582751.2368613081,-7500.0,-4333.608033530867,2322.7380845962057,-1451.9627039907889,568.82700492675986,-312.22412175697201,-55.331725732208952,2860.0103965858166,-2125.1206331414564,1376.438364856233,-1376.438364856233,2125.1206331414564,5632.7199336026824,0.0
558523.2936376977,3587751.2368613081,-7500.0,-1843.9707159167408,-2054.8303702118865,-1646.3393417211182,-277.59441845356878,-299.01417928191046,-29.646263939236963,2079.9598398530084,-986.96566033251645,-2031.340790628311,2031.340790628311,986.96566033251645,4017.2941036435031,0.0
563523.2936376977,3587751.2368613081,-7500.0,-1732.3057823105271,-2275.2517410101614,-1937.2588252035698,-287.8858718898033,-348.37126633070295,-33.172838650405893,2303.3943697033537,-836.58720793435282,-2383.0667621206403,2383.0667621206403,836.58720793435282,4406.8509023258694,0.0
568523.2936376977,3587751.2368613081,-7500.0,-1523.8931106003247,-2495.0218806965145,-2281.463951015015,-289.41837773546791,-404.02451613670547,-36.515643377049528,2552.7556622523789,-599.21997539637914,-2787.5104003943347,2787.5104003943347,599.21997539637914,4830.0515610708608,0.0
573523.2936376977,3587751.2368613081,-7500.0,-1182.6299856622304,-2696.3584695531354,-2683.5689134063105,-276.74558894948098,-464.93421125003533,-39.196874804752234,2831.4166219570129,-245.16666925408913,-3243.1642240792935,3243.1642240792935,245.16666925408913,5288.2684335757885,0.0
578523.2936376977,3587751.2368613081,-7500.0,-662.5203673636878,-2850.2222885275714,-3143.4097513047668,-242.07120574208184,-528.37753257505449,-40.43006200416275,3144.4060257647807,262.27776424474155,-3740.0961754550808,3740.0961754550808,-262.27776424474155,5785.3081902859449,0.0
583523.2936376977,3587751.2368613081,-7500.0,93.023821941153926,-2911.2615832315519,-3650.8453438625606,-174.52227769621976,-588.77272285961203,-38.978047923088468,3500.3233986327241,966.29402146399798,-4253.4843257937046,4253.4843257937046,-966.29402146399798,6332.2546652576493,0.0
588523.2936376977,3587751.2368613081,-7500.0,1150.0806305639201,-2811.4725803774245,-4176.9152198265792,-59.424538897673557,-635.89256639421967,-32.980203722621312,3915.0756051432809,1913.6910310662381,-4733.6452953108701,4733.6452953108701,-1913.6910310662381,6957.8131391116412,0.0
593523.2936376977,3587751.2368613081,-7500.0,2579.5693914121662,-2453.2285738992773,-4659.5344688404221,122.16490345854216,-652.2887294013093,-19.781122538519043,4418.5131525362167,3147.80680538656,-5091.4863211387137,5091.4863211387137,-3147.80680538656,7727.903034589679,0.0
598523.2936376977,3587751.2368613081,-7500.0,4446.5130625185211,-1703.6095681294721,-4981.6651315185654,393.16229110640802,-609.84143419471593,4.1496566144210076,5064.6534464059268,4694.3992428603542,-5178.8411399576762,5178.8411399576762,-4694.3992428603542,8776.562485563014,0.0
603523.2936376977,3587751.2368613081,-7500.0,6790.1302280607551,-394.23196630614297,-4940.5355043920554,778.53199744831647,-465.64647721510977,43.009382871567837,5944.0085191167664,6537.2845730166173,-4764.9320853130484,4764.9320853130484,-6537.2845730166173,10340.164969810894,0.0
608523.2936376977,3587751.2368613081,-7500.0,9592.2176598790284,1665.9400707093741,-4209.1074986964722,1300.4426603369907,-158.10134457067619,100.78949383429662,7192.0720547882174,8581.2815740832557,-3514.122827625738,3514.122827625738,-8581.2815740832557,12768.86873715111,0.0
613523.2936376977,3587751.2368613081,-7500.0,12734.212047026847,4653.8190461440608,-2297.1787959029239,1968.9100390494577,394.80489287960654,179.10332791892012,8984.9150570380243,10603.632461000874,-976.90098185829538,976.90098185829538,-10603.632461000874,16490.125756580521,0.0
618523.2936376977,3587751.2368613081,-7500.0,15949.720437027952,8659.0845121843395,1469.6494668632772,2766.4423882378937,1291.3161912382061,272.75162991287772,11517.939718083504,12202.888008125574,3384.979332361193,-3384.979332361193,-12202.888008125574,21939.405691659304,0.0
623523.2936376977,3587751.2368613081,-7500.0,18788.480596932164,13566.846107960893,7920.7868624173916,3626.1261035827306,2630.0578019356367,361.71428392231149,14979.656917657072,12765.750263370857,10110.513922294813,-10110.513922294813,-12765.750263370857,29491.896424057271,0.0
628523.2936376977,3587751.2368613081,-7500.0,20615.363343573965,18900.377980989095,17916.794538387869,4404.9713151972555,4474.1510484704222,398.09420742959526,19957.61623800256,11483.235853793578,19558.645570784312,-19558.645570784312,-11483.235853793578,39387.8257365428,0.0
633523.2936376977,3587751.2368613081,-7500.0,20670.820756724934,23641.689960803375,32079.970831400467,4860.9713619562954,6783.9180379666786,288.04640353350231,26568.977725622666,7454.9144746277889,31607.879931732292,-31607.879931732292,-7454.9144746277889,51613.143669849051,0.0
638523.2936376977,3587751.2368613081,-7500.0,18236.486169172833,26050.800006654696,50305.484990041055,4662.417678140323,9308.9846126313005,-121.08518647382414,34134.932976621276,-51.989859278335643,45190.926936537544,-45190.926936537544,51.989859278335643,65690.551740260416,0.0
643523.2936376977,3587751.2368613081,-7500.0,13058.365365698221,23552.001942403247,70866.770148111478,3499.9166274662507,11469.034820450019,-1001.9012950952385,41894.156957777741,-10985.922245807255,57557.012312207131,-57557.012312207131,10985.922245807255,80297.940592249317,0.0
648523.2936376977,3587751.2368613081,-7500.0,6384.8981538801636,13185.452201766784,88825.342152207275,1374.1691787607244,12382.224934837839,-2355.9859521968415,48270.116128262467,-23115.149247575057,63351.854077905824,-63351.854077905824,23115.149247575057,92631.65864509625,0.0
653523.2936376977,3587751.2368613081,-7500.0,2359.4116696352326,-5741.935617707848,94703.418701557486,-1109.1053180867364,11307.195663061437,-3688.3992046735907,50674.177580454125,-30279.96382151165,55308.120243549951,-55308.120243549951,30279.96382151165,98023.612359521867,0.0
658523.2936376977,3587751.2368613081,-7500.0,6280.7831270148818,-26480.007849608908,78794.17167414604,-2975.4389740350616,8329.6023201919179,-4100.8081911797381,46625.238308078413,-24699.214550274126,30822.331590800553,-30822.331590800553,24699.214550274126,91962.23303469368,0.0
663523.2936376977,3587751.2368613081,-7500.0,16936.921808212126,-36101.866154409967,43916.37796708673,-3624.1729178788351,4388.2335435294699,-3283.972929750767,38786.441226720286,-6908.5013747240573,556.81455947610948,-556.81455947610948,6908.5013747240573,75428.9882612449,0.0
668523.2936376977,3587751.2368613081,-7500.0,24994.690983427594,-29479.530361106346,7824.6179001655273,-3071.9094207453741,569.34533861561511,-2028.5698355629875,30862.02959052701,11159.276709074215,-19204.305398836426,19204.305398836426,-11159.276709074215,56546.327444949107,1.0
673523.2936376977,3587751.2368613081,-7500.0,24439.985747585826,-14636.632181834482,-15070.957100690974,-1702.9997977703181,-2321.9393224697719,-1168.4782814783659,24796.070308671682,19858.472489592819,-23697.923452336068,23697.923452336068,-19858.472489592819,43274.256925652822,0.0
678523.2936376977,3587751.2368613081,-7500.0,17546.345408571997,-1145.1796158043903,-23851.895883293761,-104.35775819004891,-3931.8483802526084,-811.73022945635933,21056.824191888314,19550.333880078218,-19113.698730559849,19113.698730559849,-19550.333880078218,36622.213941978138,0.0
683523.2936376977,3587751.2368613081,-7500.0,9052.9015325459877,7312.1076747177058,-24121.848726501456,1213.6978745033116,-4413.8141075918493,-703.63059229155544,18536.275106498546,14900.220519070866,-12223.6987221165,12223.6987221165,-14900.220519070866,33096.052116198778,0.0
688523.2936376977,3587751.2368613081,-7500.0,1849.3644528107202,11233.389428699131,-20880.316754536805,2039.9580175263686,-4182.605639022102,-650.22796570498974,16406.380031808087,9495.7882504800546,-6328.6874497524459,6328.6874497524459,-9495.7882504800546,30159.6651395562,0.0
693523.2936376977,3587751.2368613081,-7500.0,-3216.8922718485837,12240.630815529366,-16858.631795166271,2412.8271863064292,-3625.8787024489143,-585.27206812025202,14410.352020538456,4937.5242378511839,-2221.4878899238256,2221.4878899238256,-4937.5242378511839,27116.926115179409,0.0
698523.2936376977,3587751.2368613081,-7500.0,-6332.4965051923882,11705.962103248687,-13182.140850435784,2468.0330973802261,-2991.2690987349647,-505.52571054106721,12542.800668144344,1606.2092838606518,320.8545218684161,-320.8545218684161,-1606.2092838606518,24020.598966554557,0.0
703523.2936376977,3587751.2368613081,-7500.0,-7989.7060456925155,10499.223373932808,-10174.418937161119,2338.4266734025045,-2401.0662273854036,-422.59252752922862,10845.484415233555,-623.77608058986709,1746.787537279085,-1746.787537279085,623.77608058986709,21046.788288049549,0.0
708523.2936376977,3587751.2368613081,-7500.0,-8664.9181333314827,9097.4969515935809,-7832.649388048133,2120.0903424110124,-1900.0964580285788,-345.73286282930479,9344.0305198454134,-2012.7642483513259,2450.8899623242883,-2450.8899623242883,2012.7642483513259,18319.02066499765,0.0
713523.2936376977,3587751.2368613081,-7500.0,-8724.793913228199,7734.5783853525199,-6049.7308936058052,1872.416627529549,-1494.3509711272377,-279.30712421782346,8041.5131448357151,-2809.1040736093996,2716.4141066863417,-2716.4141066863417,2809.1040736093996,15892.708857324169,0.0
718523.2936376977,3587751.2368613081,-7500.0,-8423.9902436213652,6509.5187872251017,-4703.8384868089779,1628.1239661376385,-1173.771612455366,-224.23315625683691,6926.6246801720717,-3207.7876241601844,2729.222201463188,-2729.222201463188,3207.7876241601844,13776.004192695646,0.0
723523.2936376977,3587751.2368613081,-7500.0,-7929.3266440048656,5452.2498946803053,-3688.7690885648167,1403.1114986443733,-923.63006553964556,-179.66375517812585,5990.9878472573364,-3349.3200452526794,2605.3532199118376,-2605.3532199118376,3349.3200452526794,11950.867818909435,0.0
728523.2936376977,3587751.2368613081,-7500.0,-7345.7139326349352,4559.941512895718,-2920.5346044960302,1203.5697166010614,-729.47843673664158,-144.07908907487896,5223.6801309234343,-3330.3860791037364,2414.833815807167,-2414.833815807167,3330.3860791037364,10387.424475194857,0.0
733523.2936376977,3587751.2368613081,-7500.0,-6736.7721159139301,3816.0474502941711,-2335.5815825062846,1030.4842317088719,-578.91764438276346,-115.85824456839846,4568.8150164910721,-3215.6525041855762,2198.6619384482096,-2198.6619384482096,3215.6525041855762,9052.3400152162048,0.0
738523.2936376977,3587751.2368613081,-7500.0,-6139.4847717631192,3199.8007558774975,-1886.808325379418,882.28708536984186,-461.94561473873381,-93.530111066534744,4006.7168864118003,-3047.4903051917395,1979.993949445879,-1979.993949445879,3047.4903051917395,7913.2157258146417,0.0
743523.2936376977,3587751.2368613081,-7500.0,-5574.0553284788384,2690.650283991049,-1539.6116226171005,756.33638732153224,-370.74727834289195,-75.856043417570376,3524.1550467490711,-2853.1581993953987,1771.2262832268925,-1771.2262832268925,2853.1581993953987,6940.6085880566543,0.0
748523.2936376977,3587751.2368613081,-7500.0,-5050.3347386779778,2270.1084835996307,-1268.6232784965525,649.70117745263565,-299.31774547672279,-61.833678534309477,3109.4868435144622,-2649.8398102242313,1578.3804128548277,-1578.3804128548277,2649.8398102242313,6108.7395219475848,0.0
753523.2936376977,3587751.2368613081,-7500.0,-4571.9350189411807,1922.3248990580516,-1055.2109106548828,559.55082973066601,-243.08083781233978,-50.669602299945936,2752.540666406604,-2448.0794381866076,1403.7815498128662,-1403.7815498128662,2448.0794381866076,5395.5260779429,0.0
553523.2936376977,3592751.2368613081,-7500.0,-2625.44687192324,-1991.5297215178393,-1332.130808306599,-344.30602155691417,-268.78886637023788,-32.481665991748407,2118.2848408443151,-1645.8393050356376,-1633.3583554479833,1633.3583554479833,1645.8393050356376,4184.9212196780436,0.0
558523.2936376977,3592751.2368613081,-7500.0,-2709.1934691998244,-2265.3739834928965,-1581.1338789268639,-377.83277883291782,-318.95119934219406,-37.617353537959858,2362.6660376404748,-1656.0423826915551,-1954.5197158309272,1954.5197158309272,1656.0423826915551,4639.5431463444647,0.0
563523.2936376977,3592751.2368613081,-7500.0,-2743.4268829370376,-2570.475469623324,-1885.7503035151562,-410.40075335981442,-378.58934078155266,-43.315213534562496,2638.5077234099754,-1616.3238803542267,-2341.4046153259528,2341.4046153259528,1616.3238803542267,5144.6766684800441,0.0
568523.2936376977,3592751.2368613081,-7500.0,-2700.7998156178637,-2903.1187350663095,-2257.912235578638,-438.97999854449222,-448.79959663141238,-49.412020480808735,2949.0044806746719,-1502.6248215115654,-2804.6351650495735,2804.6351650495735,1502.6248215115654,5702.4914419292136,0.0
573523.2936376977,3592751.2368613081,-7500.0,-2543.2299950391066,-3253.3972740664394,-2710.4231185640633,-458.71197903857887,-530.12844037603554,-55.545606018371373,3297.3255201626394,-1282.0593007423381,-3353.4804969112142,3353.4804969112142,1282.0593007423381,6313.5244421014204,0.0
578523.2936376977,3592751.2368613081,-7500.0,-2218.7317647992058,-3601.0866428653562,-3255.1199108306428,-462.06916235466463,-621.87968054627868,-61.027272511775266,3686.6631812413116,-910.6899098931583,-3992.6182396768909,3992.6182396768909,910.6899098931583,6976.4038154061654,0.0
583523.2936376977,3592751.2368613081,-7500.0,-1658.1557188877912,-3909.4455187489107,-3898.8736725581416,-437.7537222522754,-720.91016444012791,-64.657974002368036,4120.771080461418,-331.67659639588874,-4716.1816437868929,4716.1816437868929,331.67659639588874,7688.6893010946824,0.0
588523.2936376977,3592751.2368613081,-7500.0,-772.77534658772606,-4116.3549812656674,-4635.6933087071693,-369.37875002609769,-819.63068795908964,-64.486461703172651,4605.7197681724592,525.02386483069176,-5497.415195099773,5497.415195099773,-525.02386483069176,8450.8999848846597,0.0
593523.2936376977,3592751.2368613081,-7500.0,545.35112851022416,-4122.5812352342109,-5432.1851331819244,-234.14771428236563,-902.85642576077601,-57.54528081911694,5154.3796947312348,1739.1258287791866,-6271.6681871126202,6271.6681871126202,-1739.1258287791866,9278.3372135127647,0.0
598523.2936376977,3592751.2368613081,-7500.0,2416.8296676854879,-3778.1401869872625,-6202.4104509698736,-2.0896621286824577,-943.16548708028688,-39.691803457256917,5796.2853982923607,3388.7252921499166,-6910.1771023066758,6910.1771023066758,-3388.7252921499166,10229.573591822766,0.0
603523.2936376977,3592751.2368613081,-7500.0,4957.0249239824652,-2870.5377237976772,-6767.4386292344725,363.01241050147371,-894.70353483590929,-5.8800915568937455,6596.344635801288,5525.4298755096152,-7183.1091574080656,7183.1091574080656,-5525.4298755096152,11463.980573026263,0.0
608523.2936376977,3592751.2368613081,-7500.0,8240.6356030876832,-1123.7718232350662,-6796.1483293093079,899.06466194741336,-686.19079518827368,48.443234801180623,7683.1610103076218,8129.0748498372586,-6714.3072294481417,6714.3072294481417,-8129.0748498372586,13328.869974886491,0.0
613523.2936376977,3592751.2368613081,-7500.0,12244.750712959743,1775.6577910319004,-5730.2521439472766,1634.7729648023046,-215.59149915740923,123.52776206873261,9276.2690493839273,11037.851785332357,-4939.5217793168158,4939.5217793168158,-11037.851785332357,16424.418563680683,0.0
618523.2936376977,3592751.2368613081,-7500.0,16775.174512548881,6103.0342773370994,-2711.9251732397702,2569.5698483776905,648.40271315408904,206.96991172503598,11685.592858143627,13860.094628750932,-1095.6215963035756,1095.6215963035756,-13860.094628750932,21545.222932502558,0.0
623523.2936376977,3592751.2368613081,-7500.0,21397.718941204173,11950.119460942546,3442.5420136285938,3642.6177727155909,2049.7151067241844,257.61810514099795,15270.373074053336,15894.263264152662,5714.5496129410958,-5714.5496129410958,-15894.263264152662,29504.98339677661,0.0
628523.2936376977,3592751.2368613081,-7500.0,25412.573477634724,19013.257938171693,14156.036183221158,4691.2954152596922,4101.2897787583752,176.78623370873248,20789.725669502361,16104.92250722718,16334.164407309057,-16334.164407309057,-16104.92250722718,40993.724315487401,0.0
633523.2936376977,3592751.2368613081,-7500.0,27899.226061145961,26356.413547050004,30830.14880997298,5403.3527736503193,6795.7725614902283,-241.11977592941037,29365.753364345033,13196.649090715402,31224.453381548687,-31224.453381548687,-13196.649090715402,56507.206572834184,0.0
638523.2936376977,3592751.2368613081,-7500.0,27790.359159356853,32179.28284257264,54400.496679010554,5290.4392681859308,9834.2216278711967,-1381.4820951486943,40275.933927653605,5770.7425599300223,50010.910475208424,-50010.910475208424,-5770.7425599300223,76262.59351276407,0.0
643523.2936376977,3592751.2368613081,-7500.0,23898.038031141725,33384.289649210848,84591.71782897909,3821.8305145203963,12353.050888129679,-3828.0496369395173,53244.797379469499,-7408.7692961296998,70681.761084495607,-70681.761084495607,7408.7692961296998,99901.96265379565,0.0
648523.2936376977,3592751.2368613081,-7500.0,15538.564673811807,24448.817648001987,117529.68433602017,1034.18985055038,12831.772136269732,-7923.3664480861644,66819.833364262595,-26023.146314937687,87121.755298353673,-87121.755298353673,26023.146314937687,125043.85292387518,0.0
653523.2936376977,3592751.2368613081,-7500.0,6751.398275167162,-1722.4081672244197,138184.86600157924,-1628.2402379461196,10129.90704593858,-12280.394650080534,75981.712405581085,-42252.032547807496,84155.570955584961,-84155.570955584961,42252.032547807496,143049.2178955714,1.0
658523.2936376977,3592751.2368613081,-7500.0,10885.666475040394,-38704.999168751128,117486.15265743012,-2363.5613456451806,5424.2313519411337,-13136.196359548023,71852.314943302787,-35807.863139191642,45402.233044153123,-45402.233044153123,35807.863139191642,138205.32844822059,0.0
663523.2936376977,3592751.2368613081,-7500.0,29919.307819293892,-53741.993640993707,52658.092773156248,-1647.0992364483066,1058.3738108727034,-9059.6338981225326,54988.438564929304,-1995.2524401588339,-8887.3502392107584,8887.3502392107584,1995.2524401588339,107697.95228605678,1.0
668523.2936376977,3592751.2368613081,-7500.0,39673.797550504765,-34423.541435278552,-7855.8524254901058,-646.70705703376802,-2505.1240389212358,-4126.286996349233,41976.483394975337,26692.381847358462,-35593.775161855723,35593.775161855723,-26692.381847358462,75304.280024207168,1.0
673523.2936376977,3592751.2368613081,-7500.0,30964.720041829325,-6885.4542213856294,-34490.31280442718,806.06691020200026,-5187.262373195892,-1570.9985283581698,33846.138731761952,32102.179451844277,-32322.001763319779,32322.001763319779,-32102.179451844277,58636.238999235371,0.0
678523.2936376977,3592751.2368613081,-7500.0,15410.663794720311,10750.057952096686,-37286.182074843084,2471.5438453765005,-6411.2728581259735,-901.78077971104938,29074.984279617842,24226.892672609385,-19598.132550257717,19598.132550257717,-24226.892672609385,51689.158620962349,0.0
683523.2936376977,3592751.2368613081,-7500.0,2170.9067735817202,17977.849630883811,-31294.744601719307,3678.5850874730845,-6291.7246271098393,-852.44985914777385,25259.227202741582,14141.614636388247,-8705.8795640478565,8705.8795640478565,-14141.614636388247,46442.162970594043,0.0
688523.2936376977,3592751.2368613081,-7500.0,-6436.1245185883063,19127.268178526447,-23988.023193823694,4189.3631538993131,-5449.9945101487729,-845.81307690156518,21714.216991783047,6139.4136686155198,-1802.1419992773549,1802.1419992773549,-6139.4136686155198,40948.236645987468,0.0
693523.2936376977,3592751.2368613081,-7500.0,-11114.739841588374,17558.163926994643,-17776.004237073543,4156.1529487821845,-4410.9135685132633,-772.74129852241856,18454.584646758769,810.60619781661956,1952.328994467905,-1952.328994467905,-810.60619781661956,35429.886012712028,0.0
698523.2936376977,3592751.2368613081,-7500.0,-13144.098568302945,15091.380208460125,-13054.629927789558,3817.6920518453862,-3445.1215759258153,-659.11921958539722,15572.965244183137,-2388.2814432853584,3721.7300876611007,-3721.7300876611007,2388.2814432853584,30287.718228057005,0.0
703523.2936376977,3592751.2368613081,-7500.0,-13580.727525310014,12561.875564884402,-9615.3058075711397,3355.7846528420832,-2645.4498517874563,-538.89020491921985,13103.846185958795,-4130.3505724910692,4361.289392595826,-4361.289392595826,4130.3505724910692,25734.780840881387,0.0
708523.2936376977,3592751.2368613081,-7500.0,-13139.439732153831,10295.778578604913,-7145.4127656926012,2876.7661812053734,-2018.7821729675443,-430.38456039487806,11030.114072964841,-4947.5318249964503,4401.9415280449948,-4401.9415280449948,4947.5318249964503,21825.054139780434,0.0
713523.2936376977,3592751.2368613081,-7500.0,-12261.934849692821,8383.5215977356729,-5373.5029859252054,2432.464191568029,-1540.5964107538275,-339.80805709223785,9310.5921742023147,-5205.5827113284959,4149.79958075381,-4149.79958075381,5205.5827113284959,18525.228848517698,0.0
718523.2936376977,3592751.2368613081,-7500.0,-11206.439260698276,6816.517338879933,-4095.0613759383614,2042.8132300659672,-1179.9548933885933,-267.19737999643718,7910.7589687190784,-5140.6082110849293,3773.6957634019927,-3773.6957634019927,5140.6082110849293,15765.040113546684,0.0
723523.2936376977,3592751.2368613081,-7500.0,-10116.971450517927,5550.8046159224714,-3164.1313867951685,1711.2992074757315,-908.87930739087074,-210.18734688031134,6776.2463338736625,-4899.7598703071526,3363.1650489519288,-3363.1650489519288,4899.7598703071526,13464.92429167509,0.0
728523.2936376977,3592751.2368613081,-7500.0,-9069.3625451547905,4534.87244801406,-2478.7509930817528,1433.897248507154,-704.83809346783823,-165.85930821840847,5831.2511870297203,-4572.5219848343204,2963.3005473816611,-2963.3005473816611,4572.5219848343204,11549.146192004548,0.0
733523.2936376977,3592751.2368613081,-7500.0,-8099.8941974211257,3720.7449820870265,-1968.1348456892224,1203.7834539975133,-550.61033521379863,-131.50296503490594,5039.2583031493532,-4212.0635851427123,2594.8364264550978,-2594.8364264550978,4212.0635851427123,9950.9850177629851,0.0
738523.2936376977,3592751.2368613081,-7500.0,-7222.5220741835519,3067.5643391268727,-1583.0670450699038,1013.6337760759837,-433.36004994972973,-104.85653872567255,4373.6922497208361,-3849.0664787487935,2265.4734458828784,-2265.4734458828784,3849.0664787487935,8613.9698756894722,0.0
743523.2936376977,3592751.2368613081,-7500.0,-6439.0309838192907,2542.0017834607697,-1289.1331161830838,856.64031834327557,-343.62750070897795,-84.125982809217973,3812.6330075100127,-3500.4581750601888,1976.1826696259282,-1976.1826696259282,3500.4581750601888,7491.3423756581724,0.0
748523.2936376977,3592751.2368613081,-7500.0,-5744.9265005784173,2117.4690209429014,-1062.0756462802028,726.88104472024179,-274.46738515438869,-67.924810832004496,3337.9642380739497,-3174.8517750539372,1724.670798898163,-1724.670798898163,3174.8517750539372,6544.8436540778903,0.0
753523.2936376977,3592751.2368613081,-7500.0,-5132.8002274708515,1772.9955107514943,-884.63744425022276,619.38213669630147,-220.77703807571882,-55.195174868850714,2934.8007410897376,-2875.9110803738586,1507.2558436292729,-1507.2558436292729,2875.9110803738586,5743.3558769614901,0.0
553523.2936376977,3597751.2368613081,-7500.0,-3423.4048120925645,-2062.1769774750278,-1217.8304034526072,-431.86963909607977,-272.07563919986592,-39.07033729747323,2371.7246311120521,-2269.190445471088,-1445.2971334140068,1445.2971334140068,2269.190445471088,4732.1462442098255,0.0
558523.2936376977,3597751.2368613081,-7500.0,-3661.4979442506924,-2386.9399723470638,-1456.5995289980992,-486.63266457839387,-327.36746572865644,-46.109629844772471,2663.9325472610685,-2400.6461914943684,-1762.2186684533654,1762.2186684533654,2400.6461914943684,5299.5693635324151,0.0
563523.2936376977,3597751.2368613081,-7500.0,-3881.1496470307366,-2764.4704346346316,-1754.9176196824565,-545.97113964387586,-394.89544510943239,-54.290312146185997,3002.0228141410666,-2506.0016907602931,-2155.2454269941118,2155.2454269941118,2506.0016907602931,5942.8860974033387,0.0
568523.2936376977,3597751.2368613081,-7500.0,-4059.668901082327,-3199.2061443664625,-2128.9441315148197,-608.20039181883919,-477.03650233865761,-63.611183292072226,3388.7824306822226,-2564.1654310804706,-2642.1138069150938,2642.1138069150938,2564.1654310804706,6669.1875284284915,0.0
573523.2936376977,3597751.2368613081,-7500.0,-4162.7102560531102,-3692.028774733059,-2598.5052166630467,-669.96986371156163,-576.14698801992097,-73.89452386574375,3829.1280526237429,-2543.9437380571799,-3242.9014315348331,3242.9014315348331,2543.9437380571799,7483.6521601581926,0.0
578523.2936376977,3597751.2368613081,-7500.0,-4139.4916701282746,-4236.5128126408672,-3186.7893614940572,-725.2779618439929,-694.0257141613655,-84.636220111608765,4327.3928903131336,-2400.1804252008851,-3978.3304854010921,3978.3304854010921,2400.1804252008851,8387.7080384077435,0.0
583523.2936376977,3597751.2368613081,-7500.0,-3916.7486770236524,-4812.5981123747997,-3918.482614357154,-764.05114883278395,-830.83719855345544,-94.770153766609525,4886.3167692452471,-2069.1605466060482,-4865.6354240730661,4865.6354240730661,2069.1605466060482,9376.5476327550914,0.0
588523.2936376977,3597751.2368613081,-7500.0,-3391.8571632336157,-5376.3699993983328,-4814.5337184221426,-770.22347132768994,-983.10560096745041,-102.3273805311518,5506.1744228680654,-1464.0322200210157,-5909.8863616740273,5909.8863616740273,1464.0322200210157,10436.48586632584,0.0
593523.2936376977,3597751.2368613081,-7500.0,-2426.6467185308265,-5844.4508059927275,-5880.2019744713598,-719.41965791240591,-1140.2093492140641,-104.01333564303923,6184.7100959317822,-472.30045730906613,-7087.3401887995406,7087.3401887995406,472.30045730906613,11544.208684354222,0.0
598523.2936376977,3597751.2368613081,-7500.0,-845.51756313471321,-6072.044267123224,-7080.6121864974439,-576.76876655014257,-1278.6721744015726,-94.862891181646887,6920.0823016776958,1040.1125892561181,-8315.778087970124,8315.778087970124,-1040.1125892561181,12674.085737148467,0.0
603523.2936376977,3597751.2368613081,-7500.0,1555.1856761416325,-5826.1589853977193,-8294.9032159057442,-296.24320350594411,-1353.7048055262408,-68.477287408149976,7722.1194371212578,3209.8741382914236,-9405.7641851779281,9405.7641851779281,-3209.8741382914236,13829.697171540833,0.0
608523.2936376977,3597751.2368613081,-7500.0,4975.6247173363026,-4762.0614387616915,-9237.706968448143,175.63995584062781,-1288.437843325506,-19.088791237790844,8642.4067090003555,6129.3237815721959,-9988.8000418490119,9988.8000418490119,-6129.3237815721959,15135.352414801946,0.0
613523.2936376977,3597751.2368613081,-7500.0,9546.6417318454223,-2423.714260471033,-9339.7661082214763,887.223994914728,-963.9222407887338,51.939110115670914,9836.8067301089086,9757.0497074676114,-9428.5180107220858,9428.5180107220858,-9757.0497074676114,17038.106200567981,0.0
618523.2936376977,3597751.2368613081,-7500.0,15227.141524036089,1693.5182103023885,-7597.2792697647546,1855.0784443183784,-217.81072498360007,120.52826198845233,11654.190093893436,13781.947342059148,-6745.9329918075946,6745.9329918075946,-13781.947342059148,20577.525006295811,0.0
623523.2936376977,3597751.2368613081,-7500.0,21693.643745301051,7970.4380007393047,-2442.308818266888,3021.0058699247643,1134.7698667231373,108.15765223358609,14680.057115123991,17472.493228318508,-629.15754231148094,629.15754231148094,-17472.493228318508,27373.661259347307,0.0
628523.2936376977,3597751.2368613081,-7500.0,28304.686826590783,16366.0303254879,8252.513436156134,4196.505651569697,3242.9606843440947,-176.22816683802361,19932.398824450498,19604.44278974941,10374.590348164313,-10374.590348164313,-19604.44278974941,39116.12375571554,0.0
633523.2936376977,3597751.2368613081,-7500.0,34259.017499542832,26091.458151571325,26903.165741184319,4997.411042557269,6110.5259301153974,-1141.7362960578723,30192.135815438007,18598.461475485055,27445.511454708358,-27445.511454708358,-18598.461475485055,57237.660028790029,0.0
638523.2936376977,3597751.2368613081,-7500.0,38955.348055187409,35543.692513070942,55737.418641283162,4759.2841410564597,9381.2926122038916,-3628.0825380053911,45081.731578340288,12863.088739419883,51083.858225527656,-51083.858225527656,-12863.088739419883,83256.622165924826,0.0
643523.2936376977,3597751.2368613081,-7500.0,41888.270965623284,42699.133740863632,96891.558877922085,2576.4131477557935,11813.337937964079,-9285.0335998561259,65959.606515736901,676.8117929144355,81409.888343621889,-81409.888343621889,-676.8117929144355,119862.40205438585,0.0
648523.2936376977,3597751.2368613081,-7500.0,39694.406230675086,43381.032803936738,153927.79780028676,-1513.5671443595745,10527.399284660767,-20331.557282460166,95156.297025251639,-22061.657016946745,118226.93962894763,-118226.93962894763,22061.657016946745,171739.47282008847,0.0
653523.2936376977,3597751.2368613081,-7500.0,24506.519723548739,17165.728159312777,219661.0459279732,-3336.4993469704345,3060.274289745113,-34600.863766295857,128021.25756496078,-58292.071283507605,143888.85208049376,-143888.85208049376,58292.071283507605,232507.04180908931,1.0
658523.2936376977,3597751.2368613081,-7500.0,21486.266463968874,-59484.578433150789,209011.47733088041,2122.1351824080416,-5052.4782481678585,-37058.986269566529,131791.09769122445,-60943.274021441219,84683.034294803612,-84683.034294803612,60943.274021441219,245514.35882464569,0.0
663523.2936376977,3597751.2368613081,-7500.0,61010.564466801661,-87442.91529557803,60377.87950760909,7416.5961695207707,-5773.4330727380375,-19910.907287035574,87801.849140740742,16676.392024564077,-34544.566097175193,34544.566097175193,-16676.392024564077,172340.62978224421,1.0
668523.2936376977,3597751.2368613081,-7500.0,62400.952188201059,-28740.881701950835,-47057.343565044197,6476.0046632611457,-5461.2160975323577,-4050.840556677244,62346.531598240923,58264.480279436451,-61625.102341433492,61625.102341433492,-58264.480279436451,108704.48325904098,1.0
673523.2936376977,3597751.2368613081,-7500.0,28994.884651931759,16795.214709695705,-63132.625981273231,5794.0633463201575,-7565.1031261085636,558.05355864840624,49867.677610622595,43858.518382173708,-34690.55403426577,34690.55403426577,-43858.518382173708,88289.074616975879,0.0
678523.2936376977,3597751.2368613081,-7500.0,1069.6954197200837,31498.562583083796,-49754.985633121942,6694.916401047788,-8566.1582103787623,222.41835333545313,41501.579758235202,21565.184874358216,-11467.319733001837,11467.319733001837,-21565.184874358216,76628.224216642702,0.0
683523.2936376977,3597751.2368613081,-7500.0,-14301.741863867463,31656.782442450829,-34908.724519540796,7305.6873412601608,-7829.57667090632,-580.71319737515068,34355.61438425388,6325.980630237279,690.34471529883467,-690.34471529883467,-6325.980630237279,65162.450848121647,0.0
688523.2936376977,3597751.2368613081,-7500.0,-20959.171774494127,27194.07805802549,-23881.266858489085,7088.9928338277514,-6354.5870230041,-922.50797591067237,28195.554816662901,-2235.6504675481938,5915.1325715204594,-5915.1325715204594,2235.6504675481938,54396.810603323094,0.0
693523.2936376977,3597751.2368613081,-7500.0,-22743.261810461609,22010.123806930878,-16395.819917966764,6339.6292731424155,-4864.3546731441575,-932.7133968753559,23037.984504714532,-6510.0924730975794,7625.24863735694,-7625.24863735694,6510.0924730975794,44971.5914671879,0.0
698523.2936376977,3597751.2368613081,-7500.0,-22082.612590877528,17387.064445723725,-11418.869085257058,5405.8492792683683,-3628.1965335859859,-807.84801096253716,18822.824477372294,-8312.0626500911203,7707.2597003406263,-7707.2597003406263,8312.0626500911203,37061.482438382285,0.0
703523.2936376977,3597751.2368613081,-7500.0,-20337.129124236028,13618.840634231838,-8101.2290822233999,4492.4776090041551,-2682.7543413515314,-654.15044522716846,15428.648607921883,-8766.4633583761679,7107.1103148475859,-7107.1103148475859,8766.4633583761679,30575.398252568473,0.0
708523.2936376977,3597751.2368613081,-7500.0,-18221.218954513795,10660.320783375677,-5863.3467242399911,3686.6442389231897,-1984.6049824844281,-513.80660530023806,12721.063380551543,-8525.7249854444817,6278.0641903923943,-6278.0641903923943,8525.7249854444817,25317.204515518217,0.0
713523.2936376977,3597751.2368613081,-7500.0,-16089.029034622274,8373.2143477953578,-4329.8847464455894,3010.7906503393365,-1475.9376282524956,-398.56383220242168,10585.535352183688,-7955.7998566316819,5427.2902277472513,-5427.2902277472513,7955.7998566316819,21071.868464970103,0.0
718523.2936376977,3597751.2368613081,-7500.0,-14101.997914637768,6613.5922956595805,-3260.8433269375896,2458.3166693650546,-1106.2052689831844,-308.22165237283122,8886.2725730217735,-7256.6964193952508,4641.8885522525861,-4641.8885522525861,7256.6964193952508,17643.080160564634,0.0
723523.2936376977,3597751.2368613081,-7500.0,-12321.838194949272,5258.6571509134355,-2502.3225874964114,2012.2724185360244,-836.53095971361256,-238.84668193579779,7508.90743732597,-6534.3755325949987,3951.7353066793621,-3951.7353066793621,6534.3755325949987,14865.394209816606,0.0
728523.2936376977,3597751.2368613081,-7500.0,-10760.61694342054,4211.2453892549183,-1954.6640225583189,1653.9253735400073,-638.54611580512665,-185.98807503083043,6384.0716635205454,-5842.2216914566779,3360.4669332381145,-3360.4669332381145,5842.2216914566779,12604.812279970805,0.0
733523.2936376977,3597751.2368613081,-7500.0,-9407.19482250701,3397.0196971871756,-1552.4932392033038,1366.18810777678,-492.00753656989781,-145.7518067305912,5460.350971905902,-5204.6132879473898,2860.5961244644441,-2860.5961244644441,5204.6132879473898,10754.982339938133,0.0
738523.2936376977,3597751.2368613081,-7500.0,-8240.905495182893,2759.9551969071795,-1252.3081697348521,1134.6656732827869,-382.58255933702088,-115.03522413648187,4697.5333648912165,-4630.2224182775271,2440.7513900965914,-2440.7513900965914,4630.2224182775271,9232.3014399050517,0.0
743523.2936376977,3597751.2368613081,-7500.0,-7238.4330328518736,2258.0614341723467,-1024.7307310207379,947.69410581118609,-300.12546144897289,-91.467379504622883,4063.9696966803012,-4119.4815649868397,2089.0207122617694,-2089.0207122617694,4119.4815649868397,7971.2746765170577,0.0
748523.2936376977,3597751.2368613081,-7500.0,-6377.1052378440336,1859.8764175091037,-849.62672284760868,796.00923853297354,-237.42588063159016,-73.271467922370149,3534.7157653328054,-3668.7508528525645,1794.3826089629188,-1794.3826089629188,3668.7508528525645,6920.5822979205313,0.0
753523.2936376977,3597751.2368613081,-7500.0,-5636.3140427226808,1541.7621861447103,-712.99660596863475,672.32467236821321,-189.32726126408164,-59.126537497345417,3090.069603804191,-3272.613820502901,1547.2119655577862,-1547.2119655577862,3272.613820502901,6039.9087994472911,0.0
548523.2936376977,3602751.2368613081,-7500.0,-3865.6662046904812,-1740.8782494940615,-898.17388765099122,-453.97275087807492,-217.92338537375176,-38.221755159484502,2369.9130759116792,-2660.3401395243163,-939.44388078139923,939.44388078139923,2660.3401395243163,4685.0983434755763,0.0
553523.2936376977,3602751.2368613081,-7500.0,-4250.0452621490185,-2037.3053086216867,-1068.0603306460991,-521.6790818895272,-264.02909733559886,-45.735096185477722,2664.4478936745763,-2917.2311767134943,-1164.1595033050485,1164.1595033050485,2917.2311767134943,5282.1037975651925,0.0
558523.2936376977,3602751.2368613081,-7500.0,-4664.515407872882,-2392.8290137931731,-1281.9387457603846,-599.87327211558556,-321.45094690130821,-54.803721637294906,3003.1255760746094,-3189.1020199509849,-1449.4167861735743,1449.4167861735743,3189.1020199509849,5972.0173782144775,0.0
563523.2936376977,3602751.2368613081,-7500.0,-5102.7515299147608,-2819.2036253884412,-1553.4902345346393,-689.47402306932679,-393.10713439272223,-65.677104479398452,3393.0012442803163,-3468.4570366308667,-1812.879636731735,1812.879636731735,3468.4570366308667,6769.4114513091272,0.0
568523.2936376977,3602751.2368613081,-7500.0,-5551.8965513296134,-3329.3983214258701,-1900.9615079158682,-790.83445849090435,-482.53766024132432,-78.561050659837193,3855.6461096829235,-3741.7162467234139,-2277.2306744498692,2277.2306744498692,3741.7162467234139,7689.8244818309267,0.0
573523.2936376977,3602751.2368613081,-7500.0,-5988.7333893146497,-3936.5023031387736,-2348.5042481961209,-903.14668314642245,-593.85344027635335,-93.524008911620655,4405.9868385402888,-3985.8339667976588,-2871.0772305370092,2871.0772305370092,3985.8339667976588,8748.6003181292981,0.0
578523.2936376977,3602751.2368613081,-7500.0,-6374.0016196571032,-4651.2453603109116,-2927.5485111544331,-1023.4500266051832,-731.44669696879203,-110.32162399680074,5042.5341997809346,-4163.3652091991271,-3629.340526759308,3629.340526759308,4163.3652091991271,9958.6088191709132,0.0
583523.2936376977,3602751.2368613081,-7500.0,-6644.2328168714866,-5476.9836576921316,-3677.6500306293315,-1145.0475417884643,-899.19921581057508,-128.08899129020355,5771.8557155531389,-4215.5606588534447,-4592.1348336691171,4592.1348336691171,4215.5606588534447,11326.128771364554,0.0
588523.2936376977,3602751.2368613081,-7500.0,-6700.6381802925844,-6400.2539934196348,-4645.4027637859608,-1255.1176431470401,-1098.7103609601747,-144.8370119159342,6596.2205969836896,-4053.3879054188064,-5800.0708162364908,5800.0708162364908,4053.3879054188064,12843.909632150222,0.0
593523.2936376977,3602751.2368613081,-7500.0,-6395.351988963158,-7374.0243714463404,-5878.2425110515287,-1331.4141507263,-1325.740352158417,-156.71727431889519,7508.5048451844968,-3547.4426921465129,-7281.9787821366936,7281.9787821366936,3547.4426921465129,14480.378718565313,0.0
598523.2936376977,3602751.2368613081,-7500.0,-5517.4813892648099,-8289.9156499929686,-7406.5156062451006,-1338.4026852897332,-1563.6726338627066,-157.1768380456904,8485.8561153524261,-2520.4294843586149,-9027.8268782328669,9027.8268782328669,2520.4294843586149,16164.912615881098,0.0
603523.2936376977,3602751.2368613081,-7500.0,-3786.1051907440974,-8936.2916143747225,-9201.1309799793926,-1224.3953595495675,-1772.6366045924647,-136.64629640698962,9483.4398350636475,-751.64828376987043,-10935.187412173025,10935.187412173025,751.64828376987043,17773.549043053947,0.0
608523.2936376977,3602751.2368613081,-7500.0,-865.49393510252537,-8944.617799444306,-11085.328140666521,-923.75453175161454,-1873.9000647467456,-84.775586666607751,10435.73857290804,1987.0861579371813,-12714.014407801749,12714.014407801749,-1987.0861579371813,19134.951758711934,0.0
613523.2936376977,3602751.2368613081,-7500.0,3572.6776722512277,-7743.3987466142771,-12571.422900208343,-372.06157246246619,-1733.196541208549,-0.22396744615123554,11288.669355490263,5832.4917798445404,-13739.053107843776,13739.053107843776,-5832.4917798445404,20125.2130088987,0.0
618523.2936376977,3602751.2368613081,-7500.0,9716.5171989052687,-4574.2654997348836,-12601.53805315176,455.21293504584861,-1156.3538417078157,81.815606047843033,12121.62351427198,10635.263223499282,-12868.545209795469,12868.545209795469,-10635.263223499282,21054.692973002417,0.0
623523.2936376977,3602751.2368613081,-7500.0,17428.230678452666,1329.3849708729711,-9226.1004434244915,1476.5939883865892,75.216915864960427,28.30539744648819,13455.440643698726,15681.861390958962,-8322.5659373717608,8322.5659373717608,-15681.861390958962,23691.49958906505,0.0
628523.2936376977,3602751.2368613081,-7500.0,26140.351629248627,10297.583631273686,617.55204192971019,2433.6583669266379,2099.0093224850439,-503.37463949716522,16793.650694831431,19477.367635354614,2177.6639651511432,-2177.6639651511432,-19477.367635354614,32099.614451256588,0.0
633523.2936376977,3602751.2368613081,-7500.0,35157.547167376579,21554.9302802948,20906.5312891674,2867.2943808300902,4810.810002056789,-2237.5977102087882,27263.833626907453,19941.379615086073,20772.780198677538,-20772.780198677538,-19941.379615086073,50561.945952959184,0.0
638523.2936376977,3602751.2368613081,-7500.0,44952.684908397205,32825.244863918655,55586.293503931658,2105.8454883977947,7725.3330821532927,-6579.7021574622104,45864.501061357114,15554.193851575958,48366.995312307001,-48366.995312307001,-15554.193851575958,82106.46718135431,0.0
643523.2936376977,3602751.2368613081,-7500.0,60371.17921109256,42257.795719761118,107625.27000207896,-1028.8304020183416,9514.451645269537,-16540.28142047417,75177.588855458205,7814.5203297063126,84764.513997218106,-84764.513997218106,-7814.5203297063126,131964.45263825153,0.0
648523.2936376977,3602751.2368613081,-7500.0,91740.795559479069,58196.969714007108,188046.33655044431,-7427.2731673525896,5318.6360077627214,-39088.328848160781,127656.53185900711,-336.574150882705,140293.18156672205,-140293.18156672205,336.574150882705,222264.71897496493,1.0
653523.2936376977,3602751.2368613081,-7500.0,108163.89487016658,85542.192642357957,365869.77918542823,-7376.517154687961,-13820.92422578251,-78776.076895008431,235758.05100116812,-50017.671699268947,264368.10451201396,-264368.10451201396,50017.671699268947,414997.71037132433,0.0
658523.2936376977,3602751.2368613081,-7500.0,49115.678007255206,-96015.600726255667,515254.30031444516,18115.964647510027,-33713.723412817337,-87816.789865855651,313700.54221493687,-145744.30771510652,239519.13655743684,-239519.13655743684,145744.30771510652,576122.05703360215,0.0
663523.2936376977,3602751.2368613081,-7500.0,160885.04505944357,-156299.48574914888,9736.8674264138026,35000.400283360912,-14507.06412163791,-22351.924963610389,176369.21592987387,106740.19253951304,-136238.22063473624,136238.22063473624,-106740.19253951304,326068.49160207494,0.0
668523.2936376977,3602751.2368613081,-7500.0,68335.380745422648,33207.951294724277,-138904.73395790314,17611.035849215103,-1727.8460726779492,13644.153747213353,111154.42141502634,102882.51684341618,-79438.671275667992,79438.671275667992,-102882.51684341618,197111.8603514783,0.0
673523.2936376977,3602751.2368613081,-7500.0,-11924.28154979222,67141.860963130224,-89688.874570510641,11155.824021095861,-6908.5941219436963,11084.9622232494,79193.028168554461,30942.761254888253,-10403.666634952737,10403.666634952737,-30942.761254888253,149688.65498821702,0.0
678523.2936376977,3602751.2368613081,-7500.0,-38025.252946511493,56878.674698765026,-51824.109645754303,11596.136382841827,-9249.1064828834587,4049.2760123230819,58723.102680916287,-696.28333661951456,10845.72131516119,-10845.72131516119,696.28333661951456,113608.3394156983,0.0
683523.2936376977,3602751.2368613081,-7500.0,-43497.092067128135,43114.746268674513,-30973.410446218026,11581.374016583193,-8304.9145737080416,444.9308616330548,44981.334099133077,-12527.263399973252,15627.953404346712,-15627.953404346712,12527.263399973252,87882.715043843767,0.0
688523.2936376977,3602751.2368613081,-7500.0,-41602.040088903275,31896.91750157105,-19325.066355945248,10374.397286361707,-6443.5581511767132,-791.60235632349622,35045.952718775181,-16316.219678120851,15274.4266471913,-15274.4266471913,16316.219678120851,68936.964377894998,0.0
693523.2936376977,3602751.2368613081,-7500.0,-37178.455703825413,23527.053649077407,-12538.028377836952,8691.1675609415688,-4724.0126473813889,-1027.9536139440095,27588.404589861584,-16682.484748620955,13404.210901116929,-13404.210901116929,16682.484748620955,54565.286291091397,0.0
698523.2936376977,3602751.2368613081,-7500.0,-32206.757105576951,17440.399573048173,-8427.3408371271853,7037.2160630447024,-3397.3396783711846,-929.71391836136297,21922.973468194297,-15614.541378476688,11271.596890630228,-11271.596890630228,15614.541378476688,43539.175821729244,0.0
703523.2936376977,3602751.2368613081,-7500.0,-27498.899943701843,13040.200647708616,-5851.058540542831,5613.5057702936556,-2437.7164611511676,-754.04783017775128,17607.055190845622,-14028.465988116786,9308.6362412257768,-9308.6362412257768,14028.465988116786,35034.983368311281,0.0
708523.2936376977,3602751.2368613081,-7500.0,-23343.457057907457,9850.2849451251495,-4185.8409755703042,4458.3773201758058,-1759.1309661077703,-586.61985676282507,14307.080981973997,-12348.207008329899,7636.971457358768,-7636.971457358768,12348.207008329899,28441.527627138021,0.0
713523.2936376977,3602751.2368613081,-7500.0,-19796.474960574062,7521.3034581258407,-3078.5371092737614,3546.1037633395035,-1281.3840407459793,-449.48414376508487,11745.170919315706,-10760.406471437167,6261.2476821384698,-6261.2476821384698,10760.406471437167,23296.225393589732,0.0
718523.2936376977,3602751.2368613081,-7500.0,-16817.982875253601,5805.1646724310085,-2322.5578169945425,2833.5073383239901,-943.6217162477094,-343.36680889032937,9728.9189140573963,-9336.5722571765818,5146.3423842903976,-5146.3423842903976,9336.5722571765818,19250.483826682739,0.0
723523.2936376977,3602751.2368613081,-7500.0,-14335.102098408081,4527.7100858066788,-1793.5648869061381,2278.29337743822,-702.8342977359182,-263.08933659391579,8126.6646331479378,-8093.5123487192141,4248.1429105699845,-4248.1429105699845,8093.5123487192141,16043.107344206446,0.0
728523.2936376977,3602751.2368613081,-7500.0,-12269.952391428003,3566.8367118211672,-1414.7658369873027,1844.795171345173,-529.41876006195241,-202.80122965618526,6842.3433438276552,-7023.3975133954154,3525.0947702168555,-3525.0947702168555,7023.3975133954154,13478.785849647224,0.0
733523.2936376977,3602751.2368613081,-7500.0,-10550.938602219279,2836.5825018307887,-1137.5915433805976,1504.7514745779692,-403.151146327341,-157.51016138308694,5804.2696127242616,-6108.5887780547055,2941.8002308573996,-2941.8002308573996,6108.5887780547055,11411.245899125144,0.0
738523.2936376977,3602751.2368613081,-7500.0,-9116.410869320358,2276.0003359308312,-930.63680901565795,1236.4013026241632,-310.19154488444451,-123.33868369679791,4958.4462508450297,-5328.7807974429315,2469.4493287175883,-2469.4493287175883,5328.7807974429315,9730.4799880111514,0.0
743523.2936376977,3602751.2368613081,-7500.0,-7914.9896444230963,1841.5059493049441,-773.17055165728914,1023.2000332073272,-241.00859128723468,-97.391288197937655,4263.9077977988054,-4664.2732409143628,2085.1114401359391,-2085.1114401359391,4664.2732409143628,8353.2660465263998,0.0
748523.2936376977,3602751.2368613081,-7500.0,-6904.5770946754437,1501.6391920359804,-651.23909936856444,852.62244946270198,-188.98083998385229,-77.541326776053737,3689.355004973002,-4097.3139684625121,1770.7294163726174,-1770.7294163726174,4097.3139684625121,7216.2101191556076,0.0
753523.2936376977,3602751.2368613081,-7500.0,-6050.973347840787,1233.472809237652,-555.27664639946022,715.18190843217144,-149.46297846090496,-62.235206812048638,3210.6995439904117,-3612.5019588054724,1512.1445191211474,-1512.1445191211474,3612.5019588054724,6270.6631909408934,0.0
548523.2936376977,3607751.2368613081,-7500.0,-4533.1760158672087,-1610.1349758925114,-757.19132102836363,-523.35580002279573,-199.24497256837074,-43.145826085269476,2602.7399261501641,-3180.3091463838159,-624.88101447855388,624.88101447855388,3180.3091463838159,5116.8886761527701,0.0
553523.2936376977,3607751.2368613081,-7500.0,-5066.3013557748955,-1903.4304450739824,-897.03056170023831,-609.62650666397235,-243.37315581753134,-52.182979196585478,2950.2502388882303,-3555.8285182460399,-797.56689828182562,797.56689828182562,3555.8285182460399,5812.1211302472493,0.0
558523.2936376977,3607751.2368613081,-7500.0,-5668.9253858013644,-2262.2723724977909,-1074.2624038221118,-712.14814325546592,-299.13782889507064,-63.298274271630738,3356.4742949063602,-3978.2091934075447,-1022.6951759263052,1022.6951759263052,3978.2091934075447,6627.3343034222935,0.0
563523.2936376977,3607751.2368613081,-7500.0,-6346.2925339480389,-2702.9726286892819,-1301.5658244256508,-833.80401082977062,-369.92550951071109,-76.924648812273645,3832.3288053454694,-4449.3252276570611,-1317.913872408629,1317.913872408629,4449.3252276570611,7585.6047061847394,0.0
568523.2936376977,3607751.2368613081,-7500.0,-7100.4938600378409,-3245.6581667137261,-1596.5744148492074,-977.58834666695861,-460.07580619575009,-93.504527519209802,4390.3447377252069,-4967.6183399995589,-1707.161913647584,1707.161913647584,4967.6183399995589,8713.7856813270646,0.0
573523.2936376977,3607751.2368613081,-7500.0,-7927.3389062608658,-3914.5525259226665,-1983.8988304045918,-1146.2010025373631,-575.02668268802847,-113.3922957857442,5044.3700514035245,-5525.1517480330394,-2222.7785403695807,2222.7785403695807,5525.1517480330394,10042.160118123807,0.0
578523.2936376977,3607751.2368613081,-7500.0,-8811.1396457670726,-4737.4998142638751,-2497.8507355348711,-1341.2363319765855,-721.31154929076513,-136.64469708084934,5808.6761946470424,-6102.775518822109,-2907.9843435019397,2907.9843435019397,6102.775518822109,11602.983061952271,0.0
583523.2936376977,3607751.2368613081,-7500.0,-9716.2656023086547,-5743.7142306938213,-3185.8477002482018,-1561.6858349812978,-906.15249653100057,-162.60190657059482,6731.0004605519098,-6662.4267311828808,-3819.2760561588329,3819.2760561588329,6662.4267311828808,13426.843114894065,0.0
588523.2936376977,3607751.2368613081,-7500.0,-10573.959153157823,-6957.7633959183759,-4111.971908657024,-1801.3553762672354,-1136.1151450805646,-189.10498101026144,7821.5857762305159,-7135.3660242018732,-5027.373210939907,5027.373210939907,7135.3660242018732,15534.928741151431,0.0
593523.2936376977,3607751.2368613081,-7500.0,-11262.845418224279,-8386.096638255216,-5358.7535349784794,-2044.7614431510035,-1413.7882599986369,-211.14066425174602,9069.4936961976528,-7405.4092997514344,-6613.3188508966632,6613.3188508966632,7405.4092997514344,17923.938989234935,0.0
598523.2936376977,3607751.2368613081,-7500.0,-11582.711374347071,-9989.7967755147438,-7021.763989824919,-2261.4030554960859,-1730.6565272764699,-218.76839131866166,10454.185288830484,-7288.0429780205213,-8652.0714217819568,8652.0714217819568,7288.0429780205213,20538.416720192618,0.0
603523.2936376977,3607751.2368613081,-7500.0,-11225.479432173865,-11634.169551488858,-9183.713399031878,-2399.7510638130925,-2053.4533142172295,-194.73822114113602,11908.477686961298,-6512.2214568068521,-11167.848809407969,11167.848809407969,6512.2214568068521,23223.091912533921,0.0
608523.2936376977,3607751.2368613081,-7500.0,-9758.5612628793442,-13005.381175313199,-11838.665391064462,-2386.299930665426,-2301.5218231288054,-114.27981842088111,13282.80299974751,-4726.3439523920097,-14032.503947631612,14032.503947631612,4726.3439523920097,25647.49921805015,0.0
613523.2936376977,3607751.2368613081,-7500.0,-6657.6655403869991,-13496.834079278589,-14709.790093013366,-2143.2556629248106,-2317.9977527196797,44.602308200970036,14298.326040466143,-1578.6793945212266,-16764.74748890923,16764.74748890923,1578.6793945212266,27205.112853518265,0.0
618523.2936376977,3607751.2368613081,-7500.0,-1452.0402152356307,-12116.000868670695,-16875.036536004558,-1648.7052734395018,-1856.3960995006553,259.11201428615129,14515.653061332498,3040.6955411487324,-18197.364422613002,18197.364422613002,-3040.6955411487324,26945.754578835815,0.0
623523.2936376977,3607751.2368613081,-7500.0,5970.2953322336234,-7570.8812554644001,-16134.97050049423,-1057.0920508538188,-644.61203951801792,347.85118649903507,13461.680851924601,8517.2037937765308,-16072.020410972491,16072.020410972491,-8517.2037937765308,23927.445894741431,0.0
628523.2936376977,3607751.2368613081,-7500.0,15009.348957339946,1181.645867227614,-8232.4474815369449,-824.54822048252174,1372.2422350026475,-255.32470357676004,11820.234572754238,12893.033117147608,-6857.8394381755588,6857.8394381755588,-12893.033117147608,20743.446487323377,0.0
633523.2936376977,3607751.2368613081,-7500.0,24370.535257289645,13698.949369777851,13632.420372418188,-1588.1717214249622,3593.8457138675508,-2781.3324076026215,19111.841574460774,12627.690980676383,13657.957211450324,-13657.957211450324,-12627.690980676383,34209.192411554322,0.0
638523.2936376977,3607751.2368613081,-7500.0,33074.572705287115,25992.016475174427,58250.352841434877,-3411.0199742050977,4573.40356760123,-9094.3535021583939,42393.406047535464,3599.4060446328476,48310.712831109704,-48310.712831109704,-3599.4060446328476,74820.330468634362,1.0
643523.2936376977,3607751.2368613081,-7500.0,45369.374048487509,27234.439288670994,132366.11065848885,-5213.9086538231259,2908.5701827153985,-21001.56568379324,80892.295252533571,-14102.30989024468,92895.156538085444,-92895.156538085444,14102.30989024468,141702.74135020465,0.0
648523.2936376977,3607751.2368613081,-7500.0,100845.69232029316,6287.8019330359912,229126.15966756764,-8804.4547724665281,-6327.3899508887635,-43131.290225372679,136698.92719820651,-13147.365693489832,128122.35053630009,-128122.35053630009,13147.365693489832,236909.17381084827,0.0
653523.2936376977,3607751.2368613081,-7500.0,383092.28704230633,95819.269682910905,436052.97810387047,-5754.1137097044839,-60926.877005864342,-97738.51842486758,309048.65850212099,111706.08356419964,258225.09865478991,-258225.09865478991,-111706.08356419964,546120.69165311381,0.0
658523.2936376977,3607751.2368613081,-7500.0,293756.38520638936,92679.061978139289,2285151.5887472732,69067.97362822984,-111600.84407140019,-42099.879177413502,1178592.3941350991,-541313.05472420645,1393652.4362346802,-1393652.4362346802,541313.05472420645,2196524.6337584453,0.0
663523.2936376977,3607751.2368613081,-7500.0,354490.74631235044,152919.50618538805,-706759.27168011619,89506.554920389986,4007.534560470393,62436.970960947881,564062.59189785621,527520.22753312148,-414923.36120565707,414923.36120565707,-527520.22753312148,997918.08846038801,0.0
668523.2936376977,3607751.2368613081,-7500.0,-171535.84651425999,226170.14552880227,-208299.49282011722,7829.6949554180737,12285.878383337802,75146.710563712491,248335.09541898512,-23885.771170795048,54693.35019945589,-54693.35019945589,23885.771170795048,474729.75987635582,0.0
673523.2936376977,3607751.2368613081,-7500.0,-138914.44627965815,113133.67863937732,-75250.438744703919,10393.893723841868,-5264.6652034391082,32863.426758168906,129339.02856121374,-56620.596930803164,53304.75245675836,-53304.75245675836,56620.596930803164,247849.98007699355,0.0
678523.2936376977,3607751.2368613081,-7500.0,-103100.47767845329,66494.755680435977,-35632.488795585501,15175.039996465672,-8565.7833477260083,10281.660344701677,79075.81899828311,-48269.93676228862,38982.447664714244,-38982.447664714244,48269.93676228862,154704.21767910747,0.0
683523.2936376977,3607751.2368613081,-7500.0,-80339.902484808845,43002.194685690811,-19443.712833668807,15414.049142076386,-7352.949303021448,2003.7277034009996,55079.902854871274,-40025.767636550285,29081.967323783858,-29081.967323783858,40025.767636550285,109073.13414711853,0.0
688523.2936376977,3607751.2368613081,-7500.0,-64023.484391055419,29143.796307163469,-11571.461989922203,13327.886141558001,-5445.84963895487,-504.40146299765877,40973.465074856926,-33258.245129641422,22062.880276041749,-22062.880276041749,33258.245129641422,81388.796899856985,0.0
693523.2936376977,3607751.2368613081,-7500.0,-51464.852537948034,20317.308943828262,-7336.7481726784681,10746.384291460578,-3850.3877221346438,-1052.2453815581594,31398.757624948626,-27596.824437295214,16908.740711670242,-16908.740711670242,27596.824437295214,62397.256961043888,0.0
698523.2936376977,3607751.2368613081,-7500.0,-41607.364175805167,14469.324305297325,-4898.6825200182411,8419.8391746468969,-2692.4590909374833,-1008.3880674352145,24497.619272242406,-22875.687809014096,13072.669726142529,-13072.669726142529,22875.687809014096,48661.919413914671,0.0
703523.2936376977,3607751.2368613081,-7500.0,-33842.778882859137,10494.216629955008,-3420.0532572341599,6537.5109010920532,-1889.2334924388008,-824.80122046629288,19393.167271596372,-18983.012062614529,10198.601447887169,-10198.601447887169,18983.012062614529,38477.8210429354,0.0
708523.2936376977,3607751.2368613081,-7500.0,-27716.800398177988,7736.8830062749175,-2483.4282110191521,5079.1554814380988,-1338.4202874402001,-639.26801609406698,15551.339707193767,-15801.568081465557,8031.9326331838893,-8031.9326331838893,15801.568081465557,30805.908899125701,0.0
713523.2936376977,3607751.2368613081,-7500.0,-22868.308894523339,5790.0182657039404,-1866.9536889431529,3967.5883426752089,-959.73244506625792,-486.36198099799981,12617.803644993857,-13212.632302764301,6386.7328943292123,-6386.7328943292123,13212.632302764301,24950.32497199432,0.0
718523.2936376977,3607751.2368613081,-7500.0,-19012.046386096063,4392.9748032677389,-1446.8700720061202,3123.3430153241543,-697.08786331892532,-368.68734470852775,10348.968674820768,-11107.090647804025,5127.2415203900637,-5127.2415203900637,11107.090647804025,20426.812251313637,0.0
723523.2936376977,3607751.2368613081,-7500.0,-15926.076786209325,3375.3631713012633,-1151.3616643378466,2480.2810000906056,-512.8259451007533,-280.41460048171206,8573.4181609613861,-9391.2052426648897,4154.5401880404333,-4154.5401880404333,9391.2052426648897,16892.079000462596,0.0
728523.2936376977,3607751.2368613081,-7500.0,-13439.546311632748,2623.7643390222715,-937.32190738994314,1987.4369049655998,-381.93422864283031,-214.70445243150914,7168.4981563300889,-7987.6537638764639,3396.5265651337468,-3396.5265651337468,7987.6537638764639,14099.711775757254,0.0
733523.2936376977,3607751.2368613081,-7500.0,-11421.567718515533,2061.4299600645868,-778.08596571779174,1606.7747568440432,-287.77644454308762,-165.75116003358383,6045.2741686071231,-6834.1203295637715,2800.4771904209047,-2800.4771904209047,6834.1203295637715,11870.894393930259,0.0
738523.2936376977,3607751.2368613081,-7500.0,-9771.9272514635359,1635.6248625948747,-656.7016402717951,1310.2575007207884,-219.20604174494633,-129.09748960131009,5138.49813174681,-5881.0061076227066,2327.6349521897428,-2327.6349521897428,5881.0061076227066,10074.483562133915,0.0
743523.2936376977,3607751.2368613081,-7500.0,-8413.7143002240628,1309.5878981344067,-562.11389401312772,1077.2733752050119,-168.67830993784,-101.45562844270769,4399.768202405382,-5089.0628787642254,1949.3192200536455,-1949.3192200536455,5089.0628787642254,8613.2869383212055,0.0
748523.2936376977,3607751.2368613081,-7500.0,-7287.64923280741,1057.3430954359312,-486.93998411366442,892.63125095935811,-131.02792928850081,-80.438512365632704,3792.7964324897271,-4427.2813746768725,1644.1461379558325,-1644.1461379558325,4427.2813746768725,7414.5254682989162,0.0
753523.2936376977,3607751.2368613081,-7500.0,-6347.7932742834437,860.29903708341567,-426.13763206806084,745.07546289679794,-102.67646041437902,-64.320653421853166,3290.0984945442128,-3871.1351490826673,1396.0452728279324,-1396.0452728279324,3871.1351490826673,6423.1499769575521,0.0
543523.2936376977,3612751.2368613081,-7500.0,-4565.9154643299426,-1174.5338468161394,-532.31311733872212,-500.98562685586398,-139.96775531124683,-39.226941312964783,2477.157262302454,-3233.8001751137431,-184.77487098512029,184.77487098512029,3233.8001751137431,4842.7592766940688,0.0
548523.2936376977,3612751.2368613081,-7500.0,-5149.2692075318973,-1389.7056692355006,-617.384586668721,-587.04333280999117,-170.71443377085029,-47.626213458987799,2814.1807441296437,-3655.3555903076849,-260.35933065608037,260.35933065608037,3655.3555903076849,5509.9743600687452,0.0
553523.2936376977,3612751.2368613081,-7500.0,-5826.8373058949182,-1655.1414936468097,-723.46948477535113,-691.03173773146489,-209.72379617652376,-58.088607463473565,3211.5620149441597,-4145.470636891403,-362.72936082312435,362.72936082312435,4145.470636891403,6298.07788767903,0.0
558523.2936376977,3612751.2368613081,-7500.0,-6615.3126246335787,-1984.8221759377743,-857.65016566162217,-817.09305813822357,-259.55931527894364,-71.136175248682406,3682.2795254470047,-4715.9847579539655,-502.06357775998049,502.06357775998049,4715.9847579539655,7233.3503196186712,0.0
563523.2936376977,3612751.2368613081,-7500.0,-7533.6939131959325,-2397.0526425102776,-1029.9653858430468,-970.26622538850268,-323.63916414240572,-87.387588419395129,4242.3311831717756,-5380.042576914946,-692.77130392423032,692.77130392423032,5380.042576914946,8348.2494245823327,0.0
568523.2936376977,3612751.2368613081,-7500.0,-8602.814925891751,-2915.7894591813724,-1254.8345529044611,-1156.5464579653301,-406.49951624872261,-107.52670351115897,4911.3328191336013,-6151.4300217858163,-955.36939031576094,955.36939031576094,6151.4300217858163,9682.6409430201329,0.0
573523.2936376977,3612751.2368613081,-7500.0,-9844.0065444042139,-3572.2328474140763,-1553.2221104768505,-1382.7901428339098,-514.08577924925476,-132.19853843939615,5713.0755702304778,-7043.0279599733558,-1319.186738322137,1319.186738322137,7043.0279599733558,11284.925143061319,0.0
578523.2936376977,3612751.2368613081,-7500.0,-11276.136956952265,-4406.5195409453863,-1955.9198931702301,-1656.2754979173944,-653.98986806715914,-161.74866869758006,6675.8452401978593,-8063.6464329729097,-1826.187058736959,1826.187058736959,8063.6464329729097,13212.594710056954,0.0
583523.2936376977,3612751.2368613081,-7500.0,-12909.722687419,-5468.9800997475922,-2508.4520673677121,-1983.5674541842607,-835.40743900727011,-195.63646039104341,7832.1115641806746,-9211.9792638357612,-2536.146813287392,2536.146813287392,9211.9792638357612,15531.205164555266,0.0
588523.2936376977,3612751.2368613081,-7500.0,-14735.986757209826,-6819.5827409833346,-3278.1512592252639,-2368.0833549249887,-1068.2648496560996,-231.19770184909123,9216.9648029173786,-10465.658158513506,-3533.0544339658336,3533.0544339658336,10465.658158513506,18309.685002427032,0.0
593523.2936376977,3612751.2368613081,-7500.0,-16707.628535011616,-8522.3559571859096,-4363.552016947725,-2805.4386916919266,-1360.2768369445034,-261.16938572082483,10864.513599284719,-11762.444506741238,-4931.3207727402878,4931.3207727402878,11762.444506741238,21607.870431949214,0.0
598523.2936376977,3612751.2368613081,-7500.0,-18707.216669907524,-10627.847151708986,-5904.3612786568201,-3275.5390354122692,-1709.3542723338574,-269.0559596180222,12798.67368867687,-12970.219521332088,-6876.7766414902981,6876.7766414902981,12970.219521332088,25448.464011332733,0.0
603523.2936376977,3612751.2368613081,-7500.0,-20500.296049445966,-13129.748862408791,-8084.022630212784,-3731.4580147620222,-2086.5774542984773,-221.36618713379397,15001.371862083217,-13845.076972907667,-9528.3243058631779,9528.3243058631779,13845.076972907667,29759.263648446391,0.0
608523.2936376977,3612751.2368613081,-7500.0,-21678.971779484298,-15871.132158867846,-11099.072283018288,-4090.2302292581817,-2402.7969587289058,-57.575290739446537,17354.949484974462,-13989.81639936574,-12985.227646658779,12985.227646658779,13989.81639936574,34261.576369558061,0.0
613523.2936376977,3612751.2368613081,-7500.0,-21629.928908888262,-18367.100934054077,-15024.440176833492,-4245.6436134057149,-2455.6476524935638,312.56639997610864,19560.442217152544,-12865.261743866155,-17083.853306721714,17083.853306721714,12865.261743866155,38267.256913370591,0.0
618523.2936376977,3612751.2368613081,-7500.0,-19625.719622251316,-19534.484166151968,-19408.151807380429,-4153.0480152012669,-1883.3656506627458,967.07167107472162,20976.914171846951,-9999.8421883505871,-20929.711574376168,20929.711574376168,9999.8421883505871,40333.644730989654,0.0
623523.2936376977,3612751.2368613081,-7500.0,-15222.861824632048,-17465.303591784002,-22293.736744601007,-4057.2627232258983,-249.72402420274722,1787.5581965538142,20307.668047359639,-5674.6972159170773,-22033.924916771644,22033.924916771644,5674.6972159170773,37740.057380416438,0.0
628523.2936376977,3612751.2368613081,-7500.0,-9056.6637844940415,-9749.9656760724447,-18410.295675442234,-4817.0829375251224,2428.9458271040035,1981.974168851131,14999.040347291157,-2281.8192422581087,-15250.063614709688,15250.063614709688,2281.8192422581087,26174.243122528194,0.0
633523.2936376977,3612751.2368613081,-7500.0,-3524.0224993982652,5017.6992795343531,3115.4068952850903,-7745.0715365201913,4310.9667247482303,-621.05310874496024,9334.4896284742772,-5740.0644318760851,7616.3348692540721,-7616.3348692540721,5740.0644318760851,18560.140448512502,0.0
638523.2936376977,3612751.2368613081,-7500.0,-3954.4208034115818,24975.528172718165,61709.672328194829,-12202.660782835868,-322.32914482203074,-9204.2406196757311,46398.774503467983,-26669.248244595889,57738.891388270626,-57738.891388270626,26669.248244595889,83680.439133248219,0.0
643523.2936376977,3612751.2368613081,-7500.0,-30050.313903145197,36680.725735366432,191220.21900150171,-8409.6243264416007,-20912.480907790989,-21708.143062631687,118534.82618847954,-87742.688028486562,148158.50687275652,-148158.50687275652,87742.688028486562,229662.69134817718,0.0
648523.2936376977,3612751.2368613081,-7500.0,-163170.77841598971,-20001.359919069011,429327.88447926013,22791.652497160252,-67139.724290950995,-13342.072189676519,303454.69532263529,-253818.29341068523,272400.28968795278,-272400.28968795278,253818.29341068523,548645.39352825971,0.0
653523.2936376977,3612751.2368613081,-7500.0,-780689.88875732874,-308631.34541207762,726722.19337109185,56708.578660210602,-265507.60164066631,43853.922508113174,858737.00009569537,-795644.41391149256,353066.12944843899,-353066.12944843899,795644.41391149256,1488666.0972419793,0.0
658523.2936376977,3612751.2368613081,-7500.0,-1571005.2063985756,-4576616.7749387715,4721066.4698711811,80147.782563608489,-709247.46860824735,-17087.215661512451,5592883.1656040587,-3006501.0336299753,42693.861593448091,-42693.861593448091,3006501.0336299753,9828127.6932472643,0.0
663523.2936376977,3612751.2368613081,-7500.0,-2216419.4084619675,-59740.187237093574,-524773.50361366628,-345997.20485272631,-42200.340981270274,61403.082619780813,1192381.6900969993,-1476943.8027937119,107010.80178144982,-107010.80178144982,1476943.8027937119,2138238.4228158388,0.0
668523.2936376977,3612751.2368613081,-7500.0,-605773.4069412282,101494.66891736009,-87670.369279018501,-34661.983479418537,-14740.387996442052,123968.5226078995,376880.25784736604,-386112.23809804505,130383.50918097583,-130383.50918097583,386112.23809804505,676780.78491855913,0.0
673523.2936376977,3612751.2368613081,-7500.0,-263928.37042627757,65014.475814411118,-33404.90309147576,6684.4855514549517,-11198.453058302101,47664.854662794423,165232.06775450963,-160769.86151901921,70028.529456740856,-70028.529456740856,160769.86151901921,302642.96713806217,0.0
678523.2936376977,3612751.2368613081,-7500.0,-156289.98788365204,41000.068853964243,-15358.358794996395,17179.617547995393,-7736.3490199911112,14331.716841168045,92938.072770523926,-92283.84619934675,44029.569009803483,-44029.569009803483,92283.84619934675,176168.90588264033,0.0
683523.2936376977,3612751.2368613081,-7500.0,-108120.29836550368,26746.514468591882,-8012.1746231498073,17807.012801301244,-5207.3172141223304,3045.8816044565629,61814.554791201175,-62927.253839568657,30225.692600523631,-30225.692600523631,62927.253839568657,120123.53636572997,0.0
688523.2936376977,3612751.2368613081,-7500.0,-80132.495541948141,17966.460977125265,-4658.7466639531713,15156.597321866328,-3486.4062246496524,-277.46970065247262,44747.084892703613,-46558.931904657977,21725.695894174904,-21725.695894174904,46558.931904657977,87978.220754741604,0.0
693523.2936376977,3612751.2368613081,-7500.0,-61374.231534903804,12362.441726206351,-2976.948826615981,12000.384806136355,-2344.6300061648881,-1036.0458982654873,33720.897869042725,-35827.601986005218,16050.270109778106,-16050.270109778106,35827.601986005218,66591.010363938869,0.0
698523.2936376977,3612751.2368613081,-7500.0,-47944.363888613603,8684.2118422861022,-2061.2231582485679,9251.7172907772438,-1592.4534800384879,-1037.696636950129,26005.241569797905,-28186.521886382347,12092.419922905015,-12092.419922905015,28186.521886382347,51418.96508049385,0.0
703523.2936376977,3612751.2368613081,-7500.0,-38014.490654489091,6213.5329435177791,-1524.3291969552174,7085.9745888763518,-1095.3550330816233,-856.5185856019566,20398.29841052361,-22517.602115056812,9258.6417886792569,-9258.6417886792569,22517.602115056812,40328.685345911028,0.0
708523.2936376977,3612751.2368613081,-7500.0,-30528.3803418069,4520.1015920339387,-1187.4801424947407,5442.6120195232452,-763.86350835286578,-664.18107292219167,16232.904744005687,-18213.313053416125,7190.7749530163346,-7190.7749530163346,18213.313053416125,32069.094570430476,0.0
713523.2936376977,3612751.2368613081,-7500.0,-24801.354635620864,3338.060020725246,-962.63938306910802,4210.8508466882477,-540.13430441495746,-504.17887911284345,13086.617881896365,-14893.222443476618,5657.938390317875,-5657.938390317875,14893.222443476618,25824.80598571384,0.0
718523.2936376977,3612751.2368613081,-7500.0,-20364.28623500928,2499.1045456017569,-804.00518769219082,3288.0981186624967,-387.10456567491053,-380.99737950424196,10675.64760992324,-12299.817192563913,4505.6980018230079,-4505.6980018230079,12299.817192563913,21039.927994336915,0.0
723523.2936376977,3612751.2368613081,-7500.0,-16886.539764721627,1894.4481102020279,-686.56296300064093,2593.2455239334208,-280.98704203164641,-288.82048735056793,8803.7222914173326,-10251.514237009364,3628.3190337146125,-3628.3190337146125,10251.514237009364,17326.83743370786,0.0
728523.2936376977,3612751.2368613081,-7500.0,-14130.996933686873,1452.4472215429055,-596.03025501523325,2065.8278602557584,-206.39914557289001,-220.43535967522516,7332.5335398090974,-8617.2461322408108,2952.1509359745783,-2952.1509359745783,8617.2461322408108,14411.093080397224,0.0
733523.2936376977,3612751.2368613081,-7500.0,-11925.336712082533,1125.1001581201692,-523.90261563836657,1661.7959555878083,-153.28638099678372,-169.67109610223716,6163.1429309086498,-7300.9188999328162,2425.1440687559084,-2425.1440687559084,7300.9188999328162,12095.853230966984,0.0
738523.2936376977,3612751.2368613081,-7500.0,-10142.862560262376,879.72621880773795,-464.90692828590318,1349.2850930927718,-114.99611551702715,-131.79367198450007,5223.8151621460011,-6231.2123440856376,2010.0308487886682,-2010.0308487886682,6231.2123440856376,10238.202124308238,0.0
743523.2936376977,3612751.2368613081,-7500.0,-8689.4038938840495,693.73897863283639,-415.64170598651026,1105.2237666695755,-87.069532406232199,-103.32205964764967,4461.8798641319845,-5354.6258879303259,1679.7998228371966,-1679.7998228371966,5354.6258879303259,8733.1475499310145,0.0
748523.2936376977,3612751.2368613081,-7500.0,-7494.2331523498742,551.30807902194579,-373.82788086125413,912.82218996302333,-66.479419957342088,-81.739100965259482,3838.2004925530027,-4630.6288138905911,1414.6452706886575,-1414.6452706886575,4630.6288138905911,7502.6722545359135,0.0
753523.2936376977,3612751.2368613081,-7500.0,-6503.6958519416348,441.19125898146632,-337.88154682798387,759.7730409399278,-51.144276967478717,-65.232652351505891,3323.3658014404673,-4028.2288605512231,1199.8843192295701,-1199.8843192295701,4028.2288605512231,6488.1636486807001,0.0
543523.2936376977,3617751.2368613081,-7500.0,-4995.6217216935684,-914.01537247484634,-434.3252177942224,-543.77783020902427,-108.86700243130994,-42.125422059355799,2624.2090719664934,-3556.1904445239147,142.50306038852841,-142.50306038852841,3556.1904445239147,5116.3558706633166,0.0
548523.2936376977,3617751.2368613081,-7500.0,-5678.3202518127591,-1084.8487470217342,-494.69865453784308,-641.52435052997089,-133.00793441394191,-51.430589440760997,2994.9517065804193,-4054.8368883506764,133.36753268021312,-133.36753268021312,4054.8368883506764,5846.5868314302097,0.0
553523.2936376977,3617751.2368613081,-7500.0,-6484.0437107699117,-1297.3796682101308,-568.61589424993076,-761.04670951458593,-163.80175266241406,-63.122052255220368,3435.854564416828,-4645.0077758587013,114.05890321460765,-114.05890321460765,4645.0077758587013,6716.0757847077584,0.0
558523.2936376977,3617751.2368613081,-7500.0,-7439.5066435226508,-1564.0875112596239,-660.56919501575464,-907.95149276504765,-203.40311822698973,-77.845202586778242,3963.3554846430616,-5346.6935642180215,79.182175118786745,-79.182175118786745,5346.6935642180215,7757.5875844448592,0.0
563523.2936376977,3617751.2368613081,-7500.0,-8577.7541016291125,-1901.8067599706396,-777.0349968717087,-1089.3600582999175,-254.73694781544262,-96.385726118246069,4598.3435408951636,-6184.5028368226103,20.560777964883528,-20.560777964883528,6184.5028368226103,9012.7382828707887,0.0
568523.2936376977,3617751.2368613081,-7500.0,-9939.491910400835,-2333.402649474745,-927.54550166036483,-1314.2399038717037,-321.76943462568454,-119.64336347168565,5367.4352650504861,-7188.478228057942,-74.273072607970789,74.273072607970789,7188.478228057942,10534.478855997326,0.0
573523.2936376977,3617751.2368613081,-7500.0,-11574.38382353845,-2890.0930308499146,-1126.4253760115655,-1593.6858563603084,-409.83762342019696,-148.51501397620743,6304.5556305832706,-8394.6941324825748,-224.45520542847771,224.45520542847771,8394.6941324825748,12390.1020522544,0.0
578523.2936376977,3617751.2368613081,-7500.0,-13541.942767288461,-3614.5974274461805,-1395.6487465754042,-1940.9736603060176,-525.98362594632317,-183.56308257626745,7452.8185819842511,-9845.1643732341126,-459.53308908168219,459.53308908168219,9845.1643732341126,14664.651895271982,0.0
583523.2936376977,3617751.2368613081,-7500.0,-15911.158614507918,-4565.2121648704724,-1769.5913728199207,-2370.9858620622231,-679.10508742006607,-224.19725272896477,8866.5639725245073,-11586.04184822786,-825.33628231879447,825.33628231879447,11586.04184822786,17464.198271497924,0.0
588523.2936376977,3617751.2368613081,-7500.0,-18757.163558875884,-5820.5605275815988,-2302.9771044138779,-2898.1856937638495,-879.39132611549701,-266.78027011667967,10613.144731581215,-13662.114413107092,-1393.0248452520427,1393.0248452520427,13662.114413107092,20917.588642608647,0.0
593523.2936376977,3617751.2368613081,-7500.0,-22151.711229638146,-7483.6962395013106,-3084.1066673955538,-3531.5560159194079,-1135.6830910469441,-300.41442928825694,12773.47694918287,-16103.836342658306,-2272.4818055469505,2272.4818055469505,16103.836342658306,25173.457235424499,0.0
598523.2936376977,3617751.2368613081,-7500.0,-26141.826193507466,-9681.3415829960668,-4256.317483026809,-4263.8107307464088,-1447.4786253616599,-297.88672258708044,15439.114209117319,-18900.359521565581,-3630.286149831677,3630.286149831677,18900.359521565581,30385.652699664435,0.0
603523.2936376977,3617751.2368613081,-7500.0,-30708.082493818663,-12546.859011572313,-6050.3549969163914,-5051.4468394151454,-1784.2815954195507,-197.145809495077,18701.134352569214,-21948.941195024403,-5707.8483565426004,5707.8483565426004,21948.941195024403,36673.747577080154,0.0
608523.2936376977,3617751.2368613081,-7500.0,-35693.554043119861,-16158.696751741096,-8823.5917129670161,-5785.4743968126686,-2038.0474993410819,133.21685554321496,22622.360273170692,-24972.50426095225,-8818.7429304164561,8818.7429304164561,24972.50426095225,44034.928195154986,0.0
613523.2936376977,3617751.2368613081,-7500.0,-40708.088898332957,-20370.128234301472,-13068.905602271958,-6272.1310854795274,-1929.3888670821134,945.27928528776727,27177.643002200286,-27422.229762808431,-13253.358357806454,13253.358357806454,27422.229762808431,52169.678341881277,1.0
618523.2936376977,3617751.2368613081,-7500.0,-45077.022598303702,-24404.586310776194,-19228.558311241301,-6305.8169265786973,-877.90036774118869,2637.7243386895011,32114.726847638274,-28492.549834211353,-18878.372989069521,18878.372989069521,28492.549834211353,60165.113284990592,0.0
623523.2936376977,3617751.2368613081,-7500.0,-48115.713011241663,-26071.287807130284,-26736.758255384953,-6030.8715417093053,1966.7078692553332,5558.0755351555126,36548.169478194366,-27722.244047696971,-23906.418918346899,23906.418918346899,27722.244047696971,65956.803928184047,0.0
628523.2936376977,3617751.2368613081,-7500.0,-50459.5827329069,-20971.202101077411,-30822.538338311475,-6711.3521307657666,6764.6179022957576,9070.9795260736646,37957.05877021698,-27325.792087603557,-22081.068863518318,22081.068863518318,27325.792087603557,65971.796417598991,0.0
633523.2936376977,3617751.2368613081,-7500.0,-56505.519309372699,-4124.1957026786722,-16000.560837415762,-10915.310390265953,9562.171284074826,9490.0705367283863,36506.707417728328,-36582.952270705529,466.21700545814747,-466.21700545814747,36582.952270705529,63290.483062057712,1.0
638523.2936376977,3617751.2368613081,-7500.0,-72591.413446100414,27846.940783621794,50019.335504441849,-18985.694302329714,-5513.4615263545802,-1001.3989516517036,69990.760956606304,-72076.082032849474,65896.740104090408,-65896.740104090408,72076.082032849474,121982.54592537289,0.0
643523.2936376977,3617751.2368613081,-7500.0,-127721.33464744671,90365.508733202441,254443.40438746865,-11075.947712192497,-84919.78518529766,-24106.98992880504,222973.10927545681,-177716.64938533219,236423.22842839832,-236423.22842839832,177716.64938533219,404583.71975424001,1.0
648523.2936376977,3617751.2368613081,-7500.0,-355970.05854170583,152874.47461359514,768225.75108019507,132052.57681359639,-323679.46718706412,-4665.8290286233696,675072.03172286297,-463820.17193516734,593000.78187349625,-593000.78187349625,463820.17193516734,1195419.0871213949,1.0
653523.2936376977,3617751.2368613081,-7500.0,-1304049.1651091496,198309.19561978668,1816710.9953965321,1096815.9893315081,-1438671.0802485975,346330.23145698046,2395654.5914836554,-1159689.1339566759,1183899.1865745457,-1183899.1865745457,1159689.1339566759,4153164.6785890018,0.0
658523.2936376977,3617751.2368613081,-7500.0,-900413.75977773289,718686.20735949348,1596705.3328181102,-356312.22350366844,471766.77985027508,-43815.347715318763,1568149.039542899,-1201988.3457212546,1739865.9837445887,-1739865.9837445887,1201988.3457212546,2725515.1498786029,0.0
663523.2936376977,3617751.2368613081,-7500.0,-397564.06438660971,154300.76837948008,-260504.45383930273,-44006.935210477153,-63212.441393609086,87921.506131555027,303877.12605546322,-190768.17106734187,17998.537973666171,-17998.537973666171,190768.17106734187,526464.20908865472,0.0
668523.2936376977,3617751.2368613081,-7500.0,-359291.88567916991,-32120.672303387099,-122005.30157532901,-6509.8557577704669,-42202.12040697458,85930.506158192526,229029.20626508861,-208699.10242794862,-33642.923451048497,33642.923451048497,208699.10242794862,396797.18370671629,0.0
673523.2936376977,3617751.2368613081,-7500.0,-235960.69523168981,-6635.6753234900625,-34751.0101790189,11839.163228107886,-16051.483068310767,38399.790053831115,139508.0224124009,-145177.71983227789,14564.039962603645,-14564.039962603645,145177.71983227789,248758.05646210242,0.0
678523.2936376977,3617751.2368613081,-7500.0,-157542.87021139404,2006.4283800579324,-11647.228931108868,18466.523894004586,-5911.6475035486783,12536.201011112717,87632.293365521604,-96651.617737524852,20276.282249643038,-20276.282249643038,96651.617737524852,162906.69401675413,0.0
683523.2936376977,3617751.2368613081,-7500.0,-112263.49971068106,3091.7530756263341,-4644.7250487684905,18219.016775750395,-2344.6090141077621,2781.5329209780612,60554.037932174549,-68237.267564927388,17344.476258242856,-17344.476258242856,68237.267564927388,116091.00246163088,0.0
688523.2936376977,3617751.2368613081,-7500.0,-83482.795569659094,2604.2809939074882,-2209.5031786358841,15354.526476282832,-1055.475144986337,-277.17925072761983,44426.997703323184,-50522.954953683351,13706.13327351238,-13706.13327351238,50522.954953683351,86585.805021316992,0.0
693523.2936376977,3617751.2368613081,-7500.0,-63703.207517790644,1955.5689674439616,-1278.3598158698505,12126.206393952856,-541.13109179444325,-1008.3312400994089,33648.698608793282,-38557.14590110338,10668.069135653606,-10668.069135653606,38557.14590110338,66085.375703088852,0.0
698523.2936376977,3617751.2368613081,-7500.0,-49502.29355977456,1416.6606840096397,-892.47215617175812,9337.8640884270681,-306.87821992510442,-1017.7286268941153,25999.941184042917,-30038.659163474662,8312.7207849556908,-8312.7207849556908,30038.659163474662,51232.139851956417,0.0
703523.2936376977,3617751.2368613081,-7500.0,-39045.341527415461,1011.6142712332016,-715.85798629849137,7144.3420483635809,-185.65011489992426,-844.79226230261202,20406.040536043452,-23778.342381861996,6519.5685019434204,-6519.5685019434204,23778.342381861996,40255.711476449236,0.0
708523.2936376977,3617751.2368613081,-7500.0,-31208.361015177459,716.69221019196129,-622.33628057421788,5480.9643466403231,-116.36002605620001,-657.49342456717261,16237.371078736785,-19078.9417572163,5157.2143266375724,-5157.2143266375724,19078.9417572163,32033.346694681099,0.0
713523.2936376977,3617751.2368613081,-7500.0,-25249.023502882723,504.28238918035146,-562.60737945164044,4235.1594792980841,-74.011913545699485,-500.24924511864248,13084.243008050595,-15493.609967452438,4117.8715919040187,-4117.8715919040187,15493.609967452438,25798.2846586427,0.0
718523.2936376977,3617751.2368613081,-7500.0,-20657.847764794296,351.76659473983796,-517.09149666979363,3302.8420028553492,-47.027128376974602,-378.5547778299325,10667.116523694407,-12720.445025014011,3319.4270067007819,-3319.4270067007819,12720.445025014011,21013.415703169601,0.0
723523.2936376977,3617751.2368613081,-7500.0,-17077.431936634668,242.2401118813257,-478.06232041808181,2601.6344742530218,-29.398463804180896,-287.20047926618241,8790.7917290990954,-10548.962793095039,2700.9405319209818,-2700.9405319209818,10548.962793095039,17298.202958180205,0.0
728523.2936376977,3617751.2368613081,-7500.0,-14253.176192186036,163.48303501182696,-442.57171174422302,2070.0836069025681,-17.718325106877824,-219.29299251569853,7316.9116428244652,-8829.3304633227399,2217.5861384666182,-2217.5861384666182,8829.3304633227399,14380.651025800908,0.0
733523.2936376977,3617751.2368613081,-7500.0,-12001.360476656671,106.77445982220206,-409.57369919681821,1663.4205260766269,-9.9272962809455354,-168.82354599574526,6146.1746302644742,-7453.1967310217888,1836.4207436434453,-1836.4207436434453,7453.1967310217888,12064.559972169376,0.0
738523.2936376977,3617751.2368613081,-7500.0,-10187.822739447958,65.913914522050064,-378.74313771080523,1349.2775909745067,-4.7261009967878493,-131.14006600941184,5206.4598491468996,-6341.1577475980812,1533.1532553189286,-1533.1532553189286,6341.1577475980812,10207.000497074445,0.0
743523.2936376977,3617751.2368613081,-7500.0,-8713.4684644813678,36.489687290414281,-349.99556268711785,1104.2405946447827,-1.2708967704884564,-102.80386625016629,4444.7778890588688,-5434.3221797874812,1289.7699619737068,-1289.7699619737068,5434.3221797874812,8702.7699601040167,0.0
748523.2936376977,3617751.2368613081,-7500.0,-7504.2972714898251,15.352871322897954,-323.30052301946733,911.2898884394134,0.99748260860235671,-81.320202107397421,3821.7539710437864,-4688.5236457908968,1092.8181336935857,-1092.8181336935857,4688.5236457908968,7473.619375785599,0.0
753523.2936376977,3617751.2368613081,-7500.0,-6504.4604889068087,0.24589201201292638,-298.61655666472666,757.96537218350056,2.4550204421848605,-64.889355360431452,3307.8079099830084,-4070.2891977289914,932.17304750785524,-932.17304750785524,4070.2891977289914,6460.7394800473239,0.0
543523.2936376977,3622751.2368613081,-7500.0,-5327.6558045152433,-598.71572976631523,-362.93252821595678,-576.80030930678993,-72.015480116417052,-44.350647849475813,2739.6360427235172,-3794.72841678448,470.74515620464786,-470.74515620464786,3794.72841678448,5331.1048156433499,0.0
548523.2936376977,3622751.2368613081,-7500.0,-6087.4689479030976,-708.95353698912038,-404.42547861604061,-683.58554376650909,-87.624594784816182,-54.349281076591915,3136.7760361341793,-4350.9791649019762,530.9643603583811,-530.9643603583811,4350.9791649019762,6110.7922411640548,0.0
553523.2936376977,3622751.2368613081,-7500.0,-6993.2248802474214,-846.46896836810095,-453.33794532858298,-815.16495881863409,-107.51522453358024,-66.982065332926965,3611.862617609615,-5016.4426102815723,599.55797390041289,-599.55797390041289,5016.4426102815723,7044.416597799237,0.0
558523.2936376977,3622751.2368613081,-7500.0,-8079.9839519613461,-1019.7638568945359,-511.80957698434474,-978.32747473987172,-133.08810135637725,-82.988903816802065,4184.1702805258792,-5817.7225287134806,677.1053793770684,-677.1053793770684,5817.7225287134806,8170.1166707132861,0.0
563523.2936376977,3622751.2368613081,-7500.0,-9392.7429989602133,-1240.5310739998306,-582.92893081632508,-1181.8982678700509,-166.2562412666671,-103.2821742562631,4878.6618921609452,-6788.9528177458988,763.61875126144423,-763.61875126144423,6788.9528177458988,9537.2328097183163,0.0
568523.2936376977,3622751.2368613081,-7500.0,-10989.566067428665,-1525.041376994503,-671.30315698012885,-1437.314260013859,-209.63108777461284,-128.92129136114835,5727.8960148055403,-7974.0796120983287,857.92565378115978,-857.92565378115978,7974.0796120983287,11209.989843628067,0.0
573523.2936376977,3622751.2368613081,-7500.0,-12945.690653073589,-1896.20511796555,-784.04451132222118,-1759.2554132656958,-266.75037507401089,-160.97503936681693,6774.6072838551045,-9429.7387096873626,956.52738254216456,-956.52738254216456,9429.7387096873626,13272.399577582972,0.0
578523.2936376977,3622751.2368613081,-7500.0,-15358.846891451465,-2386.6400851309381,-932.52306833007856,-2166.1720696272705,-342.30286100508488,-200.10323233278845,8075.1925614549846,-11228.725622907656,1051.5139788895358,-1051.5139788895358,11228.725622907656,15834.707270228095,0.0
583523.2936376977,3622751.2368613081,-7500.0,-18355.960613687806,-3043.2523772002446,-1135.5686455632178,-2680.2743613861026,-442.19124935047972,-245.46384059671792,9704.3947050896713,-13463.787746304208,1126.741301421569,-1126.741301421569,13463.787746304208,19041.651873927069,0.0
588523.2936376977,3622751.2368613081,-7500.0,-22101.152390700317,-3934.0002516125051,-1425.4738897016769,-3325.9216806063037,-572.95259214694488,-292.02412682707183,11761.531415955777,-16250.791539313435,1150.8204311093623,-1150.8204311093623,16250.791539313435,23082.512769844467,0.0
593523.2936376977,3622751.2368613081,-7500.0,-26804.417304288992,-5157.6308639994786,-1859.5510646877635,-4124.0070457823485,-739.20822897639891,-324.12663922228023,14378.788612387032,-19728.865629534448,1064.2582523298242,-1064.2582523298242,19728.865629534448,28202.302989974993,0.0
598523.2936376977,3622751.2368613081,-7500.0,-32729.258285126794,-6856.8613975824919,-2542.9540769957962,-5077.2074782883137,-935.61798441651649,-300.33359259918888,17732.638934232753,-24052.015416927345,755.96417013463906,-755.96417013463906,24052.015416927345,34712.369950728847,0.0
603523.2936376977,3622751.2368613081,-7500.0,-40195.960403064732,-9233.5988643538767,-3674.7593146214167,-6136.2508064490003,-1124.3494725826629,-118.32261889027566,22061.685339016109,-29360.887358440883,21.021939175185253,-21.021939175185253,29360.887358440883,42998.406501732097,0.0
608523.2936376977,3622751.2368613081,-7500.0,-49575.880713005528,-12557.757377358879,-5642.3565090922066,-7132.3192521409946,-1176.6238911108551,463.62826462741566,27702.405056810083,-35714.167576020147,-1511.8960714898458,1511.8960714898458,35714.167576020147,53530.833217971522,0.0
613523.2936376977,3622751.2368613081,-7500.0,-61272.711357852953,-17135.925449902294,-9212.6020351880561,-7670.0409578006647,-734.98988051196682,1987.6674764570905,35176.625611727177,-42950.999001928605,-4489.239745681698,4489.239745681698,42950.999001928605,66916.495076857347,0.0
618523.2936376977,3622751.2368613081,-7500.0,-75685.041083516015,-23106.210711853586,-15878.671402294996,-7060.4381218422486,1048.7523710219402,5554.4072166810147,45374.900581448244,-50477.20094530379,-9908.2619722600757,9908.2619722600757,50477.20094530379,84098.473596333744,0.0
623523.2936376977,3622751.2368613081,-7500.0,-93147.101899637666,-29503.851259778854,-28137.675114113536,-4678.970529501762,5701.232221361377,12903.872543407195,59551.979331845607,-57182.337276190403,-18597.135611837341,18597.135611837341,57182.337276190403,106552.07108434881,0.0
628523.2936376977,3622751.2368613081,-7500.0,-114585.8177171484,-30721.153223679175,-46939.2307607564,-1484.1713526737879,13937.598388865106,24877.495188035966,77208.873624404601,-63249.041591012807,-26987.847478318206,26987.847478318206,63249.041591012807,134211.04744472238,0.0
633523.2936376977,3622751.2368613081,-7500.0,-150594.9023613446,-10885.295005843956,-52571.819280503623,-593.23817999360642,17260.423384176916,35146.31499694151,95127.496958596501,-83503.89512894224,-10352.017312347525,10352.017312347525,83503.89512894224,164777.69644182498,0.0
638523.2936376977,3622751.2368613081,-7500.0,-243068.35665947301,26984.71675097751,28793.348963868637,6815.937215233841,-19923.702655517322,21536.264617340134,146194.17003315483,-171928.81633705064,78586.956016457669,-78586.956016457669,171928.81633705064,274778.61366310762,0.0
643523.2936376977,3622751.2368613081,-7500.0,-377009.94589785486,127502.76231894299,298867.94588032394,67086.343156731295,-224960.87357571381,-39015.216132289053,427120.22934387927,-342011.97728373046,311195.09253259219,-311195.09253259219,342011.97728373046,746125.30850312486,1.0
648523.2936376977,3622751.2368613081,-7500.0,-1221200.7130835999,199217.64516331945,1792651.9281804385,833578.04896166036,-1252596.65091349,71873.687069222651,2132593.0805154536,-1194515.3834108706,1220138.150846005,-1220138.150846005,1194515.3834108706,3710637.2313307361,0.0
653523.2936376977,3622751.2368613081,-7500.0,-1514801.496493984,540589.41050507361,766681.27976015594,-983432.76159206696,1150345.3587028864,-98574.110327465358,1966874.9049257713,-1547926.0119099878,1389070.4055887689,-1389070.4055887689,1547926.0119099878,3424584.5490672723,0.0
658523.2936376977,3622751.2368613081,-7500.0,-763725.70181254263,228894.38689957725,442876.76021322323,-147874.43891098592,92395.454862738319,18327.791841884773,665218.74008697248,-703002.59399036772,603567.80335596891,-603567.80335596891,703002.59399036772,1171434.4743836273,0.0
663523.2936376977,3622751.2368613081,-7500.0,-308576.41917317454,124768.76616836515,23794.559584834486,-2515.0277006490132,-31319.936779706914,44547.720299290078,218806.7953333148,-211298.83584619922,153703.29071310014,-153703.29071310014,211298.83584619922,409221.74427243101,0.0
668523.2936376977,3622751.2368613081,-7500.0,-198338.15232387549,-417.94591117167579,-63630.758898620326,11976.708144763625,-28346.486577736381,40580.486580203557,123646.27067346851,-110037.23218501819,-7378.2667926532522,7378.2667926532522,110037.23218501819,214209.03184959272,0.0
673523.2936376977,3622751.2368613081,-7500.0,-157205.78331753926,-24877.614543929143,-36950.887100001069,15861.761855499602,-11405.240342615984,21232.433292252401,94416.384573402174,-90827.181578684555,-13806.577819845101,13806.577819845101,90827.181578684555,166868.45147303885,0.0
678523.2936376977,3622751.2368613081,-7500.0,-122661.60101551305,-21236.608066166569,-17226.504394260592,17562.983117279662,-2510.2236642175608,7730.3248177267105,69998.910687268624,-72902.216665577958,-4867.7019229032012,4867.7019229032012,72902.216665577958,129104.56222035601,0.0
683523.2936376977,3622751.2368613081,-7500.0,-95147.711153579556,-15318.440758124068,-8231.8799296737689,16464.835403551973,537.47435377886393,1680.9672316435201,52572.187007861328,-57145.941420900534,49.204325690094265,-49.204325690094265,57145.941420900534,100161.43239505454,0.0
688523.2936376977,3622751.2368613081,-7500.0,-74128.496283672939,-10786.104033017798,-4264.5864156258403,13903.306629826788,1206.8508337504611,-433.08514400999962,40231.854732822198,-44782.094722720227,2081.7485679942292,-2081.7485679942292,44782.094722720227,78080.889830428205,0.0
693523.2936376977,3622751.2368613081,-7500.0,-58160.29042974089,-7637.4000837537851,-2449.1910545330638,11115.278428220012,1134.7303790655917,-962.27585678703326,31205.478434680808,-35315.774430507096,2742.2263197639932,-2742.2263197639932,35315.774430507096,61141.441866967332,0.0
698523.2936376977,3622751.2368613081,-7500.0,-46013.760226409031,-5488.7983677969996,-1573.8962893389587,8667.5018676481595,901.99293435222899,-949.76934795066938,24476.789623775181,-28079.189717750844,2792.1090063868887,-2792.1090063868887,28079.189717750844,48179.097332182653,0.0
703523.2936376977,3622751.2368613081,-7500.0,-36742.473976156703,-4017.6983292711525,-1124.5481347207801,6702.485992323459,680.17305547489718,-790.89686893603493,19408.272116265889,-22526.750897059144,2589.1006476495822,-2589.1006476495822,22526.750897059144,38278.133335338527,0.0
708523.2936376977,3622751.2368613081,-7500.0,-29626.792748360313,-2998.2689000367641,-875.64785753191222,5186.2633055506667,505.89874964057691,-619.84014436392397,15557.27341166499,-18241.895976912238,2299.934650645996,-2299.934650645996,18241.895976912238,30699.790973131407,0.0
713523.2936376977,3622751.2368613081,-7500.0,-24125.656304135948,-2280.3962090481709,-724.91308001071798,4034.8081359567664,377.17182280483979,-474.82829812840151,12604.775716502942,-14911.442993321845,2000.2706809411929,-2000.2706809411929,14911.442993321845,24867.165541112412,0.0
718523.2936376977,3622751.2368613081,-7500.0,-19836.535433914065,-1765.8525969339144,-624.49243141798524,3163.6610109023263,283.86583585623873,-361.44325811715987,10319.072687590226,-12301.684085829544,1722.0487395997407,-1722.0487395997407,12301.684085829544,20343.259370682572,0.0
723523.2936376977,3622751.2368613081,-7500.0,-16461.791614652349,-1390.3595714756916,-551.33531166348496,2502.825574907456,216.30311998450242,-275.57104163763404,8531.6415010091259,-10238.879790173818,1476.4491358708119,-1476.4491358708119,10238.879790173818,16802.924417448066,0.0
728523.2936376977,3622751.2368613081,-7500.0,-13781.632359003415,-1111.5061665572264,-494.00385560458631,1998.4673993745128,167.03049041860115,-211.27151541351043,7119.628007464129,-8593.9125026245692,1265.1199749788616,-1265.1199749788616,8593.9125026245692,14006.052348575739,0.0
733523.2936376977,3622751.2368613081,-7500.0,-11633.350046928088,-900.95463202290284,-446.6318738883939,1610.5042868533196,130.7032621892466,-163.19774517183157,5993.0564026219763,-7270.5746086143918,1085.6460629122971,-1085.6460629122971,7270.5746086143918,11775.45226545295,0.0
738523.2936376977,3622751.2368613081,-7500.0,-9895.8795810681077,-739.48887146008667,-406.08767756924533,1309.4828413451633,103.58516327265383,-127.12708000270855,5085.592543215389,-6196.832933118686,934.16785128624633,-934.16785128624633,6196.832933118686,9979.8899980617061,0.0
743523.2936376977,3622751.2368613081,-7500.0,-8478.5287573081023,-613.87194062490391,-370.61067625574759,1073.8299321403949,83.079906900417257,-99.893958875120759,4347.940718655299,-5318.4127439839776,806.59317765474907,-806.59317765474907,5318.4127439839776,8521.5683637785824,0.0
748523.2936376977,3622751.2368613081,-7500.0,-7312.8305894844198,-514.84051924743699,-339.14479023286555,887.71029256555983,67.377488537112711,-79.177103250349418,3743.1458463817257,-4594.122969359415,699.1163293242987,-699.1163293242987,4594.122969359415,7327.0526094176612,0.0
753523.2936376977,3622751.2368613081,-7500.0,-6346.6696551167761,-435.81106667597118,-311.00551209881417,739.44028894657583,55.206007913542038,-63.287877001427802,3243.2516215168134,-3992.4600122566058,608.40469748408532,-608.40469748408532,3992.4600122566058,6340.7411957904951,0.0
543523.2936376977,3627751.2368613081,-7500.0,-5542.6553235891406,-244.82847021728819,-327.19801592626305,-598.22188176095915,-31.102608252680461,-45.787360810803868,2818.5717815916696,-3933.7093731353748,779.32902355534361,-779.32902355534361,3933.7093731353748,5477.60946565222,0.0
548523.2936376977,3627751.2368613081,-7500.0,-6350.4303702957914,-282.85406160945661,-358.9693614231586,-710.66771587666562,-36.808238183206782,-56.21739302895341,3233.0702711771219,-4522.3148723240211,905.14076686153976,-905.14076686153976,4522.3148723240211,6289.8664529598955,0.0
553523.2936376977,3627751.2368613081,-7500.0,-7318.2083433479966,-329.40345169956856,-394.84494059058045,-849.76164538100488,-43.869035390248037,-69.430326287247127,3730.5564314964845,-5230.0198895391732,1057.2475981666262,-1057.2475981666262,5230.0198895391732,7265.6312217100594,0.0
558523.2936376977,3627751.2368613081,-7500.0,-8486.232779224707,-387.05693775497866,-435.59298795437724,-1023.0145999343524,-52.670616113026291,-86.219767538096463,4332.1542177875453,-6087.2131807285768,1242.2587530176793,-1242.2587530176793,6087.2131807285768,8446.5957084408437,0.0
563523.2936376977,3627751.2368613081,-7500.0,-9907.0159753342487,-459.3975634447483,-482.26061810528125,-1240.2939840869706,-63.714119772197442,-107.56707688149605,5065.508264746175,-7133.5707843909286,1468.6345970721404,-1468.6345970721404,7133.5707843909286,9887.2700016424005,0.0
568523.2936376977,3627751.2368613081,-7500.0,-11649.71370455999,-551.49086373089301,-536.36574212472442,-1514.5499352674428,-77.63798800414483,-134.61064818941244,5967.1369471531962,-8421.2960488105236,1747.1884626335741,-1747.1884626335741,8421.2960488105236,11659.53893828511,0.0
573523.2936376977,3627751.2368613081,-7500.0,-13806.267540034203,-670.63890862080325,-600.26750383807462,-1862.6629081864473,-95.217792630169626,-168.48229515551574,7085.7467538646742,-10019.567457590036,2091.6471130695209,-2091.6471130695209,10019.567457590036,13859.005705818494,0.0
578523.2936376977,3627751.2368613081,-7500.0,-16500.110635009987,-827.59201268620495,-677.90010847604151,-2306.2574530432094,-117.29015694920778,-209.8011232532769,8486.9494426273268,-12020.617395845909,2519.158269866959,-2519.158269866959,12020.617395845909,16613.858377200308,0.0
583523.2936376977,3627751.2368613081,-7500.0,-19898.656911554383,-1038.5440391019595,-776.27640503469763,-2871.9985474612517,-144.45466718915716,-257.31756393246019,10260.076436783154,-14547.945726583392,3050.4300606207207,-3050.4300606207207,14547.945726583392,20097.311574626125,0.0
588523.2936376977,3627751.2368613081,-7500.0,-24231.516965125244,-1328.5242551669628,-908.66633209883526,-3590.0695708920803,-176.16510670846679,-304.46797641186936,12528.268675989357,-17767.157825586706,3708.6970324037884,-3708.6970324037884,17767.157825586706,24545.180309005347,0.0
593523.2936376977,3627751.2368613081,-7500.0,-29817.81350624983,-1737.3804379601033,-1101.5473562908819,-4487.5616612854556,-208.16787167263476,-330.77243313014486,15464.147342217786,-21899.654996235848,4515.5514217095897,-4515.5514217095897,21899.654996235848,30281.213918057827,0.0
598523.2936376977,3627751.2368613081,-7500.0,-37109.403500069755,-2330.9384417838178,-1410.4182648325404,-5568.9154037172075,-225.47808479879842,-280.40192780480345,19316.566435732031,-27238.760922677455,5478.8609654393986,-5478.8609654393986,27238.760922677455,37756.134862540821,0.0
603523.2936376977,3627751.2368613081,-7500.0,-46766.057982925151,-3223.5400022273539,-1957.4834086606461,-6765.3752605658365,-183.26564606796438,-8.6298355990767135,24463.954248064998,-34167.027872463776,6560.9565738679048,-6560.9565738679048,34167.027872463776,47618.452650913649,0.0
608523.2936376977,3627751.2368613081,-7500.0,-59805.586085080453,-4628.9291940565081,-3026.6732132099114,-7815.4527766910478,44.79348485650781,851.44616958203062,31542.790047864339,-43175.268792797739,7596.5599868378085,-7596.5599868378085,43175.268792797739,60881.943476983375,0.0
613523.2936376977,3627751.2368613081,-7500.0,-77947.69114338464,-6990.298110101925,-5320.4465942292682,-8012.3669659505449,802.02979406937516,3210.4332485299556,41803.775797826653,-54899.967594608082,8076.1357939182017,-8076.1357939182017,54899.967594608082,79424.073742292589,1.0
618523.2936376977,3627751.2368613081,-7500.0,-104434.51177570473,-11335.471932596562,-10711.500026885456,-5789.1926589041122,2967.8424764715664,9215.9773953937092,58091.383282867049,-70244.260418230551,6544.5888799728709,-6544.5888799728709,70244.260418230551,107523.10347958995,0.0
623523.2936376977,3627751.2368613081,-7500.0,-145576.11715781968,-20058.089160874857,-24577.794231534997,1452.023428438642,8430.3235636924437,23216.857680644134,86771.617078449286,-90563.288979083794,-1078.5583150319508,1078.5583150319508,90563.288979083794,155352.86490191199,0.0
628523.2936376977,3627751.2368613081,-7500.0,-210345.25363770497,-35587.40860695381,-62117.286645399014,15234.197931339457,18708.331443566658,50034.942658625674,136605.59020707876,-116160.00507272885,-24314.019591865122,24314.019591865122,116160.00507272885,238158.32546866979,0.0
633523.2936376977,3627751.2368613081,-7500.0,-299093.60929499881,-25874.743184082712,-140723.74291942586,30646.371942286649,16792.450636380181,76512.595332557161,193013.80383381178,-142905.74581928359,-52641.12628205998,52641.12628205998,142905.74581928359,335184.12497187225,0.0
638523.2936376977,3627751.2368613081,-7500.0,-537395.54292543838,183221.90879020837,-733.01935406106588,88685.784027264381,-121340.04307011187,22719.395972089351,378166.98967411951,-328747.73823136115,199199.17517694004,-199199.17517694004,328747.73823136115,685287.70526542258,1.0
643523.2936376977,3627751.2368613081,-7500.0,-1676393.3820900363,194898.41708417211,732013.97144045751,804083.67584495258,-651728.37181591662,-332563.11200588488,1590211.1878474681,-1139114.1291642275,720948.349143147,-720948.349143147,1139114.1291642275,2774467.9733388275,1.0
648523.2936376977,3627751.2368613081,-7500.0,-1863174.037390047,116748.03381162812,1918704.8531870183,-1842379.3872172378,2110788.820771453,53817.235226031931,3381168.4333141474,-2449577.4542605728,2100073.5747294715,-2100073.5747294715,2449577.4542605728,5858148.0624987744,0.0
653523.2936376977,3627751.2368613081,-7500.0,-786377.48825261043,109409.12942935407,600473.0748650952,-343618.54036755371,144174.27097819481,-15989.53716733526,783105.96833372884,-851756.83865404432,661208.11418502592,-661208.11418502592,851756.83865404432,1378742.1636086586,0.0
658523.2936376977,3627751.2368613081,-7500.0,-378014.18061911548,40391.893968925695,203232.94432379791,-65659.100308874593,-35646.021617681457,27846.150923623845,302653.90135210083,-349974.57476882479,230596.59670829278,-230596.59670829278,349974.57476882479,536940.83693047473,0.0
663523.2936376977,3627751.2368613081,-7500.0,-196980.15962121676,25162.827176190254,45738.900741011406,-2790.9156124246606,-32983.504399378631,27152.774766716619,136023.49368989846,-150474.68688938985,79229.16859747452,-79229.16859747452,150474.68688938985,244812.95970874472,0.0
668523.2936376977,3627751.2368613081,-7500.0,-121158.56702733312,-8192.1976296093235,-21427.355913215939,10141.55759188264,-17944.288971504146,19014.56339508887,74618.393632152132,-72893.72589675308,524.94455315513187,-524.94455315513187,72893.72589675308,130732.80880207296,0.0
673523.2936376977,3627751.2368613081,-7500.0,-95109.585729403509,-26623.775661406344,-28981.939218898944,13138.239910107832,-5751.6852539234669,10062.958998487426,59656.681566215681,-52279.561325217743,-20621.340209788832,20621.340209788832,52279.561325217743,105938.09004402622,0.0
678523.2936376977,3627751.2368613081,-7500.0,-80874.54638614619,-28448.438402974483,-20951.843953061732,13844.972842433173,512.17458574877651,3801.6771291210061,50407.20875383573,-44942.400427563443,-18983.531486422573,18983.531486422573,44942.400427563443,93223.080194629147,0.0
683523.2936376977,3627751.2368613081,-7500.0,-68481.546408071721,-24018.628285631665,-13302.968320217982,13006.365497632543,2601.2174559700552,653.34422721469525,41485.342334016023,-39022.155867758564,-13232.828858507863,13232.828858507863,39022.155867758564,79170.845408772642,0.0
688523.2936376977,3627751.2368613081,-7500.0,-57075.55520844533,-18667.206914649232,-8298.2037180725019,11253.386102995162,2783.5237586510484,-560.72391520269184,33599.69512396722,-33213.9153065602,-8381.3452693642594,8381.3452693642594,33213.9153065602,65307.475345373772,0.0
693523.2936376977,3627751.2368613081,-7500.0,-47057.462686065701,-14080.701593713327,-5295.3591264377319,9254.897947334448,2346.8492910469135,-872.2659630067044,27038.258942480916,-27833.312313678631,-5055.9003579487035,5055.9003579487035,27833.312313678631,53071.986080676892,0.0
698523.2936376977,3627751.2368613081,-7500.0,-38622.076528239668,-10545.656461367056,-3516.6827420169511,7405.4732272749479,1818.7007164926104,-837.88566281994349,21755.691440934876,-23135.02190261965,-2933.7219841139377,2933.7219841139377,23135.02190261965,42914.841042086606,0.0
703523.2936376977,3627751.2368613081,-7500.0,-31705.697534421986,-7927.6326211826581,-2446.4368358680322,5852.7264954356633,1365.2441587216722,-701.55513170284542,17574.545141954943,-19182.774697685258,-1620.6296207065152,1620.6296207065152,19182.774697685258,34743.342837398261,0.0
708523.2936376977,3627751.2368613081,-7500.0,-26115.124928035213,-6013.5763794104323,-1783.2392346188428,4610.5791832036202,1015.7834119373163,-556.12465743667497,14287.42301214603,-15927.149004186285,-821.21753346277819,821.21753346277819,15927.149004186285,28262.369944051319,0.0
713523.2936376977,3627751.2368613081,-7500.0,-21623.088838812346,-4614.2310641856902,-1356.9752136931872,3639.7729974515555,757.40844767920169,-431.00479445597944,11703.69828423841,-13273.151572676554,-340.46900018383712,340.46900018383712,13273.151572676554,23144.693440250438,0.0
718523.2936376977,3627751.2368613081,-7500.0,-18016.091683080493,-3584.5513585033218,-1071.8465934379099,2888.2678565760643,569.06478722792372,-331.53375019255895,9665.3217279005567,-11117.729779792788,-55.65294805454505,55.65294805454505,11117.729779792788,19098.281340951449,0.0
723523.2936376977,3627751.2368613081,-7500.0,-15112.109942411289,-2819.4860696192864,-873.24413738508656,2307.5808860603079,431.93633114396937,-255.06136498286833,8047.628119004009,-9366.5547595552634,109.04564279485476,-109.04564279485476,9366.5547595552634,15884.353043256258,0.0
728523.2936376977,3627751.2368613081,-7500.0,-12763.318436771611,-2244.6212928892328,-729.41837740364133,1857.7021764078654,331.56368589620189,-197.05981224937614,6754.6185181872088,-7939.6455953986679,200.20654320619587,-200.20654320619587,7939.6455953986679,13315.49683102911,0.0
733523.2936376977,3627751.2368613081,-7500.0,-10852.647745914088,-1807.5717600181545,-621.46335230410159,1507.3604699260832,257.45827557319814,-153.22121042569921,5713.1492140566297,-6771.7804082091625,246.46806602275501,-246.46806602275501,6771.7804082091625,11247.411459825425,0.0
738523.2936376977,3627751.2368613081,-7500.0,-9288.5274617135092,-1471.3840632256929,-537.81865301841117,1232.7382910316578,202.18459717080631,-120.02526520228247,4867.6660759499464,-5810.8450849483115,265.49659500012876,-265.49659500012876,5810.8450849483115,9569.8445311051873,0.0
743523.2936376977,3627751.2368613081,-7500.0,-7999.685171156294,-1209.8219718573039,-471.21451514071492,1015.9022571850364,160.50803665053988,-94.767047410698055,4175.9202873680842,-5015.6131672936026,268.2310544007355,-268.2310544007355,5015.6131672936026,8198.6660572010132,0.0
748523.2936376977,3627751.2368613081,-7500.0,-6930.674139282949,-1004.0931359448606,-416.94500348353364,843.39774115730177,128.73881206629096,-75.424913070388428,3605.6547608770975,-4353.5991021142681,261.46397402952493,-261.46397402952493,4353.5991021142681,7069.5234607165858,0.0
753523.2936376977,3627751.2368613081,-7500.0,-6038.25901804978,-840.60151637873435,-371.87347685945861,705.12005715853365,104.2613335424105,-60.505585149886493,3132.102942495238,-3799.2082923658554,249.41546800728679,-249.41546800728679,3799.2082923658554,6132.9627811543842,0.0
543523.2936376977,3632751.2368613081,-7500.0,-5628.5593702082278,127.58756901568623,-332.58839633652053,-606.89919740306891,11.806975864366628,-46.364328496417372,2857.8530338290311,-3964.1984587638021,1048.703471016524,-1048.703471016524,3964.1984587638021,5549.7117955054082,0.0
548523.2936376977,3632751.2368613081,-7500.0,-6450.8030366379808,167.08008268658227,-365.86041480912223,-721.17209226687066,16.646379427289855,-56.933375544055757,3279.5567571115862,-4556.5785583212883,1229.8564752728241,-1229.8564752728241,4556.5785583212883,6375.469556254463,0.0
553523.2936376977,3632751.2368613081,-7500.0,-7436.3382031109868,218.76348065985042,-403.67729031686946,-862.5677926387666,23.310126174531401,-70.320557987065399,3786.0620395328601,-5268.6264520318837,1451.9900301726993,-1451.9900301726993,5268.6264520318837,7368.2496662949425,0.0
558523.2936376977,3632751.2368613081,-7500.0,-8626.4183674214255,286.88364959813606,-446.93373369881715,-1038.7417539858832,32.546438672933995,-87.325444537435772,4399.1048755370884,-6130.8628986283165,1726.5561248067847,-1726.5561248067847,6130.8628986283165,8570.9821643697796,0.0
563523.2936376977,3632751.2368613081,-7500.0,-10074.99491781966,377.37979751588529,-496.82765722532963,-1259.752995960511,45.448565008762202,-108.930614786315,5147.2156669686256,-7183.1723006051689,2068.7914871942544,-2068.7914871942544,7183.1723006051689,10039.99357685165,0.0
568523.2936376977,3632751.2368613081,-7500.0,-11853.335410657413,498.65232521447598,-555.04004249053128,-1538.8007082826782,63.634988761367687,-136.26094035002941,6068.2267980120814,-8478.1127631178551,2499.1340455183131,-2499.1340455183131,8478.1127631178551,11849.902011066306,0.0
573523.2936376977,3632751.2368613081,-7500.0,-14056.592623726636,662.71918120920589,-624.06276899716806,-1893.0733903845373,89.536077406086889,-170.3931167793294,7212.8520274509328,-10085.511744462938,3045.2043121003007,-3045.2043121003007,10085.511744462938,14100.547026629452,0.0
578523.2936376977,3632751.2368613081,-7500.0,-16813.303171397023,886.97808007985338,-707.82309913753579,-2344.5307839587417,126.85971433660356,-211.78160741210834,8649.8805491592047,-12098.867204438164,3744.5644309395166,-3744.5644309395166,12098.867204438164,16926.915731320933,0.0
583523.2936376977,3632751.2368613081,-7500.0,-20299.398851107668,1196.9039532298148,-812.91713682775583,-2920.0576728102619,181.36326666841347,-258.72510155864666,10473.876956329916,-14644.260023466886,4648.4925231007146,-4648.4925231007146,14644.260023466886,20513.55593102445,0.0
588523.2936376977,3632751.2368613081,-7500.0,-24759.531200161775,1630.2011546498463,-951.14600401461257,-3649.4664922873617,262.16990228244003,-303.44334740230124,12817.020031842383,-17892.76125749448,5826.9690579647086,-5826.9690579647086,17892.76125749448,25116.014061600908,0.0
593523.2936376977,3632751.2368613081,-7500.0,-30541.236954294331,2243.1075239304982,-1144.9473345853421,-4557.4337463233014,384.08445048208216,-322.14419017767449,15868.531806049567,-22077.842202210857,7374.7379101640308,-7374.7379101640308,22077.842202210857,31094.275545455286,0.0
598523.2936376977,3632751.2368613081,-7500.0,-38154.351191635353,3119.6149182424028,-1439.576010435055,-5639.5567773593866,571.84435544340863,-249.72435924805532,19910.292628028172,-27520.692562623437,9417.2191366466996,-9417.2191366466996,27520.692562623437,38970.070707920495,0.0
603523.2936376977,3632751.2368613081,-7500.0,-48388.519773347361,4383.2215183884582,-1931.8575672102468,-6798.5783565808206,868.32548169544748,85.518683186392124,25393.938098102179,-34672.248874308018,12111.931658088517,-12111.931658088517,34672.248874308018,49543.654491308283,0.0
608523.2936376977,3632751.2368613081,-7500.0,-62586.509445005853,6204.2259370886977,-2842.3268597723682,-7684.4748317589274,1351.281904710555,1132.2169871184217,33141.356744115066,-44205.487633402197,15632.511483239197,-15632.511483239197,44205.487633402197,64192.903283489009,0.0
613523.2936376977,3632751.2368613081,-7500.0,-83391.637111827906,8763.5356222792525,-4710.3069257564921,-7318.3237184522695,2168.6644408999837,4056.9791303745496,44945.617915600815,-57297.705633191683,20097.948768110702,-20097.948768110702,57297.705633191683,85805.712665197949,0.0
618523.2936376977,3632751.2368613081,-7500.0,-117046.79217866174,11981.113627308729,-8977.5297308440349,-3307.5637345856885,3607.4600793699205,11811.815558425722,65448.186115132201,-76673.798549674422,25320.185539377009,-25320.185539377009,76673.798549674422,121903.05191116178,0.0
623523.2936376977,3632751.2368613081,-7500.0,-180782.74036494325,14061.653742409393,-20029.14829579421,9356.8943966507104,6147.4327248673053,31052.123285087186,107359.15818807996,-110531.66073608646,29733.038489517356,-29733.038489517356,110531.66073608646,193988.99218003408,0.0
628523.2936376977,3632751.2368613081,-7500.0,-324554.93268605135,4235.3307193697119,-54516.484663671341,38816.26302463191,9675.9499807330321,70556.884894692732,201741.73602899603,-184766.6157641937,23771.157428372302,-23771.157428372302,184766.6157641937,356642.00918579049,0.0
633523.2936376977,3632751.2368613081,-7500.0,-661371.52802545077,-61965.663507175173,-201375.14575181654,97579.27908051791,2251.6137164603592,100123.41920832141,397073.4659285447,-347827.05755726196,-58159.456660222437,58159.456660222437,347827.05755726196,693747.71516198013,1.0
638523.2936376977,3632751.2368613081,-7500.0,-1093055.3497869449,171460.77303000103,-607913.26482959103,236258.25463079053,-235126.07007005843,-171189.47762621872,593679.36552937271,-469015.39983313438,-106073.12713282451,106073.12713282451,469015.39983313438,1029303.9797687611,1.0
643523.2936376977,3632751.2368613081,-7500.0,-9176180.8329041321,1730785.5722450493,546809.63604481623,-1585170.7638154456,1929159.3247682722,-1817530.6848019711,5805995.3501750054,-6891484.9200861454,3722425.1667387648,-3722425.1667387648,6891484.9200861454,10238569.853781857,1.0
648523.2936376977,3632751.2368613081,-7500.0,-639538.02842575149,211603.34442923174,1424782.7969285315,-274896.74891376949,585040.95615570981,172343.0724492186,1226993.2101838891,-952357.83567786473,1234487.8138665247,-1234487.8138665247,952357.83567786473,2152310.3128153547,1.0
653523.2936376977,3632751.2368613081,-7500.0,-122148.12166444464,90594.943623567888,386265.16525758238,-8396.1985597116218,-1575.3915813424992,-13629.004629245797,270135.18658782874,-210411.52347885491,323652.57140142145,-323652.57140142145,210411.52347885491,489825.65628226934,0.0
658523.2936376977,3632751.2368613081,-7500.0,-95262.488758942214,11542.772843482668,126244.5378695,-515.76752129824592,-50837.456692130785,3169.3467193006481,120474.20889966414,-110394.67637829923,98929.357611722793,-98929.357611722793,110394.67637829923,212378.65182487931,0.0
663523.2936376977,3632751.2368613081,-7500.0,-70078.472059020263,-1951.5737769082102,33430.229997850343,3604.6061944396497,-30871.057065896483,10470.03644498012,62618.408502809354,-59673.724460980884,28889.536104000843,-28889.536104000843,59673.724460980884,108508.58964625699,0.0
668523.2936376977,3632751.2368613081,-7500.0,-51838.378199836625,-13909.122263011728,-9609.3941503695587,6194.7647468986625,-13255.413408887176,8170.2756489189997,36744.104286048729,-31489.258011531056,-7869.9254042157754,7869.9254042157754,31489.258011531056,63818.927251191126,0.0
673523.2936376977,3632751.2368613081,-7500.0,-45347.809103435793,-23668.914312637738,-22850.066935152921,7978.5909892883737,-2946.2626461590471,4411.7165696662723,34222.780483433002,-22076.774416042841,-23073.519495177294,23073.519495177294,22076.774416042841,61321.688384727357,0.0
678523.2936376977,3632751.2368613081,-7500.0,-43483.170329524495,-26664.05428750781,-21755.861593797072,8900.7394027132286,1879.8355106447123,1613.5208832056283,33338.688297577988,-20821.641264132235,-24403.555882139877,24403.555882139877,20821.641264132235,62507.151381445612,0.0
683523.2936376977,3632751.2368613081,-7500.0,-41323.817285958474,-24730.853603998967,-16725.911224618798,8855.6686212000677,3449.2379223038556,80.461798524401587,30251.83618612574,-20867.861252055616,-20221.86375018067,20221.86375018067,20867.861252055616,58367.100566307177,0.0
688523.2936376977,3632751.2368613081,-7500.0,-37857.405903239181,-20817.741451752132,-11919.013455938895,8088.1466195379908,3476.6604182058377,-561.96429597767235,26166.984826129796,-20143.067120162174,-15140.680651410628,15140.680651410628,20143.067120162174,51273.94361847236,0.0
693523.2936376977,3632751.2368613081,-7500.0,-33589.203892752987,-16700.498414162244,-8311.7277934142203,6977.454823637815,2954.0242870036268,-730.1968465680518,22047.633698336856,-18599.027625721152,-10820.943893456104,10820.943893456104,18599.027625721152,43554.858793395004,0.0
698523.2936376977,3632751.2368613081,-7500.0,-29168.021897654125,-13104.999418133424,-5820.1846181816773,5813.4723027364535,2337.0434465422281,-693.1606346741961,18342.682694325147,-16630.889241606641,-7574.4901265294584,7574.4901265294584,16630.889241606641,36388.3295625951,0.0
703523.2936376977,3632751.2368613081,-7500.0,-25013.419032209687,-10204.982500979197,-4145.7266857095392,4750.8470457520971,1792.1826413895997,-588.00017346381094,15194.590757987824,-14574.678790893495,-5260.6751941459133,5260.6751941459133,14574.678790893495,30201.522254138315,0.0
708523.2936376977,3632751.2368613081,-7500.0,-21319.999316670259,-7950.0390179399328,-3022.5945150084317,3846.7929607274505,1358.5533968643865,-474.35448004763242,12597.581824137811,-12627.510892824834,-3648.9075045897071,3648.9075045897071,12627.510892824834,25049.042708413785,0.0
713523.2936376977,3632751.2368613081,-7500.0,-18139.040987162916,-6224.0032869122479,-2260.9164673089281,3106.0901805219064,1028.5796155653886,-373.94527658350381,10483.85880712293,-10879.556879175812,-2535.1244216293971,2535.1244216293971,10879.556879175812,20831.923327578021,0.0
718523.2936376977,3632751.2368613081,-7500.0,-15447.449812983325,-4908.7714809514709,-1735.0590942739896,2511.0552388971219,782.15574050479438,-292.05377076172772,8770.3391076350908,-9356.999129152784,-1765.6289118383274,1765.6289118383274,9356.999129152784,17405.131047872284,0.0
723523.2936376977,3632751.2368613081,-7500.0,-13190.652240555652,-3904.845714121871,-1364.1913470714651,2037.427845382799,599.1577437075116,-227.67631035932823,7380.3860578199701,-8052.9746689447184,-1231.9462945460523,1231.9462945460523,8052.9746689447184,14624.348230419084,0.0
728523.2936376977,3632751.2368613081,-7500.0,-11305.631840711085,-3134.5267266947858,-1096.6198918665223,1661.5404905023197,463.05997458373213,-177.91138333613117,6249.4671962674092,-6946.0683220921419,-859.6539345962774,859.6539345962774,6946.0683220921419,12363.18138111714,0.0
733523.2936376977,3632751.2368613081,-7500.0,-9731.8979991374526,-2539.2116326958426,-899.11142097568745,1362.9545130735908,361.2958598241654,-139.68732886173331,5325.1515813946298,-6010.2677261260988,-598.24462516026506,598.24462516026506,6010.2677261260988,10517.1289271811,0.0
738523.2936376977,3632751.2368613081,-7500.0,-8415.9046948321466,-2075.3807423415728,-750.05481852221442,1125.0040927012478,284.63018814931286,-110.34435992543932,4565.6215693542481,-5219.8592866122426,-413.50128125601168,413.50128125601168,5219.8592866122426,9002.220252344172,0.0
743523.2936376977,3632751.2368613081,-7500.0,-7312.1954551617573,-1710.8861589432818,-635.18619034805522,934.49447805084878,226.37398139048037,-87.755975756123547,3937.8452462969499,-4551.5542400605009,-282.16629207650794,282.16629207650794,4551.5542400605009,7751.922268082345,0.0
748523.2936376977,3632751.2368613081,-7500.0,-6383.0517598650667,-1421.9687588900149,-544.93188125636073,781.13486388727449,181.70331315666823,-70.284519730532963,3415.8327661829721,-3985.1850420898454,-188.3347293771983,188.3347293771983,3985.1850420898454,6713.8313051503801,0.0
753523.2936376977,3632751.2368613081,-7500.0,-5597.5629610827064,-1191.0021979931096,-472.75183869035948,656.95454843184905,147.13459303011868,-56.691360519374648,2979.1402803128121,-3503.7156021742503,-121.04756690077238,121.04756690077238,3503.7156021742503,5846.7254969083524,0.0
543523.2936376977,3637751.2368613081,-7500.0,-5582.0368180552587,496.64027793327011,-380.11992392300641,-602.50527814334544,54.468474657084947,-46.061885959511159,2856.2915780815169,-3885.1836113200534,1262.5940212398054,-1262.5940212398054,3885.1836113200534,5545.013008934483,0.0
548523.2936376977,3637751.2368613081,-7500.0,-6384.2172818349336,611.84519511710391,-426.45919755747951,-714.65830030494794,69.679868041758141,-56.470599114406063,3274.6701170766833,-4452.4579512649907,1483.540825224743,-1483.540825224743,4452.4579512649907,6364.4256972797457,0.0
553523.2936376977,3637751.2368613081,-7500.0,-7341.7701105830765,759.11625104734765,-481.70319059735374,-852.98053385589151,89.79958826342623,-69.616801335296586,3776.2802088388435,-5130.5040548194556,1754.8074582191834,-1754.8074582191834,5130.5040548194556,7347.9905596993713,0.0
558523.2936376977,3637751.2368613081,-7500.0,-8492.5505882581019,949.11991221821222,-548.47351076230564,-1024.6694267367297,116.65597648775939,-86.257541410667955,4382.1525182969153,-5946.2235321389144,2090.4907298172902,-2090.4907298172902,5946.2235321389144,8537.390554415424,0.0
563523.2936376977,3637751.2368613081,-7500.0,-9885.4707352666665,1196.701222503784,-630.49328639498924,-1239.0843556301431,152.85026091686126,-107.30928280406968,5119.772733985129,-6934.1888208334622,2509.3445755511489,-2509.3445755511489,6934.1888208334622,9987.1290374810087,0.0
568523.2936376977,3637751.2368613081,-7500.0,-11584.217843805318,1522.7815578351488,-733.191596312358,-1508.3428799744686,202.11647923762317,-133.79336810262532,6025.409164933385,-8139.0472218940877,3036.519730266521,-3036.519730266521,8139.0472218940877,11769.136490399902,0.0
573523.2936376977,3637751.2368613081,-7500.0,-13672.377446138024,1957.2444032384897,-864.71379475292201,-1847.9428572782213,269.85582620424486,-166.62495910867219,7147.4133775943692,-9618.6690612329512,3706.0021914111503,-3706.0021914111503,9618.6690612329512,13979.271265316791,0.0
578523.2936376977,3637751.2368613081,-7500.0,-16260.539447484125,2543.3876679869504,-1037.6595675603512,-2277.1715529557705,363.91980381352562,-206.00881908523661,8550.9655942672289,-11448.179487262922,4564.014769733104,-4564.014769733104,11448.179487262922,16746.585934354283,0.0
583523.2936376977,3637751.2368613081,-7500.0,-19496.298621627771,3344.9074467241148,-1272.1692396094627,-2818.6501460287409,495.71917444015787,-249.8695182132669,10325.057786014193,-13724.940394696006,5673.7114460676003,-5673.7114460676003,13724.940394696006,20246.76040163299,0.0
588523.2936376977,3637751.2368613081,-7500.0,-23578.714193902855,4457.0580657489736,-1601.5975664651542,-3495.3521841609449,681.66464418628777,-289.90838366738171,12593.181011478286,-16574.322313023047,7121.5065518934953,-7121.5065518934953,16574.322313023047,24722.133614582952,0.0
593523.2936376977,3637751.2368613081,-7500.0,-28780.409999053001,6024.8624580229189,-2083.3541032851072,-4321.0005672112047,944.60476105146051,-301.76777982068654,15530.88402538897,-20155.675729903942,9025.2173450045411,-9025.2173450045411,20155.675729903942,30513.223823024353,0.0
598523.2936376977,3637751.2368613081,-7500.0,-35485.388291528572,8273.7255479805281,-2820.560855229573,-5273.9603862074155,1313.7105836618803,-220.31796376127116,19398.497899845472,-24667.682606434988,11543.730859862291,-11543.730859862291,24667.682606434988,38113.957865442811,0.0
603523.2936376977,3637751.2368613081,-7500.0,-44266.614913112906,11563.291466546189,-4007.6015476570169,-6231.2712083268689,1817.2191885756031,123.20511104011761,24614.035226810352,-30354.822007930958,14887.179929590766,-14887.179929590766,30354.822007930958,48287.432415361967,0.0
608523.2936376977,3637751.2368613081,-7500.0,-56083.411811144128,16490.475960514374,-6032.0466286269884,-6810.1167946855776,2449.4995292531844,1162.27082790489,31947.953327744108,-37535.443948792024,19328.639912978324,-19328.639912978324,37535.443948792024,62369.250267026604,0.0
613523.2936376977,3637751.2368613081,-7500.0,-72879.296896197819,24119.359637511156,-9720.8383162982973,-6010.8420977775922,3053.0685493424917,4000.5710607270171,43113.40016239469,-46765.600843087457,25242.749046766745,-25242.749046766745,46765.600843087457,83219.4443031345,0.0
618523.2936376977,3637751.2368613081,-7500.0,-99580.267913749805,36634.8402628494,-16998.02730763159,-1512.6467635175802,2932.9179874603533,11335.872829497328,62625.10218533517,-59655.888249296731,33349.022261398866,-33349.022261398866,59655.888249296731,118412.49176777016,0.0
623523.2936376977,3637751.2368613081,-7500.0,-150970.26707463665,59799.832307152239,-32929.657960824385,11354.973205620128,-302.86607901916261,28750.668541360003,103129.84136894069,-82349.393440162588,46110.331126979261,-46110.331126979261,82349.393440162588,190089.38069500259,0.0
628523.2936376977,3637751.2368613081,-7500.0,-274703.52424150857,114623.42267366283,-74189.829106158082,41260.529386456234,-13750.609434364855,60157.20858574062,198336.76323543,-137431.29827729645,74332.808829352085,-74332.808829352085,137431.29827729645,360947.92996080226,0.0
633523.2936376977,3637751.2368613081,-7500.0,-626895.26636100246,306163.94467062416,-235333.89557715409,124713.16851945837,-59232.9653476397,48819.927023855591,443850.60596260324,-283237.39004118036,153895.42537167983,-153895.42537167983,283237.39004118036,826874.96097472776,1.0
638523.2936376977,3637751.2368613081,-7500.0,-263912.76963817078,1636366.8542452911,-2407397.5644719661,442160.17209284886,-252150.64333744923,-564131.13479625795,2019937.325825939,863057.32352627779,-408229.93460386072,408229.93460386072,-863057.32352627779,3584897.5955800372,1.0
643523.2936376977,3637751.2368613081,-7500.0,908695.34364474099,17565.936892236721,1668068.5745414547,69004.081966215483,428687.76017744147,288298.80925982061,815491.04288275097,136744.56580770318,887406.20494246297,-887406.20494246297,-136744.56580770318,1413924.3431000479,1.0
648523.2936376977,3637751.2368613081,-7500.0,140948.82548334848,-45209.821931274026,621526.54017062916,-1700.6215232582279,37951.020702992886,-94977.88573818031,362359.65544671513,-117429.94993429453,331703.23345137585,-331703.23345137585,117429.94993429453,640670.56502499827,0.0
653523.2936376977,3637751.2368613081,-7500.0,46504.868902184855,50240.210775142492,289862.79187305929,31941.91932110273,-22379.11665784978,-54546.125427788793,183999.11986668099,-53876.174937434087,197793.03383184935,-197793.03383184935,53876.174937434087,325824.35724659223,0.0
658523.2936376977,3637751.2368613081,-7500.0,26483.997509564459,28794.728981247037,105648.37568914967,16773.166405181135,-34955.258916191124,-16044.90455493377,78041.732317993024,-12175.567579481387,73967.702654919995,-73967.702654919995,12175.567579481387,135792.18435808652,0.0
663523.2936376977,3637751.2368613081,-7500.0,9689.4929600639462,8117.969654524165,29665.085253356887,5380.8193667851065,-22785.208253693971,-736.50389890338806,29189.420393155448,-2375.205917977788,18967.009064243117,-18967.009064243117,2375.205917977788,50577.191016097226,0.0
668523.2936376977,3637751.2368613081,-7500.0,51.693031742927509,-5539.4339113826045,-4641.5831893065733,2529.1488277473823,-10103.154182406373,2290.5477959900272,12295.970799222347,1527.1891641463294,-7993.0819030146904,7993.0819030146904,-1527.1891641463294,21331.052834417853,0.0
673523.2936376977,3637751.2368613081,-7500.0,-7574.8969018200014,-14925.13489356265,-18090.048732295618,3132.0351852613398,-2122.0380111240192,1677.3494637800763,17415.193770936414,911.81567186132088,-20499.8798964491,20499.8798964491,-911.81567186132088,31696.660393095062,0.0
678523.2936376977,3637751.2368613081,-7500.0,-13995.19508068599,-19616.740673579621,-20289.418292303024,4272.9482123897787,1821.4611388826995,614.33812230790727,20790.74134590106,-2419.5961547254046,-23589.782014397548,23589.782014397548,2419.5961547254046,39549.820916488439,0.0
683523.2936376977,3637751.2368613081,-7500.0,-18310.519501244569,-20330.117115935878,-17692.091916101705,4944.0369777781116,3252.2366489325132,-106.93397598068968,21062.83342070222,-5973.3622596057539,-21608.86945628166,21608.86945628166,5973.3622596057539,40810.513346859872,0.0
688523.2936376977,3637751.2368613081,-7500.0,-20299.062561841358,-18674.979979511059,-13907.084259682282,5023.7500834553566,3393.4643600417271,-451.91055737857408,19572.920519093444,-8460.1350441202394,-17775.758332107733,17775.758332107733,8460.1350441202394,38267.87022854072,0.0
693523.2936376977,3637751.2368613081,-7500.0,-20448.01038934003,-16050.354044786145,-10443.902361092274,4691.6188830529682,3000.5869292191619,-553.79949089197942,17343.642921845032,-9692.3826326121871,-13826.265807232046,13826.265807232046,9692.3826326121871,34098.738886178362,0.0
698523.2936376977,3637751.2368613081,-7500.0,-19433.411686513879,-13297.85039564965,-7715.438687303872,4155.9942167514364,2463.2644619930979,-532.98521013729533,14970.312015375608,-9954.0869541327393,-10447.894110090421,10447.894110090421,9954.0869541327393,29556.398287491069,0.0
703523.2936376977,3637751.2368613081,-7500.0,-17819.775630894175,-10808.908852791674,-5697.9929646105884,3564.9015429415153,1950.4394529642871,-463.72172017629629,12746.054220801137,-9603.2677334409491,-7788.891196616245,7788.891196616245,9603.2677334409491,25255.091603196557,0.0
708523.2936376977,3637751.2368613081,-7500.0,-15987.270754337444,-8711.6327295629435,-4245.0279827200384,3000.9501833964737,1518.8324683396897,-383.85527713037402,10786.660703650225,-8925.0209034248637,-5780.1799265387581,5780.1799265387581,8925.0209034248637,21441.619433169581,0.0
713523.2936376977,3637751.2368613081,-7500.0,-14159.094476160364,-7007.3098120053573,-3206.1837232152511,2500.8405646116457,1175.8037368217967,-309.76058999823641,9116.4512689368657,-8109.0124047028648,-4292.4191422339945,4292.4191422339945,8109.0124047028648,18174.078003716721,0.0
718523.2936376977,3637751.2368613081,-7500.0,-12450.672261548891,-5647.4484816752247,-2460.9870136099557,2074.8241818847628,910.57753117415302,-246.92010295300631,7723.135140180133,-7268.3100619788638,-3199.3079802959328,3199.3079802959328,7268.3100619788638,15423.906727241991,0.0
723523.2936376977,3637751.2368613081,-7500.0,-10911.516760531304,-4571.1981257966818,-1921.4445230512138,1720.0149609683294,708.00288136690358,-195.91285143915354,6584.8600599184656,-6464.1290689852294,-2397.1624986553061,2397.1624986553061,6464.1290689852294,13129.288949310865,0.0
728523.2936376977,3637751.2368613081,-7500.0,-9554.0574426573276,-3721.1588269757626,-1525.8228749946386,1428.1008973920261,553.8525036876232,-155.42424700068315,5641.1276202174759,-5725.6388470329248,-1806.9339704677677,1806.9339704677677,5725.6388470329248,11221.059115048727,0.0
733523.2936376977,3637751.2368613081,-7500.0,-8371.5414065065343,-3048.6999757677172,-1231.5152371290849,1189.3422555391503,436.40259815983995,-123.62811446952972,4854.5046389903655,-5063.4326001152995,-1370.4595830317178,1370.4595830317178,5063.4326001152995,9634.1264231204932,0.0
738523.2936376977,3637751.2368613081,-7500.0,-7348.4412375468091,-2514.6758369499375,-1009.2264827635145,994.42722236762768,346.53919614016513,-98.758755431060152,4197.2840733749881,-4477.9711614666758,-1045.6595745933887,1045.6595745933887,4477.9711614666758,8311.675768495641,0.0
743523.2936376977,3637751.2368613081,-7500.0,-6466.1893887558617,-2088.3897908525787,-838.74749891938336,835.19646732845615,277.37538415905613,-79.30721383579187,3646.4043683415866,-3964.6135031233234,-802.29398117231062,802.29398117231062,3964.6135031233234,7205.9797617770701,0.0
748523.2936376977,3637751.2368613081,-7500.0,-5706.1562162061537,-1746.0843072471789,-706.03235645666575,704.8140695330876,223.77630873999723,-64.055574501821042,3182.8477654621438,-3516.4976203364913,-618.64963330673822,618.64963330673822,3516.4976203364913,6277.7610321835828,0.0
753523.2936376977,3637751.2368613081,-7500.0,-5051.0666190782276,-1469.4756433090445,-601.22109417162733,597.69277971518864,181.9328297202741,-52.049179693733031,2791.0806572589609,-3126.1251670447691,-479.09397135922268,479.09397135922268,3126.1251670447691,5495.0459336044787,0.0
543523.2936376977,3642751.2368613081,-7500.0,-5408.8351469320642,840.95122818174605,-466.17343310939333,-585.5616954564216,94.680734123369021,-44.913628481488239,2814.7582548794098,-3703.7039459185062,1409.7908373581683,-1409.7908373581683,3703.7039459185062,5465.0386160146545,0.0
548523.2936376977,3642751.2368613081,-7500.0,-6158.8596624182755,1023.2066508853479,-535.67142652981033,-691.89337070660201,119.30111891714532,-54.880113524953032,3219.6815852683799,-4219.7988674147782,1651.7005458111892,-1651.7005458111892,4219.7988674147782,6258.9687177327842,0.0
553523.2936376977,3642751.2368613081,-7500.0,-7046.2911385410771,1253.8968705168174,-621.66499686377904,-822.140616501983,151.48419049697679,-67.39735995471338,3703.0798487330385,-4829.5954132276029,1946.7595101274667,-1946.7595101274667,4829.5954132276029,7208.1451198428176,0.0
558523.2936376977,3642751.2368613081,-7500.0,-8101.7992192331685,1548.4649552902426,-729.73537412950157,-982.51447702611392,193.92133637827655,-83.137637551786014,4284.0655776098711,-5553.3020423244197,2309.0178578269761,-2309.0178578269761,5553.3020423244197,8350.7020941639621,0.0
563523.2936376977,3642751.2368613081,-7500.0,-9363.7796729246202,1928.1280393778804,-867.91419318107592,-1180.9057692012732,250.38169560520839,-102.89390092787758,4987.3181906394539,-6415.7452645461863,2756.7456788787958,-2756.7456788787958,6415.7452645461863,9735.975415237097,0.0
568523.2936376977,3642751.2368613081,-7500.0,-10880.294158962657,2422.353003839929,-1047.9957742187021,-1427.2250234268711,326.17495415506534,-127.51108012503236,5844.9409912915544,-7447.1722907940148,3313.7569794411306,-3313.7569794411306,7447.1722907940148,11428.26890215208,0.0
573523.2936376977,3642751.2368613081,-7500.0,-12711.329101572373,3072.5251927886861,-1287.6802796784868,-1733.6287246968993,428.80521244162935,-157.66448104712899,6899.0089323508519,-8683.8439478223136,4011.08228824547,-4011.08228824547,8683.8439478223136,13512.026211296668,0.0
578523.2936376977,3642751.2368613081,-7500.0,-14931.175223491186,3937.4306788460485,-1614.1521976901092,-2114.325235010836,568.85801448488075,-193.27054918101578,8205.0749769399154,-10167.905454566273,4888.9477684433296,-4888.9477684433296,10167.905454566273,16098.941379209249,0.0
583523.2936376977,3642751.2368613081,-7500.0,-17630.456636855179,5101.5294792642035,-2070.21796484591,-2584.2417650884236,761.09593815838639,-232.03034442621089,9837.0721554120155,-11945.471412719087,5998.8085246775754,-5998.8085246775754,11945.471412719087,19337.841813949955,0.0
588523.2936376977,3642751.2368613081,-7500.0,-20916.71722323888,6687.5347076519884,-2725.132964005546,-3154.9022997855996,1025.4777577848115,-265.92764978028555,11894.363421354097,-14060.693592539967,7404.6185784082809,-7404.6185784082809,14060.693592539967,23428.671967903865,0.0
593523.2936376977,3642751.2368613081,-7500.0,-24911.476688902218,8875.6971165907962,-3694.3363813240785,-3823.8367109939772,1386.9901992844987,-272.87592251220195,14512.630724868448,-16541.347738433098,9181.1998104106788,-9181.1998104106788,16541.347738433098,28643.279247430062,0.0
598523.2936376977,3642751.2368613081,-7500.0,-29740.358729711697,11933.726441852503,-5176.8288620101685,-4549.5466046827978,1870.7123908197102,-196.80519051999423,17883.401354220354,-19367.318290124553,11404.562578476649,-11404.562578476649,19367.318290124553,35360.004148267944,0.0
603523.2936376977,3642751.2368613081,-7500.0,-35512.604214685438,16264.56032626365,-7529.4147603570864,-5195.7433620608563,2481.3866122512322,99.671920061515635,22297.979378500939,-22406.337574517416,14122.510483183822,-14122.510483183822,22406.337574517416,44134.055866047565,0.0
608523.2936376977,3642751.2368613081,-7500.0,-42291.888063691986,22488.775037484218,-11423.873959394328,-5416.2622061828824,3136.6761192425665,945.2354356783585,28265.020906562113,-25291.341552526945,17280.546269126324,-17280.546269126324,25291.341552526945,55878.420820422856,0.0
613523.2936376977,3642751.2368613081,-7500.0,-50077.384206326395,31613.112362514952,-18211.531838680497,-4453.0446650333406,3470.1911664192457,3094.3271197561253,36829.650717038159,-27199.632057723898,20551.014055686963,-20551.014055686963,27199.632057723898,72402.235114011768,0.0
618523.2936376977,3642751.2368613081,-7500.0,-58755.308763388071,45460.176377040982,-30890.657433464639,-936.52598235181017,2304.187756157372,8084.7751309626756,50419.582333839608,-26410.070249590492,22928.320070595473,-22928.320070595473,26410.070249590492,97979.599770829271,0.0
623523.2936376977,3642751.2368613081,-7500.0,-66751.51593675882,67744.650463327882,-57165.483268766729,6631.8247703606476,-3498.3885365309661,17875.399802025353,74380.16157530724,-18563.290249545884,21295.774042844037,-21295.774042844037,18563.290249545884,142755.18546278795,0.0
628523.2936376977,3642751.2368613081,-7500.0,-56145.516013946413,102671.49072433934,-120238.79236314997,16774.637834461413,-20097.878489486815,28387.1337365422,115177.80362713493,15469.147606156992,573.56747239999004,-573.56747239999004,-15469.147606156992,224392.37071131333,1.0
633523.2936376977,3642751.2368613081,-7500.0,101576.8489139322,77439.985829657147,-266056.01300594502,16603.385862862251,-49529.552194303142,6476.7551026263172,204184.84239724214,167162.85821847961,-138274.63795661408,138274.63795661408,-167162.85821847961,367985.6389229747,0.0
638523.2936376977,3642751.2368613081,-7500.0,282889.0648487095,-439125.29616583331,336086.16350214358,-66763.62890844197,45103.732923013384,-29752.225538674782,445473.38822279009,26255.879453039801,-127208.55026345515,127208.55026345515,-26255.879453039801,845679.83370312315,1.0
643523.2936376977,3642751.2368613081,-7500.0,154782.60288316329,75993.69570547936,933153.0599382231,59242.066145309618,168426.6182849271,-99334.919483381396,551250.98639680655,-171279.94979641814,605061.85012127645,-605061.85012127645,171279.94979641814,990550.56681881461,1.0
648523.2936376977,3642751.2368613081,-7500.0,187608.43271710625,118915.21294861166,420815.51653602469,66938.904965521273,26785.94853965622,-107156.59680863442,298431.86256531306,17994.518684218288,298242.37341406115,-298242.37341406115,-17994.518684218288,517716.77126149612,0.0
653523.2936376977,3642751.2368613081,-7500.0,102393.64858032823,69630.683413773339,205330.09152371509,34358.043504087655,-17383.837894509594,-53784.102279665072,152721.58425454423,15394.20206745372,148256.62051204301,-148256.62051204301,-15394.20206745372,264683.01499731897,0.0
658523.2936376977,3642751.2368613081,-7500.0,63713.739894604179,45359.343305541741,93717.585665340841,12932.47146463153,-22956.195759474133,-18944.38814725164,78299.048832738699,17774.263474219315,72509.928263954498,-72509.928263954498,-17774.263474219315,135896.19538090838,0.0
663523.2936376977,3642751.2368613081,-7500.0,43136.502042299813,24448.815919286968,33209.859135710991,2089.7257914086304,-16380.889611871817,-4470.9961197382536,38632.896179913703,19546.110645549732,27018.893021210588,-27018.893021210588,-19546.110645549732,67110.094481807391,0.0
668523.2936376977,3642751.2368613081,-7500.0,28174.853908417048,8217.7292384514494,2186.4818369805862,-1054.4318337307166,-8238.7059254084634,-128.34391273385899,19426.704034720005,18144.582539026633,951.5019250938567,-951.5019250938567,-18144.582539026633,33918.578699594938,0.0
673523.2936376977,3642751.2368613081,-7500.0,15986.780602043062,-3216.3070267089001,-12012.025233738359,-651.56352246450263,-2348.4305810464016,543.78042361287135,14585.790736143877,14346.748684723323,-12725.623956706699,12725.623956706699,-14346.748684723323,25276.208092721306,0.0
678523.2936376977,3642751.2368613081,-7500.0,6076.6645315293408,-10165.994623047054,-16602.067853136516,667.24099873601335,961.09396513081913,265.52894168412558,15264.252153905949,9324.5603885263481,-18254.265862662323,18254.265862662323,-9324.5603885263481,27026.914123403589,0.0
683523.2936376977,3642751.2368613081,-7500.0,-1379.1598419565657,-13395.481716859058,-16278.110916946489,1794.4527112181199,2416.725266668408,-78.331196743784929,15518.993501480543,4394.1038853816372,-18853.332875171174,18853.332875171174,-4394.1038853816372,28435.023062471602,0.0
688523.2936376977,3642751.2368613081,-7500.0,-6393.2883455934116,-14044.974576841019,-13970.762743979358,2448.813362639617,2792.2933235016862,-288.06141252405405,14829.023900896256,406.03019685202344,-16982.842272731694,16982.842272731694,-406.03019685202344,27822.990748749784,0.0
693523.2936376977,3642751.2368613081,-7500.0,-9328.7003288787037,-13215.777387849075,-11240.933941736017,2683.0679881125802,2638.3173099409487,-371.24033705425387,13552.71169717201,-2385.0537768441218,-14235.037491696847,14235.037491696847,2385.0537768441218,25835.450742019606,0.0
698523.2936376977,3642751.2368613081,-7500.0,-10715.14975777421,-11716.287861984974,-8763.6084394332192,2636.3501501490937,2279.1571598438436,-375.70558995953593,12039.775760603938,-4100.1181390282636,-11461.042513436174,11461.042513436174,4100.1181390282636,23211.714045486686,0.0
703523.2936376977,3642751.2368613081,-7500.0,-11063.41273205954,-10037.95550343064,-6743.5218811841987,2435.245776187201,1880.4336227950284,-341.51203364682129,10514.410708433037,-4997.7256242537151,-9025.1600794447786,9025.1600794447786,4997.7256242537151,20444.661422633526,0.0
708523.2936376977,3642751.2368613081,-7500.0,-10777.855976331823,-8435.5009145632521,-5178.3227315945433,2168.0396716682812,1514.531792202991,-293.41978383164945,9094.8648730557743,-5336.4158316442008,-7027.6601878277233,7027.6601878277233,5336.4158316442008,17805.220036906303,0.0
713523.2936376977,3642751.2368613081,-7500.0,-10143.421840090756,-7017.296463302665,-3994.6487779144013,1887.7043421207816,1205.5539840110112,-244.35669857547822,7830.9619126202178,-5322.4971569464069,-5448.2220276940188,5448.2220276940188,5322.4971569464069,15417.830878555862,0.0
718523.2936376977,3642751.2368613081,-7500.0,-9345.6531038018438,-5812.2739577193597,-3107.9704437938153,1622.2005482995762,955.3837390589315,-200.04120847343296,6733.8616772690975,-5102.9665140181223,-4223.21029367146,4223.21029367146,5102.9665140181223,13322.309896347459,0.0
723523.2936376977,3642751.2368613081,-7500.0,-8498.0045554855897,-4811.2324098892032,-2444.321865729913,1383.9870019378166,757.20248934338701,-162.34253316263028,5795.2478319184474,-4775.4890456600187,-3281.9031921176352,3281.9031921176352,4775.4890456600187,11514.298995881651,0.0
728523.2936376977,3642751.2368613081,-7500.0,-7665.647310458362,-3989.6575213448582,-1945.4065217734139,1176.7773116543572,601.86627027426914,-131.29186782353193,4998.4585887956073,-4401.7079804035184,-2560.9385349800841,2560.9385349800841,4401.7079804035184,9969.0814148301488,0.0
733523.2936376977,3642751.2368613081,-7500.0,-6883.0851894290518,-3319.2391159073341,-1567.4744772018514,999.78169573324635,480.5973363158086,-106.16485158862628,4330.1661350123904,-4018.7640319514312,-2008.4425731910962,2008.4425731910962,4018.7640319514312,8654.6260928906759,0.0
738523.2936376977,3642751.2368613081,-7500.0,-6166.1385050249783,-2773.1153552942224,-1278.4633288021996,850.17002389990648,385.91623831240832,-86.017041325306209,3783.326368559543,-3647.8622067243004,-1583.822632289699,1583.822632289699,3647.8622067243004,7538.2527454285364,0.0
743523.2936376977,3642751.2368613081,-7500.0,-5519.6926102123525,-2327.8693675319869,-1055.1174591886081,724.41330353851686,311.79921271227948,-69.925636836465387,3316.526681920895,-3300.1785365501482,-1256.061282712162,1256.061282712162,3300.1785365501482,6589.7196193836226,0.0
748523.2936376977,3642751.2368613081,-7500.0,-4942.5378487065773,-1963.9610292039313,-880.61181392999458,618.96554868314945,253.53515459465098,-57.082329279017166,2917.6110922020898,-2980.7578186789342,-1001.7448245462874,1001.7448245462874,2980.7578186789342,5782.4029456711569,0.0
543523.2936376977,3647751.2368613081,-7500.0,-5122.9741385378948,1141.9168191482183,-583.0280253601444,-557.36779672213891,130.50269756668143,-43.002063690499249,2736.0640700000235,-3433.9141335629356,1485.199768767593,-1485.199768767593,3433.9141335629356,5315.01825262888,0.0
548523.2936376977,3647751.2368613081,-7500.0,-5794.2517684235208,1376.971439217426,-682.75825955648486,-654.74144247359777,162.90860085546385,-52.283512813559561,3118.5204270731606,-3878.1976824401063,1728.4067666168473,-1728.4067666168473,3878.1976824401063,6066.4124169387151,0.0
553523.2936376977,3647751.2368613081,-7500.0,-6577.4312578182025,1671.3215921906012,-808.42813955737859,-772.75667442100621,204.84082336651602,-63.843329117004771,3572.0204889931701,-4393.3853414354244,2021.0788345522267,-2021.0788345522267,4393.3853414354244,6959.0661103044877,0.0
558523.2936376977,3647751.2368613081,-7500.0,-7493.5314904721172,2042.7066279657586,-969.08209103227091,-916.26633957343779,259.51984576435109,-78.238165710875379,4112.8163767878459,-4991.1961283445453,2374.6786537410471,-2374.6786537410471,4991.1961283445453,8025.7674865796489,0.0
563523.2936376977,3647751.2368613081,-7500.0,-8567.0773646481939,2514.9458121787834,-1177.6691194147461,-1091.1778185916185,331.36835858199419,-96.09782672495848,4761.4527391729089,-5684.3211615349755,2803.3090603916849,-2803.3090603916849,5684.3211615349755,9308.1470702314473,0.0
568523.2936376977,3647751.2368613081,-7500.0,-9825.9463326179612,3120.2237784374006,-1453.0347576280355,-1304.4879156546901,426.47118820562207,-118.04476903787696,5543.9784503134597,-6485.4635395992809,3324.0437046941584,-3324.0437046941584,6485.4635395992809,10859.267383767323,0.0
573523.2936376977,3647751.2368613081,-7500.0,-11300.351453730887,3902.2533442357485,-1823.084638192295,-1564.0588987849007,553.17880994324742,-144.47355060252985,6493.4711016879255,-7405.2165822949646,3956.9320898694637,-3956.9320898694637,7405.2165822949646,12746.943603256848,0.0
578523.2936376977,3647751.2368613081,-7500.0,-13020.027359773763,4920.5730963623573,-2329.8868652595115,-1877.785711252026,722.83006285024919,-175.01506004181343,7651.890700377342,-8447.7266710960648,4724.140323297368,-4724.140323297368,8447.7266710960648,15057.897092761083,0.0
583523.2936376977,3647751.2368613081,-7500.0,-15007.917474507976,6256.2169903628837,-3038.0568884819377,-2251.4400379582412,950.43100596448824,-207.30127060732414,9072.2637006587029,-9602.2314356159168,5647.098285241168,-5647.098285241168,9602.2314356159168,17902.853041693474,0.0
588523.2936376977,3647751.2368613081,-7500.0,-17267.101347645395,8018.6834713134585,-4048.7761041350445,-2683.7425990335014,1254.7223397790174,-234.19135296791953,10821.102616242621,-10826.910371376807,6739.2326929951323,-6739.2326929951323,10826.910371376807,21422.554989535944,0.0
593523.2936376977,3647751.2368613081,-7500.0,-19754.956603996896,10353.139418698524,-5523.6259122800666,-3155.8605151147631,1655.9905027596126,-237.64108245599166,12981.00097485373,-12018.581831316242,7989.2083074964075,-7989.2083074964075,12018.581831316242,25794.704396446494,0.0
598523.2936376977,3647751.2368613081,-7500.0,-22333.712264140944,13444.026459979896,-7725.7629034403644,-3610.3216526134984,2167.2212415391978,-175.41387665326229,15655.207704864522,-12956.81507516505,9324.1001930242019,-9324.1001930242019,12956.81507516505,31242.829970975163,0.0
603523.2936376977,3647751.2368613081,-7500.0,-24677.934619319858,17503.818020225135,-11091.961858422599,-3912.032661002469,2767.4523290750544,46.594878118627719,19093.972300105052,-13203.098133431242,10530.512073598242,-10530.512073598242,13203.098133431242,38052.77311984211,0.0
608523.2936376977,3647751.2368613081,-7500.0,-26103.219280812875,22715.976757833596,-16359.365252220245,-3787.7874676578513,3331.2415075369217,626.28652183587076,23535.80906807023,-11924.877803431664,11088.087116356775,-11088.087116356775,11924.877803431664,46619.106392328889,0.0
613523.2936376977,3647751.2368613081,-7500.0,-25238.116544738819,29043.350562092081,-24784.016570538923,-2777.4064407617352,3463.2773430639418,1933.9106895510849,29283.381986811721,-7601.6514750515908,9818.7384641573535,-9818.7384641573535,7601.6514750515908,57583.503879459546,0.0
618523.2936376977,3647751.2368613081,-7500.0,-19300.56575302087,35599.108096479984,-38460.723832386757,-386.89804416610622,2192.204004900937,4453.2068702637225,37033.54802335499,2449.318864013273,4126.0742855159651,-4126.0742855159651,-2449.318864013273,72133.45442435224,0.0
623523.2936376977,3647751.2368613081,-7500.0,-2180.967854525562,38270.617922119382,-60204.900127672568,2948.0651451439294,-2211.5969020628736,7851.3031677093804,48236.111314133152,22751.662347452977,-11736.567346342286,11736.567346342286,-22751.662347452977,92109.729822297086,0.0
628523.2936376977,3647751.2368613081,-7500.0,38888.539439192566,20020.260304754796,-86995.463089309924,3356.5384598457158,-10406.644218275407,7138.6161993366341,66685.210445740333,58053.82817956106,-49131.958237666542,49131.958237666542,-58053.82817956106,120079.80076554081,0.0
633523.2936376977,3647751.2368613081,-7500.0,101316.92438524416,-67467.029767862143,-58210.561964116103,-6832.279180830702,-12655.765133220453,-12049.521160675036,105862.16796121406,79913.63251721242,-100318.6385373167,100318.6385373167,-79913.63251721242,185719.8195917386,1.0
638523.2936376977,3647751.2368613081,-7500.0,71115.917529716608,-162971.44730790771,200717.63729847252,-15686.531293932825,18267.768489290476,-53127.52021341784,184012.33346168642,-37444.93976907515,5792.4606264688846,-5792.4606264688846,37444.93976907515,360213.29041623103,1.0
643523.2936376977,3647751.2368613081,-7500.0,18756.793506650483,-30178.645104564355,400497.86128446768,14170.82628103495,39143.554626245219,-78804.271586366274,245258.51511207491,-119132.5250759382,226091.22235356609,-226091.22235356609,119132.5250759382,447681.59648596012,1.0
648523.2936376977,3647751.2368613081,-7500.0,53310.47602236754,66178.085847270078,295292.16594337212,28822.795087114395,9628.0289131942391,-63117.717575010589,191447.20086329457,-49169.751461695094,214249.12826085117,-214249.12826085117,49169.751461695094,340871.13118289184,0.0
653523.2936376977,3647751.2368613081,-7500.0,62563.220716276672,68371.902129802445,169825.3558270364,17437.713759760674,-12597.558093500184,-33266.447380941878,121484.77949818174,-5101.2844521973457,135710.98428140068,-135710.98428140068,5101.2844521973457,215359.82382748701,0.0
658523.2936376977,3647751.2368613081,-7500.0,56334.207021569324,52620.376866579521,89205.71288735648,4787.4328688659552,-17005.997143259163,-13118.265846982185,73964.988147751486,12399.329066615705,77721.00916924933,-77721.00916924933,-12399.329066615705,132023.75466713271,0.0
663523.2936376977,3647751.2368613081,-7500.0,47300.498943690596,35139.880955502937,39653.102765735683,-1930.6117735822347,-13148.069029172066,-3802.8862515154983,44624.167058565545,19756.542033629012,38323.24884540488,-38323.24884540488,-19756.542033629012,80706.018721276909,0.0
668523.2936376977,3647751.2368613081,-7500.0,37059.755546482906,19538.607851015495,10813.051797956678,-3775.6183246877918,-7581.9704927545617,-507.58857147721505,26977.777829095987,21152.795074326867,12711.996316915598,-12711.996316915598,-21152.795074326867,49746.076741634046,0.0
673523.2936376977,3647751.2368613081,-7500.0,26668.8771787148,7388.0411696036945,-4433.6773082502114,-3142.7589855112215,-3065.4243253147506,272.14163798774189,17854.409640324731,18877.360593874684,-2600.4689954364103,2600.4689954364103,-18877.360593874684,32630.068577391132,0.0
678523.2936376977,3647751.2368613081,-7500.0,17175.751286439267,-998.65484278559939,-11173.373848448189,-1745.6929764506208,-187.3556743962107,234.55466614222439,14300.489995700189,14767.45753373001,-10559.000932980298,10559.000932980298,-14767.45753373001,24952.925855555874,0.0
683523.2936376977,3647751.2368613081,-7500.0,9283.7788349732327,-6047.4414778178707,-13010.652150896018,-429.41536815861855,1329.0273169392399,36.988791091727563,12755.283389644492,10214.555663113069,-13660.807656160547,13660.807656160547,-10214.555663113069,22180.163106046224,0.0
688523.2936376977,3647751.2368613081,-7500.0,3263.8798413458371,-8544.6278724050208,-12368.611792806989,522.07933082608497,1944.2157495183862,-120.71341975566338,11708.84139568588,6095.095380404071,-13897.026446235041,13897.026446235041,-6095.095380404071,20835.312859529338,0.0
693523.2936376977,3647751.2368613081,-7500.0,-973.21221939299062,-9328.7730060286394,-10719.964126445399,1095.5439829676307,2046.2634357377069,-206.22355210501379,10689.537260849036,2805.6555116209574,-12685.885606290372,12685.885606290372,-2805.6555116209574,19501.367695732049,0.0
698523.2936376977,3647751.2368613081,-7500.0,-3723.1092809250176,-9098.4337840989265,-8853.1862892635108,1374.3717686603923,1896.5622862509153,-235.58614141485077,9626.43961558095,407.40132638594696,-10916.52796897949,10916.52796897949,-407.40132638594696,17921.322518090263,0.0
703523.2936376977,3647751.2368613081,-7500.0,-5343.4350233263576,-8349.5905400760785,-7128.7462360875579,1455.3407013045526,1648.8855967599698,-231.15194632447825,8561.4306232351792,-1212.7982754573291,-9078.0761972272066,9078.0761972272066,1212.7982754573291,16189.728164827337,0.0
708523.2936376977,3647751.2368613081,-7500.0,-6164.2468877503561,-7394.9730649891253,-5672.640179618601,1417.6841226668103,1384.0144368943913,-209.9542935347078,7545.5453962784613,-2226.2213325885364,-7401.0287237725133,7401.0287237725133,2226.2213325885364,14443.024609369069,0.0
713523.2936376977,3647751.2368613081,-7500.0,-6450.9190089120511,-6412.4949313999359,-4498.2723800777867,1317.0779298520577,1139.1923081280349,-182.57301499563405,6612.4408404046235,-2799.6248105460336,-5968.3685432505308,5968.3685432505308,2799.6248105460336,12779.779324520909,0.0
718523.2936376977,3647751.2368613081,-7500.0,-6399.5781808775982,-5492.4995553650997,-3573.5030377206435,1189.0798877563163,928.07697109934509,-154.76476966242538,5777.5351593580572,-3070.3939261972655,-4788.23577285993,4788.23577285993,3070.3939261972655,11254.530240258198,0.0
723523.2936376977,3647751.2368613081,-7500.0,-6147.1581522100269,-4673.3133179842516,-2853.5359675502345,1054.7239141712337,752.6823539981749,-129.26035068843444,5043.3514325783599,-3142.0741637951442,-3835.9836261182454,3835.9836261182454,3142.0741637951442,9889.3301708617491,0.0
728523.2936376977,3647751.2368613081,-7500.0,-5785.3161229099724,-3964.6863345587763,-2295.1352648492216,925.48954790142466,609.94024406251765,-107.08176849764378,4404.8352207905873,-3088.5327494339622,-3076.2467506900352,3076.2467506900352,3088.5327494339622,8686.0537738587554,0.0
733523.2936376977,3647751.2368613081,-7500.0,-5373.2658937729866,-3362.005285582652,-1861.6097968577417,806.95824157799029,495.05094543940396,-88.368815854533608,3853.1944619836331,-2960.5123079389855,-2473.4084341427038,2473.4084341427038,2960.5123079389855,7635.5179503096952,0.0
738523.2936376977,3647751.2368613081,-7500.0,-4947.9445437390586,-2854.3834676450033,-1523.664684081479,701.25952329861843,403.05989803278419,-72.854307857092323,3378.3308690445833,-2791.8719501243418,-1995.8810050917332,1995.8810050917332,2791.8719501243418,6723.3701072347103,0.0
743523.2936376977,3647751.2368613081,-7500.0,-4531.4451559457957,-2428.9993753955209,-1258.641193811369,608.61314395582326,329.51170516216263,-60.118734553348332,2970.6684338010668,-2604.6245262721859,-1617.3304707370182,1617.3304707370182,2604.6245262721859,5933.5746880607257,0.0
748523.2936376977,3647751.2368613081,-7500.0,-4136.2044641517487,-2073.2637447259244,-1049.3021129582098,528.26067040452835,270.6527568493168,-49.717921108436883,2632.0904904538756,-2412.6902717318212,-1316.5311249089827,1316.5311249089827,2412.6902717318212,5250.3293127270745,0.0
543523.2936376977,3652751.2368613081,-7500.0,-4744.9438398174007,1385.4994495566377,-720.00197975332208,-519.84056910450897,160.42783294586977,-40.448945455280544,2624.6588884073199,-3095.2664587885902,1489.9954169591992,-1489.9954169591992,3095.2664587885902,5103.3176318916867,0.0
548523.2936376977,3652751.2368613081,-7500.0,-5318.5322547207097,1655.5188451486174,-853.05949842470693,-605.91573186669314,198.54364351918653,-48.857721708704567,2977.3196548561937,-3454.2690529446973,1716.4072523894076,-1716.4072523894076,3454.2690529446973,5798.294305813396,0.0
553523.2936376977,3652751.2368613081,-7500.0,-5974.2986755893562,1989.2054312142247,-1021.6293726560828,-708.71517490882491,247.31112172066085,-59.214230682273396,3391.6582277965099,-3858.7269875062975,1983.1645526625371,-1983.1645526625371,3858.7269875062975,6616.8598876645983,0.0
558523.2936376977,3652751.2368613081,-7500.0,-6722.8048241538299,2403.8756207313436,-1237.8629396800713,-831.56220459363874,310.09860818148223,-71.942974620357788,3880.4981823331541,-4311.5941569165643,2297.3130667883861,-2297.3130667883861,4311.5941569165643,7585.3664797314323,0.0
563523.2936376977,3652751.2368613081,-7500.0,-7573.9673837568816,2921.9423864460991,-1518.8872837344929,-978.18529585765623,391.41091354386828,-87.492578459189403,4459.5176837843674,-4813.4232169270217,2666.3174287833835,-2666.3174287833835,4813.4232169270217,8736.3312822441749,0.0
568523.2936376977,3652751.2368613081,-7500.0,-8535.1010242453867,3572.3350451932847,-1889.1383531637887,-1152.4721811713571,497.2469417028945,-106.24768976830146,5147.7814318407554,-5360.0194273262287,3097.2014763823818,-3097.2014763823818,5360.0194273262287,10109.778272155505,0.0
573523.2936376977,3652751.2368613081,-7500.0,-9607.275683689124,4392.0917057290362,-2383.8964560499271,-1357.8619150736838,635.50306140161229,-128.3202350986883,5968.2227983507428,-5938.3792054896312,3594.6879531576474,-3594.6879531576474,5938.3792054896312,11754.662138681944,0.0
578523.2936376977,3652751.2368613081,-7500.0,-10778.750204359667,5427.8220874383551,-3054.6732276903963,-1596.034252003835,816.31993239633357,-153.08995560367535,6947.9065671069793,-6519.7423915435047,4157.4320724672925,-4157.4320724672925,6519.7423915435047,13730.166485138525,0.0
583523.2936376977,3652751.2368613081,-7500.0,-12013.360112514696,6736.2071487811818,-3977.4169790748156,-1864.272559264341,1052.0755242213049,-178.23358534419617,8117.7237232050775,-7047.8141181680539,4770.6553014916672,-4770.6553014916672,7047.8141181680539,16106.420574235404,0.0
588523.2936376977,3652751.2368613081,-7500.0,-13230.311210384729,8381.4791182178469,-5264.8805912550442,-2150.4136330150445,1356.2648188839339,-197.73312097545093,9510.8663427744868,-7419.0433966185301,5392.0356797482054,-5392.0356797482054,7419.0433966185301,18963.777467279644,0.0
593523.2936376977,3652751.2368613081,-7500.0,-14269.712847289535,10425.133949442803,-7084.7200548450819,-2423.6571843251968,1739.4619795770784,-197.92213365303061,11230.122312567128,-7450.3258931236378,5925.1473903156984,-5925.1473903156984,7450.3258931236378,22389.360875863582,0.0
598523.2936376977,3652751.2368613081,-7500.0,-14835.417375859752,12897.178942320892,-9684.0617706353478,-2619.0508963040666,2198.325060304508,-150.05726614695666,13380.432131715059,-6828.2694964869315,6170.4245261679098,-6170.4245261679098,6828.2694964869315,26469.503395848438,0.0
603523.2936376977,3652751.2368613081,-7500.0,-14404.673905872358,15725.350884831119,-13416.315613694198,-2614.968424487221,2689.3528826390439,2.0697622977502013,15971.04066977914,-5036.2135815392667,5737.4635946907529,-5737.4635946907529,5036.2135815392667,31278.812451638983,0.0
608523.2936376977,3652751.2368613081,-7500.0,-12098.000422978657,18571.382486211114,-18746.630505895086,-2212.5342842994846,3073.283200983507,356.49910190560604,19083.929355553799,-1270.5987339053195,3897.8273954542442,-3897.8273954542442,1270.5987339053195,36875.928133797664,0.0
613523.2936376977,3652751.2368613081,-7500.0,-6530.0613411605264,20467.127320605814,-26143.622756726745,-1160.199610881928,3018.4782405752235,1042.8584827756804,22858.092648162703,5581.9659692168725,-626.57858867977757,626.57858867977757,-5581.9659692168725,43343.448853030852,0.0
618523.2936376977,3652751.2368613081,-7500.0,4222.302074773771,19042.04400914488,-35524.120909097961,650.70711722899716,1911.1659480843916,2076.7485893729436,27636.656280664916,16637.596067209284,-9821.7302959855006,9821.7302959855006,-16637.596067209284,50981.660512830764,0.0
623523.2936376977,3652751.2368613081,-7500.0,21904.272503073938,9108.529087720719,-44103.855028189435,2629.8518310273944,-921.84568455479189,2782.8346384423471,34403.920480273227,31481.239399273705,-25751.70201529999,25751.70201529999,-31481.239399273705,61096.0362366349,0.0
628523.2936376977,3652751.2368613081,-7500.0,44096.075429018085,-18034.481699866603,-39601.386409347811,2914.25738335699,-4879.0918567309936,590.52992529886581,45923.789162660236,42931.819558617826,-45841.205294481631,45841.205294481631,-42931.819558617826,79557.003237195575,1.0
633523.2936376977,3652751.2368613081,-7500.0,53499.308230684233,-62989.808142111047,9840.4063350677643,293.59360004884383,-5878.253322597142,-8670.7868800109227,67122.170671323955,28068.366537018264,-46920.063319727262,46920.063319727262,-28068.366537018264,122735.53000188939,1.0
638523.2936376977,3652751.2368613081,-7500.0,28071.146155558763,-82130.076685593289,120795.45305886677,-118.10986162783321,-638.63343608298464,-23574.460910214671,96185.26166122203,-28378.414378733498,14260.47771441441,-14260.47771441441,28378.414378733498,190502.4483743585,1.0
643523.2936376977,3652751.2368613081,-7500.0,2599.9841545537415,-33211.071769535236,204971.86184747529,6154.8849066634093,1105.6273546552243,-31814.938260595762,121692.03393027557,-68403.623248241784,103279.08429964713,-103279.08429964713,68403.623248241784,229193.40557711979,1.0
648523.2936376977,3652751.2368613081,-7500.0,11262.415458025333,24631.260353310627,193091.65258620592,9188.1182676528042,-6817.0563832406042,-26423.541321281034,112878.41017940195,-53507.14380818011,131959.2342779726,-131959.2342779726,53507.14380818011,208679.87413617643,0.0
653523.2936376977,3652751.2368613081,-7500.0,28215.168283148694,47614.779147744885,137295.27063104339,4774.6582983493099,-14014.931366561228,-15240.606070017664,87460.844188490111,-23204.590446699149,109628.51029570468,-109628.51029570468,23204.590446699149,161202.30127390468,0.0
658523.2936376977,3652751.2368613081,-7500.0,37206.522072174826,47069.820376170981,84112.617406754391,-1040.9787388622583,-14937.327786353875,-6516.8109464211602,62625.558440186549,-1112.112362123502,75422.097095345162,-75422.097095345162,1112.112362123502,116112.56875049218,0.0
663523.2936376977,3652751.2368613081,-7500.0,38464.071075162145,37255.748049644943,44800.775673243741,-4396.8230685676745,-11740.28639466073,-1923.2004536359798,43198.97366601447,11399.337864171648,45070.418496374572,-45070.418496374572,-11399.337864171648,81010.364505385558,0.0
668523.2936376977,3652751.2368613081,-7500.0,34722.12220542891,25305.698169626328,18837.053632493346,-5149.4400845773525,-7480.7117823905137,-110.85402061138913,29159.2846661851,16787.851299739654,22202.182043656554,-22202.182043656554,-16787.851299739654,55505.998286715825,0.0
673523.2936376977,3652751.2368613081,-7500.0,28403.397839983736,14498.0464277232,3257.2641462847714,-4382.7030581467352,-3824.7921843557665,355.70733051106276,20003.730849809755,17480.743547327067,6724.5377391911607,-6724.5377391911607,-17480.743547327067,38023.695533381557,0.0
678523.2936376977,3652751.2368613081,-7500.0,21326.649281517362,6091.4314904510393,-5054.7751725939925,-3073.159126241595,-1269.663398513796,319.14971098466583,14790.659196359615,15493.746251706196,-2690.0849221263579,2690.0849221263579,-15493.746251706196,26973.551876512109,0.0
683523.2936376977,3652751.2368613081,-7500.0,14660.235539694257,257.22498947102122,-8709.1160435273086,-1787.8321069832307,269.64596615460073,161.31480966733528,11800.528597257682,12323.888282655513,-7666.8663465104801,7666.8663465104801,-12323.888282655513,20676.570593153581,0.0
688523.2936376977,3652751.2368613081,-7500.0,9014.3687388090329,-3362.2300075084436,-9647.838933803183,-762.43864730448831,1063.4966162616158,19.987451122498005,10004.468828760761,8950.9487026064617,-9699.764732479578,9699.764732479578,-8950.9487026064617,17331.262608010082,0.0
693523.2936376977,3652751.2368613081,-7500.0,4590.61150043416,-5309.7266090836492,-9180.1789541240851,-41.947281156423273,1379.9923148479049,-72.434931507267649,8788.8400239136517,5916.4161868077863,-9968.1512253482069,9968.1512253482069,-5916.4161868077863,15409.829381131807,0.0
698523.2936376977,3652751.2368613081,-7500.0,1336.7289520252905,-6116.060792854646,-8107.6255998761717,413.96706475529925,1422.8517161107616,-120.7497967494573,7829.7483642695925,3444.5777080941284,-9301.0243554691078,9301.0243554691078,-3444.5777080941284,14012.899672293639,0.0
703523.2936376977,3652751.2368613081,-7500.0,-924.26141907939564,-6210.9260568153632,-6874.0290715904757,670.6086589499912,1326.834896714116,-138.46590239997025,6990.873887212796,1565.8206919329341,-8225.4197761539981,8225.4197761539981,-1565.8206919329341,12769.100922108939,0.0
708523.2936376977,3652751.2368613081,-7500.0,-2405.7763250519406,-5903.5580507266068,-5697.6058168118643,790.14850344698118,1172.7950241186954,-137.88133759984018,6227.6254631447046,213.64796918704815,-7045.8059146643709,7045.8059146643709,-213.64796918704815,11575.852199040379,0.0
713523.2936376977,3652751.2368613081,-7500.0,-3308.4604837614893,-5398.1424962021974,-4667.3647312770318,821.85897412816439,1005.2036770252943,-127.74782664545089,5530.3705918619735,-712.75462254091917,-5920.0808079202434,5920.0808079202434,712.75462254091917,10428.965660401231,0.0
718523.2936376977,3652751.2368613081,-7500.0,-3799.377735629449,-4820.115459896826,-3805.0290195957591,801.10931035093449,846.17869668010712,-113.5591050512211,4898.9072671964477,-1314.8013917466651,-4917.9236706911042,4917.9236706911042,1314.8013917466651,9347.7293073775691,0.0
723523.2936376977,3652751.2368613081,-7500.0,-4007.882565953229,-4241.1734619880326,-3101.0968715118784,751.68023823128226,705.07254218580408,-98.458336378403871,4333.256145379396,-1679.8754682407441,-4060.1067916779784,4060.1067916779784,1679.8754682407441,8349.2488615706843,0.0
728523.2936376977,3652751.2368613081,-7500.0,-4029.4316565539739,-3698.7209750302841,-2534.1711533760467,688.76919665864636,584.44113879007568,-84.078884554712232,3831.3610312392038,-1877.3349037038515,-3342.6925165992261,3342.6925165992261,1877.3349037038515,7442.5678500855629,0.0
733523.2936376977,3652751.2368613081,-7500.0,-3932.1001607903263,-3209.4520686564415,-2080.4737050646854,621.64291003698759,483.52090317015927,-71.155396734251028,3389.2231607680415,-1959.5388025757488,-2750.8974417770582,2750.8974417770582,1959.5388025757488,6629.3915550846796,0.0
738523.2936376977,3652751.2368613081,-7500.0,-3763.175682610984,-2778.2063073703084,-1718.0204086336819,555.65826317151914,400.14356340343744,-59.921156906171944,3001.6399808025421,-1964.7167143596068,-2266.5169971727223,2266.5169971727223,1964.7167143596068,5906.3463699594604,0.0
743523.2936376977,3652751.2368613081,-7500.0,-3554.7778108511679,-2403.4664665706864,-1428.0842559713283,493.68667015499364,331.73159490228647,-50.349424356746333,2662.9139419067619,-1920.1223066941357,-1871.5948059478856,1871.5948059478856,1920.1223066941357,5267.0930156172917,0.0
543523.2936376977,3657751.2368613081,-7500.0,-4299.2536488596479,1563.2778852575675,-864.95978948535037,-475.2948196178408,183.49160644080959,-37.402105782783018,2486.1960480152516,-2710.1613023204231,1430.9104458144061,-1430.9104458144061,2710.1613023204231,4840.6134475895096,0.0
548523.2936376977,3657751.2368613081,-7500.0,-4764.8142872243834,1849.1733389680023,-1030.2341544230399,-548.64273691022663,225.03647835476605,-44.814345960298638,2803.7671248322249,-2978.1647891968191,1625.9400986749774,-1625.9400986749774,2978.1647891968191,5469.1450087827488,0.0
553523.2936376977,3657751.2368613081,-7500.0,-5282.0821388269196,2196.7444005601678,-1239.0598814111634,-634.55998457350938,277.49940675726583,-53.815455052041635,3172.5634419495109,-3266.6045087835801,1848.5912249895291,-1848.5912249895291,3266.6045087835801,6201.5222074034009,0.0
558523.2936376977,3657751.2368613081,-7500.0,-5851.9407156614816,2620.5224629057107,-1505.6077328530766,-734.86908413776189,344.04052408714398,-64.695882742591493,3601.8179567405418,-3570.7727203507593,2100.689681884819,-2100.689681884819,3570.7727203507593,7057.3453473369727,0.0
563523.2936376977,3657751.2368613081,-7500.0,-6471.3382117678348,3138.2217938493127,-1849.3679967589285,-851.22929287495276,428.73557201522078,-77.726053175015991,4102.2324039605974,-3881.1288163866566,2382.2418800012056,-2382.2418800012056,3881.1288163866566,8059.7968163627929,0.0
568523.2936376977,3657751.2368613081,-7500.0,-7130.2487519677225,3770.9424044357684,-2297.3211614461575,-984.69100021455381,536.76666696254642,-93.065953621145553,4685.9265622547255,-4180.2906953535457,2689.6022324173691,-2689.6022324173691,4180.2906953535457,9235.9168598254964,0.0
573523.2936376977,3657751.2368613081,-7500.0,-7806.7322255612517,4542.7712174483204,-2886.9819454857447,-1134.8557007690872,674.54538395476129,-110.57642318920649,5366.0884878738452,-4438.3259852307128,3012.2646409377653,-3012.2646409377653,4438.3259852307128,10616.52627277126,0.0
578523.2936376977,3657751.2368613081,-7500.0,-8459.025967292584,5478.9995161261022,-3670.5730363102434,-1298.3578019217773,849.60113947253637,-129.44366557504046,6156.0681739868887,-4605.4834961244123,3327.3276439774659,-3327.3276439774659,4605.4834961244123,12235.455951207712,0.0
583523.2936376977,3657751.2368613081,-7500.0,-9013.0698468084975,6601.3566948096259,-4720.4543808984681,-1466.2110892450407,1069.855566810744,-147.45942749738524,7067.9171428663931,-4601.1900290787289,3590.0619543799562,-3590.0619543799562,4601.1900290787289,14127.482704183587,0.0
588523.2936376977,3657751.2368613081,-7500.0,-9343.3967524834661,7917.1503178028688,-6135.4118018079535,-1619.3687569429205,1341.4821065357667,-159.69596055373654,8217.1378907835606,-4298.0514347865728,3718.1512300785371,-3718.1512300785371,4298.0514347865728,16324.213593642035,0.0
593523.2936376977,3657751.2368613081,-7500.0,-9245.1871468977715,9396.3184818678001,-8045.7192563165299,-1721.7522306122846,1663.7352896873538,-156.20972749043653,9573.7206572250288,-3500.2965612278513,3566.1552779257827,-3566.1552779257827,3500.2965612278513,18847.175857130784,1.0
598523.2936376977,3657751.2368613081,-7500.0,-8397.1073789932907,10925.402323582652,-10610.252804768177,-1710.5653297298127,2017.7613121755007,-118.50237436652684,11152.861940965216,-1919.5768078308427,2886.5418989532864,-2886.5418989532864,1919.5768078308427,21698.859450972075,0.0
603523.2936376977,3657751.2368613081,-7500.0,-6322.057522946252,12219.656509554567,-13986.861569064708,-1486.4157698236716,2344.6832564285974,-15.526943272780478,12978.892107868414,838.02601539299417,1277.5419525437667,-1277.5419525437667,-838.02601539299417,24858.415074126708,0.0
608523.2936376977,3657751.2368613081,-7500.0,-2375.8689673738609,12666.450278354965,-18227.519956892302,-914.05474369080412,2508.4773582440725,195.58631858952629,15097.433302537191,5230.3913946547464,-1863.2729797552122,1863.2729797552122,-5230.3913946547464,28308.122249019441,0.0
613523.2936376977,3657751.2368613081,-7500.0,4147.2113009944196,11081.264185281689,-22982.271525658252,137.00145152454132,2250.4143336127386,545.72178360880923,17645.436080618987,11570.670853555364,-7298.2436743448943,7298.2436743448943,-11570.670853555364,32169.949754657155,0.0
618523.2936376977,3657751.2368613081,-7500.0,13576.519994369672,5451.213553578712,-26769.247539725642,1661.3249466537907,1187.2054494397596,961.35312860085787,21032.505980363938,19410.307751365832,-15566.743709788314,15566.743709788314,-19410.307751365832,37143.106532560552,0.0
623523.2936376977,3657751.2368613081,-7500.0,24703.192843926347,-6852.2765727348042,-25482.259952529243,3290.4584036417095,-998.12994615435377,1048.425631644554,26247.218342752101,26176.467625364323,-25642.958538588569,25642.958538588569,-26176.467625364323,45467.941489401812,0.0
628523.2936376977,3657751.2368613081,-7500.0,32800.198573788424,-26782.047775090941,-10637.240221846314,4250.8605003852945,-4028.2012614628629,-113.59654953670179,34887.784101732759,25405.903881991802,-31875.021803511507,31875.021803511507,-25405.903881991802,61604.877628437469,1.0
633523.2936376977,3657751.2368613081,-7500.0,29728.181524543757,-47173.300688961404,27690.644330651274,4136.0423086822848,-6710.4161164460402,-3426.4484019249167,47673.336574607034,8605.095223088003,-21578.908355561911,21578.908355561911,-8605.095223088003,88871.805071863855,1.0
638523.2936376977,3657751.2368613081,-7500.0,13784.473949423646,-49603.593096616954,84243.932578842272,3845.5711677619397,-8357.1962518091459,-7918.09334807492,61224.211040175389,-21871.875069579881,14644.396295691966,-14644.396295691966,21871.875069579881,120831.00043027224,1.0
643523.2936376977,3657751.2368613081,-7500.0,-6.8008989819779107,-24865.13942353303,127136.38700038916,3868.4517435394264,-10364.255323209229,-10337.82438262729,72165.206655445407,-44157.467786520385,60224.836012255604,-60224.836012255604,44157.467786520385,140739.52228480062,0.0
648523.2936376977,3657751.2368613081,-7500.0,1316.2124719102155,8556.5266673098395,131783.28848089618,2636.0593323410653,-13232.857346215693,-8904.5352424542107,72325.671181412748,-43012.70434421672,85260.095957483776,-85260.095957483776,43012.70434421672,138655.71422759967,1.0
653523.2936376977,3657751.2368613081,-7500.0,12028.833741375342,30121.71827895362,107727.32968530558,-329.55229083903566,-14795.576365774104,-5392.1139183380947,63173.378473834127,-27136.654210032244,83188.596625717444,-83188.596625717444,27136.654210032244,120448.56504997863,0.0
658523.2936376977,3657751.2368613081,-7500.0,22104.430577166309,36624.11733576416,75269.393345116041,-3356.6051448018625,-13717.137192802307,-2255.7171949007443,50611.053543637994,-9814.4050498332799,66172.897801895815,-66172.897801895815,9814.4050498332799,96629.675976805345,0.0
663523.2936376977,3657751.2368613081,-7500.0,27410.283428984556,33454.60489602053,46215.553313369142,-5071.3790762081353,-10776.171715191189,-416.86455647094863,38378.515481645052,2975.1836801168465,45634.680148773208,-45634.680148773208,-2975.1836801168465,73718.731828242744,0.0
668523.2936376977,3657751.2368613081,-7500.0,28015.419200577489,26025.318233244179,24349.581447344943,-5335.4085242226429,-7343.1053365804046,342.2812748166063,28052.254335648751,10364.434525370094,27385.385679973115,-27385.385679973115,-10364.434525370094,54377.482500303646,0.0
673523.2936376977,3657751.2368613081,-7500.0,25387.210778173019,17785.132122493451,9628.6242057113268,-4650.454152746921,-4331.5025194115678,499.10198582749388,20268.869703677927,13387.596688535174,13428.561083125809,-13428.561083125809,-13387.596688535174,39314.733631851457,0.0
678523.2936376977,3657751.2368613081,-7500.0,21074.79992071517,10497.443467129222,649.74922301953109,-3566.0470019102845,-2085.8732910311319,407.65256252009078,15010.112907154728,13486.489830941893,3841.6799036081757,-3841.6799036081757,-13486.489830941893,28354.501886223261,0.0
683523.2936376977,3657751.2368613081,-7500.0,16262.078666480647,4827.0991191828189,-4228.0820251514569,-2454.96279961132,-597.80605312013063,255.98352229269096,11508.362155474228,11937.921409517312,-2107.0199108766556,2107.0199108766556,-11937.921409517312,20907.644687454715,0.0
688523.2936376977,3657751.2368613081,-7500.0,11698.017626513618,820.96468316808716,-6431.2631046660226,-1504.3544877179816,287.52603856254967,121.62910153228241,9205.5549031777009,9679.9930935242082,-5364.4041528290563,5364.4041528290563,-9679.9930935242082,16182.435035073719,0.0
693523.2936376977,3657751.2368613081,-7500.0,7768.7437765454797,-1765.1893909910302,-7035.3662730181786,-774.18243372236634,750.03574234398286,25.78057429397321,7684.8083277706965,7311.1169219563499,-6805.1644869253641,6805.1644869253641,-7311.1169219563499,13316.189059929835,0.0
698523.2936376977,3657751.2368613081,-7500.0,4606.3067887195375,-3267.2581559125074,-6774.8556737612435,-255.79214322971157,942.16368259346871,-33.629331460063952,6630.0349332572932,5157.7401169168079,-7120.3656983913388,7120.3656983913388,-5157.7401169168079,11538.467534537276,0.0
703523.2936376977,3657751.2368613081,-7500.0,2189.932652578465,-4006.5140032282739,-6111.0814177813636,87.854012411232475,975.29009954352932,-65.58296490228345,5835.8524111200368,3358.6852281158708,-6802.1482252823198,6802.1482252823198,-3358.6852281158708,10310.398106371702,0.0
708523.2936376977,3657751.2368613081,-7500.0,423.06514567143756,-4245.0953755590599,-5311.5381211950753,299.63641779375604,923.4766500147814,-79.215691697057395,5188.1288134811493,1939.7185911587039,-6173.3922837131622,6173.3922837131622,-1939.7185911587039,9335.3016500720005,0.0
713523.2936376977,3657751.2368613081,-7500.0,-816.29400936019192,-4177.1863310327553,-4517.995425524462,417.89602080038327,832.53405638728213,-81.679856476672086,4630.6381528407201,868.30153126237246,-5430.8481112783375,5430.8481112783375,-868.30153126237246,8480.0637160548231,0.0
718523.2936376977,3657751.2368613081,-7500.0,-1647.3251493074638,-3937.0681535221597,-3796.6000750691646,473.01923940174538,728.98120985244168,-77.928943150293421,4137.6591847292975,88.506675413912035,-4685.4172351611451,4685.4172351611451,-88.506675413912035,7695.6124138894402,0.0
723523.2936376977,3657751.2368613081,-7500.0,-2173.3821990752626,-3612.6048904868053,-3171.1247406024795,487.41869961897874,627.06246813988412,-71.135484197462318,3697.4532094852884,-459.42975013425075,-3993.5270471235381,3993.5270471235381,459.42975013425075,6968.32316106095,0.0
728523.2936376977,3657751.2368613081,-7500.0,-2478.0922907584022,-3258.4354097481792,-2643.4120562700587,476.83613941779572,533.63979346950759,-63.207779130647978,3303.9224263009196,-829.71733053231878,-3379.0972533253635,3379.0972533253635,829.71733053231878,6296.5754444902768,0.0
733523.2936376977,3657751.2368613081,-7500.0,-2626.1463031762241,-2906.6974273263095,-2205.1749263676156,451.92443277332575,451.3625456505593,-55.222491598223122,2952.9125781130033,-1067.5649092989565,-2847.8346016726096,2847.8346016726096,1067.5649092989565,5681.1215558319072,0.0
738523.2936376977,3657751.2368613081,-7500.0,-2666.0487776264617,-2574.933003824317,-1844.4084663551162,419.6665399750828,380.61587871493674,-47.7377366442363,2640.7883864259429,-1208.821761436051,-2396.027097556188,2396.027097556188,1208.821761436051,5121.8298378589852,0.0
743523.2936376977,3657751.2368613081,-7500.0,-2633.3429800788954,-2271.5700296217483,-1548.6379202926316,384.49785323767946,320.667311801952,-41.002767175413332,2364.0045999239114,-1280.9946598492097,-2015.6948200594584,2015.6948200594584,1280.9946598492097,4617.0312833003263,0.0
543523.2936376977,3662751.2368613081,-7500.0,-3811.7703701648511,1672.6559113089165,-1005.8838434612626,-426.20127477032935,199.30166432805009,-34.020644506838899,2327.0263355302832,-2301.4890587497271,1318.8669617383425,-1318.8669617383425,2301.4890587497271,4538.9309938501219,0.0
548523.2936376977,3662751.2368613081,-7500.0,-4167.3292119937687,1956.2945254026172,-1198.533154775791,-486.30162138581022,242.03140889479164,-40.377353112833937,2606.3675719338412,-2480.0269434930215,1472.6071199529715,-1472.6071199529715,2480.0269434930215,5095.0832660342876,0.0
553523.2936376977,3662751.2368613081,-7500.0,-4546.3965630972334,2294.3114748458779,-1439.9875867174992,-554.9481591641902,295.17868749506556,-47.964090747137298,2926.229388209757,-2656.9561887410337,1639.7651045388129,-1639.7651045388129,2656.9561887410337,5734.8574181614549,0.0
558523.2936376977,3662751.2368613081,-7500.0,-4942.1237182186405,2696.8687392121028,-1744.9355573205728,-632.65182485397213,361.42069493503209,-56.947742783829732,3292.4543032002448,-2821.9482180272885,1817.1781694553861,-1817.1781694553861,2821.9482180272885,6471.4799230826566,0.0
563523.2936376977,3662751.2368613081,-7500.0,-5341.7379078588301,3175.0154416336231,-2132.9055831768942,-719.34193947333245,444.03748878910233,-67.440451039028389,3711.1909492899367,-2958.6679681412129,1998.1379460031135,-1998.1379460031135,2958.6679681412129,7319.5982060049164,0.0
568523.2936376977,3662751.2368613081,-7500.0,-5723.2696713958912,3739.7190002497605,-2629.8153477786468,-813.82722606498726,546.91935213535078,-79.41240835288022,4188.4491964778663,-3041.8754714445322,2170.0747521629828,-2170.0747521629828,3041.8754714445322,8294.840022751021,0.0
573523.2936376977,3662751.2368613081,-7500.0,-6050.7050981774,4399.7403742025117,-3269.826007172428,-912.89814401841204,674.41166633861496,-92.528331693070015,4729.3008708673069,-3033.3021299082866,2310.9016686809764,-2310.9016686809764,3033.3021299082866,9412.8623776901695,0.0
578523.2936376977,3662751.2368613081,-7500.0,-6266.9840167243128,5157.3777384425503,-4097.267847304136,-1009.8745192858286,830.79863579060623,-105.85233836104992,5352.7219686566032,-2875.9911806632613,2383.3438784590885,-2383.3438784590885,2875.9911806632613,10687.61708493779,0.0
583523.2936376977,3662751.2368613081,-7500.0,-6284.2769269012206,6000.3797014252614,-5167.8990894551198,-1092.3393332810817,1019.0429141583903,-117.33693389473736,6121.2967270782092,-2487.0086751448571,2326.3762610209187,-2326.3762610209187,2487.0086751448571,12128.538409216846,0.0
588523.2936376977,3662751.2368613081,-7500.0,-5971.4496109239408,6887.1940037097338,-6547.5845020489251,-1138.8001791851859,1238.0795223744256,-122.98714929567879,7001.1151348713674,-1749.2543063038866,2042.9111857797261,-2042.9111857797261,1749.2543063038866,13736.644126246283,0.0
593523.2936376977,3662751.2368613081,-7500.0,-5140.2504599742406,7721.1087083888206,-8303.8714500560436,-1114.2512436278632,1477.4655363348456,-115.62338390435984,7999.9756101262374,-505.32880319044784,1383.7011489803024,-1383.7011489803024,505.32880319044784,15500.688065465751,0.0
598523.2936376977,3662751.2368613081,-7500.0,-3536.1879429886812,8307.294726773267,-10480.479949565562,-965.50235921994908,1707.6065520017808,-83.418761234163185,9127.5489249210314,1438.2187889017816,130.67703708172098,-130.67703708172098,-1438.2187889017816,17398.265022214586,0.0
603523.2936376977,3662751.2368613081,-7500.0,-850.29291066302824,8287.5322436859024,-13034.017631968991,-619.53128097682202,1863.7000742446983,-9.2819301918985833,10406.912214015847,4276.4560247819691,-2007.6054047942687,2007.6054047942687,-4276.4560247819691,19416.957970352556,0.0
608523.2936376977,3662751.2368613081,-7500.0,3211.6169884639398,7058.1627775909265,-15694.188480436458,6.8955522137862229,1823.9827798935951,125.4624825498864,11910.350833246948,8100.5584074847957,-5352.4173542281187,5352.4173542281187,-8100.5584074847957,21634.26589698323,0.0
613523.2936376977,3662751.2368613081,-7500.0,8734.2882260427086,3717.4559303544033,-17688.701967015873,971.21375810548284,1392.5511044630641,325.01690850066302,13840.088622036368,12653.00845898411,-10079.418888686076,10079.418888686076,-12653.00845898411,24429.448648918165,0.0
618523.2936376977,3662751.2368613081,-7500.0,15188.963906391151,-2801.8628389750556,-17293.877549751076,2228.523281366904,319.46955362449626,538.95929404633944,16646.766443421475,16880.52835932497,-15760.808657496034,15760.808657496034,-16880.52835932497,28855.506988982183,0.0
623523.2936376977,3662751.2368613081,-7500.0,20854.402729445741,-13059.456379118734,-11385.115467629605,3538.4668629535054,-1586.1859939724884,602.48187369713173,21042.353652431117,18405.493324228715,-20498.05795968898,20498.05795968898,-18405.493324228715,36788.219105711294,1.0
628523.2936376977,3662751.2368613081,-7500.0,22633.344127012715,-25491.421070607092,4127.7122861117014,4474.9525222636257,-4245.7449449798778,235.81267649907991,27601.961687776722,13680.883255330304,-20048.037108798835,20048.037108798835,-13680.883255330304,49932.150454186252,1.0
633523.2936376977,3662751.2368613081,-7500.0,17751.656551433109,-34611.335286043926,31163.087386592826,4671.6905771406355,-7212.6853451732659,-727.80359436082324,35899.504024581758,444.25382588025877,-8900.6732221597631,8900.6732221597631,-444.25382588025877,67709.446054465472,1.0
638523.2936376977,3662751.2368613081,-7500.0,7782.8540392598243,-32786.485355262957,63888.436513076238,4076.2618867970596,-9970.0259353333095,-1934.0914908226628,43879.894205560318,-17691.529905333678,14245.709204243121,-14245.709204243121,17691.529905333678,85792.442290728461,0.0
643523.2936376977,3662751.2368613081,-7500.0,-266.78427323134417,-17886.009742076505,88595.378080907016,2760.4957681880387,-12229.603250941353,-2569.3003892290176,49052.625576203616,-31098.611586666055,41050.294013318038,-41050.294013318038,31098.611586666055,97660.998719070514,0.0
648523.2936376977,3662751.2368613081,-7500.0,-713.52634611917028,2573.3167842302096,94830.827483335379,751.08682917143869,-13624.004444386415,-2188.6098841540047,50582.791752393794,-32866.13927048746,58948.425654105493,-58948.425654105493,32866.13927048746,99248.345512713946,0.0
653523.2936376977,3662751.2368613081,-7500.0,5249.379441300418,18842.159037319161,84003.567571375883,-1590.5423045378182,-13619.243611269447,-1176.3718745535907,46985.799763687173,-24825.806093409246,62463.553143648736,-62463.553143648736,24825.806093409246,91535.17898418149,0.0
658523.2936376977,3662751.2368613081,-7500.0,12813.354403108624,26753.84040295022,64578.516400053151,-3553.8161477098056,-12115.709876960167,-197.9197086559804,40320.563723065665,-13160.135662089124,54825.328279257919,-54825.328279257919,13160.135662089124,78409.310651135718,0.0
663523.2936376977,3662751.2368613081,-7500.0,18422.830047530635,27401.611632534597,44177.332872529936,-4633.9902904726196,-9642.2681777127746,396.25670723852807,32643.942616484801,-2641.9087402932491,42018.864798796785,-42018.864798796785,2641.9087402932491,63627.067834559108,0.0
668523.2936376977,3662751.2368613081,-7500.0,20929.125012915392,23673.639938965389,26882.579593457071,-4798.7470353757371,-6923.2302484306665,608.67522557853511,25330.884577959041,4742.4977489087796,28651.234936646437,-28651.234936646437,-4742.4977489087796,49634.082345638322,0.0
673523.2936376977,3662751.2368613081,-7500.0,20692.02509426383,18145.954285093016,13971.471401215756,-4316.855594779754,-4486.9707507014191,582.96585482456123,19196.809760756005,8863.8220920713466,17167.63917427717,-17167.63917427717,-8863.8220920713466,37663.344382604082,0.0
678523.2936376977,3662751.2368613081,-7500.0,18610.528216841922,12498.466881097731,5212.7891065281947,-3513.3150398386265,-2573.4336996268671,455.13321322030214,14575.431551100559,10402.042238245667,8413.6762788530614,-8413.6762788530614,-10402.042238245667,28131.999380823054,0.0
683523.2936376977,3662751.2368613081,-7500.0,15579.781063998189,7601.947766738921,-219.73264399855989,-2638.3818747195901,-1210.46042393118,309.2188653055851,11190.114503476685,10216.734082688325,2332.7586150252005,-2332.7586150252005,-10216.734082688325,20980.822102462847,0.0
688523.2936376977,3662751.2368613081,-7500.0,12281.191151130188,3772.5790005305303,-3251.4598157952096,-1839.6686472733195,-317.51523490269915,183.9346827419655,8766.7628260295132,9058.9262274224384,-1531.2161370462636,1531.2161370462636,-9058.9262274224384,15901.479322869103,0.0
693523.2936376977,3662751.2368613081,-7500.0,9149.5520643183227,1006.8033741646542,-4685.2105855313102,-1181.9549303306542,219.72829267911953,90.587178198920043,7072.9271256121319,7479.2211029584751,-3736.9932551505235,3736.9932551505235,-7479.2211029584751,12470.514278702878,0.0
698523.2936376977,3662751.2368613081,-7500.0,6414.0033541935491,-850.18136148235624,-5132.3931033005938,-677.55363010366591,509.55097567422837,27.433002680604492,5894.6674686648339,5831.2187487373103,-4796.9466520037477,4796.9466520037477,-5831.2187487373103,10231.826187141711,0.0
703523.2936376977,3662751.2368613081,-7500.0,4158.8318602387544,-2000.125317655278,-5019.1501865921418,-311.61791038166666,638.67165364427387,-11.84836462040937,5055.4166967951578,4312.4174341249509,-5119.7112024437811,5119.7112024437811,-4312.4174341249509,8767.441202075237,0.0
708523.2936376977,3662751.2368613081,-7500.0,2379.5318808419884,-2636.0933387395989,-4622.1202666288555,-58.833251719585732,670.00592672239907,-34.050782845309001,4427.7098494429156,3012.2943858854387,-5002.9954112943424,5002.9954112943424,-3012.2943858854387,7755.8700337244745,0.0
713523.2936376977,3662751.2368613081,-7500.0,1025.323154424759,-2918.7868381703502,-4109.58589602148,107.26400346290509,646.14033975703876,-44.860345954527958,3930.0672533229249,1953.7015859802302,-4649.2658457931675,4649.2658457931675,-1953.7015859802302,6990.1535944808093,0.0
718523.2936376977,3662751.2368613081,-7500.0,27.337263218018371,-2971.1787999553453,-3577.0904239315987,209.96721819436453,594.34077589515277,-48.507149505093288,3515.0642634142973,1123.2223688998481,-4188.2731744873008,4188.2731744873008,-1123.2223688998481,6356.0968826342832,0.0
723523.2936376977,3662751.2368613081,-7500.0,-684.87643786874912,-2882.011111379526,-3074.2580877111241,267.99377141576002,531.19121119559645,-47.919893320352095,3156.66507660965,490.99899773574612,-3698.4035752802547,3698.4035752802547,-490.99899773574612,5797.9918091516765,0.0
728523.2936376977,3662751.2368613081,-7500.0,-1175.0156206173438,-2712.474336759657,-2623.2859700410204,295.5488565533073,466.23073458816992,-45.024135685563401,2840.8178473391599,22.424787450207532,-3223.8186922363652,3223.8186922363652,-22.424787450207532,5291.2770367803505,0.0
733523.2936376977,3662751.2368613081,-7500.0,-1496.7817222662088,-2503.1318390875085,-2230.903853768456,302.99521000538982,404.55451344845716,-41.031921886488661,2559.6672916334805,-315.70040144249447,-2786.9634583431807,2786.9634583431807,315.70040144249447,4825.9982695945673,0.0
738523.2936376977,3662751.2368613081,-7500.0,-1693.472311409017,-2279.848695706844,-1895.7254067991043,297.6715592250514,348.5657783923977,-36.673952350711737,2308.3840489077193,-552.43032486978257,-2397.1301211365944,2397.1301211365944,552.43032486978257,4398.2302482693894,0.0
543523.2936376977,3667751.2368613081,-7500.0,-3307.2783318626443,1716.308065613636,-1132.2310364098892,-374.96077751690376,207.99621386199931,-30.461140971207893,2153.6935185573793,-1890.462174503924,1167.2641934378048,-1167.2641934378048,1890.462174503924,4210.6820621460802,0.0
548523.2936376977,3667751.2368613081,-7500.0,-3558.016452637959,1982.2507153540118,-1344.6719595882071,-422.0981047454959,249.90362648749979,-35.762427008404025,2393.7239231362241,-1986.9814418090909,1274.821344420021,-1274.821344420021,1986.9814418090909,4692.4423606983501,0.0
553523.2936376977,3667751.2368613081,-7500.0,-3808.4981047165043,2291.6078875692442,-1607.7427248517834,-474.17664353872328,301.1319938736554,-41.958176758241358,2664.0404080486232,-2064.4963963051096,1382.0866777254964,-1382.0866777254964,2064.4963963051096,5238.5003859045946,0.0
558523.2936376977,3667751.2368613081,-7500.0,-4046.6751486819671,2649.5262363395263,-1935.1125419236284,-530.6838398917215,363.71119263405166,-49.110846346043957,2967.5678057484042,-2109.4744131601715,1481.9318888219186,-1481.9318888219186,2109.4744131601715,5856.604053076243,0.0
563523.2936376977,3667751.2368613081,-7500.0,-4253.9376424309439,3059.8976213658916,-2344.1336568874663,-590.28231959429866,439.93888817350359,-57.205121590817498,3306.7142427593658,-2102.412005391704,1562.7604389159076,-1562.7604389159076,2102.412005391704,6554.3754322052118,0.0
568523.2936376977,3667751.2368613081,-7500.0,-4402.2952393389151,3523.5643292197055,-2856.5097613447688,-650.27597354609441,532.23033429077589,-66.068437030072715,3682.9479657573888,-2015.6150884872004,1606.2501011376421,-1606.2501011376421,2015.6150884872004,7338.5516188633228,0.0
573523.2936376977,3667751.2368613081,-7500.0,-4450.6144772114476,4035.1720245941619,-3498.6660987548084,-705.79907151169164,642.75041151141011,-75.235183029831404,4120.7733993818738,-1810.438022605131,1584.1227930581997,-1584.1227930581997,1810.438022605131,8213.8112667450059,0.0
578523.2936376977,3667751.2368613081,-7500.0,-4339.871158012581,4577.8206100906291,-4301.2151661554863,-748.62561404796782,772.63716380403821,-83.722972017111175,4643.3998606369769,-1434.1907972287863,1453.6995721887461,-1453.6995721887461,1434.1907972287863,9181.1391527658234,0.0
583523.2936376977,3667751.2368613081,-7500.0,-3987.7855534543601,5114.2642125043321,-5296.2495327931347,-765.51365234253672,920.49477612385749,-89.681638164788254,5229.8208960380398,-817.46958711460888,1152.205677598788,-1152.205677598788,817.46958711460888,10235.96020609639,0.0
588523.2936376977,3667751.2368613081,-7500.0,-3284.1827011894943,5572.9959344635454,-6509.9243904295336,-736.10824263704228,1079.6438502797496,-89.885150104246122,5882.9488674214663,126.15677678645861,590.47684209937881,-590.47684209937881,-126.15677678645861,11367.067990056201,0.0
593523.2936376977,3667751.2368613081,-7500.0,-2090.5488285242786,5827.5104641665521,-7945.5002676569957,-630.76660089770508,1233.4077763714286,-79.0979532962413,6607.7623890331133,1493.7972068346003,-351.45848188124523,351.45848188124523,-1493.7972068346003,12559.476762488772,0.0
598523.2936376977,3667751.2368613081,-7500.0,-251.38999527281089,5668.5161727276873,-9548.33356111791,-409.48195050769095,1347.6735781347127,-49.554132670134521,7418.4637208922832,3371.6398605749168,-1820.2657677788443,1820.2657677788443,-3371.6398605749168,13809.354779660398,0.0
603523.2936376977,3667751.2368613081,-7500.0,2368.2374473942418,4774.4991182402109,-11139.427599553308,-24.654921870066563,1360.6177847292158,8.7110728526353522,8357.3314785451494,5783.0881344933114,-3961.5997555550621,3961.5997555550621,-5783.0881344933114,15168.911600706591,0.0
608523.2936376977,3667751.2368613081,-7500.0,5796.6090411284158,2701.4201351943593,-12301.744020523667,567.23028846201771,1172.0357805273375,104.99567572471427,9532.6166308131887,8585.6666749057767,-6839.7418743623621,6839.7418743623621,-8585.6666749057767,16849.785889482857,0.0
613523.2936376977,3667751.2368613081,-7500.0,9798.5549062275786,-1055.2223673550877,-12216.581985710445,1378.6347062143911,640.77647495762335,239.84678839208715,11170.777421026047,11302.570708476534,-10260.978450424049,10260.978450424049,-11302.570708476534,19387.445749616691,0.0
618523.2936376977,3667751.2368613081,-7500.0,13664.107800664373,-6825.2161374320849,-9509.818204369265,2347.554934681923,-392.07622204936786,390.33115448782524,13631.153386570288,12927.89417287073,-13470.837117568635,13470.837117568635,-12927.89417287073,23714.202809861537,0.0
623523.2936376977,3667751.2368613081,-7500.0,16087.79463984014,-14246.655288692018,-2329.499660039794,3296.9555041665089,-2034.5317443062918,496.36706405114114,17278.029992966527,11896.017170651194,-14817.32563692399,14817.32563692399,-11896.017170651194,30806.926149008694,0.0
628523.2936376977,3667751.2368613081,-7500.0,15503.863387576323,-21568.728932894028,10901.715667238797,3946.3843227176076,-4239.3979312450419,475.0460334005046,22177.893257928376,6625.7217131345187,-11800.543935890264,11800.543935890264,-6625.7217131345187,40916.375849373362,1.0
633523.2936376977,3667751.2368613081,-7500.0,11233.71440486849,-25496.632658474529,29769.616605242842,4014.9450453200111,-6739.9623351167602,292.00973289160555,27787.303783450003,-3061.1151141233777,-2255.5413317004086,2255.5413317004086,3061.1151141233777,52924.383775028655,0.0
638523.2936376977,3667751.2368613081,-7500.0,4864.3288938730393,-22750.124162526561,50217.323527871726,3358.8739700982173,-9110.4677862498866,46.338959396946088,32914.96030577417,-14502.935680028344,13289.011823638439,-13289.011823638439,14502.935680028344,64297.510387651877,0.0
643523.2936376977,3667751.2368613081,-7500.0,-83.331154219284286,-12972.017437056847,65572.311132216302,2031.1080828041966,-10902.473890597294,-68.328865742568496,36179.269866542185,-22967.317718465649,30324.552271022203,-30324.552271022203,22967.317718465649,71996.293823549233,0.0
648523.2936376977,3667751.2368613081,-7500.0,-850.8574844515831,226.29634592569354,70798.84780221415,271.75803364973234,-11748.889187335708,53.1191567685105,37316.054806051208,-25016.150617855728,42784.939155381144,-42784.939155381144,25016.150617855728,74055.466782057774,0.0
653523.2936376977,3667751.2368613081,-7500.0,2430.1708680955571,11907.509317416365,65733.381509183309,-1527.6633279233247,-11474.104399640926,324.86374470716379,35784.08241609329,-20882.474198540382,47222.191058623095,-47222.191058623095,20882.474198540382,70514.780800445296,0.0
658523.2936376977,3667751.2368613081,-7500.0,7525.2764226457848,19061.130406079086,54034.664557813667,-2957.6496648942689,-10202.718572853408,576.40920636797068,32042.707226113464,-13399.810280054135,44211.763650515146,-44211.763650515146,13399.810280054135,62953.213208562374,0.0
663523.2936376977,3667751.2368613081,-7500.0,12145.590830691472,21364.55412481635,40081.092932881897,-3775.7963648932428,-8313.0338317806545,700.54956911977467,27163.954333243812,-5565.4764707072445,36596.134408371661,-36596.134408371661,5565.4764707072445,53390.319808855711,0.0
668523.2936376977,3667751.2368613081,-7500.0,15050.639211965628,20068.707155527216,26995.2545878733,-3974.2265359029448,-6245.5187504464657,689.74916208296042,22066.255120699101,786.13943420244141,27335.267858659376,-27335.267858659376,-786.13943420244141,43509.841086244218,0.0
673523.2936376977,3667751.2368613081,-7500.0,16020.341212711613,16770.084457328241,16306.324668025705,-3704.666880575965,-4336.6268681634738,590.91303894953262,17415.485582882076,5027.4884055520179,18480.785800584155,-18480.785800584155,-5027.4884055520179,34407.287999427645,0.0
678523.2936376977,3667751.2368613081,-7500.0,15412.891616637608,12766.271037573399,8383.2726452881197,-3165.4351198989539,-2764.5292840923148,457.01281661349867,13620.523632940534,7288.1287004329843,11080.441625521771,-11080.441625521771,-7288.1287004329843,26643.583802006637,0.0
683523.2936376977,3667751.2368613081,-7500.0,13774.370515358349,8889.4960044408817,2963.3654023412105,-2526.353928861854,-1576.0515090655713,324.97275588615526,10642.586743396325,8023.8739046345163,5451.594050708487,-5451.594050708487,-8023.8739046345163,20396.844092646916,0.0
688523.2936376977,3667751.2368613081,-7500.0,11615.459725237393,5567.2082754397834,-464.26699545480602,-1901.8873868866222,-738.86467433350981,213.35570181592161,8364.2486369887465,7746.0919626739269,1491.5959963600963,-1491.5959963600963,-7746.0919626739269,15609.746539524524,0.0
693523.2936376977,3667751.2368613081,-7500.0,9322.320678441989,2946.6597680586001,-2438.3077040828057,-1354.0321948450178,-186.4442992410417,127.69157132624103,6671.8925860039517,6891.7671316130618,-1089.4480903167619,1089.4480903167619,-6891.7671316130618,12098.424429470484,0.0
698523.2936376977,3667751.2368613081,-7500.0,7144.5924712300002,1010.9147528086344,-3422.8448932731967,-906.5014085031703,153.3604425181999,66.42052653010451,5441.7773908746249,5782.1802438218692,-2625.6625991863189,2625.6625991863189,-5782.1802438218692,9621.5773368931805,0.0
703523.2936376977,3667751.2368613081,-7500.0,5217.9302912564808,-336.02292683994006,-3775.4489698874986,-559.63035169754369,344.07717219644707,25.105856923826661,4554.0682174432022,4627.30163549381,-3421.6819265075383,3421.6819265075383,-4627.30163549381,7923.302119765327,0.0
708523.2936376977,3667751.2368613081,-7500.0,3596.3160338439711,-1215.4215492880721,-3751.2588124502954,-301.89131422527902,435.70986346571823,-1.1916018474450498,3905.7440118257282,3548.5512550019225,-3723.7187350856898,3723.7187350856898,-3548.5512550019225,6765.4012206960751,0.0
713523.2936376977,3667751.2368613081,-7500.0,2282.0443039736069,-1744.3795565171029,-3521.628207057443,-117.38868691612565,464.83215470894152,-16.830340136893145,3417.4850962822215,2604.912603423481,-3715.71646913003,3715.71646913003,-2604.912603423481,5953.457053299996,0.0
718523.2936376977,3667751.2368613081,-7500.0,1248.8840886633584,-2022.6458139237689,-3195.6201486720774,9.9104955519743765,456.78187577064375,-25.245263786955146,3033.9472027007009,1815.5104363347339,-3527.2302339206326,3527.2302339206326,-1815.5104363347339,5349.1758413986736,0.0
723523.2936376977,3667751.2368613081,-7500.0,457.92307837949062,-2128.9978734190254,-2838.9775003256041,94.163682532805993,428.34968513358888,-28.96329605710854,2719.4649288964974,1176.5039310365937,-3245.1063452052767,3245.1063452052767,-1176.5039310365937,4865.8341924575616,0.0
728523.2936376977,3667751.2368613081,-7500.0,-132.677664414943,-2122.4905427433409,-2488.8470386104609,146.96674477395558,390.2183326506198,-29.75688757327195,2452.2863490518057,672.5156831318925,-2924.9047870414279,2924.9047870414279,-672.5156831318925,4454.3386281566382,0.0
733523.2936376977,3667751.2368613081,-7500.0,-562.33482943684487,-2045.679476650176,-2164.3303204548838,177.36749851806803,348.90036328406143,-28.824532944474807,2219.5054597527746,283.7319083645466,-2600.4038477696813,2600.4038477696813,-283.7319083645466,4088.9716949071808,0.0
738523.2936376977,3667751.2368613081,-7500.0,-865.57409654172852,-1928.2441322470429,-1873.6317245118405,192.18989484957456,308.16325313461277,-26.951582433360443,2013.4413912249543,-10.056049420843237,-2290.8290140006811,2290.8290140006811,10.056049420843237,3756.9839850926214,0.0
548523.2936376977,3672751.2368613081,-7500.0,-2964.019354606874,1937.6458788554423,-1459.0294987343809,-358.81623736029843,249.5995449778124,-31.160753551727559,2173.9287060744232,-1521.0663060903903,1051.3435200082076,-1051.3435200082076,1521.0663060903903,4276.5983359957845,0.0
553523.2936376977,3672751.2368613081,-7500.0,-3102.0296241909296,2204.8237198135907,-1731.1896771999059,-395.84473725329752,296.88690995836635,-36.053956895996187,2396.4440869967643,-1516.0887740849939,1100.4337261333048,-1100.4337261333048,1516.0887740849939,4732.3033099945969,0.0
558523.2936376977,3672751.2368613081,-7500.0,-3206.9205675325729,2502.9458576090829,-2063.7563754726252,-433.59506618635237,353.33988236018689,-41.52729346537938,2640.7114318313552,-1465.6284064357269,1127.8725355745328,-1127.8725355745328,1465.6284064357269,5238.3919159267462,0.0
563523.2936376977,3672751.2368613081,-7500.0,-3257.9038886598569,2829.4842997962251,-2470.2689879949035,-469.94727528684507,420.25582965893273,-47.473154553970218,2907.0115792696429,-1350.1994626310307,1119.4510571197052,-1119.4510571197052,1350.1994626310307,5797.3207055504081,0.0
568523.2936376977,3672751.2368613081,-7500.0,-3226.1102835259167,3176.8904792798944,-2966.1833932990457,-501.41604154865126,498.64296839293957,-53.626107057551209,3220.4937541165591,-1143.9988460256272,1054.6136403599803,-1054.6136403599803,1143.9988460256272,6409.8121512170392,0.0
573523.2936376977,3672751.2368613081,-7500.0,-3072.3335596932102,3529.2264899598622,-3567.8900948228425,-522.51315956402641,588.73455247938284,-59.455121244165724,3583.8308595341191,-813.72085082602962,904.21431425637229,-904.21431425637229,813.72085082602962,7073.9853224339258,0.0
578523.2936376977,3672751.2368613081,-7500.0,-2744.840811950542,3857.0483836802728,-4290.2193727876902,-524.90580375102843,689.12013335742949,-63.999828332040494,3984.9601790965762,-317.99687356474675,627.96993718564977,-627.96993718564977,317.99687356474675,7784.5823357469399,0.0
583523.2936376977,3672751.2368613081,-7500.0,-2178.1268521864004,4109.9601312642944,-5141.0901155236606,-496.40257286677581,795.26606188933658,-65.637678027996301,4425.015758436899,391.41920235672876,172.19584860328857,-172.19584860328857,-391.41920235672876,8533.0473654154139,0.0
588523.2936376977,3672751.2368613081,-7500.0,-1294.458723516592,4206.4730363702438,-6111.0292276738601,-419.94314698309296,897.12255438755938,-61.784698762197493,4907.0686507019182,1364.5803756187834,-530.67179816504142,530.67179816504142,-1364.5803756187834,9310.3645262519804,0.0
593523.2936376977,3672751.2368613081,-7500.0,-11.685012652121637,4021.7554275154221,-7153.995212528318,-273.07357315273418,975.5027325674447,-48.587154584294602,5440.5001598100243,2640.6516743648917,-1557.467725914843,1557.467725914843,-2640.6516743648917,10116.93948996767,0.0
598523.2936376977,3672751.2368613081,-7500.0,1736.8970096958783,3376.5144633163309,-8154.6945393220885,-28.952498722971516,997.14584868449026,-20.78476662022095,6051.230252178013,4221.8360194441902,-2978.1923426264061,2978.1923426264061,-4221.8360194441902,10987.935312426627,1.0
603523.2936376977,3672751.2368613081,-7500.0,3962.7023350141426,2036.0717244888594,-8877.7969020762557,339.25377250243793,909.16888239625609,27.844318053032008,6800.4470153270013,6026.9427622998155,-4817.5986769610536,4817.5986769610536,-6026.9427622998155,12045.654595949847,0.0
608523.2936376977,3672751.2368613081,-7500.0,6555.4100884191575,-260.67514546406591,-8900.5009968409577,848.02057655075578,635.49944619575433,102.75523537194196,7809.3849546693145,7821.1363460573612,-6980.1652881968766,6980.1652881968766,-7821.1363460573612,13578.038605886491,0.0
613523.2936376977,3672751.2368613081,-7500.0,9195.9927963565406,-3709.1637814048481,-7550.1758934890195,1485.2760790884861,81.061692793678915,204.90799463451771,9270.1324154817885,9135.3619887798759,-9129.7314011541584,9129.7314011541584,-9135.3619887798759,16081.638127550519,0.0
618523.2936376977,3672751.2368613081,-7500.0,11291.979474310569,-8248.1100908296685,-3914.258299646272,2187.0104937315818,-847.51042082870242,325.46599332597907,11402.132900618917,9231.439421447365,-10548.74228768652,10548.74228768652,-9231.439421447365,20132.87113837041,0.0
623523.2936376977,3672751.2368613081,-7500.0,12040.274613133353,-13281.162206847479,2947.2603290122897,2821.3001419221023,-2198.390573042258,442.67805758460111,14334.050796546524,7233.1411952881563,-10086.760890104131,10086.760890104131,-7233.1411952881563,26062.920385032834,0.0
628523.2936376977,3672751.2368613081,-7500.0,10755.998756540646,-17471.033955299732,13453.087078941157,3202.1460056590886,-3917.5884201090653,528.53682615434866,17958.080919108299,2559.5201640622954,-6419.1591632376467,6419.1591632376467,-2559.5201640622954,33644.827651677348,1.0
633523.2936376977,3672751.2368613081,-7500.0,7457.3180197298343,-18961.684004860283,26715.214225297139,3147.9023848154916,-5812.559360845672,568.84538376911678,21843.432704694202,-4401.9388140734118,1201.9748395735369,-1201.9748395735369,4401.9388140734118,41960.658964112707,1.0
638523.2936376977,3672751.2368613081,-7500.0,3287.145640632606,-16294.144918028715,40131.648734072216,2564.7221888919935,-7575.8833412950007,581.56220275693602,25291.278905195828,-11905.2015064392,11983.693653489176,-11983.693653489176,11905.2015064392,49527.127597294013,0.0
643523.2936376977,3672751.2368613081,-7500.0,123.88136262415678,-9566.9360505144668,50170.273296003943,1505.7288215770984,-8872.0539930856976,605.31371157980868,27566.627742512181,-17442.373259317053,23349.419430317223,-23349.419430317223,17442.373259317053,54756.731557277999,0.0
648523.2936376977,3672751.2368613081,-7500.0,-591.64058072878231,-704.06696527853853,54187.255023269223,169.77493977836681,-9448.3107533664861,659.85976024011484,28390.343251282706,-19185.348097316542,32091.716035467085,-32091.716035467085,19185.348097316542,56596.141033755288,0.0
653523.2936376977,3672751.2368613081,-7500.0,1241.1084183184655,7634.3982630832697,51793.842993580423,-1163.1013840094283,-9222.7117969398987,723.98823456676871,27722.472396686779,-17015.226609124053,36122.43415048821,-36122.43415048821,17015.226609124053,54918.794500506272,0.0
658523.2936376977,3672751.2368613081,-7500.0,4566.3633279155783,13495.248641061879,44646.902551853331,-2234.7934508193539,-8307.9276943364584,756.98009165646374,25531.033702311957,-12262.333991194619,35295.146921274958,-35295.146921274958,12262.333991194619,50418.808593826245,0.0
663523.2936376977,3672751.2368613081,-7500.0,8030.442237934577,16254.666882134037,35194.407359761135,-2896.9295314556789,-6952.4637064814669,733.51835130647896,22381.921840172217,-6681.0373688060808,30907.862044455971,-30907.862044455971,6681.0373688060808,44183.355786404019,0.0
668523.2936376977,3672751.2368613081,-7500.0,10663.901667337585,16336.493535722695,25554.592011431498,-3134.6369195757602,-5436.3510056744517,656.2901166788638,18843.859319556206,-1628.4290326355313,24706.477884211119,-24706.477884211119,1628.4290326355313,37278.51711520899,0.0
673523.2936376977,3672751.2368613081,-7500.0,12070.436355699028,14620.940175316186,17052.113832940755,-3029.2966713746978,-3985.2009972005485,545.90518931479505,15385.118787280191,2197.6996678028836,18166.949592159817,-18166.949592159817,-2197.6996678028836,30521.050067190696,0.0
678523.2936376977,3672751.2368613081,-7500.0,12293.93209177069,11991.233945860742,10259.234163803527,-2700.7740370137772,-2735.1446578003397,425.88204759649813,12375.597301312686,4645.1562201593888,12234.685011615915,-12234.685011615915,-4645.1562201593888,24424.114628837578,0.0
683523.2936376977,3672751.2368613081,-7500.0,11605.240798888388,9120.9459901189002,5233.643385611239,-2262.7750816947319,-1739.8675677207355,313.71522111849049,9889.8187980117036,5882.3951332488623,7360.5755328624864,-7360.5755328624864,-5882.3951332488623,19239.739765435352,0.0
688523.2936376977,3672751.2368613081,-7500.0,10334.698200839193,6433.1307321576505,1758.2793125390008,-1801.1789201983688,-996.20121096359173,218.79140798105212,7884.3645836212991,6206.8525627487979,3647.1663623487384,-3647.1663623487384,-6206.8525627487979,15033.089410224475,0.0
693523.2936376977,3672751.2368613081,-7500.0,8777.2913812671741,4141.6388039515577,-486.54442429795336,-1370.1225398892282,-470.53909023428434,143.98482927573505,6314.7380173975898,5924.9937802713557,997.40514110830554,-997.40514110830554,-5924.9937802713557,11752.895212364278,0.0
698523.2936376977,3672751.2368613081,-7500.0,7155.0645631905791,2315.431990362807,-1822.4277978549876,-997.24428932240505,-118.38807708419581,88.185977099798663,5117.8696724991132,5294.1944429619216,-773.87986115742933,773.87986115742933,-5294.1944429619216,9284.5304218493093,0.0
703523.2936376977,3672751.2368613081,-7500.0,5613.6565457179258,937.35630297001467,-2525.2343316603224,-691.67137321779796,103.96751432928853,48.425126992633693,4221.9414099073965,4504.8734061546784,-1870.2167109896504,1870.2167109896504,-4504.8734061546784,7484.7912694558963,0.0
708523.2936376977,3672751.2368613081,-7500.0,4234.8016771601315,-52.218422760009453,-2810.2937852969312,-451.37275569327556,233.92892685915382,21.248853832484244,3556.4812069220961,3684.1162231815974,-2476.7067838161834,2476.7067838161834,-3684.1162231815974,6203.7147103081898,0.0
713523.2936376977,3672751.2368613081,-7500.0,3053.5377518882001,-727.20395374322993,-2834.9296749765526,-268.66453899627453,300.9200992121913,3.450103603890438,3059.3347330000533,2908.1609556641956,-2745.1363122098496,2745.1363122098496,-2908.1609556641956,5300.1338592860275,0.0
718523.2936376977,3672751.2368613081,-7500.0,2074.33098261541,-1159.8237861047273,-2708.2651447967801,-133.80472691969973,326.77984314389965,-7.6339166032563597,2680.474010046375,2216.5520374494322,-2791.7091296861431,2791.7091296861431,-2216.5520374494322,4654.0569669957749,0.0
723523.2936376977,3672751.2368613081,-7500.0,1283.8310902703056,-1413.020600407553,-2502.6474035846823,-37.066984266835405,327.01477602132394,-14.067595908454535,2382.7902713045983,1624.5529218840647,-2700.9404378354266,2700.9404378354266,-1624.5529218840647,4174.0046056871433,0.0
728523.2936376977,3672751.2368613081,-7500.0,659.90208180077718,-1537.9685372295821,-2263.9772048468462,30.232652182594954,312.2391909775597,-17.378162442397016,2140.5883715589016,1132.6794851870577,-2531.7571660303042,2531.7571660303042,-1132.6794851870577,3797.2037838620245,0.0
733523.2936376977,3672751.2368613081,-7500.0,177.45947221726041,-1574.3380952199057,-2019.9825013411098,75.354780542748514,289.48093428214565,-18.656880657797046,1936.9774090113665,733.39341982477913,-2323.6958980258551,2323.6958980258551,-733.39341982477913,3484.2951256293904,0.0
548523.2936376977,3677751.2368613081,-7500.0,-2406.2750849562426,1836.2436057419266,-1536.0990904700188,-298.6680477923403,242.44052678269517,-26.72857028805991,1954.1307379363693,-1098.221050499835,819.29504744183259,-819.29504744183259,1098.221050499835,3861.1054629862911,0.0
553523.2936376977,3677751.2368613081,-7500.0,-2451.4826448450763,2053.5296842373359,-1805.0448707613766,-322.67537135146716,284.41050949090408,-30.45250507103626,2132.4666439280791,-1029.7636414654812,816.52149666646824,-816.52149666646824,1029.7636414654812,4233.2259673445542,0.0
558523.2936376977,3677751.2368613081,-7500.0,-2450.750331485066,2284.7778288077116,-2126.7664795702203,-344.67767285389965,333.21687107995564,-34.452744078873849,2324.5604273781032,-909.94142317504225,782.25730355987389,-782.25730355987389,909.94142317504225,4637.9689404424535,0.0
563523.2936376977,3677751.2368613081,-7500.0,-2383.9877027042244,2522.5468732064269,-2510.1450319423707,-362.2003695284568,389.26551507409357,-38.56330079606542,2552.927877578511,-721.58618518480455,701.84253642614556,-701.84253642614556,721.58618518480455,5074.5149723465547,0.0
568523.2936376977,3677751.2368613081,-7500.0,-2225.1036089717154,2753.5204557270595,-2963.6659138209316,-371.55609023399398,452.39377488227387,-42.471425247157363,2810.9095169246516,-443.55061454284197,555.51201797262161,-555.51201797262161,443.55061454284197,5540.3189665733853,0.0
573523.2936376977,3677751.2368613081,-7500.0,-1941.1871841034397,2955.5455404064855,-3493.4950803450733,-367.40772055545108,521.35836540523917,-45.63556172236791,3091.9597353097975,-50.871929332147118,317.30924940060879,-317.30924940060879,50.871929332147118,6030.87164248724,1.0
578523.2936376977,3677751.2368613081,-7500.0,-1492.4326937292021,3093.6115707110362,-4099.8756225169318,-342.26783805748687,593.01305856425074,-47.170607300159517,3396.5618634977495,483.91998323609937,-45.577756321954411,45.577756321954411,-483.91998323609937,6540.1615015196112,0.0
583523.2936376977,3677751.2368613081,-7500.0,-833.76531840091479,3114.7747820482191,-4770.7660511471449,-286.02495978892716,661.04436111778966,-45.699663418324434,3726.8161330036382,1187.290172473784,-572.20757996513794,572.20757996513794,-1187.290172473784,7062.9648810496292,0.0
588523.2936376977,3677751.2368613081,-7500.0,80.21588342815167,2942.5679620496435,-5471.196082143344,-185.71466436812889,714.13636924035632,-39.18603590397106,4089.1198651780901,2077.3113746858635,-1304.3705908530217,1304.3705908530217,-2077.3113746858635,7601.2593095670991,1.0
593523.2936376977,3677751.2368613081,-7500.0,1284.5523608949495,2472.6417317854257,-6126.5198421339564,-25.969507875866739,733.52559133358591,-24.797321645608505,4499.8817287929824,3150.0877170234985,-2277.3431411506976,2277.3431411506976,-3150.0877170234985,8178.8004487270591,0.0
598523.2936376977,3677751.2368613081,-7500.0,2784.4999713291409,1573.7118703008794,-6598.1990849859467,209.11167104531648,690.19500305272982,1.0828509752281819,4995.2509853609208,4357.5037372325178,-3500.6091164295435,3500.6091164295435,-4357.5037372325178,8868.8491311204525,0.0
603523.2936376977,3677751.2368613081,-7500.0,4525.1639337240631,101.65757186876505,-6653.3813305161484,531.63395620236872,542.60981291583983,42.486391647672278,5643.5662042105923,5575.4413159705837,-4923.3678934206819,4923.3678934206819,-5575.4413159705837,9833.9534961755689,0.0
608523.2936376977,3677751.2368613081,-7500.0,6352.5683085513501,-2060.9684350543143,-5936.8068761867926,942.12420451413243,237.034113081144,102.86202136518267,6552.2316723636914,6567.5857003002793,-6381.9165370731616,6381.9165370731616,-6567.5857003002793,11351.506859578667,0.0
613523.2936376977,3677751.2368613081,-7500.0,7980.2792058003042,-4926.7142484272308,-3968.2407416499709,1418.3975170599015,-286.14912933103579,183.29524541726124,7852.326514254517,6963.4868874196782,-7536.5995030233498,7536.5995030233498,-6963.4868874196782,13765.769423149759,0.0
618523.2936376977,3677751.2368613081,-7500.0,8995.6718280391506,-8285.4103012633332,-209.17020897125752,1904.1421690330376,-1076.2487410640774,280.36072503932047,9649.6445790728558,6290.385344865701,-7831.2844415325562,7831.2844415325562,-6290.385344865701,17342.404111895983,0.0
623523.2936376977,3677751.2368613081,-7500.0,8956.8919381446249,-11586.002066577383,5747.9341402112041,2304.8545902768378,-2145.2737398044628,385.06984017757657,11956.003873995236,4111.808520475849,-6545.4968240295102,6545.4968240295102,-4111.808520475849,22106.942864801469,0.0
628523.2936376977,3677751.2368613081,-7500.0,7610.4354903632075,-13923.403065193936,13857.950799087244,2501.4638654129781,-3437.4855590549573,484.99674239488297,14632.516999470208,292.64143795386735,-3024.3608545521774,3024.3608545521774,-292.64143795386735,27751.107304154335,0.0
633523.2936376977,3677751.2368613081,-7500.0,5158.3231330723784,-14268.174214678154,23295.716115113395,2386.4705705792435,-4813.2186010517007,569.8591509618675,17374.452868969238,-4709.7028827587028,2909.8430666871764,-2909.8430666871764,4709.7028827587028,33623.966628672286,0.0
638523.2936376977,3677751.2368613081,-7500.0,2361.4591195142102,-11957.400523256023,32413.474254498855,1911.7439720174741,-6066.2791244855616,636.35365511521354,19762.076182142933,-9778.4392718568524,10571.616551717492,-10571.616551717492,9778.4392718568524,38836.12110104513,1.0
643523.2936376977,3677751.2368613081,-7500.0,272.23947442185738,-7180.3584821864924,39225.785165210931,1122.3380537436428,-6978.4404895761336,686.37764842957608,21380.762626503136,-13508.929631758048,18423.853808956792,-18423.853808956792,13508.929631758048,42496.653385254722,0.0
648523.2936376977,3677751.2368613081,-7500.0,-312.65732891490302,-1035.724719819242,42254.820588340095,152.95626249377233,-7390.1119565950021,719.6170935882958,22057.247918407247,-14877.278325227724,24657.919754704941,-24657.919754704941,14877.278325227724,44002.773505409445,0.0
653523.2936376977,3677751.2368613081,-7500.0,733.06576435662316,4966.2650289946887,41160.287183576052,-815.62786653036289,-7252.9325179903408,729.55166609619903,21778.232536337207,-13719.911357776175,27998.058998173452,-27998.058998173452,13719.911357776175,43223.888199144436,0.0
658523.2936376977,3677751.2368613081,-7500.0,2896.3977184154364,9585.3500696833889,36723.614707349603,-1618.646403378649,-6638.0946733323772,708.09461418376327,20455.610900275438,-10681.955484748572,28154.187851770374,-28154.187851770374,10681.955484748572,40481.887835498099,0.0
663523.2936376977,3677751.2368613081,-7500.0,5394.5608994242766,12244.371640607498,30318.113556634991,-2155.7003573978577,-5699.266656444247,653.1956404398918,18391.763232505204,-6773.8449094183998,25701.408326852321,-25701.408326852321,6773.8449094183998,36373.007192856523,0.0
668523.2936376977,3677751.2368613081,-7500.0,7552.7750374412199,13004.607627748463,23313.392715007052,-2404.7933700094527,-4614.2726293420637,571.53550648680118,15931.974706806966,-2915.984721342511,21632.457558793067,-21632.457558793067,2915.984721342511,31555.451350534273,0.0
673523.2936376977,3677751.2368613081,-7500.0,8987.5685533745291,12308.000882893382,16720.223904896164,-2405.1215649344194,-3535.7265958373055,475.29988517246443,13385.663886308637,297.09190666647919,16932.344352926695,-16932.344352926695,-297.09190666647919,26596.873700561475,0.0
678523.2936376977,3677751.2368613081,-7500.0,9602.7313539753613,10708.268540003191,11106.418953529186,-2226.7220665226582,-2566.528178535078,377.09382359209712,11032.671919067181,2615.8247369799601,12343.60662744999,-12343.60662744999,-2615.8247369799601,21906.233371445021,0.0
683523.2936376977,3677751.2368613081,-7500.0,9495.1021179579293,8697.8444695229682,6673.9370388963853,-1943.6399658487187,-1758.4479210260513,286.46058881746893,9018.2080297360844,4042.9626235750557,8310.9626713311263,-8310.9626713311263,-4042.9626235750557,17729.807522344079,0.0
688523.2936376977,3677751.2368613081,-7500.0,8851.3873133677662,6636.2162058470276,3386.3250759409502,-1617.8298872715411,-1123.6075476819667,208.81456786485901,7322.3140556705875,4720.3084180982469,5027.4708246378314,-5027.4708246378314,-4720.3084180982469,14180.496111311028,0.0
693523.2936376977,3677751.2368613081,-7500.0,7872.8885850243805,4744.9526050841596,1083.714040479766,-1293.2633795600552,-649.3077358819545,146.00019319254335,5935.2417020960684,4839.5031225569765,2513.9611822508664,-2513.9611822508664,-4839.5031225569765,11276.729092498532,0.0
698523.2936376977,3677751.2368613081,-7500.0,6733.706960820231,3134.0176416148465,-436.11286082501101,-996.60170016473944,-310.74178215590439,97.459028567322605,4831.1126891709509,4587.0366557046646,693.53521257621287,-693.53521257621287,-4587.0366557046646,8977.8018953903411,0.0
703523.2936376977,3677751.2368613081,-7500.0,5564.6734911267677,1836.0964016951796,-1370.0067992948318,-740.85913871834202,-79.770321926818326,61.352385532596358,3971.3419929379629,4117.7682495780036,-553.11629686644778,553.11629686644778,-4117.7682495780036,7210.5490921855162,0.0
708523.2936376977,3677751.2368613081,-7500.0,4452.8975276717711,837.28374940703247,-1886.6438297640198,-529.68631516052335,70.020979313450468,35.382477352885267,3312.3131152759543,3547.237203195762,-1352.6986403146448,1352.6986403146448,-3547.237203195762,5887.1681057144469,0.0
713523.2936376977,3677751.2368613081,-7500.0,3448.8215345810872,100.0665532519282,-2119.470759362212,-361.08469501408348,161.00295246983219,17.288795814082423,2811.0368570621549,2954.2328156144827,-1820.4505218042282,1820.4505218042282,-2954.2328156144827,4916.5507188067404,0.0
718523.2936376977,3677751.2368613081,-7500.0,2575.5735425181829,-421.49009680537768,-2168.2021268389262,-230.16034180885214,210.89643372888506,5.0938910686368937,2428.8896099606241,2387.7159633400092,-2052.2275481304882,2052.2275481304882,-2387.7159633400092,4212.1620792409194,0.0
723523.2936376977,3677751.2368613081,-7500.0,1837.8122907829927,-772.8300616891446,-2104.0713225816621,-130.94382452393481,233.07931522150096,-2.812827833507769,2133.7425858385982,1874.6113280493605,-2123.0906086332116,2123.0906086332116,-1874.6113280493605,3698.2472774301627,0.0
728523.2936376977,3677751.2368613081,-7500.0,1228.8923503092574,-994.40642672082356,-1976.0384635696141,-57.469745101131146,237.28088189665982,-7.6811729131445228,1900.6507272135664,1426.7565184100531,-2089.2193849318905,2089.2193849318905,-1426.7565184100531,3314.0474350770337,0.0
553523.2936376977,3682751.2368613081,-7500.0,-1872.1756275293044,1857.8930754418391,-1829.2669306635307,-256.48267858391245,265.82297052184646,-25.295621702424526,1881.826549421171,-615.11532849100843,547.36578388302121,-547.36578388302121,615.11532849100843,3754.7563683158523,0.0
558523.2936376977,3682751.2368613081,-7500.0,-1793.3660026042198,2022.0154845208751,-2126.9646715626791,-265.91200021614696,306.31850851091531,-28.054474278746213,2050.6294120150565,-450.48148146943532,465.02399618967212,-465.02399618967212,450.48148146943532,4071.3362622839891,0.0
563523.2936376977,3682751.2368613081,-7500.0,-1645.2013635125643,2174.7873399511318,-2471.5225534750666,-269.02812406559957,351.11077120977012,-30.663993041930272,2237.4404629695337,-220.78174808589341,332.3950823287617,-332.3950823287617,220.78174808589341,4404.5123122159603,0.0
568523.2936376977,3682751.2368613081,-7500.0,-1406.4091100922994,2299.8662525121927,-2864.8561290552921,-262.3544941993066,399.17974714915403,-32.800447732356822,2438.7273966592456,89.274090922121474,132.58873277293173,-132.58873277293173,-89.274090922121474,4750.7769169987614,0.0
573523.2936376977,3682751.2368613081,-7500.0,-1052.2221299893818,2372.9227035616586,-3304.2846195107641,-241.18470869624753,448.31882893772718,-33.952219387701739,2654.733933978142,495.64524471421043,-154.81250236182188,154.81250236182188,-495.64524471421043,5106.0388283798238,0.0
578523.2936376977,3682751.2368613081,-7500.0,-555.6595096778716,2359.0355735119183,-3778.6609725990629,-199.35795807828279,494.44422280223455,-33.343249247253731,2886.9796254682537,1012.6391609989322,-552.98402914721589,552.98402914721589,-1012.6391609989322,5467.3376833150533,0.0
583523.2936376977,3682751.2368613081,-7500.0,109.41028270292213,2210.0574264301617,-4262.3298846961079,-129.16686877783695,530.62984586948846,-29.843625350101803,3139.9166008938701,1648.5716783506243,-1085.4390415467726,1085.4390415467726,-1648.5716783506243,5836.9974869931884,0.0
588523.2936376977,3682751.2368613081,-7500.0,962.36124683599542,1862.8751221006642,-4706.1958299973194,-21.590842560344694,545.85403302961015,-21.883391223783637,3424.220659859373,2398.4318682419198,-1770.6597234402088,1770.6597234402088,-2398.4318682419198,6231.228567758817,0.0
593523.2936376977,3682751.2368613081,-7500.0,2005.8462871683723,1240.4749872142938,-5025.5075435202853,132.82878077273435,523.56186684788759,-7.4073595946800026,3762.0779939806275,3232.6140933859342,-2611.959763054163,2611.959763054163,-3232.6140933859342,6695.4345877768674,0.0
598523.2936376977,3682751.2368613081,-7500.0,3210.9953908230968,259.15572735397592,-5085.1294543276617,342.03293509608852,440.3932074512341,16.058771352484523,4193.7646184535752,4081.5351167839872,-3580.5464584222682,3580.5464584222682,-4081.5351167839872,7325.4349749301527,0.0
603523.2936376977,3682751.2368613081,-7500.0,4498.7624547476062,-1153.1698934757114,-4685.9041748750633,608.94635237530156,265.85722510190135,51.127825678823889,4781.8353200478987,4818.2499263350328,-4590.7102372987119,4590.7102372987119,-4818.2499263350328,8282.7171335812491,0.0
608523.2936376977,3682751.2368613081,-7500.0,5722.574342429145,-3022.2048093365597,-3560.9762922491454,926.26801305972322,-35.696294589717631,99.950614760669069,5605.5560443796567,5245.9795049944669,-5469.8017180591496,5469.8017180591496,-5245.9795049944669,9776.4617114346875,0.0
613523.2936376977,3682751.2368613081,-7500.0,6664.4201861479723,-5274.2990080782183,-1398.3158231935772,1270.2920296788345,-499.03262529270535,163.28184978231479,6739.5526516182499,5104.8301909879883,-5934.0880002513186,5934.0880002513186,-5104.8301909879883,11995.760323703153,0.0
618523.2936376977,3682751.2368613081,-7500.0,7063.7706597175184,-7675.6511432838297,2089.0743126262673,1596.173589673682,-1146.5668633011423,239.44346487370507,8220.5758983709602,4118.4512276880514,-5594.6546865359169,5594.6546865359169,-4118.4512276880514,15023.451945603651,0.0
623523.2936376977,3682751.2368613081,-7500.0,6697.389034908846,-9796.2679135679373,7031.7006590638402,1838.9086990017804,-1972.3721146004093,323.75011045378915,10015.215488982072,2096.7777906027623,-4027.8801773084897,4027.8801773084897,-2096.7777906027623,18777.164987567769,1.0
628523.2936376977,3682751.2368613081,-7500.0,5504.1982595985319,-11052.752608514122,13233.166035865594,1924.5059697164288,-2926.8424923486059,409.05297559742132,12000.757335746981,-919.12963330096557,-933.30245011258364,933.30245011258364,919.12963330096557,22986.475879299538,0.0
633523.2936376977,3682751.2368613081,-7500.0,3699.3456894190026,-10873.496465103535,20045.624000166801,1792.0782240986571,-3911.3704247458622,487.45890561172297,13969.007855664515,-4540.3193398292306,3653.6060267271669,-3653.6060267271669,4540.3193398292306,27207.522702510058,0.0
638523.2936376977,3682751.2368613081,-7500.0,1780.114999823674,-8956.1637633525279,26417.54261613734,1419.9893396399373,-4791.8712766477147,552.18242733941929,15661.436907145424,-8051.3684909476478,9210.699469754376,-9210.699469754376,8051.3684909476478,30892.354492040315,0.0
643523.2936376977,3682751.2368613081,-7500.0,361.15030656887819,-5479.5584981260135,31179.891367843888,842.77413736558037,-5431.6746027147101,598.17978015163067,16834.833747856206,-10630.171932794667,14788.107957966527,-14788.107957966527,10630.171932794667,33515.112849509373,0.0
648523.2936376977,3682751.2368613081,-7500.0,-96.112636627850378,-1104.0440689917843,33465.372522570135,147.21525577235121,-5731.9946504995332,621.61547938492504,17414.863219583131,-11678.025367996792,19314.384678387119,-19314.384678387119,11678.025367996792,34714.398211104992,0.0
653523.2936376977,3682751.2368613081,-7500.0,513.50395357279342,3274.1595471127403,33019.084983304521,-553.11684028489617,-5661.3109907932849,619.72805667981925,17323.569032688076,-11056.792958715734,21993.335237428939,-21993.335237428939,11056.792958715734,34386.053986899671,0.0
658523.2936376977,3682751.2368613081,-7500.0,1933.4158558094309,6863.4628454909716,30221.447633168307,-1152.8470331569602,-5259.9871093363536,591.97189564326357,16508.504511007017,-9089.4269232606439,22553.819993796431,-22553.819993796431,9089.4269232606439,32684.399211533524,0.0
663523.2936376977,3682751.2368613081,-7500.0,3710.0544895811004,9210.3994161707087,25854.469401018348,-1582.5470322832846,-4620.2543362582055,541.32134409408138,15136.238850399841,-6361.11947382361,21238.176166862097,-21238.176166862097,6361.11947382361,29943.842622047956,0.0
668523.2936376977,3682751.2368613081,-7500.0,5395.6941611658085,10239.283512218719,20788.942129935873,-1818.7986421202202,-3854.0320693338504,474.16929646387388,13417.049388353747,-3474.3344838450512,18602.395933434695,-18602.395933434695,3474.3344838450512,26569.631127579207,0.0
673523.2936376977,3682751.2368613081,-7500.0,6680.2870753028392,10148.948472658154,15751.113924047046,-1877.307750023464,-3063.778126717435,398.66813959440987,11553.547298308491,-883.19866120642018,15279.441977738312,-15279.441977738312,883.19866120642018,22944.599398662747,0.0
678523.2936376977,3682751.2368613081,-7500.0,7426.1578821799958,9266.4641695627106,11222.491791061862,-1797.2274706895444,-2325.3786815698572,322.61738926989023,9725.1229368537988,1160.3667081943131,11811.483820246975,-11811.483820246975,-1160.3667081943131,19374.05901529569,0.0
683523.2936376977,3682751.2368613081,-7500.0,7636.7125281017261,7928.5506281737635,7444.6817457553334,-1625.2782273012322,-1683.7944963826999,251.97185619124784,8109.9630334908397,2581.3376810115919,8576.7877945275286,-8576.7877945275286,-2581.3376810115919,16067.638219140768,0.0
688523.2936376977,3682751.2368613081,-7500.0,7401.3078254055463,6413.9987190331367,4476.6627710238317,-1404.518296711314,-1157.2707259893841,190.3230182324518,6710.7986273756123,3423.730979500694,5787.7319141923681,-5787.7319141923681,-3423.730979500694,13145.959826891409,0.0
693523.2936376977,3682751.2368613081,-7500.0,6844.4470639985311,4920.1395706546191,2262.9866791269551,-1168.6974450076666,-745.11928974725004,139.12939750701165,5523.0000109492676,3792.8790312566339,3524.9623417431208,-3524.9623417431208,-3792.8790312566339,10659.14661760628,0.0
698523.2936376977,3682751.2368613081,-7500.0,6090.5877343190341,3566.6592298895816,691.14545718329646,-940.93315745856751,-435.54069072211456,98.299397920407714,4541.5727112137683,3812.3635737256473,1781.0253074847724,-1781.0253074847724,-3812.3635737256473,8607.834124623354,0.0
703523.2936376977,3682751.2368613081,-7500.0,5245.0561728457851,2411.7955069159116,-368.6261580442349,-734.8977394195266,-211.78044548914522,66.814579402203677,3749.1484500428473,3597.9201079129311,499.02457617311165,-499.02457617311165,-3597.9201079129311,6961.5847052986283,0.0
708523.2936376977,3682751.2368613081,-7500.0,4387.0699203638769,1471.1809990996603,-1039.872664578136,-557.02569334358225,-56.224661523701535,43.233553687450112,3121.1157430205349,3245.0454971777435,-398.93273749017749,398.93273749017749,-3245.0454971777435,5672.7688780297003,0.0
713523.2936376977,3682751.2368613081,-7500.0,3570.1699391251859,734.38051194128468,-1428.6069469961683,-408.80983045346522,47.2839598186372,26.032631209097779,2630.0828921384755,2825.6745547112041,-993.56136621652604,993.56136621652604,-2825.6745547112041,4685.9743830375864,0.0
718523.2936376977,3682751.2368613081,-7500.0,2826.2888852961564,177.37633814353299,-1619.8176316990964,-288.73530586893401,112.408777597507,13.80149996505873,2248.9956025463352,2389.8953983817937,-1358.3954599304093,1358.3954599304093,-2389.8953983817937,3944.0751116877695,0.0
723523.2936376977,3682751.2368613081,-7500.0,2170.9670933732377,-229.00084907667244,-1678.3402884726713,-193.71422869673853,150.08185289063698,5.3331692587940802,1953.193153565056,1969.8623085663805,-1555.4274992629787,1555.4274992629787,-1969.8623085663805,3392.4062882079093,0.0
553523.2936376977,3687751.2368613081,-7500.0,-1371.313568815212,1636.5726706995172,-1807.8761329691981,-198.24976360052793,243.16817161025241,-20.66899209077204,1667.3001407455256,-274.62010311681809,304.78336591769096,-304.78336591769096,274.62010311681809,3306.7930097798394,0.0
558523.2936376977,3687751.2368613081,-7500.0,-1239.4161024996779,1738.3542920942771,-2072.076362315629,-198.1434743033038,275.38020351254079,-22.420071858688534,1805.0475180479928,-86.270613121917265,188.65948212358541,-188.65948212358541,86.270613121917265,3549.4589575251821,0.0
563523.2936376977,3687751.2368613081,-7500.0,-1041.148146715612,1815.7108584631058,-2367.7599960939501,-190.89267573938076,309.40341385845772,-23.851777706137167,1952.1121094503637,159.15784921134303,23.104664277929686,-23.104664277929686,-159.15784921134303,3798.8521347724904,0.0
568523.2936376977,3687751.2368613081,-7500.0,-760.73390727438641,1851.6135570553802,-2691.4143697049394,-173.47355913945088,343.67771523131677,-24.655297336831769,2108.6488584948552,471.11433956165388,-204.82523359390382,204.82523359390382,-471.11433956165388,4052.2230930753726,0.0
573523.2936376977,3687751.2368613081,-7500.0,-381.53591555132215,1822.62274933153,-3033.7210903589298,-142.03367343953798,375.49960045243643,-24.374006503310355,2275.7922710920084,857.47192693863394,-509.22546812463492,509.22546812463492,-857.47192693863394,4307.9336059254274,0.0
578523.2936376977,3687751.2368613081,-7500.0,112.04414849176931,1697.6102132098513,-3376.0373301635618,-91.858821905559296,400.49672954671075,-22.355593791256755,2456.6929350469331,1321.9333193372493,-903.73101260792487,903.73101260792487,-1321.9333193372493,4568.1644857942983,0.0
583523.2936376977,3687751.2368613081,-7500.0,731.19693633969177,1437.0738697957033,-3685.452184351112,-17.506033152333991,411.96325522066087,-17.702388308482139,2658.4719940228551,1859.9242448492796,-1398.3361091662878,1398.3361091662878,-1859.9242448492796,4844.1323873691808,0.0
588523.2936376977,3687751.2368613081,-7500.0,1477.3556708750209,993.97007099828602,-3908.3148287762797,86.755214854501844,400.10314704544902,-9.2342519623298394,2895.2099232233927,2452.603738320779,-1993.8327269142706,1993.8327269142706,-2452.603738320779,5164.8687621132449,0.0
593523.2936376977,3687751.2368613081,-7500.0,2334.5672100483253,317.58450787938733,-3962.6788914964227,225.99893977475264,351.33090344966422,4.5101982073397924,3191.5847752136315,3058.9812549775461,-2673.0142741768232,2673.0142741768232,-3058.9812549775461,5589.0641649641475,0.0
598523.2936376977,3687751.2368613081,-7500.0,3260.0250905976013,-637.42028886875562,-3731.284583197069,402.98284008348611,247.95101687755999,25.193067045578967,3585.414740615226,3607.0797066119703,-3388.2210688186497,3388.2210688186497,-3607.0797066119703,6214.2879928946231,0.0
603523.2936376977,3687751.2368613081,-7500.0,4174.8123142219329,-1894.4462678376985,-3058.7648121090042,615.64633742193848,68.773463639617134,54.466856518772225,4125.6598437551747,3986.9382203706286,-4046.2397391108439,4046.2397391108439,-3986.9382203706286,7170.4308566074851,0.0
608523.2936376977,3687751.2368613081,-7500.0,4959.5575749652298,-3429.7422751668973,-1759.6348295309888,853.93855039876564,-208.55327170334067,93.594826466525262,4862.6826014774442,4051.0733271256477,-4494.6695037604686,4494.6695037604686,-4051.0733271256477,8587.0433133488805,0.0
613523.2936376977,3687751.2368613081,-7500.0,5462.7410128599849,-5141.3812981312312,353.91150546396045,1096.7469861140628,-602.70929379046402,142.91708660797502,5831.6397778273622,3630.8602884338889,-4518.7550020732515,4518.7550020732515,-3630.8602884338889,10546.199997383512,0.0
618523.2936376977,3687751.2368613081,-7500.0,5530.4163857576823,-6823.0995648381495,3416.4588295145795,1310.528583918486,-1121.1571345231478,201.28591186753894,7034.5245852380403,2577.3570937242225,-3862.6685426522386,3862.6685426522386,-2577.3570937242225,13045.703929172192,0.0
623523.2936376977,3687751.2368613081,-7500.0,5060.6041235690363,-8163.3233329441837,7427.81612783111,1451.8443835266767,-1751.109437551745,265.71276013693409,8426.6175184211006,827.5153641991443,-2288.9624411777177,2288.9624411777177,-827.5153641991443,15980.846438729148,0.0
628523.2936376977,3687751.2368613081,-7500.0,4069.9807759439523,-8793.3607620208713,12168.335831610204,1475.5201412379565,-2452.325741897615,331.49166128691792,9911.3367193357517,-1521.6522839145528,323.49997481326284,-323.49997481326284,1521.6522839145528,19141.003940706516,0.0
633523.2936376977,3687751.2368613081,-7500.0,2739.0818648761501,-8393.7452126384542,17158.884936867809,1347.8291439900336,-3156.5324990125764,392.87268589250885,11347.448501619569,-4171.2917479940515,3872.5643149813568,-3872.5643149813568,4171.2917479940515,22225.507666044839,0.0
638523.2936376977,3687751.2368613081,-7500.0,1393.7024709799036,-6829.679873523507,21718.285787536923,1060.488046246993,-3777.2251698597047,444.04287036399438,12571.879277656959,-6657.7610972237262,7977.2263628846276,-7977.2263628846276,6657.7610972237262,24887.783191525843,0.0
643523.2936376977,3687751.2368613081,-7500.0,406.01579270007289,-4246.6316571383222,25131.534511777088,638.72636806373691,-4229.1462791123113,480.02527310299229,13440.927331345369,-8481.8263157111996,12032.446955749443,-12032.446955749443,8481.8263157111996,26805.026034345181,0.0
648523.2936376977,3687751.2368613081,-7500.0,53.965335029997995,-1057.9783064516562,26868.977239281729,138.06505899015738,-4450.9091501884232,497.31915838479097,13939.849789885075,-9280.2517025991328,15377.549439998435,-15377.549439998435,9280.2517025991328,27752.473852771993,0.0
653523.2936376977,3687751.2368613081,-7500.0,416.38863084712153,2183.8490358435611,26748.152396694863,-370.10898893543282,-4421.2516738183249,494.3840122501656,13941.664361584086,-8949.1539024916492,17503.440244576879,-17503.440244576879,8949.1539024916492,27652.758293827785,0.0
658523.2936376977,3687751.2368613081,-7500.0,1361.5495061412348,4966.0784258977064,24958.458746371176,-818.02782801294825,-4162.0831202056297,472.00004889828142,13432.225541499525,-7654.8602735722015,18193.260894097079,-18193.260894097079,7654.8602735722015,26581.161803295978,0.0
663523.2936376977,3687751.2368613081,-7500.0,2623.2841426103109,6952.9307855292063,21953.863358661467,-1157.6716392353858,-3728.2159582765312,433.26892241831888,12507.164137175248,-5741.3524915443022,17537.95660765592,-17537.95660765592,5741.3524915443022,24729.554288008792,0.0
668523.2936376977,3687751.2368613081,-7500.0,3909.7950986362994,8031.1489539273989,18287.157580388932,-1367.9578022590149,-3189.7704243353392,383.03469821133092,11296.177984713531,-3598.4910623212118,15847.033130186053,-15847.033130186053,3598.4910623212118,22349.22808071008,0.0
673523.2936376977,3687751.2368613081,-7500.0,4989.3051017382586,8273.6082654534039,14465.229200220665,-1452.6425672787327,-2614.9510732389435,326.84446461491689,9932.8514015908931,-1555.5354127934806,13519.92409710748,-13519.92409710748,1555.5354127934806,19695.557865775583,0.0
678523.2936376977,3687751.2368613081,-7500.0,5728.2274164753908,7863.8015041542867,10866.484772182468,-1432.484162148575,-2058.4404949915611,269.86419017732464,8535.0877386340453,170.970169014774,10936.838126187571,-10936.838126187571,-170.970169014774,16989.042924491896,0.0
683523.2936376977,3687751.2368613081,-7500.0,6087.920205947833,7021.4312840090861,7720.0604246707708,-1336.0751342477377,-1556.7289908276966,216.12153725664405,7225.532000630099,1480.3629038093122,8395.4036844224502,-8395.4036844224502,-1480.3629038093122,14396.266795128915,0.0
688523.2936376977,3687751.2368613081,-7500.0,6099.0467005339215,5950.1597146602235,5125.2732247439744,-1192.3975055593994,-1128.8734944156945,168.21404372289288,6086.5957319703402,2362.7902319356162,6091.043460309651,-6091.043460309651,-2362.7902319356162,12027.029004603291,0.0
693523.2936376977,3687751.2368613081,-7500.0,5830.9071882304925,4810.9603190140106,3087.8820075099575,-1026.2509403238046,-780.21009965370115,127.39902253180686,5090.039879644627,2865.6235014759718,4126.0888005992947,-4126.0888005992947,-2865.6235014759718,9941.3832021019753,0.0
698523.2936376977,3687751.2368613081,-7500.0,5365.8479349716354,3715.2304058327145,1556.9785950448024,-856.33561556567895,-506.89197919304212,93.893457783344019,4239.5733021525975,3063.5014152360936,2531.9807547030132,-2531.9807547030132,-3063.5014152360936,8160.9046856931909,0.0
703523.2936376977,3687751.2368613081,-7500.0,4782.2206375957858,2729.6115900767149,454.60966793729676,-695.18140443508673,-299.95480986150164,67.228972233776346,3530.5311612792452,3036.8407117870506,1293.6003893424972,-1293.6003893424972,-3036.8407117870506,6680.3294809021354,0.0
708523.2936376977,3687751.2368613081,-7500.0,4145.381207911837,1885.8495260082761,-303.92826433392304,-550.0729997433906,-148.36877097220372,46.565282869849156,2950.8520628320912,2859.0303762607873,369.97964631534182,-369.97964631534182,-2859.0303762607873,5477.4822996417797,0.0
713523.2936376977,3687751.2368613081,-7500.0,3504.6208672707353,1191.4175024576066,-798.09246752506772,-424.33171541565372,-41.028649064444984,30.923402551997711,2484.3951745350955,2590.4589660384272,-290.55248072336803,290.55248072336803,-2590.4589660384272,4520.7566816931449,0.0
718523.2936376977,3687751.2368613081,-7500.0,2893.7471696760831,638.71349445512885,-1096.2721411425719,-318.56738263634799,32.131698354507677,19.336223383485414,2113.4627881703905,2277.0765778254658,-740.60249069279587,740.60249069279587,-2277.0765778254658,3774.2489133456061,0.0
723523.2936376977,3687751.2368613081,-7500.0,2333.4826891206649,212.05859261583376,-1253.9903769697116,-231.71746203666814,79.647773079896865,10.931594274045013,1820.550368429002,1951.5130189957292,-1028.2246787740285,1028.2246787740285,-1951.5130189957292,3201.1144747932226,0.0
558523.2936376977,3692751.2368613081,-7500.0,-785.72385279257492,1452.8011411727848,-1972.6154405438433,-141.33563873725336,242.71124592094935,-17.572108884809385,1583.495408813845,189.92982746254631,-40.893864765890072,40.893864765890072,-189.92982746254631,3078.8031096684317,1.0
563523.2936376977,3692751.2368613081,-7500.0,-562.35269206735575,1467.4104568578689,-2214.6921742789918,-127.15716754439322,267.02533658571758,-18.117317594887162,1699.1622727468255,432.05660660847718,-222.52198560756037,222.52198560756037,-432.05660660847718,3263.1233929713785,0.0
568523.2936376977,3692751.2368613081,-7500.0,-268.98366498151097,1433.2155096826916,-2466.3285455539281,-103.26939531048332,289.37390577767655,-17.967608040238119,1821.9501546391784,725.37154806721946,-457.96929803946222,457.96929803946222,-725.37154806721946,3447.9599766129904,0.0
573523.2936376977,3692751.2368613081,-7500.0,104.00160053340768,1329.5898330307239,-2713.9596270815441,-66.710617379381134,306.92202195249632,-16.733331336466069,1954.1239521303019,1071.3724362292833,-755.35577549507923,755.35577549507923,-1071.3724362292833,3635.1943169072001,0.0
578523.2936376977,3692751.2368613081,-7500.0,563.31744800330216,1131.0445582756672,-2935.0880030810872,-14.105608144129897,315.46118823296564,-13.885423924759339,2100.5427516838531,1466.2930083802921,-1120.2232907274429,1120.2232907274429,-1466.2930083802921,3832.7071044898103,0.0
583523.2936376977,3692751.2368613081,-7500.0,1109.7807222958506,807.82067593257432,-3094.7056770194445,58.098441359531172,308.99874708843521,-8.7316266685221624,2270.4120056959364,1897.7801700352147,-1552.3656069305785,1552.3656069305785,-1897.7801700352147,4059.5930208939135,0.0
588523.2936376977,3692751.2368613081,-7500.0,1734.1847333905093,328.0573581502303,-3141.2239467819891,153.1496285796897,279.37000572839435,-0.40719139358947132,2479.3774368784202,2340.6519041829438,-2041.0362518704146,2041.0362518704146,-2340.6519041829438,4353.0387701916807,0.0
593523.2936376977,3692751.2368613081,-7500.0,2412.2489027698471,-337.47951895712794,-3002.6813168419194,273.1623793278892,216.01378927592032,12.102772345916978,2751.0858871647388,2752.1783090103286,-2558.3552218903264,2558.3552218903264,-2752.1783090103286,4773.9986512980695,0.0
598523.2936376977,3692751.2368613081,-7500.0,3099.5224652361399,-1207.0322052045087,-2584.8774326322446,417.86923534403638,106.15426117066751,29.886452710005781,3116.5194364940098,3068.1051631403234,-3051.3359210418603,3051.3359210418603,-3068.1051631403234,5405.0401775032578,0.0
603523.2936376977,3692751.2368613081,-7500.0,3728.2011383211138,-2275.1956568421165,-1774.2738792052558,582.9859790166937,-64.262157697440927,53.949905983049142,3609.3729307743902,3201.7956475565315,-3434.1854087998863,3434.1854087998863,-3201.7956475565315,6334.1479682313593,0.0
608523.2936376977,3692751.2368613081,-7500.0,4209.1224822351578,-3496.7554964980877,-449.6471253650908,758.44435276652155,-308.4798119456031,84.970426202958478,4257.482154094585,3050.1283484437186,-3584.4840269287401,3584.4840269287401,-3050.1283484437186,7628.3930208755328,0.0
613523.2936376977,3692751.2368613081,-7500.0,4443.0322330216113,-4770.7092938609831,1493.4153186843778,927.08967642464188,-635.43707705799579,122.97779404066418,5072.7386611547508,2510.3039491086665,-3349.09958271092,3349.09958271092,-2510.3039491086665,9310.7160193897835,0.0
618523.2936376977,3692751.2368613081,-7500.0,4344.0675437372429,-5932.2332677985951,4103.7528298105208,1064.793682765853,-1045.0600656477814,167.03333536506739,6042.4753460303946,1509.8452710542647,-2566.6754399144097,2566.6754399144097,-1509.8452710542647,11346.961979866352,0.0
623523.2936376977,3692751.2368613081,-7500.0,3873.6503658910287,-6763.6011735677921,7327.2260985732919,1143.0342495076586,-1523.3779643355631,215.02686386093185,7124.2296961203065,46.210373604761457,-1110.5725638847885,1110.5725638847885,-46.210373604761457,13640.695373447268,0.0
628523.2936376977,3692751.2368613081,-7500.0,3074.4635413660881,-7033.2647807011408,10967.028152679099,1134.460449596502,-2039.4328673033519,263.71967744097998,8245.4025031214114,-1777.1309049277113,1053.2936397441752,-1053.2936397441752,1777.1309049277113,16034.841314661768,0.0
633523.2936376977,3692751.2368613081,-7500.0,2086.0609060970046,-6561.4584329803965,14676.696798784249,1020.6387948160179,-2546.3619333421939,309.09463038778114,9309.7699354595552,-3739.5090191779636,3813.6204949141593,-3813.6204949141593,3739.5090191779636,18324.575163878533,0.0
638523.2936376977,3692751.2368613081,-7500.0,1124.2258421962943,-5292.3274404549138,18007.161488813119,799.50124684648802,-2988.1302565838496,346.95402655130738,10212.398929632085,-5535.7560041637425,6896.1635073488342,-6896.1635073488342,5535.7560041637425,20285.237509077931,0.0
643523.2936376977,3692751.2368613081,-7500.0,421.58574036335335,-3338.1680283130363,20506.727092830602,489.10939162500335,-3311.0364256905591,373.61097783306872,10880.480940329873,-6852.890237394392,9905.0788977782286,-9905.0788977782286,6852.890237394392,21712.10382705076,0.0
648523.2936376977,3692751.2368613081,-7500.0,151.31322278026033,-966.62756624121403,21840.861744582358,125.30455059646893,-3476.4147466053669,386.51009383040747,11299.063461530572,-7463.3211446191581,12418.987966383482,-12418.987966383482,7463.3211446191581,22461.013054153183,0.0
653523.2936376977,3692751.2368613081,-7500.0,370.43455372661356,1470.3290260721237,21880.489992931285,-246.49919291127242,-3469.7279977752887,384.66037832757087,11344.506538026309,-7291.8690763153281,14104.451290507914,-14104.451290507914,7291.8690763153281,22475.800633628045,0.0
658523.2936376977,3692751.2368613081,-7500.0,1009.8114033516782,3634.3927270381118,20721.069176708763,-582.27039684038584,-3302.6200894144895,368.79189138725548,11023.07907261501,-6426.2650393682225,14797.213809998568,-14797.213809998568,6426.2650393682225,21793.240606979401,0.0
663523.2936376977,3692751.2368613081,-7500.0,1910.5358754798569,5282.4202360282234,18631.606821764042,-848.83274313884863,-3007.7253775867462,341.17956283080645,10391.207948053947,-5072.528608318692,14520.839263268968,-14520.839263268968,5072.528608318692,20525.863895069968,0.0
668523.2936376977,3692751.2368613081,-7500.0,2882.9895689935706,6303.272938797898,15965.274490631482,-1028.8248941728211,-2629.038065099212,305.15604789698301,9530.1258224912235,-3483.1631651298921,13446.979207197423,-13446.979207197423,3483.1631651298921,18831.35873195864,0.0
673523.2936376977,3692751.2368613081,-7500.0,3760.2990096976628,6708.6959303679569,13071.495565430394,-1120.5663076329561,-2211.7604970340299,264.45193821561998,8528.4715105885298,-1891.023587693332,11825.872517519932,-11825.872517519932,1891.023587693332,16879.938108730272,0.0
678523.2936376977,3692751.2368613081,-7500.0,4429.4279606424743,6595.8873680897532,10235.863022236021,-1134.294899590896,-1794.6444692451814,222.56225620115029,7468.5842584449101,-468.65182775990434,9918.3354188803169,-9918.3354188803169,468.65182775990434,14828.304397120393,0.0
683523.2936376977,3692751.2368613081,-7500.0,4838.1439989346745,6103.132467849322,7654.4921696918009,-1087.0011443628121,-1406.0246288249498,182.30261702648181,6419.6729946859532,684.11506241041434,7948.2921797474737,-7948.2921797474737,-684.11506241041434,12803.954636992554,0.0
688523.2936376977,3692751.2368613081,-7500.0,4985.3335483735036,5373.1869771054226,5435.5795705226665,-997.68211344204292,-1063.1628955719411,145.61322070317192,5478.8168609679597,1532.1967564246042,6080.1995048626377,-6080.1995048626377,-1532.1967564246042,10899.318733535129,0.0
693523.2936376977,3692751.2368613081,-7500.0,4904.1410132169567,4530.123353218687,3616.2910221418438,-883.96479622132802,-773.75593799153887,113.57699100059543,4653.4294328625319,2087.5781453846685,4416.3612600333763,-4416.3612600333763,-2087.5781453846685,9173.0508687649344,0.0
698523.2936376977,3692751.2368613081,-7500.0,4645.0745471722976,3668.9220783830965,2184.6213635909326,-760.26366212153152,-538.40093265769099,86.569698976902572,3929.0446897569777,2390.2018935026804,3006.0554598457552,-3006.0554598457552,-2390.2018935026804,7655.3514227585529,0.0
703523.2936376977,3692751.2368613081,-7500.0,4262.798948952197,2854.206780026364,1099.6979390570239,-637.18299784074429,-353.13806430548271,64.461517282050877,3307.8484081666188,2492.0890197971171,1859.3567657044209,-1859.3567657044209,-2492.0890197971171,6354.7694564010444,0.0
708523.2936376977,3692751.2368613081,-7500.0,3807.6155586385462,2124.1681241053825,307.568156570155,-521.72606333469059,-211.58537318245388,46.811197237514683,2785.6481446334574,2446.2769769010629,960.95246964237424,-960.95246964237424,-2446.2769769010629,5264.8036763936552,0.0
713523.2936376977,3692751.2368613081,-7500.0,3321.0941447213995,1496.583604997867,-248.07542638150227,-417.91380280059866,-106.49774689288306,33.023705692632589,2353.9529970091999,2300.330933878015,281.58497896430026,-281.58497896430026,-2300.330933878015,4369.4354659287583,0.0
718523.2936376977,3692751.2368613081,-7500.0,2834.7160517378502,974.96268963844273,-619.543202079092,-327.5270619395335,-30.771654467799937,22.461859812324899,2001.9313092221487,2093.3811707228115,-213.61387120463291,213.61387120463291,-2093.3811707228115,3647.2928203893621,0.0
563523.2936376977,3697751.2368613081,-7500.0,-194.15500606931681,1144.7536072776745,-2028.1945586848531,-76.493174359497971,226.08752364109688,-13.39227791082587,1478.8004090749409,614.99201530779874,-407.04070660807201,407.04070660807201,-614.99201530779874,2798.2467767989774,0.0
568523.2936376977,3697751.2368613081,-7500.0,92.361395227389067,1059.1614511981015,-2210.8573669954485,-49.391778354084828,238.61319337354604,-12.600322064627495,1577.2245977254527,877.37105069670577,-634.79400897477819,634.79400897477819,-877.37105069670577,2935.5885581506463,0.0
573523.2936376977,3697751.2368613081,-7500.0,439.71769334168386,905.63930293001067,-2372.3704336255541,-11.385595099496378,244.97969647120462,-10.788485700906604,1685.5852623449596,1173.1787411178329,-909.19524735530558,909.19524735530558,-1173.1787411178329,3079.7587674014271,0.0
578523.2936376977,3697751.2368613081,-7500.0,848.40072757915607,664.77908322959502,-2489.2687327388244,39.781383375135654,241.40945905202562,-7.5405767041530174,1810.0620020263411,1494.099833031843,-1229.6883508363098,1229.6883508363098,-1494.099833031843,3243.6400441840383,0.0
583523.2936376977,3697751.2368613081,-7500.0,1312.8913445831254,315.92487174739694,-2528.0069539196229,106.21459622444314,222.84268033554466,-2.3367566609726906,1960.8763780703987,1824.0978185703777,-1589.3077381014684,1589.3077381014684,-1824.0978185703777,3451.5089594536171,0.0
588523.2936376977,3697751.2368613081,-7500.0,1818.8509895862592,-160.23406278369225,-2442.8242621140398,189.43502442892066,182.79326921052876,5.4412796662205487,2153.2683653173435,2136.7850861677302,-1971.0254411322574,1971.0254411322574,-2136.7850861677302,3742.6046188321202,0.0
593523.2936376977,3697751.2368613081,-7500.0,2340.2241185686426,-777.21664701423401,-2174.5427280511517,289.731055163831,113.39159757791549,16.481155575215965,2407.32834817912,2393.1123647987392,-2343.3557392815969,2343.3557392815969,-2393.1123647987392,4170.6529121207068,0.0
598523.2936376977,3697751.2368613081,-7500.0,2837.1247366604275,-1536.089215000555,-1651.6060514558217,405.29613974051642,5.7748515752782117,31.47431068580676,2745.7275444201819,2540.4463482558822,-2655.9285458274926,2655.9285458274926,-2540.4463482558822,4795.6411575420698,0.0
603523.2936376977,3697751.2368613081,-7500.0,3255.9662686716838,-2416.786350604872,-795.21313312489235,531.23954691087727,-148.98017232080616,51.003672347572078,3189.1583057347912,2514.6880433633646,-2836.5782453665593,2836.5782453665593,-2514.6880433633646,5668.8413077869109,0.0
608523.2936376977,3697751.2368613081,-7500.0,3533.760247866323,-3368.7541477676323,469.39398972971668,658.69779952335739,-358.21462649401155,75.382898037374986,3750.5623362027459,2247.4415814712761,-2792.5063599996279,2792.5063599996279,-2247.4415814712761,6817.9978477992117,0.0
613523.2936376977,3697751.2368613081,-7500.0,3608.3703943235141,-4303.9851952331464,2194.1513147816072,774.44718234403172,-625.31333763648536,104.46419056169998,4429.767926169533,1679.8377960543362,-2418.8114009396882,2418.8114009396882,-1679.8377960543362,8238.1614812513999,0.0
618523.2936376977,3697751.2368613081,-7500.0,3435.0670282503088,-5097.3002202994376,4382.9572154911311,861.54021402457056,-946.88687787259676,137.45691638592737,5209.616207376529,782.72642016381064,-1617.1859402486732,1617.1859402486732,-782.72642016381064,9887.4894705643401,0.0
623523.2936376977,3697751.2368613081,-7500.0,3006.5755430970798,-5599.2441212933836,6965.3504654343633,901.42044273178283,-1310.2386057303806,172.82187820694114,6054.1784761078488,-420.73204929899526,-324.72526386050998,324.72526386050998,420.73204929899526,11686.004788152888,0.0
628523.2936376977,3697751.2368613081,-7500.0,2369.6615694164043,-5664.37565535474,9779.3426871847842,877.57279762670294,-1692.2364515921697,208.30873340794747,6909.8759227063229,-1838.5292001146815,1452.8040507364233,-1452.8040507364233,1838.5292001146815,13518.380265814507,0.0
633523.2936376977,3697751.2368613081,-7500.0,1628.6450349219549,-5191.126447946297,12575.973848170039,780.04731073475705,-2060.73504579258,241.17363754916272,7710.5545551748737,-3310.16959472289,3615.3760684497538,-3615.3760684497538,3310.16959472289,15243.584887861711,0.0
638523.2936376977,3697751.2368613081,-7500.0,928.50727028913843,-4160.8142606289221,15053.778702222478,609.43435366877748,-2379.0637429066192,268.55710757111223,8388.2510594240175,-4631.3788711375964,5965.7810276316541,-5965.7810276316541,4631.3788711375964,16712.629713186874,0.0
643523.2936376977,3697751.2368613081,-7500.0,418.80980140556989,-2658.4523825597153,16919.244425672798,378.58991246143734,-2612.8749271806091,287.94317506270795,8927.996091762212,-5600.3630608528856,8238.7585998902923,-8238.7585998902923,5600.3630608528856,17791.972049433076,0.0
648523.2936376977,3697751.2368613081,-7500.0,210.68739003715157,-862.39935124879617,17954.841518199828,111.00664467335483,-2737.3891660947575,297.58981805243127,9264.6774409025475,-6070.4080914566566,10157.612675828506,-10157.612675828506,6070.4080914566566,18386.642199371785,0.0
653523.2936376977,3697751.2368613081,-7500.0,344.96690525155111,996.48600179007281,18069.120387911178,-163.93524352345975,-2742.5782759736053,296.82396255410862,9327.9973347714986,-5987.7063866449789,11498.9174208841,-11498.9174208841,5987.7063866449789,18456.056227490957,0.0
658523.2936376977,3697751.2368613081,-7500.0,784.75134965349343,2690.6639825694474,17310.177831791261,-417.24172962224043,-2634.5383618248025,286.12928617711771,9124.1529263276116,-5399.4052189148188,12140.716274074597,-12140.716274074597,5399.4052189148188,18017.823224656164,0.0
663523.2936376977,3697751.2368613081,-7500.0,1433.3547539056749,4045.0963418239739,15840.693125685306,-625.94023015332175,-2432.861118513315,267.0063933599377,8687.105244665443,-4431.3874647079592,12078.042325029031,-12078.042325029031,4431.3874647079592,17139.311519774132,0.0
668523.2936376977,3697751.2368613081,-7500.0,2166.9415521748092,4964.0702567475246,13888.704904427255,-776.41743361250815,-2165.3208223241868,241.64986947903071,8068.5411531299223,-3248.4125881171331,11405.52299665007,-11405.52299665007,3248.4125881171331,15920.885435945022,0.0
673523.2936376977,3697751.2368613081,-7500.0,2867.4259725367401,5432.2465894936231,11694.386276111329,-864.94910534597932,-1861.8791284768927,212.53725865599736,7327.7165994841134,-2013.4823902376429,10279.713383748314,-10279.713383748314,2013.4823902376429,14476.54520701302,0.0
678523.2936376977,3697751.2368613081,-7500.0,3445.1978360171092,5496.920688469073,9468.6891882069613,-895.99156378585587,-1549.7277547511703,182.04087182252016,6522.5400612694739,-858.72200867290394,8877.5522913706118,-8877.5522913706118,858.72200867290394,12916.966414455217,0.0
683523.2936376977,3697751.2368613081,-7500.0,3848.3461558427393,5242.409615298714,7370.5410412420533,-879.33130801531604,-1250.2521623323892,152.14509177584114,5703.3570166615682,128.01588745632398,7363.1364449475805,-7363.1364449475805,-128.01588745632398,11337.730697972753,0.0
688523.2936376977,3697751.2368613081,-7500.0,4060.7246199815745,4765.797300004383,5501.2746182573974,-827.14626966949538,-977.95866671661031,124.30355007028002,4912.226432479114,903.13289422932303,5867.9417531039071,-5867.9417531039071,-903.13289422932303,9813.3276992332103,0.0
693523.2936376977,3697751.2368613081,-7500.0,4093.5752824415536,4159.0654729110647,3910.806840443689,-751.65060476537099,-740.87574554398032,99.421632144495149,4228.0623040690325,1459.0594886304734,4483.7608292491632,-4483.7608292491632,-1459.0594886304734,8395.9374566291317,0.0
698523.2936376977,3697751.2368613081,-7500.0,3975.1744208662894,3498.7999570164584,2609.5504469392613,-663.57666854547415,-541.78706455898521,77.925569220028166,3618.1199624711999,1812.9270866636036,3264.7073549824445,-3264.7073549824445,-1812.9270866636036,7117.4227117963073,0.0
703523.2936376977,3697751.2368613081,-7500.0,3741.4727585558312,2842.3007310868147,1581.4303033401429,-571.44410669206002,-379.7404353932198,59.873798420833864,3081.8796513082816,1995.6950724868373,2234.1276107967083,-2234.1276107967083,-1995.6950724868373,5992.9807348663253,0.0
708523.2936376977,3697751.2368613081,-7500.0,3429.1081201737438,2228.0435810858366,795.28588539286454,-481.41809117654896,-251.46578153439577,45.075182681427485,2619.7926432752924,2043.538927585073,1393.1033669801473,-1393.1033669801473,-2043.538927585073,5025.2648829189702,0.0
713523.2936376977,3697751.2368613081,-7500.0,3071.0233257204181,1678.5131726068566,213.54422131666198,-397.53046724884621,-152.51923295173734,33.193232194437172,2228.3464752792456,1991.9880800150233,728.46139416367464,-728.46139416367464,-1991.9880800150233,4208.2252402330823,0.0
563523.2936376977,3702751.2368613081,-7500.0,80.241719836210521,856.39478199087785,-1822.5798027171536,-37.218726153398833,187.99352149268248,-9.5733430247894855,1289.6456756920393,725.61974435100035,-536.7610840781673,536.7610840781673,-725.61974435100035,2401.7308172462526,0.0
568523.2936376977,3702751.2368613081,-7500.0,347.45231723669951,736.07011517979186,-1942.8388146808979,-9.2390628391270422,192.77215713049378,-8.3819487619831179,1371.2635415594459,951.18707131767997,-746.69889562506637,746.69889562506637,-951.18707131767997,2508.8293022589378,0.0
573523.2936376977,3702751.2368613081,-7500.0,658.78782278673486,553.17872861166745,-2030.1365987728107,27.77909424838515,190.79571195285078,-6.2713015900120128,1464.1989551064087,1194.4153372317362,-988.97786593723379,988.97786593723379,-1194.4153372317362,2629.4236298387314,0.0
578523.2936376977,3702751.2368613081,-7500.0,1010.8277101228291,293.95429717462582,-2062.0364090290363,75.223291736294186,178.83917890998603,-2.9223843462343169,1575.3096734492863,1444.7699413641622,-1258.9385583305493,1258.9385583305493,-1444.7699413641622,2779.7878031977571,0.0
583523.2936376977,3702751.2368613081,-7500.0,1394.8012901624074,-54.6514705128344,-2008.5269428580179,134.1655941018935,152.80871515381543,2.0460116826783596,1714.687552762226,1685.3895693759198,-1545.7889213559035,1545.7889213559035,-1685.3895693759198,2985.8700652170837,0.0
588523.2936376977,3702751.2368613081,-7500.0,1794.8875559830819,-502.49825796884795,-1831.2518401323221,205.01268486475618,107.74169429806506,9.0659167422673335,1895.6679301198308,1891.7085770838476,-1830.0856289690778,1830.0856289690778,-1891.7085770838476,3283.4184268040894,0.0
593523.2936376977,3702751.2368613081,-7500.0,2186.8520476904232,-1052.598591707731,-1483.8532634194821,287.03769533342489,37.97457200455672,18.591619471144597,2133.6859725340009,2030.7349404598224,-2081.1298819578628,2081.1298819578628,-2030.7349404598224,3713.727938559477,0.0
598523.2936376977,3702751.2368613081,-7500.0,2537.7036470022413,-1696.3024978771596,-914.32855550690022,377.82413241680683,-62.424971819421287,31.047678372700993,2443.7818019322494,2061.768253088966,-2254.9777109554543,2254.9777109554543,-2061.768253088966,4314.981309026457,0.0
603523.2936376977,3702751.2368613081,-7500.0,2807.3046730133992,-2407.8325789191108,-70.453581759140576,472.71186289049598,-198.86645156595185,46.74979282436469,2837.2298988294456,1939.5539059009518,-2294.2381447709749,2294.2381447709749,-1939.5539059009518,5112.7226134585762,0.0
608523.2936376977,3702751.2368613081,-7500.0,2952.9208240671528,-3139.4323697859609,1090.8572867879357,564.41563341400069,-375.03651463650954,65.801079917874972,3318.1857042145839,1620.8177009985257,-2131.2562274106376,2131.2562274106376,-1620.8177009985257,6113.3051312379548,0.0
613523.2936376977,3702751.2368613081,-7500.0,2937.2680814756241,-3819.2792122897804,2590.215072577766,643.06135888172867,-591.35573707242168,87.977159376249062,3881.027155001882,1074.5098637216436,-1696.3065280649187,1696.3065280649187,-1074.5098637216436,7300.7136105626951,0.0
618523.2936376977,3702751.2368613081,-7500.0,2739.4703778347312,-4354.9186632974197,4410.0835177100362,696.90835037246768,-843.34545596592568,112.62616990617006,4508.6906950988696,294.6947142730528,-931.60146993289209,931.60146993289209,-294.6947142730528,8635.1831085729173,0.0
623523.2936376977,3702751.2368613081,-7500.0,2366.5071556478324,-4644.5797398004515,6480.7583203243539,713.9275107880527,-1120.3778825459485,138.62037896334721,5172.2842382086692,-687.04431368803421,190.13910982190879,-190.13910982190879,687.04431368803421,10053.248631695038,0.0
628523.2936376977,3702751.2368613081,-7500.0,1860.8640824528338,-4596.6383092927481,8674.0298603318824,684.14559446612066,-1405.423311680905,164.39472799190389,5832.4808515258983,-1794.7345882537957,1646.8617695369367,-1646.8617695369367,1794.7345882537957,11470.511061597248,0.0
633523.2936376977,3702751.2368613081,-7500.0,1299.5194994235314,-4153.7730108177566,10810.692773085118,602.28853651396491,-1676.3318243118028,188.09196875485225,6443.3353214755816,-2912.0418199163182,3355.1697568428294,-3355.1697568428294,2912.0418199163182,12788.615182977963,0.0
638523.2936376977,3702751.2368613081,-7500.0,781.40631044991619,-3314.4152585139482,12684.741891308417,469.91918462532158,-1908.786009776316,207.80261228230614,6965.6513675159795,-3899.8881689924583,5172.5245027121709,-5172.5245027121709,3899.8881689924583,13906.657621225691,0.0
643523.2936376977,3702751.2368613081,-7500.0,405.1332004733527,-2142.5808887175276,14100.642934052647,296.20662404861531,-2080.4303025420159,221.85487754253114,7408.7530624752426,-4624.8835494421764,6917.2877146298688,-6917.2877146298688,4624.8835494421764,14735.345678997957,0.0
648523.2936376977,3702751.2368613081,-7500.0,243.91192545524405,-760.14149634544788,14913.280322554765,96.820110107393575,-2175.0870468670064,229.08673874250465,7677.3424180472248,-4990.0225117874415,8403.0710388453099,-8403.0710388453099,4990.0225117874415,15210.609578525658,0.0
653523.2936376977,3702751.2368613081,-7500.0,326.99572994583298,677.52659785814615,15057.386848479066,-108.87901631410651,-2185.778035825499,229.03275311773672,7745.4296334130222,-4956.7702186214592,9476.9613125919168,-9476.9613125919168,4956.7702186214592,15303.026493876729,0.0
658523.2936376977,3702751.2368613081,-7500.0,634.48961047711146,2014.4558774518325,14556.746720657577,-301.50966565050697,-2115.6350109533855,221.9786372520835,7616.1528200064695,-4550.7871736111611,10048.859694158424,-10048.859694158424,4550.7871736111611,15020.554196026493,0.0
663523.2936376977,3702751.2368613081,-7500.0,1106.4294584871161,3124.3466220358969,13511.664782850374,-465.07579491817916,-1976.5580695015244,208.87508297040961,7310.3075094164169,-3850.5409670255494,10103.107751233398,-10103.107751233398,3850.5409670255494,14404.294425268055,0.0
668523.2936376977,3702751.2368613081,-7500.0,1661.1896043014704,3929.313025445425,12071.258376755091,-589.18362493381028,-1786.246763675508,191.14010417400178,6861.2997174520297,-2964.714298273223,9691.1994420754781,-9691.1994420754781,2964.714298273223,13519.091717455585,0.0
673523.2936376977,3702751.2368613081,-7500.0,2215.7210346978354,4404.0532876559173,10401.059797590658,-669.69859856671189,-1564.6388242123764,170.40795351834447,6309.1121611520794,-2007.2051587825963,8911.2395362056632,-8911.2395362056632,2007.2051587825963,12441.924504673438,0.0
678523.2936376977,3702751.2368613081,-7500.0,2701.3628283484486,4567.9815547634562,8655.2520628051898,-708.03620053104271,-1330.7312935412756,148.28710316667929,5694.5635340374793,-1077.0836304794193,7882.7274443723563,-7882.7274443723563,1077.0836304794193,11250.936508317873,0.0
683523.2936376977,3702751.2368613081,-7500.0,3072.2884229194301,4470.7981367961511,6958.688932244776,-709.62155288015344,-1100.3844433181032,126.17524818050143,5054.8611337679922,-247.09215119240434,6724.116490938487,-6724.116490938487,247.09215119240434,10017.025579195433,0.0
688523.2936376977,3702751.2368613081,-7500.0,3306.8684452473722,4176.9661486165342,5399.4030221543853,-682.10686738537959,-885.26249444042548,105.15329281954551,4420.8615868630404,439.42752820962869,5537.293758419225,-5537.293758419225,-439.42752820962869,8798.7156757424837,0.0
693523.2936376977,3702751.2368613081,-7500.0,3404.1015739576983,3752.7993297372827,4029.3966774399532,-633.78957192086807,-692.73692141511958,85.954527325490474,3824.6573878366921,965.50293483543692,4399.7981586261449,-4399.7981586261449,-965.50293483543692,7640.1010667096534,0.0
698523.2936376977,3702751.2368613081,-7500.0,3377.687002712953,3257.7467999925334,2870.4521306133647,-572.45961133062326,-526.42653182047218,68.990557375043295,3314.7545615199547,1334.2997815809497,3363.4144422336058,-3363.4144422336058,-1334.2997815809497,6571.1277953796534,0.0
703523.2936376977,3702751.2368613081,-7500.0,3249.8096418747396,2739.8410084813522,1921.9718154713532,-504.71919062413917,-387.04381243892846,54.40997818473889,2856.5547761251937,1562.11400995043,2456.9245233122165,-2456.9245233122165,-1562.11400995043,5609.3296513644664,0.0
708523.2936376977,3702751.2368613081,-7500.0,3045.8874765056007,2234.4145871273936,1168.7509058555825,-435.70402738172965,-273.29507872503802,42.168634050907158,2452.9052868120893,1672.1247137856512,1690.896718482602,-1690.896718482602,-1672.1247137856512,4762.2461446638627,0.0
568523.2936376977,3707751.2368613081,-7500.0,518.74231618898352,464.9237823663791,-1676.0780950215953,19.736669172089965,152.47866974552372,-5.1319611588283518,1199.8035339204339,967.90273888178149,-806.13794585497772,806.13794585497772,-967.90273888178149,2158.993087493287,0.0
573523.2936376977,3707751.2368613081,-7500.0,790.02687570319665,268.59403907025268,-1702.2601441171062,54.289147923848603,144.59198629976427,-2.9191976405742177,1283.1738138115966,1160.9286764939425,-1012.3926929348727,1012.3926929348727,-1160.9286764939425,2269.8016640467404,0.0
578523.2936376977,3707751.2368613081,-7500.0,1085.9732938002619,8.1388928889350769,-1668.0776534031468,96.862086040446982,127.24713618977589,0.33611749979970806,1386.2053328685397,1348.4287426022402,-1231.559982690731,1231.559982690731,-1348.4287426022402,2418.7653093101658,0.0
583523.2936376977,3707751.2368613081,-7500.0,1396.6705038703144,-323.62114723508762,-1547.974020287968,147.83576640272503,97.240909531646722,4.9076621391224178,1517.9453975433012,1514.4709810489881,-1451.2232969859724,1451.2232969859724,-1514.4709810489881,2630.1737425890433,0.0
588523.2936376977,3707751.2368613081,-7500.0,1706.9529606021586,-729.95360082331399,-1311.1413722101959,206.95527133312945,50.891240656879582,11.090754419587833,1689.0534221877731,1637.7745818158885,-1652.041395018867,1652.041395018867,-1637.7745818158885,2932.8020554738187,0.0
593523.2936376977,3707751.2368613081,-7500.0,1996.0080520729152,-1207.4551688218571,-922.6398931392838,273.01270821898527,-15.755560828347956,19.177672616651048,1910.4011954682987,1691.9074132442756,-1806.4329705306154,1806.4329705306154,-1691.9074132442756,3354.8306568263047,0.0
598523.2936376977,3707751.2368613081,-7500.0,2237.9368102081871,-1742.820083230582,-346.10567163054833,343.51079970919517,-106.53183443849663,29.418418097322132,2191.0664604308249,1646.7077021864525,-1878.0812976927991,1878.0812976927991,-1646.7077021864525,3917.6823914701426,0.0
603523.2936376977,3707751.2368613081,-7500.0,2403.7987034090393,-2309.6744264591807,451.43744642351868,414.3817366318072,-224.53197469608904,41.966340218587007,2536.2100861394865,1471.457860434914,-1823.0485080839371,1823.0485080839371,-1471.457860434914,4631.3048864081147,0.0
608523.2936376977,3707751.2368613081,-7500.0,2465.5576516702922,-2866.4516014470973,1492.436451843291,479.87587353975533,-371.276892005104,56.812207194755601,2945.2804151984838,1140.144771227106,-1593.393719310026,1593.393719310026,-1140.144771227106,5491.724203997499,0.0
613523.2936376977,3707751.2368613081,-7500.0,2401.9285982303795,-3356.6780675579798,2779.7837699138063,532.7619376095081,-545.74253920284423,73.716568846147439,3410.7410273167857,638.60671645040475,-1143.9739086249024,1143.9739086249024,-638.60671645040475,6479.9649915777436,0.0
618523.2936376977,3707751.2368613081,-7500.0,2205.3496674684588,-3713.1159474452616,4287.4058952278965,564.96533871856798,-743.44143594547199,92.156745696031223,3917.4093080832104,-27.534005021853403,-442.3710942018206,442.3710942018206,27.534005021853403,7561.5932229149603,0.0
623523.2936376977,3707751.2368613081,-7500.0,1888.3242079622662,-3866.6439234106156,5953.1559791063955,568.68961400126511,-955.84899650549005,111.30870866289538,4442.6049019002294,-826.32178454773748,519.41513765590025,-519.41513765590025,826.32178454773748,8687.2252017975061,0.0
628523.2936376977,3707751.2368613081,-7500.0,1486.612584024127,-3759.3314998474966,7677.438623742506,537.90726867183821,-1170.5044968591719,130.08319366667757,4957.4290419494146,-1697.2018342863898,1714.453802435105,-1714.453802435105,1697.2018342863898,9794.9237624514681,0.0
633523.2936376977,3707751.2368613081,-7500.0,1056.8541252793095,-3359.135905715485,9330.5021258017878,469.91156984786136,-1372.0282701172262,147.22378422897805,5429.7892877624026,-2555.6263933510554,3075.573789182391,-3075.573789182391,2555.6263933510554,10815.167928330515,0.0
638523.2936376977,3707751.2368613081,-7500.0,667.62097228491893,-2671.8801731688764,10769.161025680685,366.47710820369144,-1544.059620055958,161.45971933143719,5856.5679840963376,-3305.3320669142681,4498.9178806443197,-4498.9178806443197,3305.3320669142681,11678.288682732167,0.0
643523.2936376977,3707751.2368613081,-7500.0,385.41402819045413,-1745.8388955293353,11860.221551835459,234.18364625304409,-1671.784870117807,171.68550050662745,6208.5832300930333,-3856.1517189056049,5857.6458810129789,-5857.6458810129789,3856.1517189056049,12323.244765464213,0.0
648523.2936376977,3707751.2368613081,-7500.0,259.60108896837613,-666.14429676905479,12504.655456735431,83.669955432101489,-1744.4454281584919,177.12867217848418,6423.9862434600627,-4142.4745328377066,7023.334144443008,-7023.334144443008,4142.4745328377066,12705.886573107928,0.0
653523.2936376977,3707751.2368613081,-7500.0,311.27067599245891,460.19981141626431,12655.409884967876,-72.065185644011592,-1757.1381594195159,177.46457433702983,6490.3937147436463,-4136.5321886099664,7889.2625252614143,-7889.2625252614143,4136.5321886099664,12804.7230870231,0.0
658523.2936376977,3707751.2368613081,-7500.0,529.67259577630341,1524.3278397805768,12323.658775432985,-219.86224921508813,-1711.4200770029026,172.85249370182157,6408.9679937843339,-3852.3667739215794,8388.7219817613968,-8388.7219817613968,3852.3667739215794,12622.851591413617,0.0
663523.2936376977,3707751.2368613081,-7500.0,876.92006983900387,2434.5111860662869,11572.380234551181,-348.4936132990855,-1614.61600312159,163.88620646440464,6192.6472960993797,-3339.8414197224015,8503.3725399476061,-8503.3725399476061,3339.8414197224015,12185.784454045757,0.0
668523.2936376977,3707751.2368613081,-7500.0,1298.5912893403779,3129.0643873153713,10500.411635044045,-450.1307883358341,-1478.1332573210309,151.47686054255453,5863.3558080196462,-2671.5557358490814,8260.5042100530736,-8260.5042100530736,2671.5557358490814,11536.053435037446,0.0
673523.2936376977,3707751.2368613081,-7500.0,1736.2586786677984,3580.8940219234687,9222.5326316722494,-520.93434299156854,-1315.3268936476284,136.70095263058769,5448.3549221848634,-1927.3486077019757,7721.7549024447671,-7721.7549024447671,1927.3486077019757,10726.154400736632,0.0
678523.2936376977,3707751.2368613081,-7500.0,2138.2441778815473,3794.4467563007183,7851.0133937685623,-560.81352616727349,-1139.4673750248448,120.6488500683791,4976.5433683380888,-1180.7449666012044,6967.8018731397042,-6967.8018731397042,1180.7449666012044,9811.4551004673249,0.0
683523.2936376977,3707751.2368613081,-7500.0,2466.4257022979014,3797.7529659386314,6482.2122600568582,-572.61155235378544,-962.2000029189378,104.30288479754896,4475.3603572822094,-489.96568689098876,6083.468494075054,-6083.468494075054,489.96568689098876,8844.312761211726,0.0
688523.2936376977,3707751.2368613081,-7500.0,2698.6888601533569,3632.7163540903666,5189.4160746455063,-561.04133053538567,-792.65369007347908,88.459634872673291,3968.6363638263956,105.91450464035279,5146.2187562795425,-5146.2187562795425,-105.91450464035279,7870.0364485614327,0.0
693523.2936376977,3707751.2368613081,-7500.0,2827.8855128700593,3346.1495868534048,4021.2364794161831,-531.64948073422693,-637.15906450613249,73.697590796933142,3475.4424213299603,586.55821206247174,4219.1862663362317,-4219.1862663362317,-586.55821206247174,6924.7649897050778,0.0
698523.2936376977,3707751.2368613081,-7500.0,2858.6940935867387,2982.9669026971169,3003.918549056832,-489.98336471305669,-499.42248769219077,60.381675240860517,3025.1283411682862,947.25686730489633,3348.454144237834,-3348.454144237834,-947.25686730489633,6034.9664551518972,0.0
703523.2936376977,3707751.2368613081,-7500.0,2803.7099763375682,2581.9305090853004,2145.7496056720015,-441.02836315315704,-380.96814966812309,48.691766870128973,2636.2687046205697,1194.6547371515776,2563.5136043504444,-2563.5136043504444,-1194.6547371515776,5218.0808816373983,0.0
573523.2936376977,3712751.2368613081,-7500.0,857.14815371377756,44.92572964810757,-1398.346457069292,71.157903267760275,106.01017950788047,-0.49385009631500631,1135.6557853008637,1092.7961541716334,-995.06666942935158,995.06666942935158,-1092.7961541716334,1985.7891650473678,0.0
578523.2936376977,3712751.2368613081,-7500.0,1101.2717254302763,-205.35782600712002,-1315.1726073106224,108.47336433257935,85.574864472301968,2.5516458239551305,1233.4189464347673,1226.9203255826742,-1166.8132393491669,1166.8132393491669,-1226.9203255826742,2138.9663886178196,0.0
583523.2936376977,3712751.2368613081,-7500.0,1348.4251521756644,-510.73973915955537,-1149.9758626407195,151.7456261046342,54.083079165810091,6.6518163652541498,1358.8750061139176,1333.2088304259901,-1327.7626722913083,1327.7626722913083,-1333.2088304259901,2355.9490314175264,0.0
588523.2936376977,3712751.2368613081,-7500.0,1585.16735801553,-870.22013185175342,-878.8406777940387,200.36943025014597,8.8743972395370232,12.00416533479042,1519.9027380919256,1394.1119782199864,-1460.1162332116257,1460.1162332116257,-1394.1119782199864,2657.5214970137235,0.0
593523.2936376977,3712751.2368613081,-7500.0,1794.5168243410671,-1276.9104278886637,-476.29137373841974,252.98234928064181,-52.73251022938129,18.791208550335913,1723.570515953254,1389.2676345332154,-1540.3537332687908,1540.3537332687908,-1389.2676345332154,3060.9283120915134,0.0
598523.2936376977,3712751.2368613081,-7500.0,1956.8753178658862,-1716.0069471857835,82.156327583515818,307.27522927565735,-133.11590456930597,27.151897636983797,1974.7752287153,1297.0836941342077,-1539.553309548638,1539.553309548638,-1297.0836941342077,3576.4742260089429,0.0
603523.2936376977,3712751.2368613081,-7500.0,2051.9884247436748,-2163.1396589857823,816.09495409054352,359.87127625048106,-233.89572616424425,37.145106974409671,2275.0259955269839,1097.4901674128789,-1424.9901377508952,1424.9901377508952,-1097.4901674128789,4205.5983826963175,0.0
608523.2936376977,3712751.2368613081,-7500.0,2062.0558480712089,-2583.77361218634,1735.0503802675389,406.34583153276532,-355.37108512295788,48.708374984218459,2621.5203261591932,775.89040494853214,-1163.4602793560839,1163.4602793560839,-775.89040494853214,4940.0404711903948,0.0
613523.2936376977,3712751.2368613081,-7500.0,1975.7853100655984,-2934.4753820998903,2832.5770829725166,441.46377987831488,-495.92401662093158,61.618897031027338,3006.5501514046955,327.95376922117214,-726.5219084288716,726.5219084288716,-327.95376922117214,5761.4318737308677,0.0
618523.2936376977,3712751.2368613081,-7500.0,1792.706997292564,-3166.7446952058963,4080.7808052549885,459.68877751219077,-651.51986907789433,75.466708309685629,3417.2941147975871,-235.64406645960241,-97.304509319528833,97.304509319528833,235.64406645960241,6641.2017073535017,0.0
623523.2936376977,3712751.2368613081,-7500.0,1526.5709223351482,-3233.6184193192594,5426.9846672942285,455.95891157090239,-815.47782694284081,89.651534812878609,3836.1413348113124,-885.94291568422568,722.23913366387592,-722.23913366387592,885.94291568422568,7541.2278130755694,0.0
628523.2936376977,3712751.2368613081,-7500.0,1206.3876019537461,-3098.3614651447747,6794.4436503504421,426.63197099048273,-978.68621441625373,103.41302950624882,4241.7589143261639,-1575.5049998014324,1705.5456125502369,-1705.5456125502369,1575.5049998014324,8415.786533607099,0.0
633523.2936376977,3712751.2368613081,-7500.0,873.93256474640373,-2743.4749738493633,8088.462088065342,370.40351040793024,-1130.3657669382633,115.89753350686468,4613.1514048237805,-2242.5228613851655,2799.3909786088384,-2799.3909786088384,2242.5228613851655,9215.0779076030212,0.0
638523.2936376977,3712751.2368613081,-7500.0,577.46072497781586,-2177.4746687560505,9207.906007075544,288.94206252278718,-1259.3447285065261,126.25531497801303,4971.3208582232355,-2819.3110151894007,3927.3826445791556,-3927.3826445791556,2819.3110151894007,9890.1351594730495,0.0
643523.2936376977,3712751.2368613081,-7500.0,362.74446934635142,-1436.945225216012,10060.215328338178,187.00885288663073,-1355.6332703216253,133.75203193331532,5249.1922458246572,-3243.6786986595162,4999.3531177761342,-4999.3531177761342,3243.6786986595162,10398.394224635185,0.0
648523.2936376977,3712751.2368613081,-7500.0,263.77682836625013,-582.53155375645542,10576.417198414254,71.953161950535815,-1411.9468990599867,137.87114614542952,5423.289773704766,-3470.3301216487816,5925.0095355746453,-5925.0095355746453,3470.3301216487816,10708.835912798995,0.0
653523.2936376977,3712751.2368613081,-7500.0,295.89341709057732,310.54103210976797,10722.220369941964,-47.338829179933299,-1424.8059692953009,138.38519760450319,5485.070193214895,-3479.0815109579544,6628.5258099450239,-6628.5258099450239,3479.0815109579544,10805.627284133896,0.0
658523.2936376977,3712751.2368613081,-7500.0,453.33895518881991,1164.9753079468549,10502.248166416419,-161.79159280311475,-1394.935770931857,135.37895992058409,5434.6493025535692,-3277.5843362091205,7060.2204029808963,-7060.2204029808963,3277.5843362091205,10689.452530288785,0.0
663523.2936376977,3712751.2368613081,-7500.0,711.74994692779148,1913.5691986204527,9956.7033772170034,-263.44904323240661,-1326.9065798412325,129.222535406726,5280.1922053648668,-2898.1060191887141,7202.4755197844297,-7202.4755197844297,2898.1060191887141,10376.388656392641,0.0
668523.2936376977,3712751.2368613081,-7500.0,1034.3877860942296,2508.0788813334084,9152.0021189061245,-346.44794653430381,-1228.1615529907847,120.50256318989443,5036.3028861569164,-2389.791590529333,7069.0073649677734,-7069.0073649677734,2389.791590529333,9894.7469096277928,0.0
673523.2936376977,3712751.2368613081,-7500.0,1379.9748867919081,2923.2119478894424,8168.3714166048148,-407.4907623578614,-1107.7216785945591,109.93007762912514,4721.7771225324632,-1808.9491464751754,6698.6301625772157,-6698.6301625772157,1808.9491464751754,9280.7166442706111,0.0
678523.2936376977,3712751.2368613081,-7500.0,1709.9454802385296,3155.8337231605569,7087.6041472200677,-445.81281848737996,-974.88381727682656,98.245661791600028,4357.2020192774626,-1209.940645746869,6145.9215150284217,-6145.9215150284217,1209.940645746869,8573.7542876062798,0.0
683523.2936376977,3712751.2368613081,-7500.0,1993.6125621765696,3220.6902965042291,5983.3570912268206,-462.76350140650436,-838.15818840261579,86.139001569639035,3962.8200035450463,-638.47152442807555,5471.4173378062023,-5471.4173378062023,638.47152442807555,7812.5133326792466,0.0
688523.2936376977,3712751.2368613081,-7500.0,2210.7094045594749,3144.4320627938791,4915.1036957339702,-461.17881797501121,-704.57220836335921,74.193064338685446,3556.9141137688298,-127.96986974688571,4733.3424526503704,-4733.3424526503704,127.96986974688571,7031.7932163197775,0.0
693523.2936376977,3712751.2368613081,-7500.0,2351.5638953464563,2959.5484262744294,3925.7076507258557,-444.71459706303796,-579.35295314118662,62.855426394528067,3154.8062639733025,301.1838213397557,3981.9184565330597,-3981.9184565330597,-301.1838213397557,6260.6640683389405,0.0
698523.2936376977,3712751.2368613081,-7500.0,2415.6160457077199,2699.299346369834,3041.8590466279202,-417.26334455046111,-465.92276597273309,52.433171391936284,2768.4755111073832,640.35246250248019,3256.404695387329,-3256.404695387329,-640.35246250248019,5521.6817528905867,0.0
583523.2936376977,3717751.2368613081,-7500.0,1271.0741531762067,-633.8981502785648,-812.95607568243167,149.24888447753418,21.23344899287515,7.5966636272838173,1228.0884961760491,1155.3073746912685,-1191.220639426507,1191.220639426507,-1155.3073746912685,2140.1147027887505,0.0
588523.2936376977,3717751.2368613081,-7500.0,1449.072200822166,-946.18438896644409,-526.23444702765664,188.81878627926042,-21.379513892244717,12.173058689997633,1378.2955348142837,1170.8842648648827,-1269.3100396527773,1269.3100396527773,-1170.8842648648827,2433.5822601109285,0.0
593523.2936376977,3717751.2368613081,-7500.0,1597.8671304052391,-1287.8403353063352,-127.93106729856443,230.38912761196869,-77.080712536021693,17.824366607932177,1563.7241847895655,1126.8640007840497,-1294.4952829224683,1294.4952829224683,-1126.8640007840497,2810.8254210099926,0.0
598523.2936376977,3717751.2368613081,-7500.0,1703.0370624140346,-1644.374434095236,397.74946245507545,271.9511138115588,-147.27016881745698,24.620929302138045,1786.562168462006,1008.266246943222,-1244.3540326466969,1244.3540326466969,-1008.266246943222,3275.496945453252,0.0
603523.2936376977,3717751.2368613081,-7500.0,1750.7722384663664,-1994.5053963510463,1061.4021336830601,310.78756647590512,-232.65994619618232,32.56950019620178,2046.2994469822142,802.53682974025651,-1095.0276722716305,1095.0276722716305,-802.53682974025651,3824.8252514053752,0.0
608523.2936376977,3717751.2368613081,-7500.0,1730.1947720718072,-2310.3441148273719,1864.8018474020027,343.54704270843837,-332.90496742482031,41.587897943460149,2339.2613086435376,502.38833988120393,-823.99039517000813,823.99039517000813,-502.38833988120393,4449.3180739539457,0.0
613523.2936376977,3717751.2368613081,-7500.0,1636.0826723701803,-2558.9266513814282,2797.1419844328566,366.46386884942189,-446.24531969862568,51.482973817056774,2658.3436897137303,108.92255620173822,-413.91746995431845,413.91746995431845,-108.92255620173822,5132.5858926767587,0.0
618523.2936376977,3717751.2368613081,-7500.0,1471.4786182720864,-2705.400992773049,3831.9562324973394,375.74329451883352,-569.24602059322638,61.938128286379595,2993.0068706910256,-365.61759864519189,142.73877849324811,-142.73877849324811,365.61759864519189,5851.4189299883938,0.0
623523.2936376977,3717751.2368613081,-7500.0,1249.4261960839838,-2717.8014165400682,4925.7841194120301,368.09055480954629,-696.73547961587758,72.516471366665868,3329.6272667143821,-896.35040972459797,839.30053261252033,-839.30053261252033,896.35040972459797,6576.4422027860719,0.0
628523.2936376977,3717751.2368613081,-7500.0,993.02624387369906,-2572.8068859901864,6019.6159314731403,341.31085101555448,-822.03279379433286,82.684663447535655,3652.3642047417507,-1446.4021238666091,1651.7446766075182,-1651.7446766075182,1446.4021238666091,7273.6468248035917,0.0
633523.2936376977,3717751.2368613081,-7500.0,733.25503718103084,-2261.3118089420273,7043.715541988754,294.85738644322976,-937.50495835793276,91.85839875495607,3963.5044048070549,-1970.2460437976374,2538.1917445333288,-2538.1917445333288,1970.2460437976374,7906.8939636791729,0.0
638523.2936376977,3717751.2368613081,-7500.0,504.56580555671172,-1792.3036759108991,7925.5657803266176,230.18126242199997,-1035.4111263069253,99.464522039215126,4252.7158896202345,-2419.5781587171005,3441.884504888676,-3441.884504888676,2419.5781587171005,8441.1989985076943,0.0
643523.2936376977,3717751.2368613081,-7500.0,339.05134755808513,-1193.6940259540804,8599.6674244423339,150.76029030289845,-1108.9000062591144,105.01060261358109,4474.1542010607282,-2750.7120866260329,4297.6717446441999,-4297.6717446441999,2750.7120866260329,8846.3412623605946,0.0
648523.2936376977,3717751.2368613081,-7500.0,260.5649089252725,-509.45004362361573,9017.0967382570943,61.755595156390491,-1152.9556393123746,108.14816355609324,4616.0237000563147,-2931.7936439485698,5040.9092544204505,-5040.9092544204505,2931.7936439485698,9100.1484627795417,0.0
653523.2936376977,3717751.2368613081,-7500.0,280.36843322572156,206.55424791126657,9152.5748503825871,-30.653037304290429,-1165.0818165980481,108.71656998229858,4672.0561235531532,-2948.0047585282555,5616.825776528849,-5616.825776528849,2948.0047585282555,9190.8379133548169,0.0
658523.2936376977,3717751.2368613081,-7500.0,395.46425057208063,898.55249033885195,9007.3603268385432,-120.11091245438317,-1145.5693654293361,106.75871832724836,4641.8651653300685,-2803.4367395329496,5988.1328894350409,-5988.1328894350409,2803.4367395329496,9117.9418781698187,0.0
663523.2936376977,3717751.2368613081,-7500.0,589.92462976667116,1516.830429792451,8607.5115707032382,-200.92163764552328,-1097.3088684886318,102.50626987772505,4530.6718315271028,-2519.3304177224418,6139.2083608381945,-6139.2083608381945,2519.3304177224418,8891.731469196453,0.0
668523.2936376977,3717751.2368613081,-7500.0,838.63008564016968,2023.8346802642857,7998.2634079379695,-268.69682510863998,-1025.2188921909103,96.33924891379877,4348.3424668927219,-2129.4018318801354,6076.198828155304,-6076.198828155304,2129.4018318801354,8531.3194130107731,0.0
673523.2936376977,3717751.2368613081,-7500.0,1112.2305188375183,2397.3956247689111,7236.2009356696217,-320.71586994583981,-935.45067627316018,88.729958122135301,4107.9833473738599,-1673.675208619818,5823.5633757408505,-5823.5633757408505,1673.675208619818,8061.9322420471835,0.0
678523.2936376977,3717751.2368613081,-7500.0,1382.026759840749,2630.9238983527894,6381.1068203554578,-355.97567104979993,-834.54964350494879,80.183467519509563,3824.3696957406719,-1192.3580591887549,5418.3456916554915,-5418.3456916554915,1192.3580591887549,7511.888796307343,0.0
683523.2936376977,3717751.2368613081,-7500.0,1623.7747833323644,2731.1950701166593,5489.0387331797274,-374.98487396433831,-728.72843186307409,71.184322007352009,3512.4750455592211,-720.94996918088873,4903.7313004673942,-4903.7313004673942,720.94996918088873,6909.792353177857,0.0
688523.2936376977,3717751.2368613081,-7500.0,1819.9265495212069,2714.7190646375507,4607.5219600648552,-379.39806599698989,-623.34451176890843,62.157398473053185,3186.2823409326138,-287.185107290215,4323.2053275091694,-4323.2053275091694,287.185107290215,6282.2760523349616,0.0
693523.2936376977,3717751.2368613081,-7500.0,1960.3082623301507,2603.7064386643701,3773.0578628230796,-371.59180298340306,-522.61018349103517,53.44420560371109,2857.9656916902127,90.15704727897446,3716.1301256456345,-3716.1301256456345,-90.15704727897446,5652.4619391884025,0.0
588523.2936376977,3722751.2368613081,-7500.0,1310.8229309021403,-976.00342393682615,-243.30507536585361,174.71403813828209,-42.502536044927773,11.864301461184679,1257.2043869810755,972.49137041123947,-1088.6344592611276,1088.6344592611276,-972.49137041123947,2244.6830129342788,0.0
593523.2936376977,3722751.2368613081,-7500.0,1414.2899999402803,-1260.1400187113245,139.08021844584886,207.36723800536066,-92.102531687959569,16.54570705837288,1424.4995475978524,903.91493652678673,-1074.2361626047098,1074.2361626047098,-903.91493652678673,2591.4749939540679,0.0
598523.2936376977,3722751.2368613081,-7500.0,1478.9316576408173,-1547.4927040692442,624.46225122277565,239.03880981157891,-152.81801847779803,22.058640002183672,1620.8753011522733,772.90714804309982,-992.10049347311133,992.10049347311133,-772.90714804309982,3005.5653775895862,0.0
603523.2936376977,3722751.2368613081,-7500.0,1495.5760850558395,-1820.1103562802666,1217.5770176896856,267.58579261581855,-224.82356364926306,28.383310247836718,1844.8096909449609,572.06668563306675,-825.14330556660229,825.14330556660229,-572.06668563306675,3482.3710884286429,0.0
608523.2936376977,3722751.2368613081,-7500.0,1457.9185502934379,-2055.870847680771,1915.8004249387734,290.4943806989092,-307.47169541731341,35.435531846565254,2092.4830390327161,298.63477737679347,-558.40881892923016,558.40881892923016,-298.63477737679347,4012.6095316101137,0.0
613523.2936376977,3722751.2368613081,-7500.0,1364.3112481161502,-2229.9501707776271,2706.810693112307,305.06420152679192,-399.08356600290142,43.054655194648895,2357.6760553309432,-43.517877679480804,-181.84894759402408,181.84894759402408,43.517877679480804,4582.230773152085,0.0
618523.2936376977,3722751.2368613081,-7500.0,1219.3034343243853,-2317.332382125453,3566.9388445700347,308.69088912089393,-496.82232434490419,50.998456689242808,2631.8461898254623,-442.34867882153765,306.64341545682646,-306.64341545682646,442.34867882153765,5172.5755909789914,0.0
623523.2936376977,3722751.2368613081,-7500.0,1034.4603278743907,-2296.2101931520515,4460.8516382552716,299.22453547311193,-596.70785496956694,58.948602459934001,2904.4488125045868,-877.08553064143564,898.53275817923861,-898.53275817923861,877.08553064143564,5760.971788791373,0.0
628523.2936376977,3722751.2368613081,-7500.0,828.01314406353185,-2151.8048943406584,5343.1174829803913,275.35208623642586,-693.81802613926573,66.528665434734648,3163.7382982522454,-1319.1338858369174,1573.0167165466903,-1573.0167165466903,1319.1338858369174,6321.9148412700115,0.0
633523.2936376977,3722751.2368613081,-7500.0,623.08851662199015,-1879.8423253679614,6161.8924228212836,236.92738705955935,-782.68963692249145,73.334964614697526,3432.0831304479252,-1734.6751907657358,2297.1985001503599,-2297.1985001503599,1734.6751907657358,6828.8497764094072,0.0
638523.2936376977,3722751.2368613081,-7500.0,444.62514598373906,-1488.7898486407698,6864.4429259644512,185.16471246200774,-857.88307519411853,78.976776500023789,3663.6865968614597,-2088.7532351817863,3028.4812340900789,-3028.4812340900789,2088.7532351817863,7256.4032844432977,0.0
643523.2936376977,3722751.2368613081,-7500.0,315.50642851214167,-1000.1032193204962,7403.6498152953745,122.6294260781244,-914.6241224633402,83.120139787099674,3841.9754257639784,-2350.1651200115662,3719.081954339164,-3719.081954339164,2350.1651200115662,7582.7641745522897,0.0
648523.2936376977,3722751.2368613081,-7500.0,252.759568290327,-446.16710909949899,7744.2296658200976,53.002445831250235,-949.40350965789048,85.527170399677743,3958.5144456462567,-2496.1293298247701,4321.9537556762953,-4321.9537556762953,2496.1293298247701,7791.8310764026392,0.0
653523.2936376977,3722751.2368613081,-7500.0,264.74035750172573,133.78311398420198,7867.3348167211425,-19.348843424116826,-960.4108566039846,86.083713807101532,4008.6111705351846,-2515.6530283016018,4796.9296332603253,-4796.9296332603253,2515.6530283016018,7874.7443549350482,0.0
658523.2936376977,3722751.2368613081,-7500.0,349.98074105229233,698.91272355682395,7772.5573294500855,-89.909686898830373,-947.71606335599233,84.809659597851706,3991.6743933719131,-2410.8317192651884,5115.7841019970174,-5115.7841019970174,2410.8317192651884,7830.5425754073458,0.0
663523.2936376977,3722751.2368613081,-7500.0,497.90724437642461,1212.0709855610562,7477.0157250002867,-154.55777334757596,-913.17047035135045,81.851092467960171,3911.078055442249,-2195.8698606153921,5265.1912634638438,-5265.1912634638438,2195.8698606153921,7665.8601856442292,0.0
668523.2936376977,3722751.2368613081,-7500.0,691.12618622264176,1644.0313794572698,7011.9213108424283,-210.00053233138914,-860.06577574154164,77.456245144823484,3773.5773744336802,-1894.2042384047959,5247.1366427306839,-5247.1366427306839,1894.2042384047959,7393.7731498981457,0.0
673523.2936376977,3722751.2368613081,-7500.0,908.60609204310038,1975.9929009444093,6417.5685909571039,-254.0418619806448,-792.63879400540657,71.941312463922387,3588.4150487928259,-1534.5350363078924,5077.0033629029631,-5077.0033629029631,1534.5350363078924,7032.0633581221273,0.0
678523.2936376977,3722751.2368613081,-7500.0,1128.9742146950168,2200.1530377266986,5737.8696832448013,-285.657107360022,-715.52704081128218,65.652585852726816,3366.2812579508604,-1146.6885846520213,4780.0300526964056,-4780.0300526964056,1146.6885846520213,6601.2169725567392,0.0
683523.2936376977,3722751.2368613081,-7500.0,1333.2744488708097,2318.6304037598561,5015.449582443619,-304.89976386775226,-633.27288692393768,58.931530088610756,3118.3005467703038,-758.09480872307859,4387.0725014644668,-4387.0725014644668,758.09480872307859,6122.4875246760794,0.0
688523.2936376977,3722751.2368613081,-7500.0,1506.8008894289912,2341.286801447357,4287.9441628486302,-312.69084042780827,-549.93996345836592,52.087088768927551,2855.1637260800762,-391.34261260905873,3930.5102962902756,-3930.5102962902756,391.34261260905873,5616.2458890042844,0.0
598523.2936376977,3727751.2368613081,-7500.0,1283.8394421244195,-1438.4472801897621,782.13625416229991,209.21623159802161,-152.56360185329399,19.601880991174017,1473.8768272949751,582.99201630104744,-779.62857463025807,779.62857463025807,-582.99201630104744,2761.2069229250169,0.0
603523.2936376977,3727751.2368613081,-7500.0,1280.6011001994345,-1649.6881994798953,1308.1127556606027,230.10195667437068,-213.13089642270933,24.642539353151683,1666.6260936674867,393.28779189212196,-606.55895473728663,606.55895473728663,-393.28779189212196,3173.6841102864037,0.0
608523.2936376977,3727751.2368613081,-7500.0,1234.468529801997,-1824.5365053490848,1912.8975130303024,245.9536641947596,-281.31175106786174,30.177071291972709,1876.2429281729824,148.01098733403998,-352.19745202178501,352.19745202178501,-148.01098733403998,3623.9893665331469,0.0
613523.2936376977,3727751.2368613081,-7500.0,1145.8108392280046,-1944.3774607000389,2584.2034598011255,254.83652699211177,-355.60465071017308,36.075133445889762,2097.4334040663775,-147.76578711073631,-11.182215832011778,11.182215832011778,147.76578711073631,4100.3319884996808,0.0
618523.2936376977,3727751.2368613081,-7500.0,1019.5969876223414,-1991.2479703482916,3301.550292120809,254.95929450156044,-433.70757541245354,42.152464577767553,2323.3226350193795,-483.01459583422138,415.54311710926686,-415.54311710926686,483.01459583422138,4587.7790253655448,0.0
623523.2936376977,3727751.2368613081,-7500.0,865.72038934449779,-1950.2402850810906,4036.4306790391479,244.91659768512685,-512.56258693791847,48.176374920226522,2545.7248559690229,-840.66937048004058,919.10696453113508,-919.10696453113508,840.66937048004058,5068.7673373533071,0.0
628523.2936376977,3727751.2368613081,-7500.0,698.51980984415866,-1812.0457414703992,4753.7484819359915,223.93412267107476,-588.52127449492173,53.879194412091678,2768.3634520994565,-1198.5365714292752,1481.9169998213388,-1481.9169998213388,1198.5365714292752,5524.0064143651371,0.0
633523.2936376977,3727751.2368613081,-7500.0,535.3942949483328,-1575.1427014430485,5414.5933113047831,192.06902104960335,-657.63145740163429,58.979246062416962,2989.5409449962276,-1531.2733553610528,2078.097842553384,-2078.097842553384,1531.2733553610528,5933.7518228757826,0.0
638523.2936376977,3727751.2368613081,-7500.0,394.62990595473576,-1247.0923602414121,5980.1105674250484,150.31689042039008,-716.0186487211156,63.207140871569329,3176.761973889194,-1813.2500874665091,2675.3603594199167,-2675.3603594199167,1813.2500874665091,6279.3425131554113,0.0
643523.2936376977,3727751.2368613081,-7500.0,292.7960417379719,-844.51847788783107,6415.8915137718604,100.58879899840262,-760.30609966590112,66.333485985553025,3321.7122821510379,-2021.8390924931343,3238.1771800230645,-3238.1771800230645,2021.8390924931343,6544.8009971284791,0.0
648523.2936376977,3727751.2368613081,-7500.0,242.23857033828702,-391.61914545251329,6696.1002386919499,45.548071243866531,-788.00150431394513,68.193990096047486,3418.1816237765856,-2140.4944516806481,3731.7928512926574,-3731.7928512926574,2140.4944516806481,6718.2617731974842,0.0
653523.2936376977,3727751.2368613081,-7500.0,249.22103115167545,82.592807264878559,6806.5320977188512,-11.67198217659587,-797.7781253831929,68.706811234445993,3462.613669852356,-2160.9768793632556,4126.3389068176884,-4126.3389068176884,2160.9768793632556,6792.9982284858415,0.0
658523.2936376977,3727751.2368613081,-7500.0,313.12116992854652,547.80129507688309,6746.0114998517956,-67.819252560640621,-789.59824439638987,67.879625146671998,3454.3630688232688,-2084.2612525384011,4400.2586145385658,-4400.2586145385658,2084.2612525384011,6767.8864253479251,0.0
663523.2936376977,3727751.2368613081,-7500.0,426.82042425453392,975.96196107640878,6525.9202027589145,-119.87842541720481,-764.66177108845386,65.80532016108188,3395.6298594364616,-1919.9864588362643,4542.4139681344777,-4542.4139681344777,1919.9864588362643,6647.2518973247234,0.0
668523.2936376977,3727751.2368613081,-7500.0,578.12564089787679,1344.2716954458276,6168.0613449339608,-165.36821240937473,-725.19903868854942,62.647692905304268,3291.0971845098879,-1684.6518876148332,4552.5690700887053,-4552.5690700887053,1684.6518876148332,6440.1527407315607,0.0
673523.2936376977,3727751.2368613081,-7500.0,751.83818841904269,1637.0728949743259,5701.4086853960089,-202.53666774402436,-674.15835413578077,58.620231629346137,3147.3548766053204,-1399.0280457647866,4440.339690910947,-4440.339690910947,1399.0280457647866,6159.2601132064601,0.0
678523.2936376977,3727751.2368613081,-7500.0,931.99368551557927,1846.5175990316993,5158.4132187147197,-230.43664198917199,-614.84934170581039,53.962032731628931,2972.2036259233082,-1085.3427612444436,4222.9869598068281,-4222.9869598068281,1085.3427612444436,5819.5185187001734,0.0
608523.2936376977,3732751.2368613081,-7500.0,1050.7143420711989,-1617.3285387854612,1873.9960954669223,208.67706892418511,-255.76755315578797,25.713164684451186,1686.3832307428838,37.627255849836885,-193.18661423447423,193.18661423447423,-37.627255849836885,3278.1746923869405,0.0
613523.2936376977,3732751.2368613081,-7500.0,969.12816397049096,-1697.7586731135468,2444.4933805508485,213.70643126058695,-316.25090078178846,30.30543432464685,1871.6088533556001,-217.25141297391892,112.8957461258187,-112.8957461258187,217.25141297391892,3677.9621788795607,0.0
618523.2936376977,3732751.2368613081,-7500.0,860.0402971609775,-1717.0568720115498,3045.071520413288,211.72342471878568,-379.02834130851784,34.988122889758444,2058.791726352104,-499.45790291671653,484.83472008583885,-484.83472008583885,499.45790291671653,4082.6655606218155,0.0
623523.2936376977,3732751.2368613081,-7500.0,731.74447073387125,-1665.0192897357367,3652.8078299445247,201.80901258048846,-441.74841971437672,39.590460476110437,2241.6287500586013,-795.09285749346486,914.18629731558212,-914.18629731558212,795.09285749346486,4478.6144484590841,0.0
628523.2936376977,3732751.2368613081,-7500.0,595.5170444851733,-1535.8549679890368,4240.4636271486434,183.51834602255943,-501.68818670984069,43.920583960311959,2437.9470829300039,-1086.8812497780425,1386.2670371748256,-1386.2670371748256,1086.8812497780425,4851.0921850296791,0.0
633523.2936376977,3732751.2368613081,-7500.0,464.55308751139523,-1329.574788857266,4778.5614796882319,157.00352278701706,-555.95848513668591,47.779898872433108,2618.3452790479409,-1355.6636732561067,1880.6600389990838,-1880.6600389990838,1355.6636732561067,5185.2539493786444,0.0
638523.2936376977,3732751.2368613081,-7500.0,352.42393626538092,-1052.7410016780057,5238.1199080528104,123.0721485165042,-601.76405254436418,50.980382441191573,2771.0942679634409,-1582.4176022855581,2372.6527412767928,-2372.6527412767928,1582.4176022855581,5467.1972652712502,0.0
643523.2936376977,3732751.2368613081,-7500.0,271.2975315425424,-718.33616805829183,5593.6638165726772,83.161748057896958,-636.68294058934021,53.362612276543899,2890.0087923200872,-1750.5033889280639,2835.4947502387058,-2835.4947502387058,1750.5033889280639,5685.0568729123252,0.0
648523.2936376977,3732751.2368613081,-7500.0,230.25418732945127,-344.67890319212432,5826.0116028268185,39.225357418452688,-658.92029867975521,54.811642579232682,2970.448518891661,-1847.733597167995,3243.1591567825335,-3243.1591567825335,1847.733597167995,5829.9716521891978,0.0
653523.2936376977,3732751.2368613081,-7500.0,234.03648019319417,46.476780856474825,5924.3453526168869,-6.4573521720342599,-667.4936165958768,55.268334948904389,3009.6894335535785,-1867.8699275498996,3573.1486085058132,-3573.1486085058132,1867.8699275498996,5896.7845158683331,0.0
658523.2936376977,3732751.2368613081,-7500.0,282.48331886331238,432.33481347468847,5887.1976496607631,-51.513131492104115,-662.31787250982154,54.734077085125328,3007.1063923856891,-1811.2634186320431,3808.8529183732235,-3808.8529183732235,1811.2634186320431,5884.3740329717384,0.0
663523.2936376977,3732751.2368613081,-7500.0,370.73981790771415,791.51398974262918,5722.2147913724421,-93.712995060171963,-644.17908254019721,53.26847782208079,2964.1432444245943,-1684.5433272340799,3941.0600188572398,-3941.0600188572398,1684.5433272340799,5795.5795232234514,0.0
668523.2936376977,3732751.2368613081,-7500.0,490.15700354106315,1106.1496555592885,5444.8075922291382,-131.17657493849995,-614.60665774827407,50.980735437225675,2884.0850590406199,-1499.4670710005132,3968.4156412604143,-3968.4156412604143,1499.4670710005132,5636.7499767078825,0.0
628523.2936376977,3737751.2368613081,-7500.0,512.55292181082677,-1309.7579923549965,3793.0661631835087,151.49329550014306,-429.75559914311503,36.033137622363661,2156.5973332711301,-984.9642911726869,1290.8557229839093,-1290.8557229839093,984.9642911726869,4280.3488140212676,0.0
633523.2936376977,3737751.2368613081,-7500.0,406.56236740902017,-1129.9965065905274,4234.8262827270319,129.34491762576468,-472.76606009763043,38.981640757126499,2304.9671747884436,-1203.8761178947116,1703.6730995094031,-1703.6730995094031,1203.8761178947116,4555.1406244316649,0.0
638523.2936376977,3737751.2368613081,-7500.0,316.42509074188865,-895.04807867842339,4611.5668272034227,101.570924673839,-509.04807798138427,41.428310340724508,2430.6684391141443,-1387.8706285772143,2112.173530898001,-2112.173530898001,1387.8706285772143,4787.1378608896484,0.0
643523.2936376977,3737751.2368613081,-7500.0,251.19331225144342,-615.13093929440697,4904.1858863507223,69.262788019005967,-536.84157754629791,43.260864738311462,2529.0421826928291,-1524.5532735377478,2495.9789911059211,-2495.9789911059211,1524.5532735377478,4967.4169130984019,0.0
648523.2936376977,3737751.2368613081,-7500.0,217.6337579142787,-304.27942605084974,5098.2606631004955,33.870661846518743,-554.83714404755028,44.398004447692223,2596.5780766001967,-1604.8301536043468,2835.3547393201393,-2835.3547393201393,1604.8301536043468,5089.2790289996628,0.0
633523.2936376977,3517751.2368613081,-12500.0,358.12541592881445,896.64142032595703,5291.226986898957,172.75915806633708,952.73562307009524,125.64115799062131,2832.4404903908653,-1320.8635578094709,3851.3661454862686,-3851.3661454862686,1320.8635578094709,5546.2562770014483,0.0
638523.2936376977,3517751.2368613081,-12500.0,255.93907833857415,557.61335407216654,5496.2987325485492,109.58598517592081,985.76546664071952,129.24443363072356,2888.5531600768377,-1505.0846596887627,3781.512283828341,-3781.512283828341,1505.0846596887627,5659.0964147136419,0.0
643523.2936376977,3517751.2368613081,-12500.0,191.68217519341974,183.4303462788796,5581.3631309419834,40.565713933070462,999.1664811547812,130.52832206899566,2906.0914955597555,-1629.4373190530227,3606.0518786270191,-3606.0518786270191,1629.4373190530227,5699.3752407175671,0.0
648523.2936376977,3517751.2368613081,-12500.0,172.29132441222916,-205.68513335081499,5534.8588717605189,-30.934088677384544,991.16137719893004,129.30622030228713,2882.7536081576632,-1682.7174735514623,3329.4858195471456,-3329.4858195471456,1682.7174735514623,5662.7273858178924,0.0
653523.2936376977,3517751.2368613081,-12500.0,200.19136734766832,-586.92406790901089,5353.8647493923927,-101.14202732433057,961.30958775939177,125.54074712264641,2818.2408263428028,-1659.2597761023458,2964.2899718982367,-2964.2899718982367,1659.2597761023458,5548.6146056834668,0.0
658523.2936376977,3517751.2368613081,-12500.0,272.68469139622272,-937.28504182256415,5044.964892318304,-166.25514983695987,910.63544387537399,119.35638667803875,2714.3966393226956,-1559.9478013381436,2530.020770999115,-2530.020770999115,1559.9478013381436,5360.6059663371452,0.0
663523.2936376977,3517751.2368613081,-12500.0,382.13239672319008,-1236.1459194203301,4623.8866727932818,-222.83792585909677,841.57493406989772,111.03273417714391,2575.1306274816488,-1392.3082166102677,2051.3831705307207,-2051.3831705307207,1392.3082166102677,5106.2508803723849,0.0
668523.2936376977,3517751.2368613081,-12500.0,516.9358750557202,-1467.5535424150521,4113.9072970952229,-268.17983439399973,757.74003706179099,100.97870027564367,2406.1268508120011,-1169.6230769228569,1555.555656295393,-1555.555656295393,1169.6230769228569,4796.5426313426033,0.0
673523.2936376977,3517751.2368613081,-12500.0,663.13743125596352,-1621.813885179163,3543.2886346635109,-300.54962465465275,663.53777962544427,89.691199860807401,2230.5810648868237,-909.21508380000773,1069.2415120348001,-1069.2415120348001,909.21508380000773,4445.0423629392199,0.0
678523.2936376977,3517751.2368613081,-12500.0,806.31589230897782,-1696.1235777127922,2942.2051129504716,-319.30649642312699,563.71047790228749,77.705594013809332,2058.2640074715137,-630.24448917217182,615.96831419366913,-615.96831419366913,630.24448917217182,4066.7936521411539,0.0
683523.2936376977,3517751.2368613081,-12500.0,933.40140439711104,-1694.2022139284095,2339.7034567473875,-324.86002167750144,462.8749249453864,65.545816645985198,1880.5137791462671,-351.4432588144752,214.07175053725706,-214.07175053725706,351.4432588144752,3677.1797606801597,0.0
618523.2936376977,3522751.2368613081,-12500.0,941.71253404321658,1848.714387837367,4570.745023321876,372.3267568936576,880.91149850266856,125.03420354745437,2780.4648203804604,-541.65120664404458,3900.3352448712267,-3900.3352448712267,541.65120664404458,5458.7291568707196,0.0
623523.2936376977,3522751.2368613081,-12500.0,762.28549852191043,1679.9519398231193,5112.5196871401631,335.58358931502511,973.5034731750261,136.21447478954491,2959.6885641699132,-864.56041582406692,4168.3155277346586,-4168.3155277346586,864.56041582406692,5804.1148875582021,0.0
628523.2936376977,3522751.2368613081,-12500.0,583.22257599964678,1427.5672174719191,5595.0132689669235,284.0715522112975,1055.3101558013434,145.9458781382574,3111.8435025321187,-1179.8113835266895,4344.7538381617569,-4344.7538381617569,1179.8113835266895,6098.9973882221211,0.0
633523.2936376977,3522751.2368613081,-12500.0,420.40099978901134,1095.7331715019068,5985.8403953121424,218.69996671082569,1121.0609367814488,153.61790355580592,3228.9191959407135,-1465.4628311930508,4408.893850668841,-4408.893850668841,1465.4628311930508,6328.1726815212041,0.0
638523.2936376977,3522751.2368613081,-12500.0,289.95302564135301,696.37844802549444,6254.213346560271,141.65966072142595,1165.7932534909319,158.66514871471523,3303.7528452321812,-1698.8684964920039,4345.9656194492145,-4345.9656194492145,1698.8684964920039,6478.0340917590265,0.0
643523.2936376977,3522751.2368613081,-12500.0,206.05609206647216,249.15308988260301,6374.6030396961569,56.400210674582404,1185.4247365896974,160.63131020486253,3330.7473702163275,-1859.3819831862031,4149.8908165218336,-4149.8908165218336,1859.3819831862031,6537.9438596290083,0.0
648523.2936376977,3522751.2368613081,-12500.0,178.64583717081172,-219.8408043517193,6330.3443583618136,-32.586688780040419,1177.3102523242687,159.23013110576392,3306.5336028009178,-1931.258894842982,3825.1653932246118,-3825.1653932246118,1931.258894842982,6501.5048366411465,0.0
653523.2936376977,3522751.2368613081,-12500.0,211.53378390949038,-680.55075113359317,6116.4882527200771,-120.17450481366866,1140.6791091092523,154.39211632387929,3230.468219094631,-1906.1996037518679,3387.3906366688966,-3387.3906366688966,1906.1996037518679,6367.5263323811587,0.0
658523.2936376977,3522751.2368613081,-12500.0,301.40596308105609,-1102.3979003671975,5741.2312463007138,-201.15073442675688,1076.852960212175,146.28656738635172,3104.8679671572513,-1784.9494660981047,2862.1423076421297,-2862.1423076421297,1784.9494660981047,6140.492544522047,0.0
663523.2936376977,3522751.2368613081,-12500.0,438.02033544507066,-1458.0310989839259,5225.4902583922594,-270.81645161142063,989.18080283284371,135.31249092881509,2934.9220478298639,-1577.522312616049,2282.2305563609684,-2282.2305563609684,1577.522312616049,5830.4141957153861,0.0
668523.2936376977,3522751.2368613081,-12500.0,605.63752620031039,-1726.6753407124631,4600.5921008720788,-325.52461285513743,882.68654618371409,122.058509708068,2728.501517428946,-1301.9185921425656,1683.8028469309729,-1683.8028469309729,1301.9185921425656,5452.0560852646786,0.0
673523.2936376977,3522751.2368613081,-12500.0,785.39896366161088,-1896.4018230987713,3904.4844823959652,-363.05439101995654,763.48872853153421,107.2381261794599,2529.1609896449058,-981.57839348639936,1102.037137340445,-1102.037137340445,981.57839348639936,5023.6469277302849,0.0
678523.2936376977,3522751.2368613081,-12500.0,958.12382842493423,-1964.9121732487135,3177.2205682342055,-382.75744520696043,638.10322430908047,91.612185376850462,2320.2821443202433,-642.1209283868393,567.26306408082223,-567.26306408082223,642.1209283868393,4565.2801049018635,0.0
683523.2936376977,3522751.2368613081,-12500.0,1106.9192874908231,-1938.8032979460504,2456.5886216366434,-385.46708741746619,512.75859362323195,75.912574941455532,2106.6779444223084,-308.06087195741185,102.19545926638524,-102.19545926638524,308.06087195741185,4097.2544139839565,0.0
688523.2936376977,3522751.2368613081,-12500.0,1219.1042242490655,-1831.6312706348942,1774.6295818344536,-373.21444010563391,392.83708114230353,60.778952487367242,1897.0244640974399,-0.12313090150524886,-279.36503242102071,279.36503242102071,0.12313090150524886,3638.5785996034069,0.0
693523.2936376977,3522751.2368613081,-12500.0,1287.181454092728,-1661.3134614192645,1155.4903343299611,-348.83019082630585,282.51283017882406,46.716653730986934,1698.7197601317162,266.44985558115241,-572.38280140072493,572.38280140072493,-266.44985558115241,3205.7935879273632,0.0
698523.2936376977,3522751.2368613081,-12500.0,1308.8564374511686,-1447.4446411808808,614.69456320115091,-315.51928022031734,184.60547463929927,34.077982880339292,1517.4650775528264,482.49664313147866,-779.31135170087907,779.31135170087907,-482.49664313147866,2812.1523740445232,0.0
613523.2936376977,3527751.2368613081,-12500.0,1336.3139103330263,2250.957986082175,4325.0400959265125,478.14571995942606,888.26179943702914,134.43188437759429,2881.4044211478545,-119.37291404984853,3928.8500330656711,-3928.8500330656711,119.37291404984853,5676.4807342771182,0.0
618523.2936376977,3527751.2368613081,-12500.0,1143.0890603775711,2179.153957482416,5017.5421843514523,456.76368384743512,1012.4950926659276,150.24910275921607,3126.8515168256467,-486.89340024183275,4357.9615597921638,-4357.9615597921638,486.89340024183275,6147.463225153313,0.0
623523.2936376977,3527751.2368613081,-12500.0,927.41978092889076,2007.2276622662293,5686.967526541006,416.68577660401252,1131.4003353009455,165.15916826832355,3352.0039754915165,-876.73555834228569,4712.145030041489,-4712.145030041489,876.73555834228569,6581.0577945237883,0.0
628523.2936376977,3527751.2368613081,-12500.0,706.57907884060182,1729.0310238515858,6293.7391095670464,357.1253453417724,1238.1936649592951,178.32914940180962,3546.0797006308071,-1265.0973425187617,4959.1303780700982,-4959.1303780700982,1265.0973425187617,6956.8278062569507,0.0
633523.2936376977,3527751.2368613081,-12500.0,501.3002828389865,1347.2953419146659,6794.9134238002071,278.85322393807513,1325.619133666064,188.8861872720482,3698.2601603316498,-1623.4913992836209,5069.6126888011659,-5069.6126888011659,1623.4913992836209,7254.2451179727723,0.0
638523.2936376977,3527751.2368613081,-12500.0,333.4388401053173,875.38423552774577,7148.4558079416693,184.46204657575947,1386.6557351653125,196.00217890608573,3798.6365969967073,-1921.4959543965908,5021.530993197528,-5021.530993197528,1921.4959543965908,7454.4880500760901,0.0
643523.2936376977,3527751.2368613081,-12500.0,222.83261138252311,337.67090429695401,7318.4952684859873,78.400326195193699,1415.36890985114,198.99245225464193,3839.2601080831569,-2130.5568336059223,4804.2246045414568,-4804.2246045414568,2130.5568336059223,7542.4446188653719,0.0
648523.2936376977,3527751.2368613081,-12500.0,183.8814206437365,-231.93317086905537,7280.7375483998612,-33.293808012285332,1407.7752552392226,197.41345625412211,3815.1477596454251,-2228.2798526204951,4421.5431865332812,-4421.5431865332812,2228.2798526204951,7508.6425558958608,0.0
653523.2936376977,3527751.2368613081,-12500.0,222.60374378400127,-793.4010131556978,7026.9285325673272,-143.57042547688283,1362.548189372071,191.14010669233255,3725.0686777618512,-2202.3488903904663,3893.0015429401828,-3893.0015429401828,2202.3488903904663,7350.7700417606557,0.0
658523.2936376977,3527751.2368613081,-12500.0,334.96959526478275,-1305.5481354601484,6567.2456746709713,-245.18779613506098,1281.392798945353,180.4043772405023,3571.9468753884344,-2053.1041751289949,3252.3906117217693,-3252.3906117217693,2053.1041751289949,7074.4660668675551,0.0
663523.2936376977,3527751.2368613081,-12500.0,507.07802388943895,-1731.6069396375715,5929.8459882179113,-331.62915151574072,1168.9733051457943,165.78349554643191,3362.82198778577,-1794.0215506994782,2543.8474880507529,-2543.8474880507529,1794.0215506994782,6693.1661126675835,0.0
668523.2936376977,3527751.2368613081,-12500.0,717.27500998897403,-2044.2160870143177,5157.461055678742,-397.92827971145488,1032.3767629570523,148.13657430148874,3120.115955777153,-1449.8345282712135,1816.0773024228124,-1816.0773024228124,1449.8345282712135,6226.9700127917777,0.0
673523.2936376977,3527751.2368613081,-12500.0,939.75160129419328,-2228.714367196003,4301.7001387803475,-441.22986238266208,880.2132868076369,128.50120560356143,2880.3446015182435,-1052.6821924192536,1115.9511219238334,-1115.9511219238334,1052.6821924192536,5700.7094393041189,0.0
678523.2936376977,3527751.2368613081,-12500.0,1148.7421605506165,-2284.0849851512899,3416.3002069790027,-460.97868023405977,721.54005858140727,107.97070813589249,2625.4672069818139,-637.19870846636923,482.85048756440398,-482.85048756440398,637.19870846636923,5141.5494988363434,0.0
683523.2936376977,3527751.2368613081,-12500.0,1322.3241692542904,-2221.5483221957511,2550.7578161895885,-458.73072276344129,564.82935772099233,87.575520043647472,2367.4941085149339,-235.68852649753222,-55.1484385930804,55.1484385930804,235.68852649753222,4576.5368259692341,0.0
688523.2936376977,3527751.2368613081,-12500.0,1445.037131117778,-2061.3961865251044,1745.5129934314909,-437.67094823639201,417.16442707333505,68.189340437398798,2117.6528023877913,125.6250986821565,-482.75192443946037,482.75192443946037,-125.6250986821565,4030.4483469722654,0.0
693523.2936376977,3527751.2368613081,-12500.0,1508.9642171808334,-1828.9925393521432,1029.3042639754276,-401.9774265169973,283.76703925990296,50.471733579880649,1885.1607459499992,428.71600986148201,-796.73004587862215,796.73004587862215,-428.71600986148201,3524.1542869192199,0.0
698523.2936376977,3527751.2368613081,-12500.0,1513.3722645896173,-1550.8691813866362,418.69748145644718,-356.17751574637845,167.86823589109949,34.849102108990763,1676.6772407002652,664.17934421165683,-1003.6205769271373,1003.6205769271373,-664.17934421165683,3073.5246470349707,0.0
703523.2936376977,3527751.2368613081,-12500.0,1463.3208907536775,-1251.5930202043562,-80.674223617760177,-304.60812266543155,70.859933048535979,21.528215491513791,1496.0594298003359,830.3044653537354,-1116.6621004662795,1116.6621004662795,-830.3044653537354,2688.7623854275739,0.0
708523.2936376977,3527751.2368613081,-12500.0,1367.7707480913332,-951.72879539737437,-471.83783808912864,-251.0404286904114,-7.3722621696696269,10.531597370826661,1344.3983287152164,931.33282669291395,-1152.6923124804871,1152.6923124804871,-931.33282669291395,2374.0385651157771,0.0
603523.2936376977,3532751.2368613081,-12500.0,1912.6096192922003,2414.5924931425652,3084.1914547199935,559.18382384394147,707.54793391997634,119.3862821785833,2593.7012947338735,719.05819828751942,3136.5511335803749,-3136.5511335803749,-719.05819828751942,5159.4441977069127,0.0
608523.2936376977,3532751.2368613081,-12500.0,1796.0927948008036,2556.2197652931363,3839.6689357650644,578.49833329460535,852.68736456116312,139.30776189529365,2904.6352574881093,415.39147465387464,3729.0819677170775,-3729.0819677170775,-415.39147465387464,5752.8161024386209,0.0
613523.2936376977,3532751.2368613081,-12500.0,1622.8883274977209,2616.9145573847154,4653.2547867645198,580.9518768084472,1006.8074191121431,160.09083648134708,3218.2041153865998,41.978744704473684,4317.0887907686683,-4317.0887907686683,-41.978744704473684,6352.4746374656452,0.0
618523.2936376977,3532751.2368613081,-12500.0,1399.9569547031922,2573.5830685038295,5495.357019837219,562.55405914739833,1164.3159320044113,180.96851838275018,3523.6087034131147,-390.11737158628193,4865.6028828883773,-4865.6028828883773,390.11737158628193,6938.0663899463616,0.0
623523.2936376977,3532751.2368613081,-12500.0,1141.4175887125577,2406.830235330257,6325.1981610121138,520.10804449103057,1317.751556945356,200.95539774459183,3808.0405011044872,-860.77039033932169,5333.6097492285608,-5333.6097492285608,860.77039033932169,7485.3616990323744,0.0
628523.2936376977,3532751.2368613081,-12500.0,868.54353870234638,2104.8173451126181,7092.1149024585129,451.87155719804502,1458.0536005238105,218.88949187825506,4057.256433839555,-1340.679429023116,5677.3689003825111,-5677.3689003825111,1340.679429023116,7967.3804986306086,0.0
633523.2936376977,3532751.2368613081,-12500.0,608.35579977812051,1667.1865570774062,7739.0140581136566,358.20767604263136,1575.1883045132536,233.51607918960391,4256.5557985594187,-1792.912122295425,5855.406133750972,-5855.406133750972,1792.912122295425,8356.2414883917045,0.0
638523.2936376977,3532751.2368613081,-12500.0,390.59832842218799,1108.1626852896609,8208.1102891643641,242.07639696031669,1659.1409878950803,243.61243271839382,4392.1058421488142,-2176.4097474878381,5834.7213365616008,-5834.7213365616008,2176.4097474878381,8625.6759223755362,0.0
643523.2936376977,3532751.2368613081,-12500.0,243.28682674005486,457.78354451873059,8448.483057364072,109.19787823816949,1701.1885582345917,248.14110492187004,4452.4881933323059,-2451.314533910579,5597.2031200274378,-5597.2031200274378,2451.314533910579,8753.972573909512,0.0
648523.2936376977,3532751.2368613081,-12500.0,187.5516783720463,-239.64011067383154,8424.2831823619435,-32.251776759176231,1695.2565723751225,246.40804567542494,4430.2469948775706,-2585.3666828692621,5144.7920679727404,-5144.7920679727404,2585.3666828692621,8726.9417933088371,0.0
653523.2936376977,3532751.2368613081,-12500.0,232.96786358087547,-930.19020715148963,8121.8255837891256,-172.459840196339,1639.0761992219011,238.19230547016591,4323.1538927724523,-2560.0299000651721,4501.8231943542869,-4501.8231943542869,2560.0299000651721,8540.3506696271397,0.0
658523.2936376977,3532751.2368613081,-12500.0,374.73354592642204,-1557.6100865704989,7553.6509852779627,-301.21856250511485,1534.8385829037056,223.814406630798,4134.9263381887467,-2374.7223928046424,3713.418996105167,-3713.418996105167,2374.7223928046424,8201.2744173033043,0.0
663523.2936376977,3532751.2368613081,-12500.0,593.73362730389806,-2071.7350852089376,6758.1559346434187,-409.3531142703813,1389.1296928085096,204.12139370272746,3875.70774410893,-2047.7992530762667,2839.7884958966824,-2839.7884958966824,2047.7992530762667,7727.9781985000909,0.0
668523.2936376977,3532751.2368613081,-12500.0,859.72616135153328,-2436.0833631377459,5794.4957893516748,-490.01390987926874,1212.1009889725672,180.38522701771291,3592.1950560679106,-1613.7626656548182,1947.4991928794725,-1947.4991928794725,1613.7626656548182,7148.2347590717727,0.0
673523.2936376977,3532751.2368613081,-12500.0,1136.8972239047118,-2632.7220301682587,4733.8415396029131,-539.53032994242812,1016.0449484733845,154.13458305355593,3295.4039235355781,-1117.3153200280817,1099.7680692414237,-1099.7680692414237,1117.3153200280817,6496.3659164423952,0.0
678523.2936376977,3532751.2368613081,-12500.0,1390.2801777476657,-2663.3338707543512,3649.1044247381369,-557.64729148519848,813.70442774416563,126.95726067506995,2982.3081017923391,-605.8241726718993,348.08414150362586,-348.08414150362586,605.8241726718993,5809.5778092793453,0.0
683523.2936376977,3532751.2368613081,-12500.0,1591.3556482041924,-2546.5782012189297,2605.5299954416314,-547.14747560275384,616.6949149259093,100.31414002364626,2669.2742936750219,-122.1294927261763,-273.06779687301469,273.06779687301469,122.1294927261763,5124.2717505228866,0.0
688523.2936376977,3532751.2368613081,-12500.0,1721.5903454322099,-2312.8647864338714,1654.0364520133514,-513.02492317847725,434.3439897808197,75.399594871237028,2370.8835979812648,300.70390543712563,-747.69283283186098,747.69283283186098,-300.70390543712563,4472.9050182178526,0.0
693523.2936376977,3532751.2368613081,-12500.0,1773.46820637719,-1998.1547197092443,828.12307667185314,-461.46171220125547,273.0960291292854,53.065216775526793,2098.5194373484001,641.91179833844717,-1076.4223612611793,1076.4223612611793,-641.91179833844717,3881.6930821599212,0.0
698523.2936376977,3532751.2368613081,-12500.0,1749.3432655241386,-1638.287915995204,144.11688749291446,-398.85202692812595,136.46505740754603,33.806947363819582,1859.6759159003275,892.93410628930576,-1272.4801449927427,1272.4801449927427,-892.93410628930576,3369.1350928976235,0.0
703523.2936376977,3532751.2368613081,-12500.0,1658.916695065609,-1264.8064988806123,-396.19328961662876,-331.0432733501101,25.400235296706594,17.801795887945357,1657.7597236497159,1055.4204033619969,-1356.8542575923746,1356.8542575923746,-1055.4204033619969,2945.1611920767737,0.0
708523.2936376977,3532751.2368613081,-12500.0,1516.233710996778,-902.60065267001869,-801.72030553217633,-262.865053665093,-61.118857340959842,4.9741753441689216,1492.3585745836822,1138.2828638528142,-1353.7997511007641,1353.7997511007641,-1138.2828638528142,2610.8141573547678,0.0
713523.2936376977,3532751.2368613081,-12500.0,1336.9128603913925,-569.19841587606857,-1088.0722998347126,-197.9338578048594,-125.42556637560664,-4.9273346604857977,1359.9680527023284,1154.6343441146842,-1287.3397032783223,1287.3397032783223,-1154.6343441146842,2358.7781244076214,0.0
598523.2936376977,3537751.2368613081,-12500.0,2311.043159430832,2426.0130715382857,2352.9147172909079,611.95707804278209,610.35955251227847,114.82807554672014,2504.1471708511849,1250.1280346917902,2601.0949986985052,-2601.0949986985052,-1250.1280346917902,4981.443755072276,0.0
603523.2936376977,3537751.2368613081,-12500.0,2275.0639843720992,2699.2511460633664,3124.3557387092096,659.63776619099224,768.7892062241292,138.10753686126449,2834.329830854193,1017.5554053087783,3273.4993057652755,-3273.4993057652755,-1017.5554053087783,5660.3114366562268,0.0
608523.2936376977,3537751.2368613081,-12500.0,2166.5498807293334,2914.1238205447494,4003.3767386822678,693.32120160564943,946.02866922476278,163.59321775051745,3210.3236920373392,691.30833045977238,3990.4753876368968,-3990.4753876368968,-691.30833045977238,6377.1623323321437,0.0
613523.2936376977,3537751.2368613081,-12500.0,1982.9166982864169,3039.4355783641454,4971.5425277157374,707.13954203900767,1138.0550633268422,190.64393336163923,3595.7094086894845,271.00914886011105,4720.7152453394692,-4720.7152453394692,-271.00914886011105,7113.4177139525927,0.0
618523.2936376977,3537751.2368613081,-12500.0,1729.4511874621328,3042.815050355754,5995.8376419829083,695.20999073941744,1338.2206814639198,218.28338467484704,3977.2074149665896,-233.74746909902751,5421.4158876544352,-5421.4158876544352,233.74746909902751,7844.2037336111016,0.0
623523.2936376977,3537751.2368613081,-12500.0,1421.2568017315839,2894.9107734466038,7027.1694625744813,652.4206717540809,1537.0634084582905,245.19104620262928,4338.4835596542562,-800.97748190113225,6039.6741494145208,-6039.6741494145208,800.97748190113225,8538.6465235154246,0.0
628523.2936376977,3537751.2368613081,-12500.0,1084.0042654825168,2574.8838327906483,8001.0785201734579,575.41848500743095,1722.5160030685304,269.74546062070249,4660.7055063657572,-1395.2467026643112,6516.3448503183881,-6516.3448503183881,1395.2467026643112,9161.1028790323271,0.0
633523.2936376977,3537751.2368613081,-12500.0,752.70502656807423,2076.4805249692722,8841.6051588130194,463.66236909609972,1880.6626487543338,290.13530214284725,4923.7921820339789,-1968.9108452593046,6792.6469601683657,-6792.6469601683657,1968.9108452593046,9673.5151257957423,0.0
638523.2936376977,3537751.2368613081,-12500.0,467.95150255979109,1413.3869901561263,9468.8314776193547,320.31305049474122,1997.1111188922221,304.54219900090231,5108.2593291998674,-2466.3852928444608,6819.1105132665762,-6819.1105132665762,2466.3852928444608,10038.900269474139,0.0
643523.2936376977,3537751.2368613081,-12500.0,269.65649405648878,622.13599900942404,9809.7299145215165,152.66737697073984,2058.8970037969334,311.38000518896808,5197.5094215218178,-2831.5402376141947,6565.5043060493726,-6565.5043060493726,2831.5402376141947,10225.700394798243,0.0
648523.2936376977,3537751.2368613081,-12500.0,189.22948915120753,-239.12327024152626,9810.7080376735303,-28.134754049689576,2056.6339060844048,309.55270882156771,5180.242047898053,-3017.2866669143577,6029.4540871307081,-6029.4540871307081,3017.2866669143577,10212.383827449738,0.0
653523.2936376977,3537751.2368613081,-12500.0,242.05890637247899,-1096.9085255246569,9449.0538930956809,-208.26448748074952,1986.4402713995999,298.67477312295949,5052.5311454408165,-2995.2907461582536,5241.0370684849831,-5241.0370684849831,2995.2907461582536,9991.4104172749576,0.0
658523.2936376977,3537751.2368613081,-12500.0,422.64864945848427,-1873.1859753439333,8739.9650149189729,-373.10844032398222,1851.1027940889271,279.19342386050744,4819.1868266354877,-2763.0590167912173,4261.1727803678914,-4261.1727803678914,2763.0590167912173,9571.5905106066457,0.0
663523.2936376977,3537751.2368613081,-12500.0,704.34406383557189,-2498.3783433712283,7736.5340636030523,-509.53717280263567,1660.0585910421335,252.37060455208578,4498.5031638709042,-2345.9136214857535,3173.2579201980134,-3173.2579201980134,2345.9136214857535,8978.1006036700637,0.0
668523.2936376977,3537751.2368613081,-12500.0,1044.2077996631422,-2923.1825888952544,6521.9904790973833,-607.97358055269638,1428.0903496334499,220.11684249703171,4159.1219664339578,-1792.7891000354405,2069.7111427549298,-2069.7111427549298,1792.7891000354405,8249.9473494317281,0.0
673523.2936376977,3537751.2368613081,-12500.0,1391.7898075092505,-3125.9045176270802,5195.9837048605086,-663.71877230223629,1173.0218537822216,184.71347924090736,3788.4108599750302,-1166.8444298352445,1036.9243664322128,-1036.9243664322128,1166.8444298352445,7435.3360829878557,0.0
678523.2936376977,3537751.2368613081,-12500.0,1699.1424235447671,-3113.4947586203562,3858.6144124463954,-677.22678778832437,913.00727880428394,148.48925217984527,3401.1900491633241,-533.65154554621995,142.63324236651255,-142.63324236651255,533.65154554621995,6585.9426578426246,0.0
683523.2936376977,3537751.2368613081,-12500.0,1929.1728917402813,-2916.6312373268888,2596.3552368367223,-653.36216641730061,664.08514095043597,113.526266271308,3019.7222854595789,49.677349169712613,-571.3585638645884,571.3585638645884,-49.677349169712613,5751.2571870935326,0.0
688523.2936376977,3537751.2368613081,-12500.0,2060.3400417568914,-2580.9956501206148,1472.8824173878563,-599.96895747395035,438.50514230245852,81.452591036388512,2662.9523833480862,541.80908912519885,-1090.2124525330482,1090.2124525330482,-541.80908912519885,4973.9273868295741,0.0
693523.2936376977,3537751.2368613081,-12500.0,2087.2218680383435,-2157.6068604813945,525.84972594426699,-526.212088789684,244.02963261289455,53.346427143679534,2344.6857468273561,919.92258832505922,-1421.958944897091,1421.958944897091,-919.92258832505922,4286.4958633379747,0.0
698523.2936376977,3537751.2368613081,-12500.0,2017.8182961103764,-1694.6309519271556,-231.2276572292879,-441.10184521239404,84.111060306410351,29.744261078891196,2072.7753636085927,1178.3897009920811,-1590.5238558958381,1590.5238558958381,-1178.3897009920811,3709.398188413888,0.0
703523.2936376977,3537751.2368613081,-12500.0,1869.1237404008598,-1231.9898306090299,-803.86624443122628,-352.44948698539372,-41.338295183932971,10.723418040987699,1849.1396911061706,1324.8756510462379,-1628.2066715982503,1628.2066715982503,-1324.8756510462379,3249.9580124103759,0.0
708523.2936376977,3537751.2368613081,-12500.0,1662.4612966273187,-798.9471286693132,-1210.31778607712,-266.31862346686762,-134.91334948395087,-3.9779113112510669,1670.5812298154869,1375.498189577944,-1569.2859538104351,1569.2859538104351,-1375.498189577944,2902.5676217900996,0.0
713523.2936376977,3537751.2368613081,-12500.0,1419.5993380122982,-414.08391021340032,-1475.6379928636197,-186.90201576169031,-200.68873442807043,-14.835255131580267,1530.3153836373281,1350.3124144594763,-1445.5419412284559,1445.5419412284559,-1350.3124144594763,2650.8479153460712,0.0
718523.2936376977,3537751.2368613081,-12500.0,1160.0984885926487,-86.775990450128333,-1626.9849835624937,-116.69003285318826,-243.36200345844537,-22.428579132883794,1419.887577192962,1269.8185533890128,-1283.7509632617575,1283.7509632617575,-1269.8185533890128,2472.1484591078993,0.0
593523.2936376977,3542751.2368613081,-12500.0,2624.7600489704537,2238.523680932009,1507.8325816462791,629.92542279062786,477.21945830293038,104.27482311838871,2378.2437393904893,1730.9548116768124,1879.9566266718225,-1879.9566266718225,-1730.9548116768124,4657.4426159133327,0.0
598523.2936376977,3542751.2368613081,-12500.0,2703.8520826917375,2626.6431449876682,2227.5795893863451,706.78519885100866,637.34401119450422,129.75081148947609,2725.5051201480264,1613.9758065571978,2571.5752488196631,-2571.5752488196631,-1613.9758065571978,5389.0518612202586,0.0
603523.2936376977,3542751.2368613081,-12500.0,2707.0970028486013,2993.3125677963999,3095.8689789555442,775.78173303418419,825.79805857438248,158.92602790669014,3107.3811006693286,1393.0750444571377,3358.3608641468327,-3358.3608641468327,-1393.0750444571377,6194.0355189873471,0.0
608523.2936376977,3542751.2368613081,-12500.0,2620.3810170916436,3305.0512837149795,4111.6281382241477,829.99861742968415,1041.4994550774295,191.48185217840916,3541.3267432317257,1053.8382259530074,4220.77405379419,-4220.77405379419,-1053.8382259530074,7059.4905227178815,0.0
613523.2936376977,3542751.2368613081,-12500.0,2435.5045641728339,3521.3464532322632,5259.1937143888035,861.38645819406986,1280.4937707555068,226.69341049024848,4015.6885700185044,589.62306636384756,5124.3549454274416,-5124.3549454274416,-589.62306636384756,7964.5250035513818,0.0
618523.2936376977,3542751.2368613081,-12500.0,2153.9083347693113,3597.5498192123864,6503.6601679862133,861.39462783397244,1535.1725359576565,263.34316747438419,4493.8148789549768,6.0529033056945991,6017.9341014658412,-6017.9341014658412,-6.0529033056945991,8879.2695268149582,0.0
623523.2936376977,3542751.2368613081,-12500.0,1790.1818950581996,3490.1247163038911,7787.3958385592368,822.02053222382756,1793.7471302796523,299.67695358925909,4955.0481938293133,-674.68231687307116,6834.1437482736783,-6834.1437482736783,674.68231687307116,9764.7175205901003,0.0
628523.2936376977,3542751.2368613081,-12500.0,1374.2674816030465,3164.2688747324892,9029.2958166911103,737.25646053307332,2040.2539368125001,333.43656813446472,5374.5259465911495,-1410.9715101940246,7493.44693417705,-7493.44693417705,1410.9715101940246,10573.869685063399,0.0
633523.2936376977,3542751.2368613081,-12500.0,951.00265541738895,2603.1554882643654,10128.514602885965,604.77153422913818,2255.3802190824581,362.00039204802766,5724.7116652537643,-2141.9796270272409,7912.5563891600441,-7912.5563891600441,2141.9796270272409,11254.596644629721,0.0
638523.2936376977,3542751.2368613081,-12500.0,575.78365185913401,1816.9917705017206,10974.018798397086,427.4890340679749,2418.3123446863856,382.64879594415794,5977.9296063940428,-2792.4212828322934,8017.1579464941051,-8017.1579464941051,2792.4212828322934,11754.411026351292,0.0
643523.2936376977,3542751.2368613081,-12500.0,305.91397232444297,849.10648383523244,11460.028016764611,214.56466724021911,2509.5733192259836,392.93794946530409,6109.7568965063101,-3282.6218960920091,7757.2596306684336,-7757.2596306684336,3282.6218960920091,12026.890375696228,0.0
648523.2936376977,3542751.2368613081,-12500.0,188.70333785493358,-224.04959874446754,11505.312976607891,-18.757214596553375,2514.4582453592652,391.12423221493231,6102.8217980698255,-3542.9096298039403,7121.66193089644,-7121.66193089644,3542.9096298039403,12038.897817514162,0.0
653523.2936376977,3542751.2368613081,-12500.0,249.193662425111,-1301.140600814105,11071.952133805838,-252.74208272473814,2426.2938190104405,376.54184997981309,5950.2899463112017,-3529.2371128638515,6146.8295402890908,-6146.8295402890908,3529.2371128638515,11777.151657932825,0.0
658523.2936376977,3542751.2368613081,-12500.0,481.60837958364544,-2272.1014851411469,10177.735928391216,-466.12062536070937,2248.5447363048334,349.82301778363683,5658.6565414916658,-3235.2997837964303,4915.9208471420925,-4915.9208471420925,3235.2997837964303,11252.424875705796,0.0
663523.2936376977,3542751.2368613081,-12500.0,848.22101873797226,-3038.6444538601359,8897.1837335496457,-639.76918455477744,1994.9471899117286,312.87755634716245,5267.4879508596059,-2696.5038790837848,3546.4049290486359,-3546.4049290486359,2696.5038790837848,10499.942382061314,0.0
668523.2936376977,3542751.2368613081,-12500.0,1286.9530696221243,-3533.1396728627165,7349.5151822059015,-760.10097819976863,1687.415546340437,268.61674840743916,4844.2640203298524,-1983.5392776858412,2168.8401404927258,-2168.8401404927258,1983.5392776858412,9575.4894101580921,0.0
673523.2936376977,3542751.2368613081,-12500.0,1725.5641072445196,-3729.9218286784048,5676.5979807878393,-821.16837557690292,1352.2261769713227,220.48563196956047,4376.9802418565541,-1187.1877939286774,902.97608083987552,-902.97608083987552,1187.1877939286774,8547.9819766499531,0.0
678523.2936376977,3542751.2368613081,-12500.0,2097.6310940971366,-3645.8633465875187,4017.5611482316808,-824.92773436264224,1015.5755111364573,171.92799239735135,3894.8788698219355,-399.3748764370489,-161.65066981804685,161.65066981804685,399.3748764370489,7490.2827644990839,0.0
683523.2936376977,3542751.2368613081,-12500.0,2355.1411876985671,-3331.1832088993997,2487.4351567727904,-779.7866020207357,699.73580401034781,125.91842515477498,3428.4024286014887,303.50816522669123,-975.63669386524316,975.63669386524316,-303.50816522669123,6470.3388845237014,0.0
688523.2936376977,3542751.2368613081,-12500.0,2474.488379036542,-2854.7082365055085,1164.7314037817566,-698.09793832234823,420.66388436999028,84.657620946814475,3002.0504760301214,870.68269540286019,-1529.1740950744556,1529.1740950744556,-870.68269540286019,5544.1528418217767,0.0
693523.2936376977,3542751.2368613081,-12500.0,2455.6187297913316,-2288.7376265545081,89.002387452290179,-593.45682522310346,187.30694263245377,49.464371661145279,2631.9788456692618,1279.2654197941815,-1843.6796249096906,1843.6796249096906,-1279.2654197941815,4751.083237845829,0.0
698523.2936376977,3542751.2368613081,-12500.0,2316.3775411504175,-1697.3880992718437,-733.84626986824844,-478.48856270617296,2.3020624503246885,20.836928289903764,2325.2105099634095,1530.3453753230767,-1959.8839139634404,1959.8839139634404,-1530.3453753230767,4111.1687215602351,0.0
703523.2936376977,3542751.2368613081,-12500.0,2084.9443445906168,-1130.0404392951173,-1322.1680318817941,-363.46750967438987,-136.51095728186164,-1.3775544688109373,2080.3042214118286,1641.7720264571167,-1926.2824952847968,1926.2824952847968,-1641.7720264571167,3624.3656615031641,0.0
708523.2936376977,3542751.2368613081,-12500.0,1792.7726030888168,-619.52928091400042,-1708.5189105673862,-255.77105367683245,-234.34392439360147,-17.772254819791087,1889.3749763819151,1640.4282981179929,-1790.3148372436651,1790.3148372436651,-1640.4282981179929,3272.6635803482573,0.0
713523.2936376977,3542751.2368613081,-12500.0,1469.3821111491868,-183.64451352803536,-1931.1486721341983,-159.96731403438685,-297.89389178862672,-29.180547978364903,1741.0343930415586,1555.7996976835707,-1592.9956935457885,1592.9956935457885,-1555.7996976835707,3026.1457429157299,0.0
718523.2936376977,3542751.2368613081,-12500.0,1139.334097976493,171.67389553672163,-2027.9590310894789,-78.273015100212632,-334.15898143258056,-36.516119794279824,1623.3778067514147,1415.572620155433,-1366.5965078693694,1366.5965078693694,-1415.572620155433,2851.6468282424221,0.0
723523.2936376977,3542751.2368613081,-12500.0,821.07043503459215,448.72816355773369,-2032.9114741203098,-11.151548698703143,-349.67347460118629,-40.662633498574316,1526.1285179220679,1243.2134645619742,-1134.4823373396246,1134.4823373396246,-1243.2134645619742,2720.2361318489739,0.0
588523.2936376977,3547751.2368613081,-12500.0,2785.6266105080263,1850.472323360106,631.2988474437924,605.10036886123669,318.25357335643758,87.971242146347237,2202.0756268265127,2084.9305681789069,1037.8643990447576,-1037.8643990447576,-2084.9305681789069,4216.8563623313967,0.0
593523.2936376977,3547751.2368613081,-12500.0,2999.4824831999613,2313.5095918190345,1234.1330913523598,707.2232922941073,466.66498095613554,113.974548362484,2554.0424306980372,2113.4560090507493,1677.2952770562308,-1677.2952770562308,-2113.4560090507493,4955.7529904675721,0.0
598523.2936376977,3547751.2368613081,-12500.0,3151.0962055345558,2799.8965779275541,2008.212069359224,810.28095531693521,650.62308948456177,145.07077117193538,2956.1314661065317,2046.9079329124702,2452.7143049904057,-2452.7143049904057,-2046.9079329124702,5802.128377889806,0.0
603523.2936376977,3547751.2368613081,-12500.0,3216.4511248187564,3281.6665215758562,2972.2140109976922,907.71252218525046,872.89944791353867,181.44133408312007,3407.0150495987718,1858.3150574407202,3362.6252989800732,-3362.6252989800732,-1858.3150574407202,6752.4340833298929,0.0
608523.2936376977,3547751.2368613081,-12500.0,3172.8757124031986,3719.1033547676857,4134.4135329049686,990.73891190587551,1133.914144371425,222.87998052740977,3902.09516856546,1523.2383624599984,4391.0978052618884,-4391.0978052618884,-1523.2383624599984,7794.9166891186724,0.0
613523.2936376977,3547751.2368613081,-12500.0,3003.3435709164391,4060.8507961402306,5485.9250091397362,1048.525187961561,1430.4627201330261,268.62680952365542,4477.7399940126406,1024.9453972801302,5502.7252767991085,-5502.7252767991085,-1024.9453972801302,8907.269895375588,0.0
618523.2936376977,3547751.2368613081,-12500.0,2701.9558606089658,4246.5232947698642,6993.2116369403911,1068.8449803154881,1754.3703997396904,317.20789735460858,5078.3409981580389,361.00414804498223,6638.5062882091461,-6638.5062882091461,-361.00414804498223,10054.60481629726,0.0
623523.2936376977,3547751.2368613081,-12500.0,2279.8334391591134,4212.8205747483462,8591.3008797815892,1039.4098319816544,2091.3607003978937,366.3236006502529,5669.8533765720003,-449.5584400159978,7714.3571810515559,-7714.3571810515559,449.5584400159978,11188.353539203299,0.0
628523.2936376977,3547751.2368613081,-12500.0,1769.9079161243069,3903.7105666715142,10180.04024770827,949.92722583254385,2420.5768363344009,412.8435893319832,6219.587135180388,-1360.2496376388394,8624.3894599529904,-8624.3894599529904,1360.2496376388394,12246.900441440675,0.0
633523.2936376977,3547751.2368613081,-12500.0,1228.4020577171502,3284.1641626168744,11626.40854597408,794.73656352694366,2715.2892459484674,452.9718365778611,6689.7180083775902,-2294.8300719352446,9250.9511849989412,-9250.9511849989412,2294.8300719352446,13158.767717877188,0.0
638523.2936376977,3547751.2368613081,-12500.0,730.5780191222284,2355.1722871777961,12775.792520020696,575.55378778749957,2945.2645236698295,482.62507242285739,7040.642217004146,-3151.694334704126,9482.2713534801114,-9482.2713534801114,3151.694334704126,13848.948147910012,0.0
643523.2936376977,3547751.2368613081,-12500.0,359.19081570516994,1165.7195120119857,13473.559224645263,303.50978391317449,3080.9462408751351,498.01725305974435,7235.9756828301579,-3817.0359086613817,9236.0509623092548,-9236.0509623092548,3817.0359086613817,14248.335349334102,0.0
648523.2936376977,3547751.2368613081,-12500.0,186.44142680209058,-183.92818268406765,13594.805415879227,-0.50929220522505192,3098.9710134463539,496.36219094564098,7248.5925073945182,-4186.3618109967574,8483.8583360961075,-8483.8583360961075,4186.3618109967574,14305.142392302581,0.0
653523.2936376977,3547751.2368613081,-12500.0,253.68004103084803,-1552.3986379029495,13075.560507333008,-307.99249867220419,2987.7674946750813,476.52512610331348,7066.6082436800052,-4189.9301208066745,7268.1739400954766,-7268.1739400954766,4189.9301208066745,13995.987000497489,0.0
658523.2936376977,3547751.2368613081,-12500.0,556.05061701666193,-2781.5944700604823,11935.150770737006,-587.43574716047203,2751.4455721324448,439.41837696652095,6699.5376337567595,-3813.946578546153,5703.7266090967987,-5703.7266090967987,3813.946578546153,13333.532810041837,0.0
663523.2936376977,3547751.2368613081,-12500.0,1039.3052650683287,-3729.7773891254542,10279.857603375851,-810.44584440493315,2410.3341078968519,387.98064535080107,6218.3573737921306,-3108.6118561289013,3959.071577817037,-3959.071577817037,3108.6118561289013,12367.859457783536,0.0
668523.2936376977,3547751.2368613081,-12500.0,1611.863821233494,-4302.6245842631643,8283.9068834657501,-957.44893090696132,1997.5545273936452,326.70659546029668,5677.8538743134413,-2178.1578274677581,2222.267043833062,-2222.267043833062,2178.1578274677581,11180.382133284666,0.0
673523.2936376977,3547751.2368613081,-12500.0,2168.4214662457048,-4471.1115832523083,6153.0194661205469,-1021.0988384821475,1552.5358903033039,260.84945517484141,5083.2455205156057,-1155.5639759174983,661.86135456393492,-661.86135456393492,1155.5639759174983,9871.5909443982182,0.0
678523.2936376977,3547751.2368613081,-12500.0,2616.0742281315261,-4270.5244733406789,4083.0330819837031,-1006.381844214641,1113.5677439514839,195.528016077334,4479.1941142344704,-171.37287324947579,-603.52442072934127,603.52442072934127,171.37287324947579,8545.9057087545571,0.0
683523.2936376977,3547751.2368613081,-12500.0,2893.4686042787616,-3783.1069441177819,2227.0741247684614,-927.76283797453982,711.67875565164991,134.98200467752966,3907.523684825459,672.25145731286875,-1518.3467015675351,1518.3467015675351,-672.25145731286875,7297.4293923913956,0.0
688523.2936376977,3547751.2368613081,-12500.0,2977.8206130845247,-3112.8389335410302,679.33419290862344,-804.74643215480864,367.29700566690337,82.135548577547041,3399.4807556860906,1314.9819155759797,-2085.4630557457353,2085.4630557457353,-1314.9819155759797,6199.1297315418606,0.0
693523.2936376977,3547751.2368613081,-12500.0,2880.5263634341827,-2361.7369959289999,-524.27563302140959,-657.46139360657116,89.887146917419713,38.504752542184093,2972.6507156632806,1738.4412048390245,-2349.6548236327285,2349.6548236327285,-1738.4412048390245,5296.0035008222449,0.0
698523.2936376977,3547751.2368613081,-12500.0,2636.0084330036707,-1613.7400296749349,-1393.9833106179324,-503.40615799939718,-120.22800007869539,4.376871847641878,2630.6943490346907,1957.0275637027148,-2377.5267680854081,2377.5267680854081,-1957.0275637027148,4601.8423386169625,0.0
703523.2936376977,3547751.2368613081,-12500.0,2289.1299527925985,-927.67765501591657,-1969.5448352533731,-355.75556610453367,-269.0231873788743,-20.861302230854285,2365.7028998441583,2005.1040787826114,-2240.1663207740639,2240.1663207740639,-2005.1040787826114,4100.4186395514807,0.0
708523.2936376977,3547751.2368613081,-12500.0,1884.9019186627945,-337.51700175799709,-2304.6744488594532,-223.03365694946947,-365.90093145870435,-38.36414629773261,2162.6148853670529,1925.0718921369071,-2001.5664125423382,2001.5664125423382,-1925.0718921369071,3753.1943904445548,0.0
713523.2936376977,3547751.2368613081,-12500.0,1461.9844237531292,143.16276039555885,-2455.3713108798165,-109.67864523071968,-421.38427863197148,-49.517291897900897,2004.2810422727559,1758.6617105942771,-1712.9259766510302,1712.9259766510302,-1758.6617105942771,3512.7613851143183,0.0
718523.2936376977,3547751.2368613081,-12500.0,1049.7947809252105,515.22167690339143,-2472.7242533457356,-17.011798806532184,-445.5703124969109,-55.71303870250307,1875.4197850729599,1541.876047541969,-1411.3897121205841,1411.3897121205841,-1541.876047541969,3336.0069832016638,0.0
723523.2936376977,3547751.2368613081,-12500.0,668.23071660844482,788.33487081111775,-2399.4729052904127,55.740061136313777,-447.27623014845301,-58.21336975900018,1764.5368647308846,1302.9277251455137,-1121.4313351586725,1121.4313351586725,-1302.9277251455137,3191.2248298415784,0.0
728523.2936376977,3547751.2368613081,-12500.0,328.89082403151582,976.54214340349506,-2269.1578621046719,110.56989062424911,-433.70832079025558,-58.084376358159766,1664.0831611723011,1062.1686818559044,-857.39385622707005,857.39385622707005,-1062.1686818559044,3058.7768582468179,0.0
583523.2936376977,3552751.2368613081,-12500.0,2738.2568223332405,1294.7832863967797,-185.69470925183344,534.966116238425,148.21853436673291,66.961850896519834,2001.7822956557018,2246.2089850466637,165.28623711369323,-165.28623711369323,-2246.2089850466637,3718.6605216112948,0.0
588523.2936376977,3552751.2368613081,-12500.0,3083.0721268967063,1775.7140708586669,251.45178714978809,653.66785966776229,272.16170227621461,91.543028323719582,2335.2294823049065,2425.5645013591634,685.03992862897201,-685.03992862897201,-2425.5645013591634,4411.3476202624634,0.0
593523.2936376977,3552751.2368613081,-12500.0,3395.8246437470521,2322.6860262817736,858.49028294441996,783.23414513980458,434.84274258247825,122.23324955071976,2730.4693917257991,2538.0605267306737,1361.6824655263599,-1361.6824655263599,-2538.0605267306737,5238.3693347898125,0.0
598523.2936376977,3552751.2368613081,-12500.0,3648.0546428015873,2920.3513384467783,1670.9357255638049,919.05514041080221,642.91565916442937,159.80646586255867,3191.8011865682579,2550.0018481570646,2213.4655180671284,-2213.4655180671284,-2550.0018481570646,6208.0236473307905,0.0
603523.2936376977,3552751.2368613081,-12500.0,3806.9085643543326,3540.0858460326544,2721.3505465226281,1053.680053462848,901.95870162794211,204.7781859881824,3720.4851572854295,2423.5561843720729,3249.0678170759552,-3249.0678170759552,-2423.5561843720729,7321.9802522734381,0.0
608523.2936376977,3552751.2368613081,-12500.0,3838.2259711405245,4136.896465691555,4032.6886054085048,1176.3334779610477,1215.063545872162,257.19129397849503,4313.3955472437765,2120.578046067857,4460.7788480069094,-4460.7788480069094,-2120.578046067857,8572.0568844986792,0.0
613523.2936376977,3552751.2368613081,-12500.0,3711.8432992102485,4647.778565214322,5609.0377410558303,1272.792163345571,1580.9676791535655,316.35347718555232,4978.9864202382751,1609.0258130184711,5816.5391154588842,-5816.5391154588842,-1609.0258130184711,9936.5242994688615,0.0
618523.2936376977,3552751.2368613081,-12500.0,3409.2190130314893,4993.094849796883,7424.2154306986531,1325.926181591469,1991.8630822440296,380.55655179035114,5732.8799531577297,872.13028752307036,7252.1193794564606,-7252.1193794564606,-872.13028752307036,11376.416234462027,0.0
623523.2936376977,3552751.2368613081,-12500.0,2932.7243000420431,5082.8531235957316,9409.8246020664355,1317.242517267259,2431.2406389651369,446.840338358552,6494.1084291627176,-80.380644879653119,8665.7959970243955,-8665.7959970243955,80.380644879653119,12832.697746855672,0.0
628523.2936376977,3552751.2368613081,-12500.0,2314.7350193471812,4829.5169051242901,11445.959683584153,1229.6836571581844,2872.4196935179884,510.89805688733901,7219.0024304759354,-1201.0808880149689,9918.9589979112334,-9918.9589979112334,1201.0808880149689,14225.532791625101,0.0
633523.2936376977,3552751.2368613081,-12500.0,1623.1861722303079,4167.7202885795386,13359.43383204458,1051.6501849944161,3278.6892313237049,567.24231949355499,7855.6490511194143,-2397.4968649898037,10846.623408450097,-10846.623408450097,2397.4968649898037,15457.177488025049,0.0
638523.2936376977,3552751.2368613081,-12500.0,959.14991605993612,3078.5586252759772,14935.260612050064,781.67846782374124,3606.0685341590602,609.73402175401634,8347.0537219540001,-3533.8722720772339,11280.827894436297,-11280.827894436297,3533.8722720772339,16419.928775717588,0.0
643523.2936376977,3552751.2368613081,-12500.0,442.44787454303679,1612.1830230684554,15945.676096840405,432.49352868631792,3809.3171370800296,632.49548221966882,8638.3534571601667,-4447.0996698563613,11086.350526469016,-11086.350526469016,4447.0996698563613,17009.735370667604,0.0
648523.2936376977,3552751.2368613081,-12500.0,184.64208258151902,-101.22835456496988,16195.782180020398,32.594731131185256,3850.7919809830505,631.07824098705419,8686.4561026911269,-4978.4040753643403,10201.868347417518,-10201.868347417518,4978.4040753643403,17144.319351253365,0.0
653523.2936376977,3552751.2368613081,-12500.0,255.14579805138595,-1862.3558782889536,15576.141576004598,-376.35355816759176,3710.1978393124818,603.59090401263143,8470.5007010438821,-5015.1544038411403,8672.7216169479361,-8672.7216169479361,5015.1544038411403,16782.208969548454,0.0
658523.2936376977,3552751.2368613081,-12500.0,653.02269720507059,-3439.5655115966001,14104.064327200384,-746.82148020415286,3391.9209617331021,551.40184201383511,8005.562540996908,-4528.8245290815303,6658.684097213134,-6658.684097213134,4528.8245290815303,15937.007159791337,0.0
663523.2936376977,3552751.2368613081,-12500.0,1298.9658512795922,-4623.6118790471237,11933.72763831593,-1035.771030401696,2926.5770112225973,479.11053695448066,7399.8880867434536,-3591.5991368623554,4406.635535896502,-4406.635535896502,3591.5991368623554,14681.133174432554,0.0
668523.2936376977,3552751.2368613081,-12500.0,2054.7898040831892,-5280.4497152748936,9325.5641849803196,-1214.5448704838645,2365.2891565068903,393.72802214795024,6699.1992257019747,-2360.7619395149732,2193.4830118048076,-2193.4830118048076,2360.7619395149732,13136.174309366534,0.0
673523.2936376977,3552751.2368613081,-12500.0,2763.9629352332513,-5380.3700271743282,6584.0672728600248,-1274.5260076082434,1768.3494906003193,303.30534226784124,5935.161447015862,-1035.2449819519052,260.42391051637981,-260.42391051637981,1035.2449819519052,11451.968213689332,0.0
678523.2936376977,3552751.2368613081,-12500.0,3295.4956787787337,-4992.7568324909271,3988.422051442265,-1226.6727884810473,1192.4204364668349,215.4455540356002,5174.0323488398826,197.18950466029992,-1235.7777498877731,1235.7777498877731,-197.18950466029992,9780.7844233726119,0.0
683523.2936376977,3552751.2368613081,-12500.0,3573.1641221255968,-4252.8038082797902,1741.5269747339739,-1095.8596843130279,680.68697014635768,136.13167446258623,4473.350033357975,1200.774529058971,-2239.0700841490457,2239.0700841490457,-1200.774529058971,8253.7531263243945,0.0
688523.2936376977,3552751.2368613081,-12500.0,3581.9799970076469,-3317.804906058238,-49.498970084218136,-912.92768034396647,258.42502532325938,69.129545387731596,3871.7280141275523,1908.480377680685,-2779.5388301743287,2779.5388301743287,-1908.480377680685,6963.839800571729,1.0
693523.2936376977,3552751.2368613081,-12500.0,3355.748398307569,-2330.3142938402002,-1364.202070545593,-707.49718329149914,-66.187884663266345,15.98235115815408,3385.3259008305968,2315.8611909660231,-2941.6701057297514,2941.6701057297514,-2315.8611909660231,5956.0333094744419,0.0
698523.2936376977,3552751.2368613081,-12500.0,2955.9261318004528,-1397.1200570577746,-2243.5038196864448,-503.35459075364963,-297.95027829296725,-23.570320719717117,3009.5882978433533,2461.6855223230777,-2830.95769164586,2830.95769164586,-2461.6855223230777,5225.1355804437517,0.0
703523.2936376977,3552751.2368613081,-12500.0,2451.3595103774833,-583.9179340819793,-2761.3144812830128,-316.69455005228684,-449.47673184747731,-50.986065725413191,2725.5240633506628,2406.0122232835388,-2548.8083883332497,2548.8083883332497,-2406.0122232835388,4724.3673222581147,0.0
708523.2936376977,3552751.2368613081,-12500.0,1904.138584125034,79.507079786877114,-3001.4113435700347,-156.5005091818249,-536.63663649741648,-68.327205757348409,2508.297345199333,2212.6107121639152,-2178.6475175001688,2178.6475175001688,-2212.6107121639152,4385.816909841531,0.0
713523.2936376977,3552751.2368613081,-12500.0,1362.5016846373935,589.52942277734292,-3042.4992711671962,-26.056795563904476,-575.32625725976709,-77.798893380613833,2334.6872928850344,1938.0888080228908,-1781.4204429670465,1781.4204429670465,-1938.0888080228908,4143.8685247587746,0.0
718523.2936376977,3552751.2368613081,-12500.0,859.24229856812678,958.6573934201441,-2950.7463431386022,75.238573556805676,-579.62027824459665,-81.451713903479671,2187.0722932429048,1627.0484448731095,-1397.0009909650767,1397.0009909650767,-1627.0484448731095,3949.5339846344932,0.0
723523.2936376977,3552751.2368613081,-12500.0,413.38623342350638,1207.4144477000891,-2777.6121139604161,150.25486993876191,-560.99980778943018,-81.029830052790132,2054.0580354488302,1311.3766958732506,-1048.3203219644099,1048.3203219644099,-1311.3766958732506,3772.8871877836991,0.0
728523.2936376977,3552751.2368613081,-12500.0,33.253422168456062,1358.7239302661953,-2560.734251259245,202.90475344248779,-528.27374481804293,-77.923945108822963,1929.2733547815606,1011.7818455824313,-746.07831162802267,746.07831162802267,-1011.7818455824313,3598.869594462004,0.0
733523.2936376977,3552751.2368613081,-12500.0,-280.313214720129,1434.5346260760407,-2326.1893917604975,237.32997283792542,-487.86841429562554,-73.187516828193665,1809.7182416788226,740.18941599541665,-492.91979120439544,492.91979120439544,-740.18941599541665,3421.8351822867835,0.0
578523.2936376977,3557751.2368613081,-12500.0,2455.2118849755211,635.13891767586972,-862.14618824438867,423.67266197232573,-16.072897164856279,42.970579739717586,1813.5035132733865,2176.3320086627696,-638.92365531344012,638.92365531344012,-2176.3320086627696,3251.3042696711609,0.0
583523.2936376977,3557751.2368613081,-12500.0,2900.7502714086772,1071.8616841062437,-612.53324177208958,546.77041687515134,73.863340475105389,64.22634037643202,2107.2946112462878,2483.2806563573736,-287.30750045671493,287.30750045671493,-2483.2806563573736,3844.9212929189152,0.0
588523.2936376977,3557751.2368613081,-12500.0,3355.0964245514342,1604.9423579213442,-217.84934899951537,689.7095770265413,200.86709136769736,92.003113843206691,2467.640004777089,2765.128689342378,216.99663132318119,-216.99663132318119,-2765.128689342378,4585.9049909246214,0.0
593523.2936376977,3557751.2368613081,-12500.0,3793.0173534148171,2235.2746505174305,366.68003687967325,851.0653168868771,374.4912446309865,127.62932431612309,2904.7294691786537,2989.8976599414877,908.02246027981164,-908.02246027981164,-2989.8976599414877,5495.3641293672026,0.0
598523.2936376977,3557751.2368613081,-12500.0,4180.2564572784722,2952.9563782325085,1191.1283084159572,1026.7140249623719,604.9041062635298,172.39487071212812,3427.2388154535679,3115.9055169066087,1817.9896931911462,-1817.9896931911462,-3115.9055169066087,6590.7386397857554,0.0
603523.2936376977,3557751.2368613081,-12500.0,4474.0094465768234,3732.0465030293644,2306.6452214948699,1208.7945168563276,901.81046349920177,227.34745078984918,4040.7731192755423,3092.6486970275478,2971.1510166926478,-2971.1510166926478,-3092.6486970275478,7882.6007570750135,0.0
608523.2936376977,3557751.2368613081,-12500.0,4625.6138513006881,4524.9783989415055,3757.8009782930094,1384.6967899709011,1272.6708411290206,292.99059983256944,4745.9105819177603,2864.2790001786852,4374.8066088557116,-4374.8066088557116,-2864.2790001786852,9370.2899919326192,0.0
613523.2936376977,3557751.2368613081,-12500.0,4586.4508705682047,5257.9334784068751,5570.6557628465671,1536.376561712367,1720.0990901767295,368.88249761339068,5537.5991628197589,2376.8381340166789,6007.5992378120091,-6007.5992378120091,-2376.8381340166789,11036.424625982248,0.0
618523.2936376977,3557751.2368613081,-12500.0,4317.8065780219476,5829.3786435376005,7736.3902420858758,1640.4629401593024,2238.4827762382652,453.16658400313946,6454.6660702846684,1590.1559059246401,7806.2610080885543,-7806.2610080885543,-1590.1559059246401,12840.735539853886,0.0
623523.2936376977,3557751.2368613081,-12500.0,3804.5815085433778,6114.8671077088102,10191.823064168815,1669.7717024690235,2810.1944660723634,542.11909724668112,7435.6681475145642,494.37697504263815,9653.6727599050409,-9653.6727599050409,-494.37697504263815,14714.259812286848,0.0
628523.2936376977,3557751.2368613081,-12500.0,3071.0075290220771,5981.5982895324114,12800.654113351689,1596.8494873347361,3402.2700122963897,629.86949495358101,8396.5417190128937,-870.8709250073498,11373.282667421639,-11373.282667421639,870.8709250073498,16555.701457495332,0.0
633523.2936376977,3557751.2368613081,-12500.0,2193.8615901195649,5315.2256217638997,15342.642655948583,1399.8707883748241,3965.0505457019308,708.51142463466397,9266.0269089227968,-2399.7489473136866,12736.937735912832,-12736.937735912832,2399.7489473136866,18232.550977753446,0.0
638523.2936376977,3557751.2368613081,-12500.0,1305.7246614516705,4057.8189881205767,17521.044325788967,1070.3984565355613,4434.7511694010027,768.82550258464039,9961.860372949448,-3914.5868943250898,13493.415576370149,-13493.415576370149,3914.5868943250898,19589.967871433753,0.0
643523.2936376977,3557751.2368613081,-12500.0,579.56183157177611,2249.012264859,18998.814364956816,621.15933783888204,4741.6957678738772,801.71016357947997,10400.385668833014,-5182.0002607605329,13420.862363034632,-13420.862363034632,5182.0002607605329,20469.712481604034,0.0
648523.2936376977,3557751.2368613081,-12500.0,189.5766422827902,53.741415620144622,19467.437536034551,90.530071518647318,4824.4199852716902,800.13578698887682,10511.845971798584,-5957.9261589269499,12395.835864740899,-12395.835864740899,5957.9261589269499,20738.774431789559,0.0
653523.2936376977,3557751.2368613081,-12500.0,254.40336197478899,-2244.6764503312138,18736.402524816989,-460.01999416092553,4646.8343211413076,761.08849981969695,10258.862987222965,-6056.5884935732784,10456.453800457963,-10456.453800457963,6056.5884935732784,20322.555166618367,0.0
658523.2936376977,3557751.2368613081,-12500.0,784.1252162914036,-4299.5013282699356,16811.369713326265,-957.40859252827693,4212.3588585021653,686.77472515989871,9664.5788564674094,-5420.1329931211476,7826.6346262256957,-7826.6346262256957,5420.1329931211476,19232.29662630181,0.0
663523.2936376977,3557751.2368613081,-12500.0,1660.8170514141932,-5793.3689377040182,13920.007240491605,-1334.9267489351776,3567.9451317080616,584.52145700346148,8881.2444192701387,-4153.7633596700962,4876.3833721115388,-4876.3833721115388,4153.7633596700962,17574.607400987203,0.0
668523.2936376977,3557751.2368613081,-12500.0,2670.5761298493144,-6531.6126728924355,10461.820287851109,-1549.9138930385063,2794.3269005110819,465.30727422315852,7959.8866032181086,-2501.1700564114699,2023.8684700047461,-2023.8684700047461,2501.1700564114699,15535.953925579863,0.0
673523.2936376977,3557751.2368613081,-12500.0,3575.6757078821911,-6491.4241038366999,6898.053306251204,-1593.3988993308808,1985.5646245937323,341.41685796104775,6968.3353951024574,-767.0454368937759,-379.49153159167543,379.49153159167543,767.0454368937759,13345.560079848245,0.0
678523.2936376977,3557751.2368613081,-12500.0,4190.5466483407863,-5805.7505402189454,3631.5990972146019,-1488.0029904673452,1226.4582303559894,224.01216634559111,6005.1079002907327,775.32470874191165,-2128.8921726608764,2128.8921726608764,-775.32470874191165,11229.604156144556,0.0
683523.2936376977,3557751.2368613081,-12500.0,4426.0746001080497,-4698.1032689575059,927.42684451075593,-1276.5661902621093,576.6136451858315,121.34852915746011,5148.8735563851515,1948.7538606814824,-3182.8348842164232,3182.8348842164232,-1948.7538606814824,9370.8761082540968,0.0
688523.2936376977,3557751.2368613081,-12500.0,4290.3624302934768,-3405.9736653383934,-1105.9571800109941,-1007.7858872396325,65.241540173221821,38.019015516205457,4444.1272132814211,2689.3864999457969,-3625.8096893853713,3625.8096893853713,-2689.3864999457969,7881.454312563832,0.0
693523.2936376977,3557751.2368613081,-12500.0,3858.7842821553477,-2124.7792543358,-2486.9466260351828,-724.67803442335219,-304.85052902153581,-24.814958283862406,3898.7406661550876,3024.9803261618913,-3608.0987081923345,3608.0987081923345,-3024.9803261618913,6790.0445520815865,0.0
698523.2936376977,3557751.2368613081,-12500.0,3235.2972268447456,-983.71159738569872,-3311.0395716777343,-458.50846874419187,-548.59111500731001,-68.557219939447776,3491.5962203318013,3036.4463470476535,-3291.6816256247325,3291.6816256247325,-3036.4463470476535,6048.0119002775209,0.0
703523.2936376977,3557751.2368613081,-12500.0,2521.3685999595664,-47.528778994549512,-3704.2461943182911,-227.76282381955386,-689.61765303074856,-96.108780887010184,3186.9232372149618,2821.9471977486273,-2816.2176147777036,2816.2176147777036,-2821.9471977486273,5559.0632024149991,0.0
708523.2936376977,3557751.2368613081,-12500.0,1798.4682432511574,668.11932060326399,-3790.8626374245414,-40.222436873536438,-753.3619152764403,-110.9289953643566,2948.64571382541,2472.7880665343132,-2285.2667947903615,2285.2667947903615,-2472.7880665343132,5221.1905633081533,0.0
713523.2936376977,3557751.2368613081,-12500.0,1122.5194139226546,1178.3861170148107,-3676.5636885931622,103.81080372476271,-762.8866398651129,-116.38090225985762,2748.9066561481086,2061.7615589915008,-1766.2855877400621,1766.2855877400621,-2061.7615589915008,4956.2674153318931,0.0
718523.2936376977,3557751.2368613081,-12500.0,525.84033448019375,1513.8032808163885,-3442.8622159771471,208.42896258983831,-737.03239606025818,-115.37060546592038,2569.9732841899595,1640.5029299208736,-1297.3289050793296,1297.3289050793296,-1640.5029299208736,4717.1766116677336,0.0
723523.2936376977,3557751.2368613081,-12500.0,22.384155132068255,1709.6174520630229,-3148.1641875348132,279.74683436965773,-690.08539715272627,-110.21353233800825,2402.3331490209252,1241.801086843928,-895.47765923557813,895.47765923557813,-1241.801086843928,4481.2225451282402,0.0
728523.2936376977,3557751.2368613081,-12500.0,-386.47753348128469,1799.5367435957012,-2831.7327266460397,324.33939772188654,-632.25108735477602,-102.64285824021248,2241.8354206546592,883.81171128908545,-564.38735882412948,564.38735882412948,-883.81171128908545,4240.7184789823777,0.0
733523.2936376977,3557751.2368613081,-12500.0,-706.99686852391767,1812.7233387926942,-2518.3154443538278,348.35242539589473,-570.43839818909657,-93.888890584267358,2087.30287282063,574.38811001884858,-300.03418950630362,300.03418950630362,-574.38811001884858,3995.6796780304821,0.0
738523.2936376977,3557751.2368613081,-12500.0,-949.35247666279781,1772.8371076428632,-2222.3285371960324,357.08712303192078,-509.07049840849174,-84.782211957032331,1938.9446578545362,314.72367521895723,-94.643638669017434,94.643638669017434,-314.72367521895723,3749.3163684844249,0.0
578523.2936376977,3562751.2368613081,-12500.0,2440.476169888726,292.68641948854611,-1273.1359939630511,395.73104742261262,-107.52529972058956,34.522200744228016,1917.0475482908641,2261.6267021218464,-1123.7790332922075,1123.7790332922075,-2261.6267021218464,3377.3125641624074,0.0
583523.2936376977,3562751.2368613081,-12500.0,2985.3034428063738,739.56768509542667,-1099.0282938096996,535.73523105651009,-25.156044667468187,57.159384382241512,2221.1214705836733,2668.4703639854761,-834.08240166081941,834.08240166081941,-2668.4703639854761,3974.9337013409468,0.0
588523.2936376977,3562751.2368613081,-12500.0,3565.686147530987,1309.7610472379654,-776.81513801117376,703.78916203398876,98.855703783857223,87.736455584410137,2602.1169684801534,3072.9506835678112,-377.66150381642728,377.66150381642728,-3072.9506835678112,4744.6967630402487,0.0
593523.2936376977,3562751.2368613081,-12500.0,4156.0252254628767,2013.8394930701772,-250.55549107291975,900.26807679571459,277.42544790657684,128.18114485769544,3075.7286241264692,3440.7496017575072,292.99423189723848,-292.99423189723848,-3440.7496017575072,5720.266818381986,0.0
598523.2936376977,3562751.2368613081,-12500.0,4717.7909416828188,2851.7397104288457,546.6995587131737,1122.5020416749519,525.27285845455071,180.5046198594768,3657.0109791194236,3723.232291901908,1228.107353761123,-1228.107353761123,-3723.232291901908,6932.8608790712196,0.0
603523.2936376977,3562751.2368613081,-12500.0,5198.3440653532625,3805.4596793340274,1689.5873657438001,1363.1839238036653,857.86153204417803,246.54999963428679,4358.431477670908,3856.536141459309,2474.0324248888564,-2474.0324248888564,-3856.536141459309,8407.3871096263392,0.0
608523.2936376977,3562751.2368613081,-12500.0,5532.2238059501551,4830.1839999282156,3252.6212289705322,1608.575778532293,1289.3332797838032,327.58252341437776,5187.2487314845712,3763.5827868981978,4062.3250774765875,-4062.3250774765875,-3763.5827868981978,10156.873857311064,0.0
613523.2936376977,3562751.2368613081,-12500.0,5646.6272478203346,5845.1231675648678,5296.0263427060981,1836.8577230705432,1829.1090203095455,423.69655788005281,6142.7736707413478,3361.0134457572585,5993.7709823056884,-5993.7709823056884,-3361.0134457572585,12174.818873408376,0.0
618523.2936376977,3562751.2368613081,-12500.0,5472.9043103702861,6726.7861884483236,7843.7946645074544,2017.2638177579402,2476.9734642050394,533.05987423625493,7237.6079380399251,2573.2013257421013,8217.8613084675817,-8217.8613084675817,-2573.2013257421013,14425.609986508167,0.0
623523.2936376977,3562751.2368613081,-12500.0,4965.224229209929,7309.2351105853049,10854.12134576001,2111.0009328944402,3216.8626859702672,651.10094267951183,8494.8986694142968,1354.8020118832337,10610.520234543519,-10610.520234543519,-1354.8020118832337,16834.029295027154,0.0
628523.2936376977,3562751.2368613081,-12500.0,4125.5146079960978,7397.5840293996916,14185.816653175862,2075.208026393163,4010.3546469529697,769.87867478085275,9773.0749062293471,-278.96769681601381,12956.575072589723,-12956.575072589723,278.96769681601381,19276.143998628409,0.0
633523.2936376977,3562751.2368613081,-12500.0,3029.6897108313519,6801.329123732311,17570.034002487577,1871.0776670207492,4792.0516374629333,878.02750122791178,10969.985823444469,-2219.7861748196956,14948.118835006346,-14948.118835006346,2219.7861748196956,21575.575933344338,0.0
638523.2936376977,3562751.2368613081,-12500.0,1844.0839001985948,5390.6240290519472,20604.067547835635,1476.2406388825852,5470.3658066420057,961.734615916552,11967.002486227202,-4244.0764130881398,16213.579697614059,-16213.579697614059,4244.0764130881398,23510.793958915867,0.0
643523.2936376977,3562751.2368613081,-12500.0,815.19672110505678,3168.262409917671,22789.419741757665,899.16957529204501,5937.7610225319213,1007.0274232540683,12635.420403244822,-6021.3055841179357,16390.218272256476,-16390.218272256476,6021.3055841179357,24839.447286528277,0.0
648523.2936376977,3562751.2368613081,-12500.0,216.83379988632808,332.20872979603547,23631.354335220378,190.01834915779958,6092.6868174685942,1003.0938376548937,12860.025016430896,-7173.1608509701828,15237.817548540363,-15237.817548540363,7173.1608509701828,25342.651434940712,0.0
653523.2936376977,3562751.2368613081,-12500.0,255.59480725854107,-2713.6306408174069,22791.339356864177,-559.99752795951179,5869.9548799452305,945.60050540329485,12571.750399279063,-7386.3786850648203,12760.558821789138,-12760.558821789138,7386.3786850648203,24883.47593190071,0.0
658523.2936376977,3562751.2368613081,-12500.0,969.16611126466353,-5438.1164668359561,20238.899510828403,-1236.3429138270851,5268.583287236047,838.57809958613268,11799.759380865326,-6543.4471621091488,9272.1146158761276,-9272.1146158761276,6543.4471621091488,23461.350084239377,0.0
663523.2936376977,3562751.2368613081,-12500.0,2179.279461346378,-7344.3900921159511,16316.314631282201,-1733.1088595858203,4361.9066266805294,693.91531732388228,10758.716417927706,-4799.4192921967206,5341.5752281137466,-5341.5752281137466,4799.4192921967206,21236.068371363694,0.0
668523.2936376977,3562751.2368613081,-12500.0,3544.9559616595216,-8142.3802492872583,11655.292944777511,-1985.7055318371711,3280.6552772939713,528.62942019611739,9528.6042787926417,-2543.657130964184,1619.4707920444664,-1619.4707920444664,2543.657130964184,18502.741996299497,0.0
673523.2936376977,3562751.2368613081,-12500.0,4696.5005145010491,-7835.3435287823586,6973.3595314758732,-1987.7435693527511,2174.7306707198718,361.00326594805171,8228.8748331522202,-255.48575971613911,-1372.1016780433647,1372.1016780433647,255.48575971613911,15622.787778880604,0.0
678523.2936376977,3562751.2368613081,-12500.0,5371.5549878813326,-6676.3625769316195,2858.1116861275045,-1784.5848944145821,1172.1855798717486,206.89253870310603,7007.2711737750524,1663.5724240615441,-3373.531344038694,3373.531344038694,-1663.5724240615441,12938.61614777373,0.0
683523.2936376977,3562751.2368613081,-12500.0,5480.2231868627878,-5037.2907363014483,-356.16663115912348,-1450.1162012212494,353.53177354470273,77.207057819389689,5968.9946596092086,2991.8743228534559,-4393.6863370441051,4393.6863370441051,-2991.8743228534559,10701.788640147552,0.0
688523.2936376977,3562751.2368613081,-12500.0,5085.4878776729693,-3273.7427522097646,-2590.9266091679674,-1060.7051463344826,-252.33570388896308,-22.941684550616618,5157.118575882082,3694.2439598606302,-4621.1809980988501,4621.1809980988501,-3694.2439598606302,9029.255242666035,0.0
693523.2936376977,3562751.2368613081,-12500.0,4336.4868811830129,-1644.0393499063448,-3947.326001535766,-677.2688663985457,-656.40009257075837,-93.548799895807392,4556.9309229803384,3864.3136164320986,-4312.0511279175762,4312.0511279175762,-3864.3136164320986,7894.709881596973,0.0
698523.2936376977,3562751.2368613081,-12500.0,3400.6493623757278,-290.27994263914286,-4612.6150451101175,-338.54121058037879,-892.22312973574321,-138.10127834961642,4118.4745820847356,3651.9606679835301,-3705.99288383264,3705.99288383264,-3651.9606679835301,7166.7999926052798,0.0
703523.2936376977,3562751.2368613081,-12500.0,2419.8491062142803,741.01105470919413,-4787.9511583585909,-62.74115494246896,-1000.8567940182787,-161.79390921108455,3784.5060465364713,3208.1968974152137,-2985.9012810831314,2985.9012810831314,-3208.1968974152137,6683.8269409843097,0.0
708523.2936376977,3562751.2368613081,-12500.0,1493.1742727752699,1464.9749419388372,-4648.1603089018827,146.85354664976379,-1021.1064022642543,-170.10716530483509,3509.3986580168644,2656.1420884597837,-2270.9336717154692,2270.9336717154692,-2656.1420884597837,6316.554065301314,0.0
713523.2936376977,3562751.2368613081,-12500.0,677.7508171273239,1927.7775917493568,-4327.2391808258371,295.87232797478771,-984.90760325931217,-167.9363179196211,3264.5272408895753,2082.6366824970537,-1627.0300034611353,1627.0300034611353,-2082.6366824970537,5987.8364666795978,0.0
718523.2936376977,3562751.2368613081,-12500.0,-2.1200256835528148,2185.2899771774078,-3919.0190352010982,394.06288175321419,-916.211387054792,-159.21233895292184,3035.2710042892427,1541.4818121971048,-1082.5717828450274,1082.5717828450274,-1541.4818121971048,5662.3426736722568,0.0
723523.2936376977,3562751.2368613081,-12500.0,-544.15644468964615,2290.906235796615,-3484.3892019598488,452.15127908334898,-831.73745270637596,-146.85301161145458,2815.8464293390139,1061.1432272103823,-642.66319887347515,642.66319887347515,-1061.1432272103823,5329.5798432185911,0.0
728523.2936376977,3562751.2368613081,-12500.0,-958.87025308822592,2290.0095117272472,-3059.9265831306775,480.10603024770415,-742.43778500751625,-132.88728584409665,2605.0648147429752,652.79138819735374,-299.78144564762158,299.78144564762158,-652.79138819735374,4990.9618303578909,0.0
733523.2936376977,3562751.2368613081,-12500.0,-1262.889189621611,2218.4715119735679,-2665.5376804371322,486.37488275161002,-655.02300753950783,-118.64172225634212,2403.65407449341,316.91552191515598,-40.775337726891649,40.775337726891649,-316.91552191515598,4652.246402312152,0.0
738523.2936376977,3562751.2368613081,-12500.0,-1474.6608001369746,2103.2267893469852,-2310.3588368121191,477.70294071485347,-573.26522043994362,-104.92601313175913,2212.8231945794132,48.108713566195206,148.98715567023498,-148.98715567023498,-48.108713566195206,4319.772839789417,0.0
743523.2936376977,3562751.2368613081,-12500.0,-1611.9790260391164,1963.6952720184106,-1996.9531115154705,459.2504477831431,-498.99954341379532,-92.189855640972468,2033.6066585285264,-161.76779444576459,283.41725558342119,-283.41725558342119,161.76779444576459,3998.884286064012,0.0
573523.2936376977,3567751.2368613081,-12500.0,1738.0803224663277,-459.3690806604813,-1686.1221380739928,216.64817734130037,-254.82228987621531,5.191680404266652,1803.8977742096035,1785.1472874066401,-1735.9401379726717,1735.9401379726717,-1785.1472874066401,3124.5761853180275,0.0
578523.2936376977,3567751.2368613081,-12500.0,2301.3708240703122,-151.64963412619954,-1704.8826313674085,337.6447216641339,-218.96411669440462,21.151360218960175,2046.829253087835,2248.3146068013612,-1663.3910461809674,1663.3910461809674,-2248.3146068013612,3559.3778962504757,0.0
583523.2936376977,3567751.2368613081,-12500.0,2946.4072292925362,279.6837201957822,-1631.5216356620085,491.59139383540941,-151.36428852779397,44.234809322147669,2354.6069097280888,2760.5985118447088,-1468.8254371134769,1468.8254371134769,-2760.5985118447088,4137.9327259387292,0.0
588523.2936376977,3567751.2368613081,-12500.0,3663.5123597572251,860.94640068333103,-1416.3782731040585,683.24171134343737,-38.867481261251683,76.71303507792571,2747.0857988467383,3303.5032196110933,-1101.6950025817025,1101.6950025817025,-3303.5032196110933,4906.9894856384381,0.0
593523.2936376977,3567751.2368613081,-12500.0,4430.4050395148788,1615.9608924842773,-993.03205392388202,915.87283807040831,135.24170564791268,121.26704434568289,3246.8795172728887,3843.8354230801633,-499.86742724128658,499.86742724128658,-3843.8354230801633,5917.5442766110591,0.0
598523.2936376977,3567751.2368613081,-12500.0,5207.8331090698948,2559.9550842413655,-276.58734987683039,1189.6848478368854,391.238609600899,180.86290007974713,3877.8574102568455,4329.0911367313165,408.40418026778866,-408.40418026778866,-4329.0911367313165,7221.1247151902526,0.0
603523.2936376977,3567751.2368613081,-12500.0,5935.7544853226073,3690.2720718756482,835.25362261026135,1499.5557827041305,752.17828721597607,258.45910809309174,4662.7817617902019,4683.6139882157622,1698.5766837874219,-1698.5766837874219,-4683.6139882157622,8864.9526190728629,0.0
608523.2936376977,3567751.2368613081,-12500.0,6531.7385644633205,4973.6561111963483,2455.844515470696,1832.1957140082106,1241.7969665212172,356.46945407336062,5619.9492308356876,4807.4582231106187,3437.9166469893307,-3437.9166469893307,-4807.4582231106187,10885.122237493706,0.0
613523.2936376977,3567751.2368613081,-12500.0,6894.1504986391601,6330.9375248310362,4694.7105881947991,2163.0125291726372,1880.4410492851669,475.91237402492703,6759.0150007715501,4580.9300090188099,5665.554150799655,-5665.554150799655,-4580.9300090188099,13296.659073294306,0.0
618523.2936376977,3567751.2368613081,-12500.0,6913.4430520556207,7621.8981021142235,7630.6035077017477,2453.4623343054282,2678.4056709217575,615.22957356548693,8083.7225462487249,3878.7085428604096,8363.3857499867827,-8363.3857499867827,-3878.7085428604096,16079.758608774224,0.0
623523.2936376977,3567751.2368613081,-12500.0,6494.9174977764969,8636.1045543121363,11270.088050660093,2650.3161321193525,3626.44603315826,768.88783244271235,9658.4736947185374,2597.5989507024624,11419.354719477464,-11419.354719477464,-2597.5989507024624,19162.599058948814,0.0
628523.2936376977,3567751.2368613081,-12500.0,5594.6469980952688,9099.3281011737527,15492.986859947374,2689.0258355399433,4684.2339837931504,926.11954090040922,11359.507700272976,700.22132512253484,14589.801117680576,-14589.801117680576,-700.22132512253484,22403.013003183696,0.0
633523.2936376977,3567751.2368613081,-12500.0,4265.2693918585383,8708.6276088042141,19994.156439603572,2503.8096483634281,5769.493807972558,1070.4980520938568,13018.28841831206,-1728.6283134113928,17475.97120589581,-17475.97120589581,1728.6283134113928,25574.276106539794,0.0
638523.2936376977,3567751.2368613081,-12500.0,2698.2489359340161,7208.7746866292937,24244.94475453566,2046.2718410964064,6753.4400615055565,1181.3018494617124,14464.604336955847,-4427.8850870617607,19540.357700909437,-19540.357700909437,4427.8850870617607,28364.313271987277,0.0
643523.2936376977,3567751.2368613081,-12500.0,1234.3234014328414,4511.1734431854356,27515.159909042348,1310.9404886129955,7470.8651698623398,1237.3820940146984,15499.638950325261,-6941.3091696308038,20195.164721745336,-20195.164721745336,6941.3091696308038,30401.500348699523,0.0
648523.2936376977,3567751.2368613081,-12500.0,303.25700796485387,824.74134094450028,29003.918297052431,359.30418145960357,7752.5070886996782,1223.0607852172288,15929.240091288733,-8681.4189278752674,18981.534243434373,-18981.534243434373,8681.4189278752674,31319.435061317487,0.0
653523.2936376977,3567751.2368613081,-12500.0,271.44378736060645,-3279.357998800107,28095.503127994463,-673.46653331917526,7478.548868107574,1133.7563558924201,15621.025394509232,-9108.1307784010587,15803.361064485989,-15803.361064485989,9108.1307784010587,30859.976389578827,0.0
658523.2936376977,3567751.2368613081,-12500.0,1243.2550304925478,-6967.6670044359507,24661.687719043442,-1604.572129340932,6634.6401945215284,978.23464812285567,14595.146574888788,-7978.8070179658771,11093.02861870525,-11093.02861870525,7978.8070179658771,28984.893384624505,0.0
663523.2936376977,3567751.2368613081,-12500.0,2945.3959717660532,-9432.0601392615317,19225.648242922049,-2261.4657276805201,5337.3206922450181,776.18191630257149,13170.290802848558,-5523.0816509937049,5752.0294276994628,-5752.0294276994628,5523.0816509937049,25937.66352862076,0.0
668523.2936376977,3567751.2368613081,-12500.0,4815.1930254470826,-10226.286619712953,12823.49290621762,-2544.6745605994902,3804.2911629597052,552.84788433068832,11499.161965047109,-2386.3640870971913,829.49511431470933,-829.49511431470933,2386.3640870971913,22203.815097165654,0.0
673523.2936376977,3567751.2368613081,-12500.0,6262.4064409003404,-9426.6456079704094,6606.9837523374408,-2458.2815349450302,2280.0043144275,333.48340329147408,9778.4797657447652,653.68130604765224,-2882.2821427142762,2882.2821427142762,-653.68130604765224,18374.533459678507,0.0
678523.2936376977,3567751.2368613081,-12500.0,6922.2333782578226,-7517.8978749780063,1438.6796012104421,-2092.1030818695281,958.76874405418152,138.8952863984199,8231.3781740800332,3004.9958728222882,-5078.0605348523095,5078.0605348523095,-3004.9958728222882,14977.683475246189,0.0
683523.2936376977,3567751.2368613081,-12500.0,6742.4630627782453,-5121.5794213258196,-2292.6620042608365,-1573.4223726633918,-55.771484385301726,-17.537091693179043,6990.4602060668803,4417.2254057147111,-5898.0582530096599,5898.0582530096599,-4417.2254057147111,12344.297176724467,0.0
688523.2936376977,3567751.2368613081,-12500.0,5904.3083454274274,-2759.1980913824514,-4612.3408021730702,-1020.0243157207429,-747.02506699961532,-130.86047097495009,6076.1003047707727,4942.4580028825867,-5723.6344613789397,5723.6344613789397,-4942.4580028825867,10544.5924262717,0.0
693523.2936376977,3567751.2368613081,-12500.0,4681.339160016576,-748.85905387530556,-5782.5391911095203,-514.26564034430294,-1155.9956875311418,-203.33264159375176,5425.2359091355738,4798.7419749401161,-4973.1840462827568,4973.1840462827568,-4798.7419749401161,9419.3902362301033,0.0
698523.2936376977,3567751.2368613081,-12500.0,3328.0973888953581,783.57154626575846,-6135.5915253928806,-99.013429303706786,-1348.4329004644508,-241.75957529523961,4945.5840238550791,4241.2632961577683,-3983.5486084962063,3983.5486084962063,-4241.2632961577683,8709.0440793844446,0.0
703523.2936376977,3567751.2368613081,-12500.0,2027.8538075284791,1842.4270986292725,-5972.5848981125782,213.75994299003935,-1391.264047913608,-254.66986423625201,4559.2318510887317,3486.7891991279489,-2976.0189902363713,2976.0189902363713,-3486.7891991279489,8190.4384985652659,0.0
708523.2936376977,3567751.2368613081,-12500.0,886.30176151983051,2498.3812865243581,-5523.6647775256388,431.01275723839024,-1340.5553367364894,-250.2416985223,4217.8377980456307,2687.9407371571897,-2070.7837227622258,2070.7837227622258,-2687.9407371571897,7731.0093455535343,0.0
713523.2936376977,3567751.2368613081,-12500.0,-52.383621375695952,2843.1859800396769,-4945.8732167565886,568.54866244588004,-1237.9871483737602,-235.22076318851887,3898.113547028106,1936.7180998447254,-1317.2544129358605,1317.2544129358605,-1936.7180998447254,7273.4900167679043,0.0
718523.2936376977,3567751.2368613081,-12500.0,-784.34686916553687,2964.5092008942306,-4336.9218728827755,644.38027215372438,-1111.937026716254,-214.61880000443321,3591.9782869897167,1279.2497411626996,-722.5823090574022,722.5823090574022,-1279.2497411626996,6803.6177871316722,0.0
723523.2936376977,3567751.2368613081,-12500.0,-1328.0096615095131,2935.2526706412696,-3752.1578337246892,675.16248122580521,-980.30491976682174,-191.86093448382408,3298.6440331462886,731.49865504284037,-272.41880049141866,272.41880049141866,-731.49865504284037,6326.0708348549451,0.0
728523.2936376977,3567751.2368613081,-12500.0,-1711.481961181589,2811.2223037457579,-3219.1795564476529,674.72296733692417,-853.50287038966314,-169.1128471213411,3019.924581160265,291.81851559192626,56.092380389724568,-56.092380389724568,-291.81851559192626,5851.2860080103937,0.0
733523.2936376977,3567751.2368613081,-12500.0,-1964.9098372435533,2632.7445774318985,-2748.636721068126,653.7913755946953,-736.95186240769499,-147.62772100680337,2757.9424997218184,-50.37696770457562,287.12460816059195,-287.12460816059195,50.37696770457562,5389.4944688094229,0.0
738523.2936376977,3567751.2368613081,-12500.0,-2116.4109746399081,2427.654189594828,-2341.5274290013981,620.30279011805419,-632.93556053938266,-128.04170943027816,2514.2283423434369,-309.20899684266692,442.70632466235304,-442.70632466235304,309.20899684266692,4948.5925181047705,0.0
743523.2936376977,3567751.2368613081,-12500.0,-2190.2975382754826,2214.366986707601,-1993.8237084499731,579.90588455085617,-541.87798863858677,-110.59766601095809,2289.5167977575843,-499.26019340074481,541.41429859959885,-541.41429859959885,499.26019340074481,4533.7818815748706,0.0
568523.2936376977,3572751.2368613081,-12500.0,869.89210253923977,-1093.4156859894385,-1852.836415101262,29.09987038639759,-357.48926698393478,-21.251699207380234,1778.3193129346564,1121.3650968247739,-2080.057203208517,2080.057203208517,-1121.3650968247739,3123.0842025678844,0.0
573523.2936376977,3572751.2368613081,-12500.0,1375.7214085619019,-947.71412421490879,-2011.7110144859319,118.53845848162544,-363.20601225487417,-12.586634836600135,1976.5211713424392,1565.15707573947,-2190.6960452920248,2190.6960452920248,-1565.15707573947,3439.7229639660895,0.0
578523.2936376977,3572751.2368613081,-12500.0,1991.9750995450565,-701.02109290081228,-2134.4062244683191,240.23357962377182,-349.56855945704234,1.6575492532895244,2219.9243189126501,2093.5656021961831,-2235.4473406155366,2235.4473406155366,-2093.5656021961831,3845.7249490155323,0.0
583523.2936376977,3572751.2368613081,-12500.0,2726.5757947820662,-320.22126498632076,-2185.9620148937779,401.97682465174552,-305.50320306682653,23.731431380560529,2526.4442038330635,2706.549990538676,-2172.2472174857294,2172.2472174857294,-2706.549990538676,4385.5385022775454,0.0
588523.2936376977,3572751.2368613081,-12500.0,3579.4428953783608,232.83063593825995,-2114.397589936264,611.93729094250205,-215.64233912645818,56.5296854801705,2920.0280305589722,3393.7399867997092,-1943.3232735151605,1943.3232735151605,-3393.7399867997092,5118.3364495135729,0.0
593523.2936376977,3572751.2368613081,-12500.0,4537.0834972788789,998.44781926940209,-1845.4340792981366,877.59552562005933,-59.362446572640877,103.62309451586613,3430.718887826627,4128.4290193357938,-1472.5899696423614,1472.5899696423614,-4128.4290193357938,6116.1466934545379,0.0
598523.2936376977,3572751.2368613081,-12500.0,5565.7920429164051,2013.0823553222206,-1277.4500615581653,1203.886156671877,189.89828787280373,169.16560680415358,4093.4951548286408,4860.1400168623877,-664.95454689712324,664.95454689712324,-4860.1400168623877,7459.0099586670294,0.0
603523.2936376977,3572751.2368613081,-12500.0,6604.1936963862472,3298.7132192853092,-278.50338651821806,1590.2959468201293,564.55181233815347,257.57334210494724,4945.6472696011842,5506.6426769533155,590.24153555394196,-590.24153555394196,-5506.6426769533155,9228.0577701274015,0.0
608523.2936376977,3572751.2368613081,-12500.0,7556.9184587195386,4846.3910883323197,1311.3578433394246,2026.761716865233,1101.2219579955768,372.83939594024929,6022.601300988711,5947.5119215968125,2408.4289449913404,-2408.4289449913404,-5947.5119215968125,11496.664579118036,0.0
613523.2936376977,3572751.2368613081,-12500.0,8292.6993284708678,6593.6213267222638,3667.5753226823908,2488.5063810189954,1836.4623979373637,517.334764590026,7352.3087966384073,6023.0717374633532,4887.6765630194714,-4887.6765630194714,-6023.0717374633532,14318.147293377826,0.0
618523.2936376977,3572751.2368613081,-12500.0,8651.912726576511,8397.5199949544476,6951.9212737266462,2930.5518043464085,2798.5212875654502,689.99408908969656,8952.1189471367852,5544.6305598957069,8071.3739217123193,-8071.3739217123193,-5544.6305598957069,17707.668330964214,0.0
623523.2936376977,3572751.2368613081,-12500.0,8469.9766620195987,10009.79203300038,11259.925322098446,3283.6780182192701,3993.9846850049635,883.9662677783798,10891.458734269436,4323.6902874417592,11894.026898750828,-11894.026898750828,-4323.6902874417592,21616.824960388938,0.0
628523.2936376977,3572751.2368613081,-12500.0,7622.9268952319107,11065.950936728059,16540.728689760632,3455.0962556693084,5389.1203860553333,1084.2327683268479,13143.695018884935,2227.986277291383,16114.227705708323,-16114.227705708323,-2227.986277291383,25901.722420849565,0.0
633523.2936376977,3572751.2368613081,-12500.0,6097.607659096243,11109.643429732845,22493.870605118569,3338.75607444764,6888.3714097846178,1266.4311206656255,15453.314229599169,-731.88558713540988,20250.583538372557,-20250.583538372557,731.88558713540988,30289.508679114693,0.0
638523.2936376977,3572751.2368613081,-12500.0,4076.6990678631114,9681.0142138450628,28467.49863326949,2840.7563341538889,8317.5970605275415,1398.9371998865997,17578.081644013688,-4295.3506087538753,23556.819648495351,-23556.819648495351,4295.3506087538753,34355.746621593389,0.0
643523.2936376977,3572751.2368613081,-12500.0,2001.493405661633,6495.2268571510813,33419.867361056182,1921.7756853950389,9427.0181924892986,1450.1294660825561,19212.818961984172,-7866.5679220890961,25099.815554971799,-25099.815554971799,7866.5679220890961,37536.525941690044,0.0
648523.2936376977,3572751.2368613081,-12500.0,534.91425799605179,1696.5569751682451,36052.354512868806,646.74016157962228,9933.6131530356633,1399.9978716494229,20024.753030781085,-10543.62084057384,24015.495891527909,-24015.495891527909,10543.62084057384,39210.089548430384,0.0
653523.2936376977,3572751.2368613081,-12500.0,336.25502257044167,-3933.8673738631392,35216.958145299868,-787.19025156019461,9612.8554379239085,1250.0148685631548,19750.293649300485,-11376.522209960656,19946.267859273503,-19946.267859273503,11376.522209960656,38873.277884836869,0.0
658523.2936376977,3572751.2368613081,-12500.0,1671.007884159837,-9056.9540274084793,30529.287324411955,-2083.6932043296547,8413.4823264361075,1023.031105859268,18354.390220158086,-9849.3784002884677,13455.189764783481,-13455.189764783481,9849.3784002884677,36378.431749330884,0.0
663523.2936376977,3572751.2368613081,-12500.0,4117.4916989051626,-12294.430993641883,22797.850924695085,-2953.4804272142751,6523.1474945581576,752.48332647619372,16325.77546112842,-6298.0713460742372,6019.5302817370102,-6019.5302817370102,6298.0713460742372,32100.175503059159,0.0
668523.2936376977,3572751.2368613081,-12500.0,6707.2058713875513,-12930.339100242727,13802.226557173211,-3240.5446366452525,4316.531522213344,470.90092739076817,14005.773271187662,-1842.2689950730232,-589.69767210854332,589.69767210854332,1842.2689950730232,26878.602269865598,0.0
673523.2936376977,3572751.2368613081,-12500.0,8469.7372775378717,-11230.77200321973,5463.2677292898616,-2979.3716031289009,2202.9063392739822,205.77957143166168,11704.961218834607,2209.6028641216958,-5142.4574738905467,5142.4574738905467,-2209.6028641216958,21727.070505564778,0.0
678523.2936376977,3572751.2368613081,-12500.0,8923.5584382410143,-8139.1428538592199,-957.37605551882507,-2347.0875332621476,476.40129283539642,-20.651352859225533,9759.1028617732736,4993.4106062933479,-7351.7279801135355,7351.7279801135355,-4993.4106062933479,17469.94211900235,0.0
683523.2936376977,3572751.2368613081,-12500.0,8157.9883004205158,-4693.1167573703751,-5100.9137113518764,-1561.3284687189102,-743.65339933950622,-193.58646924944216,8309.9968999843513,6302.9609683959852,-7667.7547577379273,7667.7547577379273,-6302.9609683959852,14486.645842561393,0.0
688523.2936376977,3572751.2368613081,-12500.0,6592.5112169341892,-1622.5047486615754,-7257.8811727652264,-797.60699786310329,-1481.6973626078275,-308.42211211934114,7304.7870111887314,6402.5194800737427,-6815.4311331900099,6815.4311331900099,-6402.5194800737427,12659.699548908135,0.0
693523.2936376977,3572751.2368613081,-12500.0,4695.058812398358,737.3267889270993,-7981.3418240100264,-157.84653629870624,-1837.9959153238278,-370.32451205540912,6594.8495752347189,5727.4995504269946,-5443.0515067012611,5443.0515067012611,-5727.4995504269946,11574.921116057136,0.0
698523.2936376977,3572751.2368613081,-12500.0,2821.3584392307948,2342.8743381335476,-7814.3428511280599,321.55487448864164,-1930.1637852628146,-390.49724445959788,6040.3311015476875,4677.2648400139451,-3986.5788028548318,3986.5788028548318,-4677.2648400139451,10827.178351247356,0.0
703523.2936376977,3572751.2368613081,-12500.0,1177.5922903918377,3302.6020443833322,-7173.7620629900548,646.36603049544226,-1860.3791646509694,-381.7768864890204,5554.6883872637709,3534.4241224635803,-2678.7142580452323,2678.7142580452323,-3534.4241224635803,10174.077208145993,0.0
708523.2936376977,3572751.2368613081,-12500.0,-151.96211643903413,3773.6943758309972,-6335.7383895476678,842.45281784340114,-1704.2841690858031,-355.58252160412866,5099.0318724119097,2464.0947944280724,-1610.3137527433353,1610.3137527433353,-2464.0947944280724,9517.7018654443054,0.0
713523.2936376977,3572751.2368613081,-12500.0,-1160.8342575334573,3906.3477982084319,-5463.4920021036187,940.98695788588861,-1512.0305714383508,-320.6165736294534,4662.1176764031934,1543.8136436688446,-791.21515913383416,791.21515913383416,-1543.8136436688446,8838.9895701578516,0.0
718523.2936376977,3572751.2368613081,-12500.0,-1882.9505010728672,3822.0064707006845,-4642.9077647090598,970.69159778250003,-1313.9184347931659,-282.79183986349307,4244.6482544968731,796.16558189222246,-193.20671486669681,193.20671486669681,-796.16558189222246,8150.0498917635505,0.0
723523.2936376977,3572751.2368613081,-12500.0,-2367.7269720240265,3609.9653729408742,-3912.0589157619866,954.85443530962823,-1126.5145514326643,-245.73426067128298,3850.6847498685593,213.87822975635609,224.70198356788288,-224.70198356788288,-213.87822975635609,7470.1252607410388,0.0
728523.2936376977,3572751.2368613081,-12500.0,-2665.9946455223408,3331.7423240629073,-3281.8310951979938,910.94202697489948,-957.64056788331982,-211.42126947586146,3483.9379146571855,-223.86396819810483,503.47526583177768,-503.47526583177768,223.86396819810483,6816.0101223274005,0.0
733523.2936376977,3572751.2368613081,-12500.0,-2823.2806521986622,3027.5401098685006,-2748.9735045938123,851.35420366479434,-809.92581198666926,-180.74515515074648,3146.6124678978003,-541.98859720626194,678.663454746208,-678.663454746208,541.98859720626194,6199.395525675136,0.0
738523.2936376977,3572751.2368613081,-12500.0,-2877.4163114067587,2722.3075041589186,-2303.7962968622201,784.51045062749972,-683.13712166984715,-153.93704330461335,2839.3920072103128,-764.6662257750038,778.91845988888394,-778.91845988888394,764.6662257750038,5627.025003634606,0.0
743523.2936376977,3572751.2368613081,-12500.0,-2858.3984569264526,2430.5860042941226,-1934.4366274904651,715.89181296921151,-575.61737267593048,-130.85725070442354,2562.0236347444538,-913.16522013007432,826.31701446326053,-826.31701446326053,913.16522013007432,5101.7444905395178,0.0
748523.2936376977,3572751.2368613081,-12500.0,-2789.2561080258702,2160.0777044304537,-1629.0592826405227,648.90024814323147,-485.12788900355287,-111.18115444552896,2317.0637643837858,-1005.1984419293998,837.36566937894406,-837.36566937894406,1005.1984419293998,4623.6475796779177,0.0
563523.2936376977,3577751.2368613081,-12500.0,-65.300242710122532,-1548.3485874508572,-1812.7416760545314,-147.90093705752656,-412.80799749833665,-42.951126993419052,1815.6278646591247,362.9891132195454,-2160.8210327160677,2160.8210327160677,-362.9891132195454,3295.7715714943733,0.0
568523.2936376977,3577751.2368613081,-12500.0,320.44067202874339,-1556.2090816699667,-2049.7690427776388,-96.906700051047224,-450.26142259728601,-41.271028514459275,1996.9445871079233,722.51834701531925,-2396.9117933320244,2396.9117933320244,-722.51834701531925,3576.749327124332,0.0
573523.2936376977,3577751.2368613081,-12500.0,822.10864298731485,-1499.5820704178893,-2294.9887014564233,-19.284872745825659,-480.52846571360783,-35.965028282174544,2206.9849181797308,1179.5572095078146,-2620.2599921999604,2620.2599921999604,-1179.5572095078146,3901.020996329421,0.0
578523.2936376977,3577751.2368613081,-12500.0,1461.1706406240407,-1347.8983095922372,-2530.7236777531803,93.781605742410861,-496.06272874792239,-25.129983866945828,2456.644006589042,1749.0553458189345,-2804.2101369855445,2804.2101369855445,-1749.0553458189345,4292.5824392128779,0.0
583523.2936376977,3577751.2368613081,-12500.0,2257.6403913157778,-1061.2616459002886,-2726.3729617656045,252.97653132403937,-485.37433634761629,-6.1318916334514553,2762.7634548964097,2442.3388143880452,-2907.5394442142165,2907.5394442142165,-2442.3388143880452,4791.6560524230108,0.0
588523.2936376977,3577751.2368613081,-12500.0,3225.9527018795493,-589.79809835624656,-2832.1544740343888,470.58251491813161,-431.54097340371828,24.560757638293122,3150.4460563570465,3262.2527613570219,-2869.2077795891355,2869.2077795891355,-3262.2527613570219,5460.9348431275348,0.0
593523.2936376977,3577751.2368613081,-12500.0,4368.5110013510794,125.18319635409921,-2771.0398381262225,759.59879550625942,-310.4806457825112,71.492344884296685,3655.0779032197788,4195.7583332213617,-2602.6527278742624,2602.6527278742624,-4195.7583332213617,6389.5188042642249,0.0
598523.2936376977,3577751.2368613081,-12500.0,5666.4956347119551,1146.5604896192126,-2429.3498861185208,1131.8497746092312,-89.23260904134213,140.18882971795699,4323.0156007255027,5203.5675926269441,-1990.9142356661903,1990.9142356661903,-5203.5675926269441,7691.1375873529705,0.0
603523.2936376977,3577751.2368613081,-12500.0,7068.1188647937515,2530.9796318135823,-1647.6414386258036,1594.5960221053199,275.20599392967222,236.8219832347626,5209.8658616825996,6207.0908358410506,-885.16166446900706,885.16166446900706,-6207.0908358410506,9495.4803300248368,0.0
608523.2936376977,3577751.2368613081,-12500.0,8475.7809080333645,4309.9137959757863,-215.48986562812411,2145.166651080629,835.48608940712415,367.33789459673369,6375.8364316253728,7074.4366507412878,889.03132289101086,-889.03132289101086,-7074.4366507412878,11934.72930846784,0.0
613523.2936376977,3577751.2368613081,-12500.0,9735.701526238734,6459.8829826855563,2123.3646410292454,2763.36818337983,1650.3572493544173,535.76063170710859,7878.4908552240749,7609.6877325796386,3511.3386817110431,-3511.3386817110431,-7609.6877325796386,15126.911405036231,0.0
618523.2936376977,3577751.2368613081,-12500.0,10636.516413387815,8861.6035394345326,5645.6328876568505,3402.0883398670312,2775.7296315834351,741.39805539540532,9766.2639381713634,7553.1665965336433,7124.5289079465419,-7124.5289079465419,-7553.1665965336433,19153.526947748109,0.0
623523.2936376977,3577751.2368613081,-12500.0,10926.507076427073,11252.584206466536,10590.108557925521,3977.8589372862812,4247.7129528018831,974.89814198975625,12125.183103305546,6604.3745275010278,11763.345607865836,-11763.345607865836,-6604.3745275010278,24026.260902996946,0.0
628523.2936376977,3577751.2368613081,-12500.0,10361.622777498565,13186.022264442827,17053.076188865085,4365.4802170747625,6055.4191284424787,1213.7880462485534,15067.448982294398,4482.7036340149498,17251.751894608245,-17251.751894608245,-4482.7036340149498,29638.840116665717,0.0
633523.2936376977,3577751.2368613081,-12500.0,8796.6023614688929,14022.076952092051,24829.237648157425,4404.2862887762376,8103.8159754552362,1419.659291188598,18286.987715730102,1041.977244607715,23077.458397638758,-23077.458397638758,-1041.977244607715,35704.357723650566,0.0
638523.2936376977,3577751.2368613081,-12500.0,6324.6494055562107,12998.28960389583,33207.987003693961,3927.3735589882772,10173.903243762097,1541.5731473124094,21447.001821435064,-3552.3472257066333,28279.025128321737,-28279.025128321737,3552.3472257066333,41687.420422133226,0.0
643523.2936376977,3577751.2368613081,-12500.0,3440.6411045556574,9452.1603448719161,40787.849410142931,2824.8445871873796,11901.812974118473,1531.4229913472504,24092.614662776068,-8610.1999855565737,31438.257482857916,-31438.257482857916,8610.1999855565737,46762.075993191342,0.0
648523.2936376977,3577751.2368613081,-12500.0,1115.3295076531429,3260.7530673696633,45495.222344063586,1137.7312231337651,12818.119928001186,1370.7951971274993,25649.466377618908,-12801.14048950858,30961.945869000498,-30961.945869000498,12801.14048950858,49869.790807068282,0.0
653523.2936376977,3577751.2368613081,-12500.0,539.26049515278567,-4610.5628405160305,45139.66328758507,-860.26252026783368,12492.830224381159,1091.5255690228635,25571.93833221469,-14433.758299957313,25842.076499903225,-25842.076499903225,14433.758299957313,49990.740404521246,0.0
658523.2936376977,3577751.2368613081,-12500.0,2375.8109330754028,-11970.479784153356,38655.393211189061,-2684.5370433567596,10772.317946244821,761.90205568564159,23646.312849393584,-12364.531048885259,16680.486705618852,-16680.486705618852,12364.531048885259,46658.231964471983,0.0
663523.2936376977,3577751.2368613081,-12500.0,5984.552933039593,-16319.470691736982,27283.417558007917,-3832.6981843846738,7958.6300825371427,440.936893676804,20580.002785657751,-7053.3460269694242,5994.0115724912666,-5994.0115724912666,7053.3460269694242,40441.433161115077,0.0
668523.2936376977,3577751.2368613081,-12500.0,9605.5173439648497,-16438.843779268591,14273.640488830357,-4053.7725946744949,4725.4460827582252,149.96341174796206,17256.484145027651,-560.8556558674818,-3039.1855037533392,3039.1855037533392,560.8556558674818,32898.845833979598,0.0
673523.2936376977,3577751.2368613081,-12500.0,11590.343838385194,-13089.311722407725,2988.2039917878096,-3462.5581475204963,1782.1816801194725,-109.41521244479519,14146.31611464018,4812.5585420063753,-8465.2412866301092,8465.2412866301092,-4812.5585420063753,25879.043524790239,0.0
678523.2936376977,3577751.2368613081,-12500.0,11398.780704537388,-8151.2506047070392,-4783.6494959892634,-2408.9328754148964,-433.30329255362341,-327.80271936513572,11734.779226426614,7863.2720862848464,-10251.644828111443,10251.644828111443,-7863.2720862848464,20662.041901314969,0.0
683523.2936376977,3577751.2368613081,-12500.0,9522.154239213547,-3328.5649117702869,-8996.1796916508247,-1257.5768212046971,-1823.7903232236924,-488.036095348343,10094.01943452964,8660.3019370815873,-9545.4922424239103,9545.4922424239103,-8660.3019370815873,17484.899762674744,0.0
688523.2936376977,3577751.2368613081,-12500.0,6825.9615141468648,462.71946684023254,-10534.994373593177,-252.37100464753195,-2517.6692257464606,-580.7001694536541,8998.3901596690539,7925.9904947321447,-7647.0797586607205,7647.0797586607205,-7925.9904947321447,15732.897894053722,0.0
693523.2936376977,3577751.2368613081,-12500.0,4039.7141626525517,3006.3803180475479,-10433.47533002435,502.63042469455849,-2722.7465239268754,-611.12139623119992,8181.284593171953,6435.5533544905848,-5479.3472296960335,5479.3472296960335,-6435.5533544905848,14625.456810851781,0.0
698523.2936376977,3577751.2368613081,-12500.0,1591.6854578416019,4465.2126218783478,-9499.3009488543012,1001.2841287493231,-2632.7131234030562,-594.69188530675956,7474.8512760245922,4747.0980646359985,-3527.6195302504188,3527.6195302504188,-4747.0980646359985,13680.524848593934,0.0
703523.2936376977,3577751.2368613081,-12500.0,-348.4234720076941,5123.2909277151457,-8248.8487797039852,1285.6654129731742,-2391.5210058367584,-549.08949597876722,6809.5048982377502,3174.5962386733281,-1970.0622521769883,1970.0622521769883,-3174.5962386733281,12717.424840663907,0.0
708523.2936376977,3577751.2368613081,-12500.0,-1770.6121207665547,5251.6637569381655,-6968.0719396118266,1411.3495750852694,-2092.0319222230783,-489.19313920483972,6169.7520275899487,1853.5603288674715,-818.94625775002305,818.94625775002305,-1853.5603288674715,11711.58311461288,0.0
713523.2936376977,3577751.2368613081,-12500.0,-2741.3101824050159,5061.3453397480562,-5793.6600178116978,1429.5371651823007,-1787.6701371872678,-425.40581143492579,5560.4907417787144,814.33824024382056,-16.385316844999466,16.385316844999466,-814.33824024382056,10692.000557490994,0.0
718523.2936376977,3577751.2368613081,-12500.0,-3351.3958824997412,4699.5963423561689,-4776.7696684579387,1380.6203995226313,-1505.5765241668357,-364.01104222694227,4990.4173552484472,35.366771579339712,513.87133393989438,-513.87133393989438,-35.366771579339712,9694.9232111371439,0.0
723523.2936376977,3577751.2368613081,-12500.0,-3689.5507406553297,4261.8552206249806,-3924.2992105179783,1293.6876963166685,-1257.0331050954348,-308.24438518171257,4465.9772355272598,-524.91092819591665,843.15689994604134,-843.15689994604134,524.91092819591665,8748.3487596334162,0.0
728523.2936376977,3577751.2368613081,-12500.0,-3831.3406352246534,3806.2418871126729,-3222.8792448164559,1188.3828608920389,-1044.5354297729602,-259.36739417564797,3990.1548702356281,-911.36363066793274,1029.900096989192,-1029.900096989192,911.36363066793274,7869.4451181522236,0.0
733523.2936376977,3577751.2368613081,-12500.0,-3836.6044232716004,3365.8489060036809,-2651.748765855506,1077.2744661848367,-866.16290759441597,-217.49168060417779,3563.097976057079,-1164.6559498527788,1118.7283321433031,-1118.7283321433031,1164.6559498527788,7066.3162760500409,0.0
738523.2936376977,3577751.2368613081,-12500.0,-3750.6031776848076,2957.8012367935189,-2189.1389839210165,967.96882021046076,-718.09763443119505,-182.13197260605349,3183.7036357045154,-1318.6608969715219,1142.3081941095986,-1142.3081941095986,1318.6608969715219,6340.6439084869571,0.0
743523.2936376977,3577751.2368613081,-12500.0,-3606.4946029930575,2589.4582527286548,-1815.1076195816211,864.74888562075023,-595.98528863236993,-152.54494254397827,2854.2156843719013,-1400.2571464415423,1123.8732115565253,-1123.8732115565253,1400.2571464415423,5690.0197314582847,0.0
748523.2936376977,3577751.2368613081,-12500.0,-3427.9752241461842,2262.4653878084159,-1512.5406543512236,769.75401064845835,-495.61430271325816,-127.92132582413868,2569.4999728071671,-1430.1254405393502,1079.5943467496381,-1079.5943467496381,1430.1254405393502,5109.6889552052689,0.0
558523.2936376977,3582751.2368613081,-12500.0,-968.3129865962361,-1800.8453804441097,-1627.6341535977942,-299.315644703121,-425.03234368014603,-58.915529926371413,1875.0311268571024,-394.28696867961321,-2022.2036242470747,2022.2036242470747,394.28696867961321,3521.527001979292,0.0
563523.2936376977,3582751.2368613081,-12500.0,-740.273462658786,-1929.8848257189875,-1886.5050124378602,-287.49477956788456,-482.22033467978019,-63.175925276529448,2062.0847308306156,-160.65141944535208,-2318.9112698968461,2318.9112698968461,160.65141944535208,3829.7981435653919,0.0
568523.2936376977,3582751.2368613081,-12500.0,-412.37695561337711,-2033.6702469391014,-2180.7268039613996,-257.8363986149887,-542.04192588399917,-65.81471290401312,2271.0568674429746,161.63171595294307,-2642.4460128161395,2642.4460128161395,-161.63171595294307,4165.1315773957094,0.0
573523.2936376977,3582751.2368613081,-12500.0,42.884038123907111,-2090.6152985897447,-2507.2639203698827,-202.45734650882829,-600.79160602916545,-65.486995439844776,2506.6703656735699,595.24476016445669,-2982.5597511784399,2982.5597511784399,-595.24476016445669,4533.924601744855,0.0
578523.2936376977,3582751.2368613081,-12500.0,657.2558245177687,-2069.4576495671031,-2856.0422235393758,-110.8946380813243,-651.91576786512837,-60.178106691717417,2776.5971852123475,1165.3257658236696,-3319.1191396268114,3319.1191396268114,-1165.3257658236696,4949.4702390760067,0.0
583523.2936376977,3582751.2368613081,-12500.0,1465.1765596572429,-1926.3644169096287,-3204.9621121705327,30.336020603953571,-684.52287479670929,-46.961949071524785,3093.6836971995644,1897.2348314307676,-3616.7296200714436,3616.7296200714436,-1897.2348314307676,5438.3799681442242,0.0
588523.2936376977,3582751.2368613081,-12500.0,2500.2468790348303,-1602.1361775212861,-3512.3739583127003,237.92893472956089,-681.33558376448877,-21.734520344780506,3479.3580413758291,2812.0528156498476,-3817.396061765704,3817.396061765704,-2812.0528156498476,6050.7262093266936,0.0
593523.2936376977,3582751.2368613081,-12500.0,3788.6567197530685,-1020.5431841600144,-3706.3015658847435,531.3822597053545,-616.0441594158284,21.015662530522786,3968.1680565269353,3918.6430487792159,-3831.2155653422933,3831.2155653422933,-3918.6430487792159,6873.2353363919301,0.0
598523.2936376977,3582751.2368613081,-12500.0,5338.4014719807601,-89.746992504658152,-3670.0675048531298,931.45063090112046,-450.19878898042077,88.267728273012509,4612.5091853584081,5200.9980230607389,-3525.9065729676577,3525.9065729676577,-5200.9980230607389,8040.8800469342223,0.0
603523.2936376977,3582751.2368613081,-12500.0,7123.4751728706033,1289.9873960797149,-3225.0958160674659,1456.6837731191295,-130.13982255879679,188.11742352492931,5485.3221619763935,6600.0041679266988,-2717.5745999038163,2717.5745999038163,-6600.0041679266988,9738.0624886422193,0.0
608523.2936376977,3582751.2368613081,-12500.0,9063.4744273145898,3207.7435191424033,-2114.0734903035518,2117.1159323223865,414.90484481096848,328.62756144591185,6677.986657172939,7990.2057181611835,-1167.7646387284676,1167.7646387284676,-7990.2057181611835,12183.299675446904,0.0
613523.2936376977,3582751.2368613081,-12500.0,11001.694576237043,5707.3350646949639,8.1830518986800822,2904.2547880728625,1271.4907027573045,515.34458333048804,8292.2809887503681,9155.2626481616699,1404.5224792743247,-1404.5224792743247,-9155.2626481616699,15601.73696676255,0.0
618523.2936376977,3582751.2368613081,-12500.0,12689.009675767229,8732.6653864357831,3562.9301106101975,3777.1210540461275,2534.1543635694843,746.87757375819842,10430.522904374095,9770.8793350901287,5283.4147805121465,-5283.4147805121465,-9770.8793350901287,20193.045319395787,0.0
623523.2936376977,3582751.2368613081,-12500.0,13785.950718771008,12053.934730611281,8995.08705737528,4645.5832363503505,4286.6949835140094,1008.1424048173625,13231.16270440253,9410.4817874226792,10674.869665187118,-10674.869665187118,-9410.4817874226792,26091.600992249696,0.0
628523.2936376977,3582751.2368613081,-12500.0,13900.005761856113,15184.878341752681,16655.732195592245,5355.1485563988554,6567.3482178407867,1261.8328440097403,16988.741072866527,7595.4484917520585,17570.892660815793,-17570.892660815793,-7595.4484917520585,33306.296954941368,0.0
633523.2936376977,3582751.2368613081,-12500.0,12678.852276076399,17315.181742756962,26593.203498006376,5682.5148425756943,9313.4983685671887,1441.5449327804465,21455.261562449148,3917.9822455408248,25553.452977177312,-25553.452977177312,-3917.9822455408248,41626.786137829738,0.0
638523.2936376977,3582751.2368613081,-12500.0,9986.5700576432173,17306.548554540444,38226.956772967897,5359.1257003030732,12287.16545740392,1456.455399921151,26202.354195703003,-1725.626458305298,33546.831537586746,-33546.831537586746,1725.626458305298,50485.739500624361,0.0
643523.2936376977,3582751.2368613081,-12500.0,6194.7205983087524,13864.654176107006,49899.81491659172,4147.9958689446057,15000.308142968015,1225.3500900619606,30606.601056273274,-8748.1767361319035,39582.578046109775,-39582.578046109775,8748.1767361319035,58782.207920348686,0.0
648523.2936376977,3582751.2368613081,-12500.0,2540.421744488222,6134.3346905004346,58475.987319174033,1994.8532932316293,16701.016439365398,748.35090944311537,33696.878666542245,-15389.428762551741,40858.011093142653,-40858.011093142653,15389.428762551741,64759.863073817418,0.0
653523.2936376977,3582751.2368613081,-12500.0,1115.9095574650109,-5063.5299582408434,59726.194093938895,-774.16194366227978,16547.051374798142,166.79314686873607,34300.818991152672,-18673.130038414849,34792.01690830096,-34792.01690830096,18673.130038414849,66270.845572923383,0.0
658523.2936376977,3582751.2368613081,-12500.0,3601.487226465169,-16151.088240442863,50694.496082328609,-3374.9332689332405,14079.691380295413,-299.69379291663756,31664.163897947335,-15928.715737573943,21484.460673312198,-21484.460673312198,15928.715737573943,61872.010267911639,0.0
663523.2936376977,3582751.2368613081,-12500.0,9109.6910876246293,-22205.786132942241,33160.0467998452,-4886.0182294031947,9761.5648652131385,-540.10153988039065,26648.756448086449,-7618.9431165073074,5410.4321318594393,-5410.4321318594393,7618.9431165073074,52348.771088653419,0.0
668523.2936376977,3582751.2368613081,-12500.0,14192.902775927791,-20962.096846509561,13594.465237198034,-4880.0121038491097,4893.1599155080821,-636.10913002534232,21613.532388212763,2143.7090020039291,-7209.8813736936354,7209.8813736936354,-2143.7090020039291,40900.911885831498,0.0
673523.2936376977,3582751.2368613081,-12500.0,15954.23713493703,-14543.476053959354,-1740.7149482835068,-3684.143545246483,775.82045142962238,-720.94884661077288,17349.074929156865,9091.7039771861237,-13227.129282220114,13227.129282220114,-9091.7039771861237,31195.657712655775,0.0
678523.2936376977,3582751.2368613081,-12500.0,14154.641563815156,-6805.3070279709927,-10601.562512979997,-1995.617327506199,-1973.7695621628816,-832.17568093118257,14430.948305717804,11813.196659384088,-13644.340232496674,13644.340232496674,-11813.196659384088,25080.450571884216,0.0
683523.2936376977,3582751.2368613081,-12500.0,10301.289387176404,-386.61095370107984,-14078.252983693215,-396.78860127018743,-3407.3315894824036,-927.28553088327442,12617.85515982516,11294.119006064162,-11110.92581430352,11110.92581430352,-11294.119006064162,21964.651517315251,0.0
688523.2936376977,3582751.2368613081,-12500.0,5991.866404820591,3874.0291891115489,-14260.169648796171,822.65011560400501,-3885.4157558498305,-964.35629581243381,11365.949991549298,9134.0957297650748,-7770.0948991794858,7770.0948991794858,-9134.0957297650748,20248.463115688079,0.0
693523.2936376977,3582751.2368613081,-12500.0,2189.4932215950353,6197.9054755365187,-12861.652358121035,1608.2584264090726,-3792.2415227390911,-936.23873180894827,10309.661088892641,6534.1677634031985,-4737.9610950884289,4737.9610950884289,-6534.1677634031985,18852.220200343716,0.0
698523.2936376977,3582751.2368613081,-12500.0,-743.25067399295278,7138.2254407485252,-10929.587761654031,2026.3543300990716,-3417.4282638744075,-860.12263144301971,9309.7986027788647,4135.8526877418462,-2391.8160890968029,2391.8160890968029,-4135.8526877418462,17401.212484237476,0.0
703523.2936376977,3582751.2368613081,-12500.0,-2796.9367321056675,7217.8969779211566,-8994.4519325872516,2178.8600391562354,-2942.464240831815,-758.99916012072435,8344.7076787020269,2184.8507055653736,-739.93429023752242,739.93429023752242,-2184.8507055653736,15865.157555964754,0.0
708523.2936376977,3582751.2368613081,-12500.0,-4112.3179273061614,6822.1009086388785,-7278.2146052301432,2160.0649446091657,-2466.1340609988883,-651.37243111996509,7429.8176245534314,714.23704220313675,343.74660876858132,-343.74660876858132,-714.23704220313675,14311.684634937734,0.0
713523.2936376977,3582751.2368613081,-12500.0,-4865.5128863275522,6201.2559989339352,-5843.8180465021105,2042.0466182496198,-2034.4808206420175,-548.79848555337492,6583.2190226903767,-334.23751465685797,1007.2902952144254,-1007.2902952144254,334.23751465685797,12810.468214413162,0.0
718523.2936376977,3582751.2368613081,-12500.0,-5216.9281433467122,5505.0203582664917,-4682.1158999065756,1874.2410668655546,-1663.694115100745,-457.05034116341312,5815.8396741197012,-1045.5174516469369,1378.4469907732996,-1378.4469907732996,1045.5174516469369,11408.529282619582,0.0
723523.2936376977,3582751.2368613081,-12500.0,-5294.9375087337348,4816.2544094739751,-3756.860158413976,1688.0322837085498,-1354.7552305559086,-378.09721132490193,5131.0669173181795,-1502.0024108997804,1554.7220830278079,-1554.7220830278079,1502.0024108997804,10130.245976096594,0.0
728523.2936376977,3582751.2368613081,-12500.0,-5195.3301167641148,4176.5871116665558,-3025.8978128885069,1502.0089888998482,-1101.8657187126785,-311.76677079996131,4527.1274314399543,-1772.9498591257498,1605.8840297626889,-1605.8840297626889,1772.9498591257498,8983.4917650562893,0.0
733523.2936376977,3582751.2368613081,-12500.0,-4986.4865587654649,3603.5212432382737,-2450.0779003756256,1326.3186420296531,-896.91752678298974,-256.85930283127539,4000.5790240609504,-1912.5463523669239,1579.9171211330033,-1579.9171211330033,1912.5463523669239,7965.7590950937401,0.0
738523.2936376977,3582751.2368613081,-12500.0,-4715.6880722412816,3101.1581914041685,-1996.2423171036673,1165.8246245274206,-731.67106501775572,-211.80396999061293,3549.5928504183375,-1961.4553171051093,1508.9207891743658,-1508.9207891743658,1961.4553171051093,7068.7554710925342,0.0
743523.2936376977,3582751.2368613081,-12500.0,-4414.760336997042,2666.6345515491253,-1637.5826154811557,1022.2330458841601,-598.69258966326379,-175.00639070215351,3161.3565443112852,-1949.38219444573,1413.8841091066565,-1413.8841091066565,1949.38219444573,6281.4551310377747,0.0
748523.2936376977,3582751.2368613081,-12500.0,-4104.5605844428483,2293.8518418345798,-1352.9632981921905,895.46001458257933,-491.66013155477492,-145.01096807750278,2821.5809161867819,-1897.6195165885333,1308.2266874743136,-1308.2266874743136,1897.6195165885333,5591.979845804969,0.0
558523.2936376977,3587751.2368613081,-12500.0,-1697.2194790858173,-2068.346777839668,-1603.6258111329428,-438.92668162107253,-468.51321543490332,-77.735311027730091,2124.705203806906,-977.45592409480014,-2030.6309552186858,2030.6309552186858,977.45592409480014,4068.239699995419,0.0
563523.2936376977,3587751.2368613081,-12500.0,-1566.7782475021481,-2281.7465011081636,-1888.9512412959684,-453.80467838568251,-542.91919596771493,-86.596972051651704,2350.3839940070047,-819.41295715334536,-2379.1764254358382,2379.1764254358382,819.41295715334536,4460.1353772477232,0.0
568523.2936376977,3587751.2368613081,-12500.0,-1341.2242772481154,-2492.2010681210149,-2226.1707231817459,-455.02002576910536,-625.864909571157,-94.873060386754986,2601.5205491793927,-574.09212410256259,-2778.7240461518231,2778.7240461518231,574.09212410256259,4885.5833291603722,0.0
573523.2936376977,3587751.2368613081,-12500.0,-987.48973983061569,-2682.0924529869308,-2619.6233249767197,-434.48906560583583,-715.34227185918883,-101.33801907848444,2881.1179111555548,-212.87354261435576,-3227.4822174397141,3227.4822174397141,212.87354261435576,5345.8197330396224,0.0
578523.2936376977,3587751.2368613081,-12500.0,-464.40053144293302,-2823.3208589564033,-3069.0915325737774,-380.83234652806357,-806.71390952026388,-104.01449835717011,3193.5226148926408,299.11384401529858,-3715.6297239591254,3715.6297239591254,-299.11384401529858,5844.1313643097219,0.0
583523.2936376977,3587751.2368613081,-12500.0,277.3403461842891,-2872.9269139418534,-3565.0230083619035,-278.45707888896095,-890.99552505090389,-99.847119997657131,3546.0182721693595,1002.2061112115859,-4219.4223642137531,4219.4223642137531,-1002.2061112115859,6389.9997265288866,0.0
588523.2936376977,3587751.2368613081,-12500.0,1293.3391013615969,-2767.8059530541441,-4080.5409348470389,-106.71176097191687,-952.30100277375368,-84.314365879703473,3951.9386803293805,1939.1918018573715,-4692.2757800070258,4692.2757800070258,-1939.1918018573715,7007.8680378321078,0.0
593523.2936376977,3587751.2368613081,-12500.0,2640.3674423360035,-2419.2329778565891,-4558.7366146147451,160.52459012655723,-964.23156116526934,-51.051628250330076,4436.222899570751,3148.3656222183504,-5052.0168922431712,5052.0168922431712,-3148.3656222183504,7753.6847003538851,0.0
598523.2936376977,3587751.2368613081,-12500.0,4365.8389615369015,-1709.0465452483179,-4893.6123007613232,554.15166253722225,-885.12096768772301,8.3291194985989918,5044.1223632498168,4650.3110275233748,-5164.036585704408,5164.036585704408,-4650.3110275233748,8741.3539886034669,0.0
603523.2936376977,3587751.2368613081,-12500.0,6489.6365615207224,-491.24367625084926,-4903.6842348412783,1106.9826037303678,-652.42712777635813,103.84501502192639,5852.2326893390164,6425.8120609515418,-4821.6784513058146,4821.6784513058146,-6425.8120609515418,10173.883073370884,0.0
608523.2936376977,3587751.2368613081,-12500.0,8976.8408023697939,1394.6295032859412,-4299.5876778421371,1847.2240897335098,-177.33691943675265,245.51208489061341,6977.5329999614405,8383.222716684988,-3728.5634657614219,3728.5634657614219,-8383.222716684988,12358.997658564151,0.0
613523.2936376977,3587751.2368613081,-12500.0,11702.814710983748,4089.3023621292868,-2652.2677119898772,2786.6621336761727,658.05919286311848,439.49014493752253,8577.1789192197321,10317.00915798077,-1493.170115850784,1493.170115850784,-10317.00915798077,15684.632090700989,0.0
618523.2936376977,3587751.2368613081,-12500.0,14417.897134056257,7649.2375153401199,622.63229580026928,3902.4017205377422,1996.9001202387437,680.76655118843723,10837.704869984434,11866.17211342118,2346.7175501650017,-2346.7175501650017,-11866.17211342118,20559.48164799573,0.0
623523.2936376977,3587751.2368613081,-12500.0,16726.922897389606,11946.811239975943,6236.9501834307111,5112.6227241843189,3990.919154884557,941.25191950848739,14001.872240499913,12491.410436187263,8246.1220106040892,-8246.1220106040892,-12491.410436187263,27349.837564506164,0.0
628523.2936376977,3587751.2368613081,-12500.0,18104.720886821298,16542.203369449417,14921.948226638342,6250.0016425767099,6763.182772582797,1153.2372972596181,18626.787101099133,11499.134436056183,16498.273833370626,-16498.273833370626,-11499.134436056183,36316.292230438077,0.0
633523.2936376977,3587751.2368613081,-12500.0,17966.627599636202,20547.868156401688,27200.31227030533,7042.0030769691912,10340.891612647982,1192.3926760228931,24729.754154309361,8143.1631995764274,26986.876511887676,-26986.876511887676,-8143.1631995764274,47515.682496483401,0.0
638523.2936376977,3587751.2368613081,-12500.0,15810.82524899374,22506.870927066262,42986.004410146357,7116.2005034588792,14548.395656560084,878.59545776847278,31881.696138830906,1841.6778518195788,38819.974052774422,-38819.974052774422,-1841.6778518195788,60611.995206966589,0.0
643523.2936376977,3587751.2368613081,-12500.0,11513.925830991808,20318.620959892622,60866.100326047068,6059.4898766165306,18853.585190637015,44.45643700986583,39410.644202968819,-7370.6788755272246,49756.225359835342,-49756.225359835342,7370.6788755272246,74486.867701085401,0.0
648523.2936376977,3587751.2368613081,-12500.0,6068.6645780193949,11553.372242478667,76782.183702584938,3575.1829097228911,22182.534105949591,-1267.5106283201621,45830.479893214288,-17817.987701706057,55417.735369957656,-55417.735369957656,17817.987701706057,86533.054415706705,0.0
653523.2936376977,3587751.2368613081,-12500.0,2726.5581315113595,-4488.391135212215,82789.287891634274,-165.5231445937298,22875.980219023349,-2583.568498288173,48581.719164712602,-24696.787808833455,49631.416826829678,-49631.416826829678,24696.787808833455,92161.987535242748,0.0
658523.2936376977,3587751.2368613081,-12500.0,5844.0242869830163,-22420.738352136344,70406.546461220845,-4001.407221209276,19446.978990974294,-3189.9148633099071,45155.692435422796,-21432.559036867271,29638.470919724983,-29638.470919724983,21432.559036867271,86740.085902785213,0.0
663523.2936376977,3587751.2368613081,-12500.0,14701.031779045967,-31401.93020628627,41357.734866163773,-6044.3345696536044,12413.723123545993,-2860.1398460560522,36277.549978971394,-7555.2199208387974,3686.2705596806954,-3686.2705596806954,7555.2199208387974,70832.51142497093,0.0
668523.2936376977,3587751.2368613081,-12500.0,21741.735863433787,-26628.689180010089,10275.319002292506,-5440.4391856158672,4663.2313106860483,-2140.4172208019932,27793.305624610752,7713.2906022021562,-14399.364711147988,14399.364711147988,-7713.2906022021562,52050.809844532647,0.0
673523.2936376977,3587751.2368613081,-12500.0,21765.72662643997,-14392.438449644207,-10279.486205831357,-3148.293303237223,-1154.0566116899213,-1647.2022016700735,21816.918573349452,15955.801220558822,-19725.154705125969,19725.154705125969,-15955.801220558822,38470.069667094147,0.0
678523.2936376977,3587751.2368613081,-12500.0,16356.051671610256,-2743.959943019483,-18928.210846254489,-587.23105866611604,-4357.4664864598999,-1493.2206214699763,18371.896164117727,16724.886807906594,-16878.140761443057,16878.140761443057,-16724.886807906594,31849.05501702617,0.0
683523.2936376977,3587751.2368613081,-12500.0,9307.3161659053803,4962.2707722231062,-20077.483848431013,1427.804496088628,-5540.0514878782024,-1481.1147488833017,16294.901835230841,13512.05401102862,-11483.110241195172,11483.110241195172,-13512.05401102862,28894.733269904362,0.0
688523.2936376977,3587751.2368613081,-12500.0,3055.5612721746925,8890.500059264039,-17894.848198176263,2691.4444318961591,-5529.5159618846783,-1445.1718069338294,14641.937642055556,9262.6277060485281,-6505.6570023901586,6505.6570023901586,-9262.6277060485281,26748.182890061249,0.0
693523.2936376977,3587751.2368613081,-12500.0,-1571.5007248096681,10255.222331613459,-14762.611969317271,3306.9968241087386,-4954.6737241493011,-1338.954344718167,13078.027963189825,5423.5581638673202,-2826.6244086602192,2826.6244086602192,-5423.5581638673202,24476.332510977929,0.0
698523.2936376977,3587751.2368613081,-12500.0,-4607.5085324421407,10163.341408129676,-11735.22165122088,3467.592787370344,-4193.2712109689455,-1182.0387836358786,11566.458150563056,2448.704220533531,-407.74556202461133,407.74556202461133,-2448.704220533531,22037.640487766494,0.0
703523.2936376977,3587751.2368613081,-12500.0,-6384.1183674057656,9359.88470740714,-9171.4430916336514,3351.7852930752342,-3437.804454030741,-1006.9976048951869,10145.86040463736,336.35141882383783,1049.9424933946038,-1049.9424933946038,-336.35141882383783,19587.026471937181,0.0
708523.2936376977,3587751.2368613081,-12500.0,-7264.085118279062,8281.8263916966371,-7125.1378281548286,3090.9955636357945,-2769.5577730522564,-837.77965660641087,8851.7587898710535,-1069.9586711592901,1848.9066111980246,-1848.9066111980246,1069.9586711592901,17258.732489711594,0.0
713523.2936376977,3587751.2368613081,-12500.0,-7547.968812197817,7162.2780661848919,-5537.8226205284482,2770.2712209424353,-2211.5121412228286,-686.89003248921597,7700.9907726212468,-1949.0383841682167,2224.0138133624691,-2224.0138133624691,1949.0383841682167,15129.889801667729,0.0
718523.2936376977,3587751.2368613081,-12500.0,-7457.5389595801662,6113.6102080867422,-4322.549536202614,2439.5992458605128,-1759.7814603892905,-558.61742485900504,6694.8880582570027,-2454.8234592643453,2339.1539258762318,-2339.1539258762318,2454.8234592643453,13231.377332626127,0.0
723523.2936376977,3587751.2368613081,-12500.0,-7146.3336265498556,5181.4568316930063,-3396.2799844537276,2125.6459856212605,-1400.247742819608,-452.64442653989641,5825.8689080077811,-2705.8467272216353,2302.4074251246489,-2302.4074251246489,2705.8467272216353,11564.876235820395,0.0
728523.2936376977,3587751.2368613081,-12500.0,-6716.2899701736014,4376.7417773386287,-2689.8733532565871,1840.7756359515274,-1116.543213529279,-366.55598009674861,5083.7501670009142,-2788.2826694709015,2182.5348694884192,-2182.5348694884192,2788.2826694709015,10116.197649925174,0.0
733523.2936376977,3587751.2368613081,-12500.0,-6232.8687231367012,3693.6684895609192,-2149.1592598235698,1589.1278224580903,-893.45041530310868,-297.27331089625415,4456.1727557771765,-2762.6765076101847,2022.0707902548047,-2022.0707902548047,2762.6765076101847,8863.9174238973683,0.0
738523.2936376977,3587751.2368613081,-12500.0,-5736.7476153866246,3119.4126310896108,-1732.9552378728858,1370.4196743337091,-718.05985492113552,-241.76660646526838,3921.2594636518775,-2670.6022899245559,1846.6040779751534,-1846.6040779751534,2670.6022899245559,7784.4455305883175,0.0
743523.2936376977,3587751.2368613081,-12500.0,-5252.2053160680707,2639.116092487101,-1410.415933367663,1182.2041224753323,-579.91561351661085,-197.35422255971605,3460.7791613964919,-2540.1047869636627,1671.0027479405339,-1671.0027479405339,2540.1047869636627,6854.7588829416509,0.0
748523.2936376977,3587751.2368613081,-12500.0,-4792.8894256256472,2238.3038247045138,-1158.5876973944382,1021.1536328178137,-470.7598402930675,-161.78858751559727,3063.0274868026286,-2389.7947349719893,1503.4650092828892,-1503.4650092828892,2389.7947349719893,6053.7217467621895,0.0
753523.2936376977,3587751.2368613081,-12500.0,-4365.6866704076856,1903.9274628770993,-960.41474306454563,883.75566900229649,-384.16001210292075,-133.24246949163512,2718.8314053656222,-2231.800759360809,1348.1082734826016,-1348.1082734826016,2231.800759360809,5362.5987856135753,0.0
553523.2936376977,3592751.2368613081,-12500.0,-2474.5274437455864,-2007.4266622751145,-1276.6063442093832,-544.91507528149805,-422.39733541548674,-85.377354644910298,2154.667000664499,-1651.8612404393598,-1619.3116706149831,1619.3116706149831,1651.8612404393598,4218.575715240363,0.0
558523.2936376977,3592751.2368613081,-12500.0,-2531.817802636554,-2274.5828772549416,-1517.6833801913242,-595.77532346584519,-498.67353654061174,-98.444175883219415,2399.565028315179,-1654.9701357052963,-1935.5385814858896,1935.5385814858896,1654.9701357052963,4670.5524586926977,0.0
563523.2936376977,3592751.2368613081,-12500.0,-2537.0559275703804,-2569.8026456273692,-1812.3172312023762,-644.65832852032804,-588.54360330745112,-112.81818014324493,2674.892842908876,-1606.8303788697972,-2315.0733194864679,2315.0733194864679,1606.8303788697972,5171.3437946342192,0.0
568523.2936376977,3592751.2368613081,-12500.0,-2464.1981907790514,-2888.5984763060146,-2171.7036935195943,-686.92800705765524,-693.23410274737307,-128.04412443949045,2983.4915319082497,-1483.8546798612761,-2767.5921572608277,2767.5921572608277,1483.8546798612761,5722.6908827645111,0.0
573523.2936376977,3592751.2368613081,-12500.0,-2277.7751969349351,-3220.4405810673861,-2607.7052156354839,-715.31531042852851,-812.98240571717281,-143.17022004036241,3328.0131280179658,-1254.2535912955191,-3301.2396493216347,3301.2396493216347,1254.2535912955191,6324.652104989038,0.0
578523.2936376977,3592751.2368613081,-12500.0,-1930.4852082061459,-3545.015818370221,-3131.0799856059334,-718.79287171147462,-945.97649631034733,-156.45001383655503,3710.9108337942348,-876.19491698453862,-3919.5628049587604,3919.5628049587604,876.19491698453862,6975.2807620292197,0.0
583523.2936376977,3592751.2368613081,-12500.0,-1360.977940665264,-3826.7615811332093,-3747.7476898188011,-681.14899500587012,-1086.568723369887,-164.92255173751155,4134.8129155123261,-296.45444750194974,-4616.0216557003878,4616.0216557003878,296.45444750194974,7671.2467290514978,0.0
588523.2936376977,3592751.2368613081,-12500.0,-492.73631863737506,-4007.2864807274732,-4451.5962124610933,-579.35185046547838,-1222.3885472561883,-163.87571635708673,4603.8924973063622,549.34038370802455,-5364.6721912826088,5364.6721912826088,-549.34038370802455,8411.1423600394755,0.0
593523.2936376977,3592751.2368613081,-12500.0,764.24377968353178,-3995.6830644160682,-5211.509988307881,-382.01677134902519,-1329.8942419575017,-146.27308037902381,5127.4923916477728,1732.8443468564278,-6105.1801071663085,6105.1801071663085,-1732.8443468564278,9205.3118073055084,0.0
598523.2936376977,3592751.2368613081,-12500.0,2506.1628555620464,-3657.8166549454818,-5949.3535645450993,-48.692307655229122,-1367.9200889848594,-102.40278787570504,5728.2666829786212,3322.1574207456797,-6720.1892863141093,6720.1892863141093,-3322.1574207456797,10099.663360301618,0.0
603523.2936376977,3592751.2368613081,-12500.0,4818.5537916380663,-2808.0244414134909,-6505.1141465410419,468.70014479249522,-1269.0839611407175,-20.349425803277398,6458.0716841072317,5359.2621127738985,-7004.0294546435216,7004.0294546435216,-5359.2621127738985,11224.619025686499,0.0
608523.2936376977,3592751.2368613081,-12500.0,7745.5543217785616,-1210.7557413662657,-6586.5075861070891,1220.1998047185425,-929.76550829863925,111.55086054089745,7423.5909991669905,7820.4618688244154,-6625.0701209361068,6625.0701209361068,-7820.4618688244154,12873.726731351298,0.0
613523.2936376977,3592751.2368613081,-12500.0,11243.42968176079,1394.6262349523813,-5705.5539484321171,2245.3572317596727,-201.0149761727782,298.38829414485673,8815.9567309799932,10557.187973419759,-5091.578465714405,5091.578465714405,-10557.187973419759,15576.768121947594,0.0
618523.2936376977,3592751.2368613081,-12500.0,15124.160305091338,5227.8692761698894,-3116.9971110833658,3551.9691827522211,1114.879906133235,526.00446799776375,10927.08364615684,13223.607170491652,-1743.5319632370156,1743.5319632370156,-13223.607170491652,20078.070063195508,0.0
623523.2936376977,3592751.2368613081,-12500.0,19009.108473534223,10345.330846841822,2206.0557112118722,5086.3653598832625,3255.1440912650019,739.55800006887443,14175.610495434716,15214.982134881919,4193.0405399432329,-4193.0405399432329,-15214.982134881919,27195.839276726543,0.0
628523.2936376977,3592751.2368613081,-12500.0,22326.952982556686,16465.09000539254,11503.074483355116,6700.1518589010657,6466.5751299973144,812.28678146054733,19501.977010491923,15660.522933988676,13449.392953859242,-13449.392953859242,-15660.522933988676,37690.695506825839,0.0
633523.2936376977,3592751.2368613081,-12500.0,24379.892404922062,22780.185063409772,26010.586247313298,8124.6653736301059,10947.426250131244,507.84867868113537,27564.332931202684,13511.70140903587,26442.594726205134,-26442.594726205134,-13511.70140903587,52209.5882971799,0.0
638523.2936376977,3592751.2368613081,-12500.0,24419.594797659531,27798.387390894801,46596.42513213191,8970.7439710720828,16753.268526843531,-539.77888017707653,38179.800465200744,7697.2574228276026,42919.794662070533,-42919.794662070533,-7697.2574228276026,71203.874326934383,0.0
643523.2936376977,3592751.2368613081,-12500.0,21560.09094865567,29008.88154968854,73167.412367261655,8750.3195194446671,23640.236166819341,-2720.7837684987812,51151.799551452277,-2760.031551331409,61364.752723777259,-61364.752723777259,2760.031551331409,94534.541868696047,0.0
648523.2936376977,3592751.2368613081,-12500.0,14982.39453249448,21780.073280630699,102649.6414052469,6797.6016490477377,30648.274487152456,-5962.1800399653421,64954.495644533061,-18041.898694046813,76933.962428823841,-76933.962428823841,18041.898694046813,119749.99664277204,0.0
653523.2936376977,3592751.2368613081,-12500.0,7461.7637918955561,-285.08692471550984,122338.42873137064,2225.8975554871095,34845.546500461227,-8928.7648422228231,74408.628734309154,-32935.505204993417,76802.475436168621,-76802.475436168621,32935.505204993417,137861.99932830915,0.0
658523.2936376977,3592751.2368613081,-12500.0,10139.092752048544,-32521.849367115712,107151.31109434929,-4131.4102330365104,30831.786685360647,-9461.8176043730982,70976.894687535911,-31051.495780493311,45869.852051519294,-45869.852051519294,31051.495780493311,133315.82393192311,0.0
663523.2936376977,3592751.2368613081,-12500.0,25767.159244133498,-47399.297569432514,53180.410204123866,-7394.5004092004738,17661.444457747668,-7141.5085590432736,53582.513503806862,-5426.0201681128274,-1109.7435446668424,1109.7435446668424,5426.0201681128274,102842.09407706968,0.0
668523.2936376977,3592751.2368613081,-12500.0,34650.849738181263,-32745.193397577114,189.29669077490703,-5136.0281457098226,3759.1156619191902,-4140.6420676483704,37351.876786907051,19438.986121393402,-27263.421853821728,27263.421853821728,-19438.986121393402,68511.573484048218,0.0
673523.2936376977,3592751.2368613081,-12500.0,28165.623422495715,-9559.9514086365562,-25117.094438810662,-801.39766398171912,-4531.5698067888206,-2428.7539842352126,28724.989784956906,26253.405722594722,-27483.142261182187,27483.142261182187,-26253.405722594722,49825.921710323397,0.0
678523.2936376977,3592751.2368613081,-12500.0,15483.034499046227,6195.4994947785617,-29645.013823197238,2695.390587402032,-7715.9414786090465,-1984.1310239558038,24527.445864667086,21327.335834935759,-18104.445320932624,18104.445320932624,-21327.335834935759,43231.225045531173,0.0
683523.2936376977,3592751.2368613081,-12500.0,4249.1796277989106,13391.194627221334,-25895.319816620449,4744.2049480305323,-8082.9572121497858,-1984.9200519316528,21640.114318136708,13643.819665828158,-9172.56802465896,9172.56802465896,-13643.819665828158,39511.116733379902,0.0
688523.2936376977,3592751.2368613081,-12500.0,-3451.9589540846109,15323.908145855094,-20399.129859493918,5608.7497808454373,-7231.532518494847,-1949.0777329828138,18999.041679129467,7060.0017852614028,-3083.8859844233402,3083.8859844233402,-7060.0017852614028,35646.328438771823,0.0
693523.2936376977,3592751.2368613081,-12500.0,-8004.7727916059612,14697.593366760242,-15432.882676786772,5692.2692286144402,-6009.396680568696,-1783.321030077567,16491.650414452921,2364.0484720661893,510.95263405820015,-510.95263405820015,-2364.0484720661893,31522.991457785451,0.0
698523.2936376977,3592751.2368613081,-12500.0,-10314.952958626183,13051.594567150873,-11512.03883544611,5337.4851843852339,-4806.4769242238208,-1539.3827799331564,14188.268347151798,-682.65897299736855,2415.03030477009,-2415.03030477009,682.65897299736855,27472.786998506959,0.0
703523.2936376977,3592751.2368613081,-12500.0,-11182.521054871819,11150.00937689979,-8574.6192102194091,4782.5952096713172,-3769.6370749701255,-1278.6752123574988,12143.427169206063,-2517.5902728464312,3283.5934337724952,-3283.5934337724952,2517.5902728464312,23733.464260961231,0.0
708523.2936376977,3592751.2368613081,-12500.0,-11184.706154836809,9334.6631246672914,-6419.5313280501159,4171.7561067017659,-2930.1730849634837,-1037.8888863681129,10372.401734293755,-3528.4151043911261,3555.5707011363811,-3555.5707011363811,3528.4151043911261,20412.977012377156,0.0
713523.2936376977,3592751.2368613081,-12500.0,-10703.346529039263,7735.3879119343383,-4848.2518651303935,3582.0544045214579,-2271.8999130498687,-831.91187620401433,8863.4122498421511,-4004.1621977749523,3502.8000320446431,-3502.8000320446431,4004.1621977749523,17533.27632325151,0.0
718523.2936376977,3592751.2368613081,-12500.0,-9978.4457492021447,6381.9700567871951,-3701.0221873395308,3048.8403096061775,-1763.9140995713924,-663.02508721749018,7591.8409806243308,-4145.0140780217625,3286.5608417213298,-3286.5608417213298,4145.0140780217625,15070.346827534469,0.0
723523.2936376977,3592751.2368613081,-12500.0,-9155.0412041890431,5260.7733975997571,-2858.6705425769283,2583.916112977799,-1374.6194693976315,-527.76556592052975,6529.3895752658718,-4084.2177748624085,2999.5091659374416,-2999.5091659374416,4084.2177748624085,12979.963672714048,0.0
728523.2936376977,3592751.2368613081,-12500.0,-8317.3513373424939,4342.2621683678599,-2235.1823776279302,2186.9493251314443,-1076.7450179473183,-420.77245092536549,5643.7393581147899,-3908.2234000098465,2693.1077111238897,-2693.1077111238897,3908.2234000098465,11212.159209654421,0.0
733523.2936376977,3592751.2368613081,-12500.0,-7511.7724809798192,3593.7294388436721,-1769.3300272619661,1852.056235175397,-848.42410585580444,-336.61208212888272,4900.1636651614244,-3672.0012972791569,2394.6247515734763,-2394.6247515734763,3672.0012972791569,9718.5445165768433,0.0
738523.2936376977,3592751.2368613081,-12500.0,-6761.7278716913543,2984.7063303445852,-1417.7085060299621,1571.3585101930666,-672.75679255353862,-270.50167390666275,4271.6151285915721,-3409.8129572683224,2117.3798324727982,-2117.3798324727982,3409.8129572683224,8455.5334229820564,0.0
743523.2936376977,3592751.2368613081,-12500.0,-6077.0193077379272,2488.8633670892668,-1149.5059008658791,1336.7788998554931,-536.92600139994215,-218.5002831956788,3738.1407613986344,-3142.4950874230462,1866.820953429233,-1866.820953429233,3142.4950874230462,7385.3792829029235,0.0
748523.2936376977,3592751.2368613081,-12500.0,-5459.612695232584,2084.3111325953164,-942.7511358076099,1140.8632887948017,-431.29895571127116,-177.47162463261398,3283.8723697501327,-2882.2776369214548,1644.0866459593622,-1644.0866459593622,2882.2776369214548,6476.1234449793646,0.0
753523.2936376977,3592751.2368613081,-12500.0,-4907.1676654855783,1753.2337881620699,-781.67647648578043,977.08901365943689,-348.65975948232892,-144.96609486443728,2895.777290606366,-2635.9314926118082,1448.0713872073898,-1448.0713872073898,2635.9314926118082,5701.0618820752161,0.0
553523.2936376977,3597751.2368613081,-12500.0,-3247.4644587715516,-2075.2825725368084,-1144.9771068445857,-682.17246877036393,-426.77874316647507,-102.53561993668878,2397.5392536442691,-2283.0681650541819,-1415.3554804445216,1415.3554804445216,2283.0681650541819,4749.9209199641873,0.0
558523.2936376977,3597751.2368613081,-12500.0,-3449.7195254235062,-2391.6967801393839,-1372.4694170343662,-765.52884233637656,-510.74227543322854,-120.45027844536754,2691.239524311166,-2406.5968827069019,-1724.3051382414815,1724.3051382414815,2406.5968827069019,5308.9164179720456,0.0
563523.2936376977,3597751.2368613081,-12500.0,-3627.7251137317753,-2756.5298995471189,-1656.5536155192062,-855.12770175844014,-612.37392568930602,-141.10790957046387,3025.8934676018057,-2501.8318801146033,-2105.9024404612146,2105.9024404612146,2501.8318801146033,5939.9834208966467,0.0
568523.2936376977,3597751.2368613081,-12500.0,-3759.1160616135953,-3172.7544385087972,-2012.2530417547268,-948.25523882446066,-734.73695784757888,-164.44198147944439,3406.170824231499,-2547.8377628244812,-2576.3633897880359,2576.3633897880359,2547.8377628244812,6649.0601065334404,0.0
573523.2936376977,3597751.2368613081,-12500.0,-3811.052404313783,-3639.5864377077742,-2457.8006581977174,-1039.7793392037831,-880.63376834807377,-189.94142651459248,3836.3420179990194,-2514.2080837814947,-3153.7095396677023,3153.7095396677023,2514.2080837814947,7439.9730702151273,0.0
578523.2936376977,3597751.2368613081,-12500.0,-3736.3516261813088,-4149.0044742893397,-3014.2338401675165,-1120.826130021163,-1051.7445456222476,-216.3040146321392,4319.6331567921115,-2357.7229395130507,-3856.0469070509816,3856.0469070509816,2357.7229395130507,8312.6571015835561,0.0
583523.2936376977,3597751.2368613081,-12500.0,-3468.837246965732,-4680.0721453487859,-3703.541284720925,-1176.932903479046,-1246.9924572528987,-240.90929363842912,4857.3582741639375,-2018.5339603756624,-4697.6384630408375,4697.6384630408375,2018.5339603756624,9260.7733036534064,0.0
588523.2936376977,3597751.2368613081,-12500.0,-2918.4258424221043,-5190.0579674139399,-4543.7900405783503,-1185.6403903309661,-1459.6199108992607,-259.08414408651305,5447.9935219781692,-1416.6354126770379,-5680.984147766756,5680.984147766756,1416.6354126770379,10269.133907300913,0.0
593523.2936376977,3597751.2368613081,-12500.0,-1967.3673787073551,-5601.2936107164251,-5538.3912989397058,-1113.7015253611326,-1672.2379638925636,-263.22942762513924,6086.8436317158612,-450.48206386403263,-6782.0784573400379,6782.0784573400379,450.48206386403263,11312.622083702086,0.0
598523.2936376977,3597751.2368613081,-12500.0,-470.62600447544679,-5783.2625291800023,-6654.6916623581164,-914.55786094993391,-1848.9310445658048,-242.14116271640552,6768.13246384593,998.43006851967903,-7924.775520270563,7924.775520270563,-998.43006851967903,12361.678743487564,0.0
603523.2936376977,3597751.2368613081,-12500.0,1734.2979502969984,-5531.4707896724694,-7784.52655093665,-527.58812190484866,-1923.5880659663887,-181.4568700406501,7494.0032037072588,3048.259631211517,-8939.4273106379806,8939.4273106379806,-3048.259631211517,13407.816026760496,0.0
608523.2936376977,3597751.2368613081,-12500.0,4800.3602956081713,-4549.7107835380257,-8677.3162743214834,118.16743254818097,-1784.4160282964631,-67.27618276617541,8300.0116957780647,5776.741451204135,-9502.4928765601762,9502.4928765601762,-5776.741451204135,14540.671836187859,0.0
613523.2936376977,3597751.2368613081,-12500.0,8819.0022906279119,-2451.8940808456359,-8838.0734105260435,1092.1520955004901,-1256.5771965426406,103.34406690105085,9312.8975253881908,9147.5861381869381,-9061.3474716644723,9061.3474716644723,-9147.5861381869381,16130.489287376171,0.0
618523.2936376977,3597751.2368613081,-12500.0,13743.313156987699,1187.0106166881992,-7395.3651865564098,2439.4962499436856,-88.046900428699644,299.80337232110611,10851.197305151618,12901.299445846307,-6767.2109170947369,6767.2109170947369,-12901.299445846307,19117.98403437918,0.0
623523.2936376977,3597751.2368613081,-12500.0,19310.150033793681,6692.8256771055303,-2977.0909038121499,4149.4721805961099,2053.8522717163437,418.59066240348079,13558.026642941406,16436.725958609641,-1470.6328207011411,1470.6328207011411,-16436.725958609641,25124.93623720247,0.0
628523.2936376977,3597751.2368613081,-12500.0,25027.45994607676,14048.369825701247,6314.4630674892524,6127.6247458496846,5570.9551371296366,227.28072740572642,18927.741348976451,18762.361228672125,8136.7700257479155,-8136.7700257479155,-18762.361228672125,36041.081114825436,0.0
633523.2936376977,3597751.2368613081,-12500.0,30330.773100422168,22614.507220414653,22700.422997871072,8198.1158891948253,10916.719767449284,-700.00928746003433,28900.543314871626,18647.563094949932,23179.746685837519,-23179.746685837519,-18647.563094949932,53644.714548812794,0.0
638523.2936376977,3597751.2368613081,-12500.0,34912.79438828885,31073.84546344254,48302.139868859435,10187.427340502622,18610.424352665646,-3033.1229797659644,43904.694355893284,15015.984994115657,44227.583013844967,-44227.583013844967,-15015.984994115657,79839.742869012582,0.0
643523.2936376977,3597751.2368613081,-12500.0,38446.097310023062,37779.043073841451,85148.920519255451,12136.94208272192,29409.469647380691,-7570.9980379486078,65274.493406104317,6876.7132936048401,71565.278212399266,-71565.278212399266,-6876.7132936048401,117329.83473746139,0.0
648523.2936376977,3597751.2368613081,-12500.0,37212.08349000624,38833.824504210861,136089.98394928913,13941.992010172769,44638.216263987582,-14223.060188219242,94293.804897947193,-9488.2998596576435,105162.78213102021,-105162.78213102021,9488.2998596576435,169095.41234273143,0.0
653523.2936376977,3597751.2368613081,-12500.0,23277.468071171927,15678.382111629769,193048.70410149478,11347.394650849237,62670.641891245374,-19498.768303042514,124638.73595092236,-39690.010061658089,129479.8350310645,-129479.8350310645,39690.010061658089,225434.70598327366,0.0
658523.2936376977,3597751.2368613081,-12500.0,18818.724007588498,-50511.629108736961,186113.00183318937,-2784.7073077883847,63262.9296242696,-18250.133641921409,127658.62965340262,-50403.201689161695,83711.161153672016,-83711.161153672016,50403.201689161695,235046.8378321341,0.0
663523.2936376977,3597751.2368613081,-12500.0,51639.626418872111,-79293.433026910454,66204.457050375626,-10846.213506234237,30116.370779148103,-11477.488538382688,87657.352409946849,5026.2707853583088,-17693.961513155355,17693.961513155355,-5026.2707853583088,164473.245707995,0.0
668523.2936376977,3597751.2368613081,-12500.0,56118.650425384418,-33238.475506352399,-28849.767526002346,-2260.0320191359415,76.589114587319756,-4372.6108167494422,53980.260773807895,44630.917364201268,-50343.243687857474,50343.243687857474,-44630.917364201268,95229.761955055961,0.0
673523.2936376977,3597751.2368613081,-12500.0,29214.224352459936,7193.6223975904904,-48538.486714962368,5793.2958968793137,-10485.008434801655,-1386.8925428505297,41120.627795786226,38124.47821324048,-32435.860642810625,32435.860642810625,-38124.47821324048,72030.065115549791,0.0
678523.2936376977,3597751.2368613081,-12500.0,5361.1584347651105,22185.44973895471,-40318.355276843053,9170.1926926532997,-11898.452864380821,-1468.7882087869425,34455.861266985397,21284.880365792844,-13406.064803925497,13406.064803925497,-21284.880365792844,63046.466093247393,0.0
683523.2936376977,3597751.2368613081,-12500.0,-8360.1044441610666,24292.876894232755,-29122.712485187469,10022.540558524572,-10543.278164843477,-2097.9096872143946,29059.514494421295,8682.4294369000891,-2481.7794442775357,2481.7794442775357,-8682.4294369000891,54823.244847189861,0.0
688523.2936376977,3597751.2368613081,-12500.0,-14970.221839718479,21907.748525997016,-20356.14131440561,9652.3215218085134,-8549.791381482386,-2337.3746629561379,24382.27183426706,1043.882609091552,2811.8090193822827,-2811.8090193822827,-1043.882609091552,46853.852784226889,0.0
693523.2936376977,3597751.2368613081,-12500.0,-17489.466356396493,18406.220207611172,-14204.584090013212,8697.7343152141639,-6644.1082871764147,-2203.0506392756415,20378.441527515155,-3206.8128902477883,5041.3798276326097,-5041.3798276326097,3206.8128902477883,39623.250491567065,0.0
698523.2936376977,3597751.2368613081,-12500.0,-17794.05164629528,14994.688901027452,-10005.279058269367,7533.8111063860961,-5056.2894092205916,-1893.7089925244002,17006.178105871819,-5374.6118611744851,5708.6792615534823,-5708.6792615534823,5374.6118611744851,33333.720536098212,0.0
703523.2936376977,3597751.2368613081,-12500.0,-16968.798883260126,12050.049151422691,-7146.4804268722501,6374.3903437953968,-3814.9106757067789,-1549.0126315642335,14203.05951990944,-6308.3120214769669,5617.315506789123,-5617.315506789123,6308.3120214769669,27999.284591294276,0.0
708523.2936376977,3597751.2368613081,-12500.0,-15628.035311900816,9635.9771953076724,-5187.0464593445395,5323.0505681902387,-2874.544844283063,-1234.7312307032885,11894.773974508427,-6532.4993725964741,5187.8463473791016,-5187.8463473791016,6532.4993725964741,23542.534249633551,0.0
713523.2936376977,3597751.2368613081,-12500.0,-14111.065681563603,7704.4995822618894,-3829.1395473310872,4416.6194626457182,-2172.5579999699839,-972.25982054728615,10005.401911842095,-6365.238104476427,4636.1849673231782,-4636.1849673231782,6365.238104476427,19849.723972657237,0.0
718523.2936376977,3597751.2368613081,-12500.0,-12597.776035703786,6176.4059558965955,-2875.687102316961,3656.8738880811302,-1651.1515813086178,-762.34423175546965,8462.9218669068032,-5996.5099438820507,4069.483121737243,-4069.483121737243,5996.5099438820507,16800.964102724618,0.0
723523.2936376977,3597751.2368613081,-12500.0,-11177.009136339742,4972.4068041297842,-2196.7227912999301,3029.9224513876979,-1263.6424333445898,-598.04783082234087,7200.3536524594765,-5537.8453719407817,3537.5105350561143,-3537.5105350561143,5537.8453719407817,14285.097775146167,0.0
728523.2936376977,3597751.2368613081,-12500.0,-9886.7230305372068,4023.7482777997748,-1706.1674282877368,2516.6584778643141,-974.51763067760453,-470.71620250581816,6160.4049500735255,-5053.1842808617084,3060.2151114836743,-3060.2151114836743,5053.1842808617084,12205.569272613662,0.0
733523.2936376977,3597751.2368613081,-12500.0,-8737.3000305861933,3274.4221535713432,-1346.5444283822494,2097.8167617642603,-757.53580741481551,-372.33726614173389,5298.570152202612,-4577.8629337225284,2642.4790376837154,-2642.4790376837154,4577.8629337225284,10481.511499982555,0.0
738523.2936376977,3597751.2368613081,-12500.0,-7724.8872007902282,2680.1950121415794,-1079.0840450994669,1756.0969584965173,-593.56614672245757,-296.25827466186905,4580.5812089241435,-4130.2068062587005,2281.9691160797934,-2281.9691160797934,4130.2068062587005,9046.5987835447595,0.0
743523.2936376977,3597751.2368613081,-12500.0,-6838.9028218055128,2206.6782043622184,-877.34056893727245,1476.8171854309091,-468.72925327204229,-237.22863884055798,3979.4838027247988,-3718.5652940745299,1973.2588434582635,-1973.2588434582635,3718.5652940745299,7847.06373919211,0.0
748523.2936376977,3597751.2368613081,-12500.0,-6066.1707695609284,1827.3344313081543,-723.06256920092926,1247.8927523987018,-372.9538348703058,-191.20915236465132,3473.8057588674324,-3345.5614498678233,1709.9435544738581,-1709.9435544738581,3345.5614498678233,6839.5811038013062,0.0
753523.2936376977,3597751.2368613081,-12500.0,-5393.1150019596898,1521.7361344766744,-603.50363437607348,1059.5434780811468,-298.90834570562538,-155.13114386655951,3046.3431341330988,-3010.6405307615937,1485.6775360089209,-1485.6775360089209,3010.6405307615937,5989.3174279156683,0.0
548523.2936376977,3602751.2368613081,-12500.0,-3701.2412807181104,-1757.2910674023142,-820.32501945332206,-718.79928415053325,-342.95942233568911,-100.61216751017567,2355.0653908174218,-2687.2879817735729,-901.45615036471565,901.45615036471565,2687.2879817735729,4696.6151607071879,0.0
553523.2936376977,3602751.2368613081,-12500.0,-4047.6583596927221,-2047.866930606905,-978.56979243463581,-822.64293037223615,-413.41330525321126,-119.85782830500905,2642.6230486114441,-2937.678060666788,-1118.4402318979849,1118.4402318979849,2937.678060666788,5283.5960003265827,0.0
558523.2936376977,3602751.2368613081,-12500.0,-4415.6400118789206,-2393.801241437191,-1178.1111138523818,-941.75344459829023,-500.46097174609713,-142.92771054948025,2988.7990707353374,-3200.1474452611883,-1393.069595334415,1393.069595334415,3200.1474452611883,5958.8228352134611,0.0
563523.2936376977,3602751.2368613081,-12500.0,-4797.4255977960374,-2805.2283921422027,-1431.6603962849147,-1077.2281281009657,-608.10974202897603,-170.38132353879178,3389.8868179896594,-3466.5882665605177,-1741.6552123637118,1741.6552123637118,3466.5882665605177,6735.2017189318985,0.0
568523.2936376977,3602751.2368613081,-12500.0,-5178.954349783563,-3292.9342520998271,-1756.0444323900988,-1229.2725576421874,-741.09085411611875,-202.64969658766216,3853.0929068993464,-3722.9572925476973,-2184.8892673659097,2184.8892673659097,3722.9572925476973,7626.1199666443163,0.0
573523.2936376977,3602751.2368613081,-12500.0,-5536.5493211508719,-3867.1797462868321,-2173.3341269933053,-1396.3744913336648,-904.69603847273254,-239.81339826101333,4386.5214786419292,-3946.2080269319645,-2748.4990483187162,2748.4990483187162,3946.2080269319645,8644.2358042941541,0.0
578523.2936376977,3602751.2368613081,-12500.0,-5832.1729470315449,-4535.2700679174186,-2711.9444547533963,-1573.9819467726463,-1104.2473451962487,-281.20568870338059,4997.5200502929247,-4099.9416524565886,-3463.3585528534923,3463.3585528534923,4099.9416524565886,9799.2420635056114,0.0
583523.2936376977,3602751.2368613081,-12500.0,-6006.8749346842706,-5296.9258287918119,-3407.193638886934,-1752.4771998866399,-1343.8444963502345,-324.74720208037928,5691.0541181157232,-4128.5115740990523,-4364.1813118336786,4364.1813118336786,4128.5115740990523,11093.99612534675,0.0
588523.2936376977,3602751.2368613081,-12500.0,-5972.2512883892277,-6135.9586186769402,-4300.0924007769008,-1914.2495151020134,-1623.7717539268297,-365.91356309870213,6467.0123382967204,-3949.6371422405296,-5485.0396597757608,5485.0396597757608,3949.6371422405296,12518.201661430439,0.0
593523.2936376977,3602751.2368613081,-12500.0,-5600.380083503841,-7006.0670074754571,-5431.6878628862487,-2029.8250675120903,-1935.5619103349336,-396.32459823998414,7316.0680784822725,-3446.4951395093153,-6848.4172136641901,6848.4172136641901,3446.4951395093153,14038.784162562062,1.0
598523.2936376977,3602751.2368613081,-12500.0,-4714.2613817787133,-7808.0066536363929,-6827.489913607762,-2053.5076787638136,-2253.2490443483707,-402.28572536962071,8214.0391899620008,-2462.3931944695337,-8441.972995520222,8441.972995520222,2462.3931944695337,15586.790487857468,0.0
603523.2936376977,3602751.2368613081,-12500.0,-3083.9015223655706,-8355.8820405424285,-8461.5895415295618,-1920.0844037862091,-2519.0287489289522,-364.56732395099084,9116.0704494187066,-805.38337861231867,-10173.680211435745,10173.680211435745,805.38337861231867,17043.973179578854,0.0
608523.2936376977,3602751.2368613081,-12500.0,-438.20357689433348,-8334.1047822857054,-10182.592358517673,-1545.9814576989227,-2621.9872912704864,-262.84850152880909,9956.5469374153909,1722.7776123037447,-11792.692805363928,11792.692805363928,-1722.7776123037447,18244.427253132028,0.0
613523.2936376977,3602751.2368613081,-12500.0,3491.6320874259959,-7258.0988928686884,-11575.400119563757,-840.10835033508624,-2370.7547906835807,-92.059494409112673,10674.813772543486,5250.5347111687515,-12764.842728513628,12764.842728513628,-5250.5347111687515,19049.448495069228,0.0
618523.2936376977,3602751.2368613081,-12500.0,8882.3737250519953,-4476.8340148775214,-11733.622510595702,271.5220754440241,-1465.306232428142,97.696351350614904,11328.424614479714,9689.475038561166,-12109.621862681925,12109.621862681925,-9689.475038561166,19694.508113880009,0.0
623523.2936376977,3602751.2368613081,-12500.0,15692.310593704973,706.78837280490052,-8950.7533808004773,1813.6158327559117,523.87455776454237,126.6018882111786,12459.974290217178,14521.359212586558,-8258.1914965394608,8258.1914965394608,-14521.359212586558,21867.206596932705,0.0
628523.2936376977,3602751.2368613081,-12500.0,23581.758901407055,8695.8269382762228,-439.53559577462892,3752.0535861976582,4171.8970896091823,-416.69058130401743,16234.876535347386,18617.821993758451,910.88877457165472,-910.88877457165472,-18617.821993758451,29962.88465979106,0.0
633523.2936376977,3602751.2368613081,-12500.0,32120.707191216163,18995.587716069072,17622.211701563596,6065.4791415195523,10253.648854276285,-2253.1978091915721,27151.732329351125,20381.670865353466,17592.661206609977,-17592.661206609977,-20381.670865353466,49006.947711482979,0.0
638523.2936376977,3602751.2368613081,-12500.0,41852.845776154812,29679.2329850104,49213.559217519716,9006.4210898522269,19939.892964086222,-6387.4565103214636,46656.191735171771,18845.276924454491,42928.620952633588,-42928.620952633588,-18845.276924454491,82553.651506450668,0.0
643523.2936376977,3602751.2368613081,-12500.0,56829.860376365534,38883.087701208235,97069.502299895685,14066.372440614661,35504.140848300616,-13866.821821015283,77461.520595411595,16410.20384342959,76575.871529396129,-76575.871529396129,-16410.20384342959,135546.90300127599,0.0
648523.2936376977,3602751.2368613081,-12500.0,82176.005784781533,51693.304648778372,168729.35705150649,26673.489071997843,64282.168403911746,-23795.131804220378,128769.79116941868,17055.769666861415,125418.62874451929,-125418.62874451929,-17055.769666861415,224591.03172603849,0.0
653523.2936376977,3602751.2368613081,-12500.0,84794.980443754946,59743.405536425831,301111.81244476023,45886.829286383487,128346.55064464039,-23486.364544637843,218055.72699785465,-12952.669798408184,214682.78563122376,-214682.78563122376,12952.669798408184,385206.48618684756,0.0
658523.2936376977,3602751.2368613081,-12500.0,40211.2642034163,-83473.812338649208,381194.53041632724,3726.7094089868465,178991.93636904514,-2805.0206491028093,274508.46608776081,-91771.090557279895,186753.29142248619,-186753.29142248619,91771.090557279895,499847.43561672576,0.0
663523.2936376977,3602751.2368613081,-12500.0,129527.50618210906,-144443.09951143063,39295.756100973173,-26693.143127019426,49925.493296992136,-3866.2719858680143,161236.41858512507,58525.3260442147,-88817.640658374716,88817.640658374716,-58525.3260442147,293438.20137270895,0.0
668523.2936376977,3602751.2368613081,-12500.0,73367.262630656711,4391.073015870139,-101234.49608439357,13981.215269398219,-18662.110385514297,2269.6286066368489,90387.568577330225,88477.625639014703,-77306.319591923675,77306.319591923675,-88477.625639014703,157530.84323132568,0.0
673523.2936376977,3602751.2368613081,-12500.0,1868.422802446737,45624.035990709563,-73240.961158243343,22548.298555350211,-20555.086798809483,4279.7620444150325,66300.017523859991,36308.781251068103,-20292.352209895729,20292.352209895729,-36308.781251068103,121925.46241153561,0.0
678523.2936376977,3602751.2368613081,-12500.0,-24370.764858856215,42662.695576713908,-43826.674755293403,20143.865453930019,-15864.100024208359,1082.2932120272635,49890.924830547236,7556.3911085168002,1702.0054784544323,-1702.0054784544323,-7556.3911085168002,94626.923949267293,0.0
683523.2936376977,3602751.2368613081,-12500.0,-31283.141284593999,33769.539278387048,-26634.868377632007,17163.5516150125,-11948.912369029316,-1486.0595965549892,38436.907871522235,-4539.3510263539492,8506.8504406230713,-8506.8504406230713,4539.3510263539492,74190.329102785501,0.0
688523.2936376977,3602751.2368613081,-12500.0,-31510.223249147781,25882.423124798606,-16790.597334895017,14456.629885065469,-8872.1936636531755,-2476.8580058129451,30350.359089686295,-9404.5960674378966,10034.879921040321,-10034.879921040321,9404.5960674378966,59203.655238045947,0.0
693523.2936376977,3602751.2368613081,-12500.0,-29309.074174249727,19718.109223016654,-10950.648704471509,11984.046803958723,-6510.6299627601902,-2524.5618862860365,24354.318809226534,-11059.461392060617,9670.0360921729734,-9670.0360921729734,11059.461392060617,47824.146062186832,0.0
698523.2936376977,3602751.2368613081,-12500.0,-26275.406960685006,15042.871228193673,-7362.2280254171355,9797.9761510917451,-4753.2155982673357,-2197.0224475918167,19746.134881614194,-11200.689690633992,8653.6062168818553,-8653.6062168818553,11200.689690633992,38945.1184789119,0.0
703523.2936376977,3602751.2368613081,-12500.0,-23103.018834445706,11529.238548009485,-5090.4143806325028,7943.3277568564763,-3473.3390335001945,-1785.7050861262542,16140.916413984136,-10628.190498826492,7484.278514331314,-7484.278514331314,10628.190498826492,31924.177174387431,0.0
708523.2936376977,3602751.2368613081,-12500.0,-20105.503654638876,8892.9897758091738,-3614.0495172673536,6417.9226339626211,-2550.9564370382245,-1406.7433430330339,13295.374691380119,-9749.4312459275679,6365.2935790590309,-6365.2935790590309,9749.4312459275679,26336.079418677553,0.0
713523.2936376977,3602751.2368613081,-12500.0,-17410.925494141422,6910.4936502904229,-2631.4652028256769,5187.2683143032455,-1887.7204403155868,-1093.6933425634188,11035.084459828797,-8776.6810657278638,5371.3757401377752,-5371.3757401377752,8776.6810657278638,21867.855804601299,0.0
718523.2936376977,3602751.2368613081,-12500.0,-15053.645362808838,5412.5617014216723,-1962.7235371553643,4204.6016651192876,-1409.3901847414375,-847.21726845504475,9227.4928423406363,-7818.1397773159588,4520.0906828447241,-4520.0906828447241,7818.1397773159588,18278.463664133833,0.0
723523.2936376977,3602751.2368613081,-12500.0,-13022.552072274742,4273.6745137880516,-1497.7835555342904,3423.2408491180563,-1062.2834178197529,-657.33838413640228,7771.2649851592905,-6925.2742312170867,3804.5906796265244,-3804.5906796265244,6925.2742312170867,15380.069146915164,0.0
728523.2936376977,3602751.2368613081,-12500.0,-11286.796056967387,3401.5836648883596,-1167.860694799002,2802.0724189799448,-808.39153364816184,-512.32252616885739,6589.504633335996,-6118.7873926806433,3208.9311166397883,-3208.9311166397883,6118.7873926806433,13026.264465932973,0.0
733523.2936376977,3602751.2368613081,-12500.0,-9809.1672779341443,2728.7106272314568,-929.0942893286192,2307.0908455648146,-621.02901933167254,-401.74366515098956,5623.7461808670578,-5403.1176987931549,2715.1030874892449,-2715.1030874892449,5403.1176987931549,11103.122430027821,0.0
738523.2936376977,3602751.2368613081,-12500.0,-8552.68692593171,2205.509987577575,-752.99358704282577,1911.1015875243886,-481.47962261550589,-317.21957377097323,4829.1834474384741,-4774.5317035750577,2306.0685390889676,-2306.0685390889676,4774.5317035750577,9522.0395646278412,0.0
743523.2936376977,3602751.2368613081,-12500.0,-7483.5471794964315,1795.5346012008515,-620.72592419988621,1592.7472268499844,-376.57291645285881,-252.30694470788464,4171.2046948262559,-4225.5893892200438,1966.8841264544376,-1966.8841264544376,4225.5893892200438,8214.0262911907739,0.0
748523.2936376977,3602751.2368613081,-12500.0,-6572.1534827011028,1471.837139095632,-519.63412303666155,1335.4063949950632,-296.98631962307968,-202.1565845833891,3622.8918397292568,-3747.5570117099433,1684.9404175159345,-1684.9404175159345,3747.5570117099433,7125.2205978381353,0.0
753523.2936376977,3602751.2368613081,-12500.0,-5793.228143578116,1214.3732286762299,-441.07580815733786,1126.1903231039983,-236.07230630134831,-163.1527228314836,3163.1834492913354,-3331.663396585348,1449.8198456995906,-1449.8198456995906,3331.663396585348,6213.410810629246,0.0
548523.2936376977,3607751.2368613081,-12500.0,-4350.1025649590601,-1624.9283994157499,-666.27019276454416,-827.65578163512168,-313.08526288404619,-113.45478890928948,2581.8569511916389,-3213.2461758081708,-573.76750801926323,573.76750801926323,3213.2461758081708,5116.9318376883684,0.0
553523.2936376977,3607751.2368613081,-12500.0,-4837.2732558432272,-1912.2074075644955,-792.24231845932422,-959.94255009811411,-380.39146175745088,-136.58839836322889,2919.4757316751625,-3581.2912901326727,-737.01424384624079,737.01424384624079,3581.2912901326727,5797.6263537735958,0.0
558523.2936376977,3607751.2368613081,-12500.0,-5382.0201022828633,-2260.9974297276854,-952.54457112085868,-1116.0827530502686,-464.75126099635997,-164.84643365787835,3312.3518837955826,-3992.1894940883512,-949.56799365669826,949.56799365669826,3992.1894940883512,6591.7405086386161,0.0
563523.2936376977,3607751.2368613081,-12500.0,-5986.6907369870896,-2685.6709638689326,-1158.8267217511345,-1300.0107246200007,-570.85236245897818,-199.2320287602486,3770.605278007341,-4446.5572063383188,-1227.622933137937,1227.622933137937,4446.5572063383188,7519.8452179543328,0.0
568523.2936376977,3607751.2368613081,-12500.0,-6650.1072472951055,-3203.588286793206,-1427.2094327338843,-1515.7172959901059,-704.57585854429533,-240.74574649486857,4309.5392935364362,-4941.4225779363569,-1592.9103226950283,1592.9103226950283,4941.4225779363569,8605.43712854164,0.0
573523.2936376977,3607751.2368613081,-12500.0,-7364.7550180069356,-3835.1102410773738,-1780.0463971769743,-1766.6908146663029,-873.10353209838388,-290.16030401512614,4954.0356873699902,-5467.4970192643132,-2074.4306248290495,2074.4306248290495,5467.4970192643132,9874.4134498977528,0.0
578523.2936376977,3607751.2368613081,-12500.0,-8112.3217506262126,-4602.875011889947,-2248.2596169954204,-2054.8708854235092,-1084.7837149453908,-347.56160956759544,5712.4995638473183,-6004.8590416243806,-2710.4171111243099,2710.4171111243099,6004.8590416243806,11353.537517113597,0.0
583523.2936376977,3607751.2368613081,-12500.0,-8856.8068989257172,-5529.5032175478063,-2874.2138063484267,-2378.8321808680471,-1348.4215646404905,-411.48464541165907,6596.4314988054512,-6516.328256613042,-3550.113491046824,3550.113491046824,6516.328256613042,13067.035959978401,0.0
588523.2936376977,3607751.2368613081,-12500.0,-9534.2281859679788,-6632.1691663510901,-3714.6785522128316,-2730.846065213475,-1671.342871277049,-477.39893461482325,7616.0468012169531,-6937.7094010672936,-4654.2220305735191,4654.2220305735191,6937.7094010672936,15029.849363991862,0.0
593523.2936376977,3607751.2368613081,-12500.0,-10037.980089298788,-7911.2533088358514,-4842.3250859007812,-3092.5285467704343,-2055.0457658025352,-535.2908217757938,8772.3457821551528,-7164.3703835915931,-6091.3118956138787,6091.3118956138787,7164.3703835915931,17235.076549786096,0.0
598523.2936376977,3607751.2368613081,-12500.0,-10199.626650476681,-9328.3986584930699,-6341.5036029545336,-3429.234761725028,-2486.4567340289964,-566.3878658999007,10046.698062596033,-7035.0124237571081,-7924.2476128183725,7924.2476128183725,7035.0124237571081,19631.647953557716,0.0
603523.2936376977,3607751.2368613081,-12500.0,-9767.2982835126622,-10766.899506881557,-8287.8821061919189,-3684.6877802977142,-2921.9074323988257,-540.32251830637802,11383.485385620195,-6317.5158348820069,-10174.507354960069,10174.507354960069,6317.5158348820069,22086.126708905704,0.0
608523.2936376977,3607751.2368613081,-12500.0,-8389.7332813065441,-11965.937920929033,-10688.43024621013,-3780.0708832640416,-3260.6526887646187,-417.65824897524442,12661.979647833537,-4711.2438951288714,-12741.570772497351,12741.570772497351,4711.2438951288714,24320.295212819834,0.0
613523.2936376977,3607751.2368613081,-12500.0,-5625.5773369276185,-12425.358852780211,-13333.491260863699,-3625.4205754823524,-3306.7105755182902,-170.87575935595001,13653.885640897914,-1898.6794754325301,-15240.006894868322,15240.006894868322,1898.6794754325301,25818.844513243948,0.0
618523.2936376977,3607751.2368613081,-12500.0,-1014.2688980636109,-11304.522224685126,-15476.451714944098,-3150.7138521227384,-2723.5621845994738,149.89855151408031,13975.368534978115,2294.3203967993268,-16709.764192560324,16709.764192560324,-2294.3203967993268,25744.076107019235,0.0
623523.2936376977,3607751.2368613081,-12500.0,5748.7907622150333,-7414.3908500828356,-15236.879206169004,-2345.8510741009254,-990.86282460430868,273.22541833673671,13153.584189992194,7560.1989811086569,-15195.981567726023,15195.981567726023,-7560.1989811086569,23234.582132902073,0.0
628523.2936376977,3607751.2368613081,-12500.0,14538.276567881647,461.99444590639382,-8712.6053648491452,-1247.5321050338114,2651.5977694365947,-506.61875245720051,12082.457094891144,12600.273016314019,-7357.683225007685,7357.683225007685,-12600.273016314019,21060.568342813247,0.0
633523.2936376977,3607751.2368613081,-12500.0,24558.506019501583,12528.00045923482,10892.596374401379,231.32219654224863,9395.4072081859067,-3438.7989018835874,20912.571037025802,14666.318358345998,11406.176164942091,-11406.176164942091,-14666.318358345998,36384.494996434783,0.0
638523.2936376977,3607751.2368613081,-12500.0,34688.896082525367,25499.294709171398,52994.717318768628,2553.0946254136097,21446.667684119675,-9891.893879176343,46185.277857098379,9870.1704807063616,45056.96241082497,-45056.96241082497,-9870.1704807063616,80552.55135069121,0.0
643523.2936376977,3607751.2368613081,-12500.0,48627.310563976185,28633.53207325266,124119.08025010687,6706.2694153607645,42806.072949510643,-20220.155779539273,88406.28727353776,-1564.2409949471548,89888.744172741979,-89888.744172741979,1564.2409949471548,154039.07703697879,0.0
648523.2936376977,3607751.2368613081,-12500.0,99537.874277131108,13477.454325565766,214910.45123343469,21135.882684036096,81644.425760393773,-31872.807306150611,150086.21432375538,9509.4187185093178,127485.95946583786,-127485.95946583786,-9509.4187185093178,260044.85465126013,0.0
653523.2936376977,3607751.2368613081,-12500.0,256674.8458363557,45338.171376999468,361361.14365372935,108052.22264703481,206973.14072482096,497.41069988808118,300204.0509899155,113943.88519468227,206141.11773807101,-206141.11773807101,-113943.88519468227,522599.75817580294,0.0
658523.2936376977,3607751.2368613081,-12500.0,199240.93900417138,-82386.423520839089,853080.60585259751,86863.24632730204,654571.00910033798,295007.83639985096,730363.93515039259,-59848.757232811389,470607.56043662515,-470607.56043662515,59848.757232811389,1304779.3948350351,0.0
663523.2936376977,3607751.2368613081,-12500.0,365135.93067038391,-97886.008687319321,-332033.0249481143,-9383.944684255488,-69634.018835902156,-3928.5168424449807,369011.56112903275,345329.98116943688,-344556.71705696051,344556.71705696051,-345329.98116943688,639146.86946673761,0.0
668523.2936376977,3607751.2368613081,-12500.0,-56541.965228314337,138659.71786135749,-167300.31053539034,98194.434995976088,-67089.540645002489,12010.539948938334,193643.47186036539,60061.32425386324,-20939.876715743543,20939.876715743543,-60061.32425386324,353084.45408699173,0.0
673523.2936376977,3607751.2368613081,-12500.0,-92609.549119596224,84598.025487611303,-67532.198398085078,55452.204571311471,-29101.473647461451,14654.430675820549,111629.54597551722,-15164.998836381463,21132.15721598806,-21132.15721598806,15164.998836381463,206592.70187901478,0.0
678523.2936376977,3607751.2368613081,-12500.0,-76162.017631029434,51971.90663492211,-32945.209658794462,34268.291672860578,-16745.343767188151,5352.5709810606377,70049.941798516942,-25393.19870947715,22066.864860684833,-22066.864860684833,25393.19870947715,132124.65560561643,0.0
683523.2936376977,3607751.2368613081,-12500.0,-60982.663032554141,34444.830087515147,-18022.585002348838,24682.422985739915,-11114.503760843148,-298.74695851904568,48475.31883363612,-24747.906328992078,18750.865714441385,-18750.865714441385,24747.906328992078,93159.657357069562,0.0
688523.2936376977,3607751.2368613081,-12500.0,-49760.525745319559,23971.853538763124,-10598.826738359909,19021.032516578995,-7695.9891451512285,-2371.9285954871607,35996.262716566845,-22294.770808554629,15402.167110154482,-15402.167110154482,22294.770808554629,70075.194598415954,0.0
693523.2936376977,3607751.2368613081,-12500.0,-41122.972519411051,17175.777145980748,-6577.8372246410272,14919.238556830609,-5395.8555323798355,-2706.0827148951435,27841.22299931735,-19613.470936777467,12530.970200498876,-12530.970200498876,19613.470936777467,54609.760196470415,0.0
698523.2936376977,3607751.2368613081,-12500.0,-34202.331782068351,12549.005390220032,-4272.1740083617133,11735.052188789496,-3812.0613101275117,-2406.3197484667871,22036.964659115474,-17051.580839289032,10163.278709447146,-10163.278709447146,17051.580839289032,43408.564381101147,0.0
703523.2936376977,3607751.2368613081,-12500.0,-28561.362393493582,9309.1307404265517,-2891.3344401858867,9242.0647133988914,-2716.1461943898757,-1956.1695768519692,17706.792683756797,-14723.599321080215,8245.0511131295461,-8245.0511131295461,14723.599321080215,34959.83342355716,0.0
708523.2936376977,3607751.2368613081,-12500.0,-23940.705309901656,6997.1016600262637,-2033.5486616658638,7300.2630432103397,-1954.6297406601618,-1531.7144400447046,14393.653340512832,-12669.917621744251,6705.9875948720719,-6705.9875948720719,12669.917621744251,28449.791907718212,0.0
713523.2936376977,3607751.2368613081,-12500.0,-20151.455577115299,5322.59182871755,-1482.904556911667,5794.3913854209213,-1421.9616582587914,-1181.699442274878,11818.646701068505,-10892.606623967862,5476.8029104085499,-5476.8029104085499,10892.606623967862,23366.843508389415,0.0
718523.2936376977,3607751.2368613081,-12500.0,-17040.971798881583,4094.0917604498691,-1118.4258126476732,4627.6477569125418,-1046.0962436251477,-908.30249859690969,9793.5613484869446,-9372.8325453946072,4496.0221468870677,-4496.0221468870677,9372.8325453946072,19357.954592092072,0.0
723523.2936376977,3607751.2368613081,-12500.0,-14482.805895759646,3182.0824565173016,-870.00803308646971,3721.6922151365889,-778.19285573624472,-699.63384402321458,8184.7177490891727,-8082.2280704268251,3712.1655557721169,-3712.1655557721169,8082.2280704268251,16167.969565967154,0.0
728523.2936376977,3607751.2368613081,-12500.0,-12372.700910251282,2497.465512224373,-695.8443435187213,3015.1655838691413,-585.18750359501973,-541.71262214309058,6894.6765107966603,-6989.8747920927499,3083.5784804053465,-3083.5784804053465,6989.8747920927499,13608.28848761868,0.0
733523.2936376977,3607751.2368613081,-12500.0,-10625.605400167828,1978.114198015365,-570.36095671555222,2460.9968324279994,-444.62264352113931,-422.30256385461661,5851.2788700078681,-6066.0955288571895,2577.2313163989038,-2577.2313163989038,6066.0955288571895,11537.764813499305,0.0
738523.2936376977,3607751.2368613081,-12500.0,-9172.7561776850907,1580.190455515075,-477.54722034307093,2023.4783384064415,-341.14642116431298,-331.7190990774784,5000.450401987423,-5284.2033540874581,2167.2284228748144,-2167.2284228748144,5284.2033540874581,9849.8463270335469,0.0
743523.2936376977,3607751.2368613081,-12500.0,-7958.8813039384204,1272.4161810634562,-407.16104463094069,1675.648359889331,-264.17634236452216,-262.62391440521191,4301.263473731995,-4621.0764685457834,1833.378544861966,-1833.378544861966,4621.0764685457834,8463.4958700579282,0.0
748523.2936376977,3607751.2368613081,-12500.0,-6939.6778590281046,1032.2376970838534,-352.51529169042635,1397.155431860135,-206.34841667803423,-209.56406929049371,3722.4625679199012,-4057.1184409921766,1559.9644728764019,-1559.9644728764019,4057.1184409921766,7316.6386805032826,0.0
753523.2936376977,3607751.2368613081,-12500.0,-6079.6540950363697,843.22618664596826,-309.15772511471329,1172.6001870297359,-162.48710570440034,-168.51875727220792,3239.9793433406408,-3575.9380348643617,1334.7410593436323,-1334.7410593436323,3575.9380348643617,6361.3862724977726,0.0
543523.2936376977,3612751.2368613081,-12500.0,-4407.2603100560491,-1191.177150318427,-442.96807085174692,-794.71853925653829,-220.68348413080901,-103.50402480124743,2459.4916306099076,-3276.3565686736129,-130.0393098332172,130.0393098332172,3276.3565686736129,4845.0107079720701,0.0
548523.2936376977,3612751.2368613081,-12500.0,-4948.7508026044752,-1403.3949019781621,-514.88482822834931,-927.45261476398832,-267.82664324250158,-125.12768483695645,2787.7256710678016,-3692.932756594445,-197.20504575544851,197.20504575544851,3692.932756594445,5499.4053486710982,0.0
553523.2936376977,3612751.2368613081,-12500.0,-5572.5613839678354,-1663.3238744113926,-605.25574629014875,-1086.8366607718983,-327.18891214647795,-151.89225821541535,3173.0699195363677,-4174.3349163932007,-289.01188331744174,289.01188331744174,4174.3349163932007,6268.6838513761204,0.0
558523.2936376977,3612751.2368613081,-12500.0,-6291.8321489900463,-1983.5833511076924,-720.47173448912849,-1278.7318934702755,-402.38440276627904,-185.04006347560716,3627.3424781059452,-4730.8657745218989,-414.77322409091221,414.77322409091221,4730.8657745218989,7176.6873193991642,0.0
563523.2936376977,3612751.2368613081,-12500.0,-7121.0069412995181,-2380.4425937356123,-869.60698785705438,-1510.1832242679227,-498.15367180913387,-226.02336823614593,4165.0121246820263,-5373.6240395028217,-587.57714003149476,587.57714003149476,5373.6240395028217,8252.4815688423696,0.0
568523.2936376977,3612751.2368613081,-12500.0,-8075.2035659650519,-2874.8348410466865,-1065.6956209802681,-1789.4812777721354,-620.6716033577452,-276.42574727901979,4803.7737659797995,-6113.7604508249806,-825.89602152407906,825.89602152407906,6113.7604508249806,9531.2642158743147,0.0
573523.2936376977,3612751.2368613081,-12500.0,-9168.8481411330722,-3493.5219294818507,-1327.6570022181338,-2126.0438012601862,-777.862961974158,-337.72960960858643,5565.2580322585218,-6960.9482386579639,-1155.8703725083301,1155.8703725083301,6960.9482386579639,11055.131393679228,0.0
578523.2936376977,3612751.2368613081,-12500.0,-10413.038306548522,-4270.2564095512525,-1683.1951530203969,-2529.9302470163429,-979.61333403539754,-410.77022219136927,6475.896211806451,-7920.4950551402862,-1614.4889898638694,1614.4889898638694,7920.4950551402862,12873.349765600204,0.0
583523.2936376977,3612751.2368613081,-12500.0,-11810.767814399896,-5246.5159555681357,-2173.1145036858479,-3010.6838240790066,-1237.6023742265761,-494.58050145975267,7567.3189952676476,-8988.1736685997785,-2253.8472085663834,2253.8472085663834,8988.1736685997785,15041.4223300101,0.0
588523.2936376977,3612751.2368613081,-12500.0,-13348.680150178963,-6470.8078890338566,-2857.5741937631437,-3575.0621455314167,-1564.1585680602525,-584.11666440733154,8874.1601146114681,-10141.377394863321,-3146.410058645145,3146.410058645145,10141.377394863321,17617.606122175159,0.0
593523.2936376977,3612751.2368613081,-12500.0,-14983.382817202388,-7994.3348409280807,-3824.6115175244472,-4223.170552765775,-1968.9118407020796,-666.081668262481,10429.174029928487,-11324.671570616654,-4390.3537778207019,4390.3537778207019,11324.671570616654,20654.377711941812,0.0
598523.2936376977,3612751.2368613081,-12500.0,-16619.690631567322,-9858.346693714775,-5200.1117855547509,-4942.8990394271677,-2450.9498344399599,-711.96534587140923,12257.289849107323,-12427.630828783305,-6111.6551167881598,6111.6551167881598,12427.630828783305,24180.202609571315,0.0
603523.2936376977,3612751.2368613081,-12500.0,-18077.854969434498,-12063.64410419828,-7154.2458434928658,-5704.1646463416992,-2982.6815324788085,-668.4131976513878,14363.190179989413,-13254.226789015309,-8453.4029094208381,8453.4029094208381,13254.226789015309,28162.672807356725,0.0
608523.2936376977,3612751.2368613081,-12500.0,-19048.302744149903,-14503.539556412848,-9886.379219509241,-6458.5982984846751,-3480.3899080265369,-449.851423901239,16701.514461926166,-13489.451247661962,-11527.441587254483,11527.441587254483,13489.451247661962,32434.294229760839,0.0
613523.2936376977,3612751.2368613081,-12500.0,-19040.337695595434,-16827.030688308947,-13533.148047717483,-7157.3242739923608,-3757.8381840035404,46.728782601181706,19104.613010938428,-12689.233345164266,-15267.790586289811,15267.790586289811,12689.233345164266,36537.952196863545,0.0
618523.2936376977,3612751.2368613081,-12500.0,-17360.341375498047,-18189.392517111915,-17848.70222125795,-7802.342565312204,-3466.2300435677539,851.07644474859933,21101.511146603789,-10374.253548548353,-19053.704241827942,19053.704241827942,10374.253548548353,39395.734284785125,0.0
623523.2936376977,3612751.2368613081,-12500.0,-13233.15442864857,-16906.746347956774,-21316.204415007644,-8518.2820721028565,-2027.8120154066205,1655.2290067815677,21490.805208540958,-6421.2293370054531,-20882.273543622447,20882.273543622447,6421.2293370054531,38663.637635880688,0.0
628523.2936376977,3612751.2368613081,-12500.0,-6277.5079911784887,-10320.695037401827,-19189.987902661767,-9528.1000960766105,1486.172656746036,1317.0032567993726,17518.335515781946,-2040.9251609407393,-15961.135116093006,15961.135116093006,2040.9251609407393,30348.033749682458,0.0
633523.2936376977,3612751.2368613081,-12500.0,2487.11019501387,4384.7520910674111,-308.47062634780241,-10798.528434720665,8872.5340759631617,-2546.1206801979029,14224.594659078939,-1441.7768989429344,4896.0250312853486,-4896.0250312853486,1441.7768989429344,25743.858802088667,0.0
638523.2936376977,3612751.2368613081,-12500.0,7714.0736000614015,27296.824847218395,57324.232207199522,-11743.839559608836,24930.771991663962,-12592.233973208611,52569.640418381583,-15204.159698115411,56723.971978075861,-56723.971978075861,15204.159698115411,91622.303633157731,0.0
643523.2936376977,3612751.2368613081,-12500.0,-9032.7009389684627,42190.160300181771,188644.84648110415,-16329.008660339336,62961.420238181694,-27633.408938007782,135948.4213502623,-69281.478110921453,155421.33887055767,-155421.33887055767,69281.478110921453,247248.25822397167,0.0
648523.2936376977,3612751.2368613081,-12500.0,-66561.861325338177,-16349.65856043898,399829.89798042271,-60775.334261013115,148809.83799704656,-43734.532264964888,290215.68290748715,-194921.40363610254,272311.92274936289,-272311.92274936289,194921.40363610254,534520.19920906518,0.0
653523.2936376977,3612751.2368613081,-12500.0,-12637.151449315634,-190291.64041419057,577722.40159321402,-232672.62769408704,354673.2060611436,-98672.755297450654,572694.93394613895,-282754.11114849552,302100.54147529235,-302100.54147529235,282754.11114849552,1027200.1251915202,0.0
658523.2936376977,3612751.2368613081,-12500.0,505424.46947556548,-667580.19755325478,508508.63082709647,-901956.07064899092,1216210.9775329991,236150.04873371063,1594589.9989101226,-112567.22861935927,16556.446754168268,-16556.446754168268,112567.22861935927,2878961.6804902544,0.0
663523.2936376977,3612751.2368613081,-12500.0,-819537.74490110157,110148.19012781889,-417043.11382558045,729034.44368543476,-121282.61988387983,-235496.61156023471,800217.33608566248,-158755.79192964593,-148193.38899857207,148193.38899857207,158755.79192964593,1393927.0089369565,0.0
668523.2936376977,3612751.2368613081,-12500.0,-371850.84674915689,88601.048313835418,-89288.642206006756,210720.68901601198,-41534.756741708894,22850.068799391338,300747.29631323915,-140613.60050974248,37344.291073106142,-37344.291073106142,140613.60050974248,534825.32009657938,0.0
673523.2936376977,3612751.2368613081,-12500.0,-196012.18215196676,52862.99132044064,-36336.596092578999,81930.872146631853,-20811.235390225269,23423.293083144545,144932.99380363352,-87636.311426702916,34893.053255520244,-34893.053255520244,87636.311426702916,261592.32788107838,0.0
678523.2936376977,3612751.2368613081,-12500.0,-121009.63243804258,33487.722176902542,-17334.355186893143,44153.706611001588,-12211.595946418474,8607.7665076763951,83452.08841735794,-58423.779923280803,26489.881072091961,-26489.881072091961,58423.779923280803,154179.81291085205,0.0
683523.2936376977,3612751.2368613081,-12500.0,-84291.520755826947,22227.689085245172,-8925.5646289363613,29687.317305503278,-7713.7742252132775,656.17436250097694,54883.346370667066,-42442.620870254359,20031.978513184768,-20031.978513184768,42442.620870254359,103916.80247421488,0.0
688523.2936376977,3612751.2368613081,-12500.0,-63287.635460648133,15243.791358141842,-4884.7712493535028,21963.77780870441,-5063.3813419282224,-2195.6951823322447,39488.197834504732,-32783.283431635093,15373.459805680601,-15373.459805680601,32783.283431635093,76134.296123472915,0.0
693523.2936376977,3612751.2368613081,-12500.0,-49522.401514938836,10709.650418930285,-2840.4981032330288,16763.189039361459,-3403.9423256466143,-2752.6605423234901,29933.567123234378,-26240.07294934868,11958.423304964628,-11958.423304964628,26240.07294934868,58353.852253089521,0.0
698523.2936376977,3612751.2368613081,-12500.0,-39650.812244360233,7669.9309739448054,-1761.3479295773848,12925.392907255677,-2329.9540519984239,-2494.7874268209116,23373.219946542034,-21419.421918944965,9403.5151585242493,-9403.5151585242493,21419.421918944965,45851.136697019567,0.0
703523.2936376977,3612751.2368613081,-12500.0,-32205.567562354943,5582.7841262948223,-1168.5426218623452,10024.657883393924,-1619.79454291408,-2035.2909785293052,18596.196679194723,-17691.248360239664,7463.8633127289904,-7463.8633127289904,17691.248360239664,36606.035232335766,0.0
708523.2936376977,3612751.2368613081,-12500.0,-26435.486025515129,4121.9916995549665,-829.62089644740786,7822.338282149406,-1142.2613333697457,-1591.7028658238437,15001.725593771,-14733.953800765372,5975.837171178533,-5975.837171178533,14733.953800765372,29583.458012659408,0.0
713523.2936376977,3612751.2368613081,-12500.0,-21891.79276195278,3082.7635798215065,-627.48681741201938,6147.3205217800414,-816.34046333531148,-1224.4731093660046,12241.957643435393,-12355.939737498587,4824.5814899190245,-4824.5814899190245,12355.939737498587,24160.1071747407,0.0
718523.2936376977,3612751.2368613081,-12500.0,-18274.450358610844,2332.6481615469611,-501.24657181137167,4869.243557422481,-590.7756615347073,-938.04597262748268,10092.160290517953,-10427.408366745671,3926.9506619929066,-3926.9506619929066,10427.408366745671,19920.181481276504,0.0
723523.2936376977,3612751.2368613081,-12500.0,-15369.15490250867,1784.0262617121975,-418.33000550498878,3889.0559445005283,-432.58041423457843,-720.12975504048575,8397.5692697329614,-8853.2270246560674,3221.7522244913803,-3221.7522244913803,8853.2270246560674,16570.757011994327,0.0
728523.2936376977,3612751.2368613081,-12500.0,-13017.35838858802,1377.8669285290587,-360.87242834051938,3132.4119351276063,-320.22076368565098,-555.81867006947652,7047.7485279214206,-7560.8326685835418,2663.5367039565499,-2663.5367039565499,7560.8326685835418,13899.514234401846,0.0
733523.2936376977,3612751.2368613081,-12500.0,-11099.519703799582,1073.7681915722014,-318.84748093379085,2543.9947761262633,-239.45134030928475,-432.03761167741567,5962.1872620480308,-6493.8415500369083,2218.3357338676415,-2218.3357338676415,6493.8415500369083,11749.983547556792,0.0
738523.2936376977,3612751.2368613081,-12500.0,-9524.4688299008667,843.68508296569337,-286.505531317433,2082.798905750155,-180.7271204424612,-338.46941439843357,5081.308586211876,-5608.0498423085219,1860.621969869343,-1860.621969869343,5608.0498423085219,10005.507482661442,0.0
743523.2936376977,3612751.2368613081,-12500.0,-8222.0983251228045,667.89509406485308,-260.47899529430413,1718.4180518074359,-137.57209075367317,-267.33067955760487,4360.4997584659977,-4868.625850867953,1571.1043427890374,-1571.1043427890374,4868.625850867953,8578.27432585524,0.0
748523.2936376977,3612751.2368613081,-12500.0,-7138.1192394811624,532.35995072196363,-238.75233545357366,1428.2347984778366,-105.5389089538721,-212.86475073115307,3766.005429204904,-4248.0143346472296,1335.1187149440382,-1335.1187149440382,4248.0143346472296,7401.6040452559891,0.0
753523.2936376977,3612751.2368613081,-12500.0,-6230.2172348741251,426.97267955423973,-220.0908638261495,1195.3415472062136,-81.537329042869032,-170.84610485210192,3272.0415181293015,-3724.333489368008,1141.4484471080027,-1141.4484471080027,3724.333489368008,6424.4375260072375,0.0
543523.2936376977,3617751.2368613081,-12500.0,-4826.6448178122682,-929.39564539589423,-336.58516785827192,-862.04979520475547,-171.36739497915343,-111.08912349876178,2603.0364275022803,-3602.58132545538,207.00621483985788,-207.00621483985788,3602.58132545538,5112.0244046400721,0.0
548523.2936376977,3617751.2368613081,-12500.0,-5462.7193887205131,-1098.0947218054112,-382.47492706914903,-1012.7538003440674,-208.2750816384914,-135.03321093089377,2963.6529533930934,-4095.672774975596,207.02264133551444,-207.02264133551444,4095.672774975596,5826.8137059989358,0.0
553523.2936376977,3617751.2368613081,-12500.0,-6207.7175665255327,-1306.3940788188672,-439.22920929488612,-1195.8621699391024,-254.98219877198778,-164.92565961846333,3390.6048967334145,-4675.8034626824428,198.74955234515664,-198.74955234515664,4675.8034626824428,6673.7036507917628,0.0
558523.2936376977,3617751.2368613081,-12500.0,-7083.7138826259425,-1565.5854014725101,-510.72407901852642,-1419.3643828735726,-314.51472400942583,-202.30884953289882,3898.8848885396987,-5360.9166423685365,177.41408226700332,-177.41408226700332,5360.9166423685365,7682.4632968644801,0.0
563523.2936376977,3617751.2368613081,-12500.0,-8117.5442493260307,-1890.6822599633458,-602.63026296295845,-1693.3077467168207,-390.91469175559195,-249.03901831610202,4507.3996989631642,-6172.7491159842994,135.77592273948039,-135.77592273948039,6172.7491159842994,8890.4736245581043,0.0
568523.2936376977,3617751.2368613081,-12500.0,-9341.6769773806354,-2301.7651657297879,-723.39815195419783,-2030.240337125274,-489.56665600551156,-307.22331765659521,5240.0879128287115,-7137.3823378573106,62.818392943291656,-62.818392943291656,7137.3823378573106,10344.740925397255,0.0
573523.2936376977,3617751.2368613081,-12500.0,-10795.034380524477,-2825.8176733771825,-885.85234136893916,-2445.6316530995896,-617.58021071088763,-378.96891429492183,6127.3598361136264,-8285.5771085054839,-58.289792341817702,58.289792341817702,8285.5771085054839,12104.334542332268,0.0
578523.2936376977,3617751.2368613081,-12500.0,-12523.576995253628,-3499.2002437352471,-1109.8128935564976,-2958.139004052362,-784.16169487324794,-465.71594619312106,7207.9585613555691,-9652.5678604448221,-253.37433103743933,253.37433103743933,9652.5678604448221,14243.248832092318,0.0
583523.2936376977,3617751.2368613081,-12500.0,-14580.241560899445,-4370.889535508466,-1426.4580811340318,-3589.4586959836597,-1000.7778185610418,-566.6871320488724,8531.3244416773487,-11276.670140514541,-562.21608258022934,562.21608258022934,11276.670140514541,16853.539768714483,0.0
588523.2936376977,3617751.2368613081,-12500.0,-17023.534247799696,-5506.4950642667036,-1885.6676003964626,-4363.3401841985642,-1280.6205695737874,-675.53871661125311,10160.536620727149,-13195.568199032565,-1046.2421945312344,1046.2421945312344,13195.568199032565,20048.412199373768,0.0
593523.2936376977,3617751.2368613081,-12500.0,-19913.541455206683,-6992.6581608896213,-2568.470698374575,-5303.2454907836855,-1636.2757141467448,-773.51323855155965,12175.993453093721,-15438.335179511054,-1800.2500836610889,1800.2500836610889,15438.335179511054,23964.645903873923,0.0
598523.2936376977,3617751.2368613081,-12500.0,-23303.110575553164,-8940.2228871956941,-3608.0977984377555,-6428.5510628233806,-2073.3583233710888,-816.27280954042033,14680.477364706112,-18010.017501892187,-2969.54369883648,2969.54369883648,18010.017501892187,28763.359508559646,0.0
603523.2936376977,3617751.2368613081,-12500.0,-27219.652964597612,-11481.039420206689,-5224.7115379389934,-7751.4258184719856,-2576.1508253875022,-710.91990711793846,17806.666499702638,-20863.944782034479,-4772.3925977043136,4772.3925977043136,20863.944782034479,34627.136904008381,0.0
608523.2936376977,3617751.2368613081,-12500.0,-31626.800932782488,-14742.372757876843,-7777.6066650591083,-9283.4656971608583,-3079.8863844474736,-283.37440597335728,21724.715825243955,-23855.024159501067,-7519.4437568768353,7519.4437568768353,23855.024159501067,41745.621991749984,0.0
613523.2936376977,3617751.2368613081,-12500.0,-36339.658558310191,-18748.90336089714,-11818.024003763561,-11076.131931765967,-3427.2160267975419,742.57552770207565,26624.465383386774,-26668.068581104362,-11586.367543160955,11586.367543160955,26668.068581104362,50248.674707047263,0.0
618523.2936376977,3617751.2368613081,-12500.0,-40849.250593116834,-23105.2786904963,-18011.736997865253,-13333.327829874708,-3319.7266535190797,2662.76799393804,32551.484127653617,-28743.885343661459,-17160.988043954756,17160.988043954756,28743.885343661459,59909.079704251009,0.0
623523.2936376977,3617751.2368613081,-12500.0,-44107.871760667127,-26131.73667994899,-26336.653110100608,-16587.569243585487,-2276.0899422241805,5362.2475728004438,38723.565837851325,-29423.986058298877,-23164.186737431766,23164.186737431766,29423.986058298877,69090.89458161022,0.0
628523.2936376977,3617751.2368613081,-12500.0,-44939.743100376072,-23330.987043477584,-32734.176576833652,-21709.997307005728,580.74786408007992,7195.9058210030498,41853.284084883577,-29287.108503747826,-24026.322864101814,24026.322864101814,29287.108503747826,72654.973912184592,0.0
633523.2936376977,3617751.2368613081,-12500.0,-44112.16718292571,-7281.8546026012618,-21079.488252064435,-29315.521989966557,7859.9515075302961,3509.9229235037451,39186.035552451707,-33999.706311698093,-4211.5757354055368,4211.5757354055368,33999.706311698093,68000.850542432061,0.0
638523.2936376977,3617751.2368613081,-12500.0,-44728.996157220048,31176.818372484151,46917.98736031208,-38492.372361518916,29797.512783058162,-12570.942482751512,72956.876658857349,-57102.797539131032,67596.531852908651,-67596.531852908651,57102.797539131032,128494.22903246857,0.0
643523.2936376977,3617751.2368613081,-12500.0,-75662.597827082122,105651.07754199853,270789.93455479364,-53542.633173608949,112420.87119488763,-40097.022938091766,246431.80414226346,-148937.73286583068,272230.19128393964,-272230.19128393964,148937.73286583068,434712.24036664807,0.0
648523.2936376977,3617751.2368613081,-12500.0,-216210.37575569851,114105.2775998526,750931.4929183257,-176477.31777622929,414993.14350093936,-37230.911020631436,676865.00360207947,-429592.46507432777,647590.18586106948,-647590.18586106948,429592.46507432777,1201436.3115106251,0.0
653523.2936376977,3617751.2368613081,-12500.0,-115500.37927707771,-194637.40235915335,408298.56323321426,-1123026.921509186,1490729.8846032715,58540.728799589648,1885070.8204751492,-542704.26305299567,456599.11455559661,-456599.11455559661,542704.26305299567,3282916.2968546697,0.0
658523.2936376977,3617751.2368613081,-12500.0,-305443.33305346168,237929.11264420679,-21546.556951943505,850875.91507317766,-1070508.2079764842,103558.08752745505,1400392.0165765812,63967.125172866043,-31569.248447884162,31569.248447884162,-63967.125172866043,2431363.6263041934,0.0
663523.2936376977,3617751.2368613081,-12500.0,-300121.91022482485,94795.458042523853,-252968.43465557447,246231.42628157826,-98008.959288003374,46826.251247642285,338150.48200696247,-25753.420244931607,-84356.141694565275,84356.141694565275,25753.420244931607,586431.76595082716,0.0
668523.2936376977,3617751.2368613081,-12500.0,-269480.26989974774,-17601.586078429678,-108924.75961625205,138973.31064536126,-10665.63176030427,39714.795523144938,208903.44110612347,-95585.991229924053,-51937.632004561652,51937.632004561652,95585.991229924053,361867.58168329165,0.0
673523.2936376977,3617751.2368613081,-12500.0,-186042.54737091059,-3483.2252840851002,-35948.180490923616,72319.739790173873,-8539.6149726865333,23469.612972903251,127805.50609060208,-87718.17846224035,-2084.8357967969278,2084.8357967969278,87718.17846224035,225660.535267717,0.0
678523.2936376977,3617751.2368613081,-12500.0,-125120.53519547112,2902.2673518923471,-13569.139886328167,43328.382723606315,-5488.2232725480389,8394.5454456170919,79941.21683411728,-64526.04764259723,9726.1961022182222,-9726.1961022182222,64526.04764259723,145340.54669441137,0.0
683523.2936376977,3617751.2368613081,-12500.0,-88995.048614155487,3596.6290807402888,-5703.4621964512889,30007.584313633095,-3087.9496592879264,703.73138441035223,54180.935495555517,-47618.093715969801,10722.674427115206,-10722.674427115206,47618.093715969801,101395.19064503688,0.0
688523.2936376977,3617751.2368613081,-12500.0,-66734.430707195264,2902.0257517259006,-2577.847980940825,22311.390724621087,-1714.3941863066093,-2103.8064901317703,39385.368833381741,-36421.157817274652,9378.7823615342641,-9378.7823615342641,36421.157817274652,75327.165587428011,0.0
693523.2936376977,3617751.2368613081,-12500.0,-51837.199862752779,2109.4994622755266,-1247.7465972601822,17011.352617759083,-980.41116942050235,-2684.2044229028475,29949.467848819677,-28701.514073575432,7762.7005921350428,-7762.7005921350428,28701.514073575432,58078.21030759062,0.0
698523.2936376977,3617751.2368613081,-12500.0,-41173.816300682265,1484.02639063934,-663.90274527621898,13089.019759025603,-582.47645131660158,-2452.7496333579998,23401.691471780119,-23082.206914536859,6331.9474678264323,-6331.9474678264323,23082.206914536859,45753.460971223467,0.0
703523.2936376977,3617751.2368613081,-12500.0,-33205.270863612757,1032.5325511177011,-406.04607327971593,10129.662950375578,-357.57342637710883,-2010.7381060819246,18615.503924741373,-18824.61855855797,5154.489774883511,-5154.489774883511,18824.61855855797,36566.975398596165,0.0
708523.2936376977,3617751.2368613081,-12500.0,-27092.963342056803,714.6683682180726,-293.61888318400293,7888.4653292834037,-224.61666426056172,-1577.227232503649,15009.578974246131,-15515.470627829021,4207.2613657687134,-4207.2613657687134,15515.470627829021,29560.445156275306,0.0
713523.2936376977,3617751.2368613081,-12500.0,-22324.707577657369,491.86493110808556,-245.90865025308798,6188.0262557532806,-142.8988413797293,-1215.5842307981191,12240.379367094734,-12901.099429661564,3450.3879271800151,-3450.3879271800151,12901.099429661564,24138.484232325482,0.0
718523.2936376977,3617751.2368613081,-12500.0,-18558.925955063518,335.30466318277564,-226.1365861167281,4893.4564096544191,-91.125175416180525,-932.27331964532868,10083.800117878358,-10811.750890944508,2845.8685490993025,-2845.8685490993025,10811.750890944508,19895.835872738662,0.0
723523.2936376977,3617751.2368613081,-12500.0,-15554.747740965553,224.81742094531097,-217.52102336777077,3902.6491026998506,-57.583226829094734,-716.15344877218718,8384.7722526178568,-9126.7388848473856,2361.7740963531369,-2361.7740963531369,9126.7388848473856,16543.430880087006,0.0
728523.2936376977,3617751.2368613081,-12500.0,-13136.636301870083,146.5262568169365,-212.55624063060711,3139.2326835148115,-35.513456312372575,-552.93064957859053,7032.3471696190245,-7757.0329487698136,1972.4703565008849,-1972.4703565008849,7757.0329487698136,13870.155479584373,0.0
733523.2936376977,3617751.2368613081,-12500.0,-11174.100969141353,90.888623395205883,-208.06655011898044,2546.5559462379233,-20.849798895123559,-429.8484528939664,5945.5168086782451,-6635.5062917091263,1657.7795435180115,-1657.7795435180115,6635.5062917091263,11719.725169223215,0.0
738523.2936376977,3617751.2368613081,-12500.0,-9568.8405070875306,51.305174632416943,-202.87872213382073,2082.7368125589851,-11.06201857474635,-336.75598184784212,5064.2926635014555,-5710.8520851353233,1401.9582686004032,-1401.9582686004032,5710.8520851353233,9975.3153152312825,0.0
743523.2936376977,3617751.2368613081,-12500.0,-8246.0512099188109,23.176384454704415,-196.71657845944748,1716.7940972065328,-4.532533302142058,-265.95843034372723,4343.7473769653216,-4943.4787025925398,1192.7621047543955,-1192.7621047543955,4943.4787025925398,8548.8625319113762,0.0
748523.2936376977,3617751.2368613081,-12500.0,-7148.3193664047658,3.2698247299744927,-189.67670537988437,1425.7336630650559,-0.20479264460934907,-211.74774455594533,3749.8974801575187,-4302.6007730033798,1020.6669904890773,-1020.6669904890773,4302.6007730033798,7373.4518358021614,0.0
753523.2936376977,3617751.2368613081,-12500.0,-6231.2301577110065,-10.704777561777707,-181.98393387899384,1192.4010459677372,2.6232316986241671,-169.92622869054651,3256.7989027834547,-3764.1174940119854,878.24859749506413,-878.24859749506413,3764.1174940119854,6397.8348272267867,0.0
543523.2936376977,3622751.2368613081,-12500.0,-5150.7939715190414,-613.05989689988667,-258.59923893688369,-914.00726068034976,-113.06047543439568,-116.91343729409566,2715.7008146783915,-3843.6275782142848,543.59259602243856,-543.59259602243856,3843.6275782142848,5321.5506990891845,0.0
548523.2936376977,3622751.2368613081,-12500.0,-5860.2781446501276,-722.40701078597544,-284.59212518146529,-1078.5977685382502,-136.78924300109068,-142.63343610295402,3101.6619538378923,-4393.7638985095182,613.27569468420256,-613.27569468420256,4393.7638985095182,6083.7334698956047,0.0
553523.2936376977,3622751.2368613081,-12500.0,-6699.8437677154207,-857.69653062568898,-315.26018945879696,-1280.104357286848,-166.76476150415266,-174.92066385518638,3561.2850161175784,-5047.9959977985254,692.76522486753265,-692.76522486753265,5047.9959977985254,6991.7791048026502,0.0
558523.2936376977,3622751.2368613081,-12500.0,-7699.0120530224585,-1026.6199011702049,-352.21606242314908,-1528.233112659442,-204.92711827000375,-215.54748738487859,4112.1709970084567,-5830.4465447118046,782.90193244757666,-782.90193244757666,5830.4465447118046,8080.3765841544218,0.0
563523.2936376977,3622751.2368613081,-12500.0,-8895.1773087856891,-1239.603718339793,-397.92752409969211,-1835.4862144490987,-253.88019946609617,-266.67750743184359,4776.9455168837349,-6771.663310372227,884.04553464545961,-884.04553464545961,6771.663310372227,9393.9337435921389,0.0
568523.2936376977,3622751.2368613081,-12500.0,-10335.99362569115,-1510.9418937213495,-456.2789158555488,-2217.9496270779568,-317.11219430748685,-330.80797741291292,5584.9317630201949,-7910.4574187952639,995.52267388891232,-995.52267388891232,7910.4574187952639,10989.65609448414,0.0
573523.2936376977,3622751.2368613081,-12500.0,-12082.563230848627,-1860.469054927735,-533.55281262168762,-2696.2226111086834,-399.25795319806235,-410.48554680614518,6574.4725254148443,-9296.2339262364931,1114.6163043061583,-1114.6163043061583,9296.2339262364931,12941.684491821152,0.0
578523.2936376977,3622751.2368613081,-12500.0,-14213.782843381707,-2316.0615622140604,-640.18352590333791,-3296.4263487380272,-506.3556944903807,-507.48902964410439,7796.2377823551406,-10991.919079022526,1234.7410530531924,-1234.7410530531924,10991.919079022526,15346.733852860414,0.0
583523.2936376977,3622751.2368613081,-12500.0,-16832.42742529068,-2917.4637046619428,-793.96389800635677,-4051.1246829710567,-645.95659195116025,-620.81286765906486,9318.1084473706233,-13077.581775458442,1342.1286308145154,-1342.1286308145154,13077.581775458442,18331.960256102549,0.0
588523.2936376977,3622751.2368613081,-12500.0,-20074.008313379101,-3722.277835777214,-1026.062976019344,-4999.8371898661562,-826.71439917700388,-742.03212981353931,11232.76710175804,-15654.845957660709,1409.7652946432963,-1409.7652946432963,15654.845957660709,22066.414340766285,0.0
593523.2936376977,3622751.2368613081,-12500.0,-24120.476754798961,-4815.6710651802878,-1392.6526471983982,-6188.781923910843,-1056.5948294646378,-845.10934653982065,13670.442978005622,-18852.339877769831,1386.1499871578235,-1386.1499871578235,18852.339877769831,26779.144246800784,0.0
598523.2936376977,3622751.2368613081,-12500.0,-29222.78932020799,-6326.7681015231801,-1998.1252642135375,-7670.1782804908489,-1337.9207000788397,-864.86011592853663,16822.359359416587,-22832.848408340305,1174.0169682188753,-1174.0169682188753,22832.848408340305,32791.284964156148,0.0
603523.2936376977,3622751.2368613081,-12500.0,-35739.377830912308,-8457.3685741105182,-3043.1472101181052,-9505.1795918415992,-1656.211029842794,-653.97144295090993,20987.344720337369,-27803.771754765876,589.06937433263192,-589.06937433263192,27803.771754765876,40579.851789677006,0.0
608523.2936376977,3622751.2368613081,-12500.0,-44197.469434590428,-11531.562735048372,-4927.3456312136977,-11787.814071205948,-1960.099128993324,93.935044801191168,26665.381159280703,-34032.029841632189,-721.39083848178052,721.39083848178052,34032.029841632189,50910.280512033503,0.0
613523.2936376977,3622751.2368613081,-12500.0,-55356.959053369319,-16063.137477430486,-8469.9110914329176,-14743.805365846649,-2140.5310194723756,1948.3893321807971,34720.079079513256,-41849.40140247588,-3432.6542931385629,3432.6542931385629,41849.40140247588,65079.780023720203,0.0
618523.2936376977,3622751.2368613081,-12500.0,-70116.57241507963,-22715.799475540964,-15336.800408698344,-19022.078193994672,-2063.0605619063572,5752.0808393468624,46510.847554503489,-51554.41454015566,-8753.4338924206204,8753.4338924206204,51554.41454015566,85130.0071099692,0.0
623523.2936376977,3622751.2368613081,-12500.0,-88751.486637501526,-31374.48443020893,-28418.2444873122,-26258.291648033377,-1772.872604930812,12031.563005263095,63310.119907690685,-62954.721757055326,-18090.776757850785,18090.776757850785,62954.721757055326,112905.94651010016,0.0
628523.2936376977,3622751.2368613081,-12500.0,-109636.62730297196,-36547.878131452431,-48839.600101646887,-39301.582608056073,-1483.2164755238998,18649.56046429382,83079.878584146631,-75366.175677149964,-28254.593597622377,28254.593597622377,75366.175677149964,144920.29122487956,0.0
633523.2936376977,3622751.2368613081,-12500.0,-136694.15325430621,-19306.640768343332,-54600.827312135916,-60888.98676091255,2772.1529201090148,16620.966521076891,99753.527068305775,-98676.69401116707,-11159.569167768052,11159.569167768052,98676.69401116707,172980.9000191259,0.0
638523.2936376977,3622751.2368613081,-12500.0,-198695.19854937171,22955.109762119388,32122.759692541094,-99151.945556627921,35672.156896682609,-8605.3063066036884,152137.88538936406,-180456.85698114979,92275.724611011421,-92275.724611011421,180456.85698114979,283595.80500861222,0.0
643523.2936376977,3622751.2368613081,-12500.0,-225958.84668245967,148121.73749353903,317546.05665870843,-173376.88747966354,215396.58569212203,-57649.59690124364,419081.55565494113,-303121.15603446943,387198.11902216222,-387198.11902216222,303121.15603446943,726246.88023993443,0.0
648523.2936376977,3622751.2368613081,-12500.0,-399600.28976902267,57711.787804746687,1663381.6832953901,-745674.14686799853,1401766.3630658765,4073.5138512419962,1905713.1515956034,-1005880.5590738375,1386574.875977281,-1386574.875977281,1005880.5590738375,3340509.5333192288,0.0
653523.2936376977,3622751.2368613081,-12500.0,-1032245.3188485756,612628.87769684312,-908102.43871088268,1531611.7453275872,-1823072.0214498362,-55066.848272081646,2503000.7479288611,84522.332245290541,-360460.98200706858,360460.98200706858,-84522.332245290541,4356971.4590666406,0.0
658523.2936376977,3622751.2368613081,-12500.0,-583658.7686204511,189388.86504221027,171507.68992274886,362978.78749003907,-381099.69482325896,61464.875883532157,685271.26871468057,-330950.44213461975,249607.52090111998,-249607.52090111998,330950.44213461975,1199108.5514483317,0.0
663523.2936376977,3622751.2368613081,-12500.0,-253238.52112306716,88740.579027742337,-31311.729674357466,125092.07894610267,-97943.084238080381,48022.878174211393,233834.08517190145,-113998.87269648726,58430.330104332963,-58430.330104332963,113998.87269648726,415330.29594503931,0.0
668523.2936376977,3622751.2368613081,-12500.0,-164006.99400660486,-1708.9579091358512,-65457.754307869312,74528.38086430011,-21111.159185083769,31407.401413650816,124679.49046480466,-62307.338876444774,-24956.107133312373,24956.107133312373,62307.338876444774,215986.20763463253,0.0
673523.2936376977,3622751.2368613081,-12500.0,-128444.99517169845,-19446.275581600607,-36079.282461892413,49781.557706763517,-5185.7085708283676,16497.870514247119,90086.993609131212,-58003.695586615082,-19779.436968737791,19779.436968737791,58003.695586615082,157486.08253311549,0.0
678523.2936376977,3622751.2368613081,-12500.0,-98983.973018182645,-15967.643894486106,-16753.053429227555,34983.016214491363,-703.02571017545654,5694.5741744538027,64588.385948847914,-49858.403235572681,-8076.3531646442643,8076.3531646442643,49858.403235572681,116402.4189713463,0.0
683523.2936376977,3622751.2368613081,-12500.0,-76338.344008921573,-11376.722926078557,-7872.9364434408244,26106.661387203265,920.42292889153237,79.067728185905381,47274.737537570138,-40513.433084039687,-2103.1085362348131,2103.1085362348131,40513.433084039687,87924.330677568636,0.0
688523.2936376977,3622751.2368613081,-12500.0,-59850.209139366285,-8156.9246386090945,-3896.1202863012904,20108.996931572663,1350.1404751354578,-2059.6799746736142,35823.413287113857,-32666.474581407587,436.86852791660931,-436.86852791660931,32666.474581407587,68228.872818878284,0.0
693523.2936376977,3622751.2368613081,-12500.0,-47690.556666342571,-5985.7006715782863,-2054.8224384098626,15643.380369138647,1289.7943929429546,-2501.4944884762426,27884.127940968709,-26515.356465129054,1443.5285267123327,-1443.5285267123327,26515.356465129054,53935.685236372054,0.0
698523.2936376977,3622751.2368613081,-12500.0,-38483.417085465982,-4481.3109356946061,-1170.9495781682351,12200.675601341281,1078.1836256923982,-2284.279805344062,22100.381862829923,-21704.636595564636,1777.6126531404152,-1777.6126531404152,21704.636595564636,43153.470034729064,0.0
703523.2936376977,3622751.2368613081,-12500.0,-31365.665613183803,-3411.519627000599,-733.70183021149762,9537.1852632697482,854.18627789518814,-1884.9727165808072,17747.333933388825,-17903.524329529813,1810.3198887360786,-1810.3198887360786,17903.524329529813,34847.596058918127,0.0
708523.2936376977,3622751.2368613081,-12500.0,-25785.630520823572,-2636.2292577661128,-511.35660906590238,7484.6038145303191,662.86659961367434,-1489.3981675505779,14405.820818187709,-14871.43261874834,1709.8317919050332,-1709.8317919050332,14871.43261874834,28376.951388002468,0.0
713523.2936376977,3622751.2368613081,-12500.0,-21367.284553297795,-2065.8236067650741,-394.58962996901334,5907.0122526884761,511.90398344217334,-1155.4461331894834,11806.695354505116,-12434.763887312483,1556.3607395378112,-1556.3607395378112,12434.763887312483,23296.84578415865,0.0
718523.2936376977,3622751.2368613081,-12500.0,-17840.307152455996,-1640.423321755296,-330.33807940998582,4693.9846288328927,396.57418464356158,-891.09712230360856,9763.8757470428973,-10464.368151543575,1388.9996685577653,-1388.9996685577653,10464.368151543575,19280.556229199592,0.0
723523.2936376977,3622751.2368613081,-12500.0,-15004.050880126199,-1319.0165174153117,-292.35997649413832,3758.3250645835979,309.45629055484102,-687.70537897451095,8143.3546296481818,-8861.7614243196876,1226.4530786533442,-1226.4530786533442,8861.7614243196876,16082.775663733441,0.0
728523.2936376977,3622751.2368613081,-12500.0,-12707.000163592813,-1073.0923041931217,-267.5420223881361,3032.9077197501724,243.69973816669972,-533.01680537062202,6846.5486398400453,-7550.7959824806321,1077.001788671635,-1077.001788671635,7550.7959824806321,13518.009133500051,0.0
733523.2936376977,3622751.2368613081,-12500.0,-10833.63276846502,-882.60498514620656,-249.31556972162846,2466.896685833834,193.83097029415092,-415.70099245626591,5800.0306199978941,-6472.1755459944443,943.57759258565602,-943.57759258565602,6472.1755459944443,11445.558193960118,0.0
738523.2936376977,3622751.2368613081,-12500.0,-9295.2943337182642,-733.31336055685608,-234.41273455463755,2022.1217060105698,155.72242927255442,-326.55173892081962,4948.6197051188256,-5579.5340122437683,826.42782181657776,-826.42782181657776,5579.5340122437683,9758.3875103403861,0.0
743523.2936376977,3622751.2368613081,-12500.0,-8023.5736816626359,-614.99273278196529,-221.23729728089864,1670.0081436802668,126.33708391425596,-258.48820686703453,4250.5238559587906,-4836.4953696594584,724.53196849898768,-724.53196849898768,4836.4953696594584,8374.7542960024639,0.0
748523.2936376977,3622751.2368613081,-12500.0,-6965.3951911355316,-520.22285184853365,-209.03710544975112,1389.1476568168011,103.45996057348569,-206.20083785103347,3673.8539047601221,-4214.4233448176283,636.34998002103657,-636.34998002103657,4214.4233448176283,7231.9255001935717,0.0
753523.2936376977,3622751.2368613081,-12500.0,-6079.3513998612461,-443.56003190637853,-197.47995699558794,1163.4481642917076,85.476664479340869,-165.75192354702637,3194.0956568414249,-3690.6881332314447,560.20940070238657,-560.20940070238657,3690.6881332314447,6281.4830041632367,0.0
543523.2936376977,3627751.2368613081,-12500.0,-5360.9303237676422,-258.29143945136281,-218.25322960285214,-947.75193431866603,-48.411325501877954,-120.67997538981574,2792.7743305025601,-3983.8055600674047,858.89272701369691,-858.89272701369691,3983.8055600674047,5464.458942442142,0.0
548523.2936376977,3627751.2368613081,-12500.0,-6116.0830259180311,-296.9859508969484,-233.81025430866924,-1121.0409091894658,-56.869956355432919,-147.50595988673669,3195.408661928961,-4565.8685766220597,994.11634952882991,-994.11634952882991,4565.8685766220597,6257.8550233391243,0.0
553523.2936376977,3627751.2368613081,-12500.0,-7014.2875146914021,-343.8681005976656,-250.67323597917579,-1334.0148354947323,-67.200023667926629,-181.27093258360927,3676.4513050557734,-5261.5092016134786,1156.5047189020688,-1156.5047189020688,5261.5092016134786,7206.0929279650118,0.0
558523.2936376977,3627751.2368613081,-12500.0,-8089.6862731261281,-401.25008074309068,-269.14120835486165,-1597.4269153156015,-79.880601599253808,-223.8781488133103,4255.2070362422346,-6098.3641522027683,1352.5154037003635,-1352.5154037003635,6098.3641522027683,8347.1205522826967,0.0
563523.2936376977,3627751.2368613081,-12500.0,-9386.3121178894144,-472.28681126110394,-289.76637031028446,-1925.2808214779695,-95.509598583185337,-277.65962417829428,4956.7574590455615,-7112.0761707917991,1590.2777117001356,-1590.2777117001356,7112.0761707917991,9730.0601309722933,0.0
568523.2936376977,3627751.2368613081,-12500.0,-10961.530913447008,-561.3659940767709,-313.59795667732612,-2335.8343659733628,-114.81092168552124,-345.31024983398595,5814.0332267826288,-8348.9740884573202,1879.9907093697061,-1879.9907093697061,8348.9740884573202,11419.068179447931,0.0
573523.2936376977,3627751.2368613081,-12500.0,-12890.969590216559,-674.72916438791901,-342.65890356506145,-2852.8544371584885,-138.60618656991474,-429.55697701976806,6870.8020477862665,-9869.7876275414546,2234.3405721584495,-2234.3405721584495,9869.7876275414546,13498.776871245005,0.0
578523.2936376977,3627751.2368613081,-12500.0,-15275.791903458939,-821.50273192670943,-380.88421282516913,-3507.1093629641546,-167.6934381654055,-532.18582848297967,8186.119628549377,-11754.895367669529,2668.8326751600998,-2668.8326751600998,11754.895367669529,16082.162647710267,0.0
583523.2936376977,3627751.2368613081,-12500.0,-18253.92399229997,-1015.4981569068325,-435.99728282247708,-4338.0021772054233,-202.5018047059188,-651.57744918247863,9841.2863103617728,-14111.98061472771,3201.7818252559318,-3201.7818252559318,14111.98061472771,19322.404471475809,0.0
588523.2936376977,3627751.2368613081,-12500.0,-22018.395309080137,-1278.5684062176663,-523.33956681192194,-5395.1333147305277,-242.23544197004648,-776.85644826936289,11951.464011757289,-17087.783599897342,3853.3492438920148,-3853.3492438920148,17087.783599897342,23431.92200100511,0.0
593523.2936376977,3627751.2368613081,-12500.0,-26849.481143188281,-1647.3443874634561,-673.90573567030231,-6739.6309140902085,-282.90638562798495,-874.47821981714446,14686.799080351866,-20887.59108665755,4642.2005111464714,-4642.2005111464714,20887.59108665755,28715.850854343313,0.0
598523.2936376977,3627751.2368613081,-12500.0,-33175.516698417174,-2187.9177163829713,-951.82390009762162,-8446.2827305585852,-313.14485115704701,-858.29257873452457,18314.70247102145,-25811.079778363957,5576.3373705701943,-5576.3373705701943,25811.079778363957,35637.946868796709,0.0
603523.2936376977,3627751.2368613081,-12500.0,-41695.914611798944,-3030.4556013474207,-1494.2563594679582,-10613.630187001594,-306.35228621202043,-525.04461666401312,23291.961476630066,-32325.68743333816,6629.2046529303152,-6629.2046529303152,32325.68743333816,44965.059688187488,0.0
608523.2936376977,3627751.2368613081,-12500.0,-53639.287396405234,-4455.9751817055212,-2608.3678846487192,-13413.341878568988,-210.66253435739657,575.37993869427726,30474.58697529124,-41228.545193407088,7675.9128951600469,-7675.9128951600469,41228.545193407088,58105.19836435419,0.0
613523.2936376977,3627751.2368613081,-12500.0,-71291.275375499783,-7118.2696027948123,-5026.0615231249021,-17291.256323653106,40.507228734448375,3360.3832210338956,41581.631013331964,-54004.23007316533,8312.3335006637353,-8312.3335006637353,54004.23007316533,77885.283728393755,0.0
618523.2936376977,3627751.2368613081,-12500.0,-98897.662878530566,-12566.989797501101,-10629.383866729744,-23653.190270948438,373.6444964665788,9407.9937316298819,60061.054969362143,-73498.553519069203,7317.3021339662955,-7317.3021339662955,73498.553519069203,110063.96856175485,0.0
623523.2936376977,3627751.2368613081,-12500.0,-143180.36245814004,-23968.215478172006,-24579.005919983054,-36700.94890191505,-187.01602719140254,20274.65533000102,91933.972889039345,-104394.40592402163,1194.4185884073959,-1194.4185884073959,104394.40592402163,164809.73182940681,0.0
628523.2936376977,3627751.2368613081,-12500.0,-208429.76125597578,-42543.383469578497,-60033.722414343349,-65971.595665995177,-5499.951577514048,32899.069066492426,142818.16959396916,-149349.8592854529,-16923.369639956945,16923.369639956945,149349.8592854529,251049.92998982396,0.0
633523.2936376977,3627751.2368613081,-12500.0,-282358.05336353008,-27288.072165440281,-122978.05622323563,-119550.35684210363,-15190.406505332758,27840.846269456772,198216.08672639247,-199008.10595437718,-23585.793187302799,23585.793187302799,199008.10595437718,343495.07499476854,0.0
638523.2936376977,3627751.2368613081,-12500.0,-496605.71569987747,180228.51243492222,38896.925270255429,-207713.9026912502,82125.888246437709,-16749.412570836812,366847.285602102,-413475.61574175756,280799.22021184897,-280799.22021184897,413475.61574175756,712163.57902162871,0.0
643523.2936376977,3627751.2368613081,-12500.0,-1590435.119314431,-1901.6229825723315,501107.1405513389,-921222.16376172611,598563.32338571444,-137336.24458433018,1515536.3927719099,-1568296.6707732258,814581.96528835886,-814581.96528835886,1568296.6707732258,2658500.2332367678,0.0
648523.2936376977,3627751.2368613081,-12500.0,-8363427.6696870662,3421065.1072256216,916557.93232476863,3121954.3810140472,-3469672.022816157,-1232598.7751121947,7383120.811462773,-4922322.1631627753,3673720.3393045645,-3673720.3393045645,4922322.1631627753,13086618.842846829,0.0
653523.2936376977,3627751.2368613081,-12500.0,-903292.37016064138,49901.960347911714,302682.03025652812,531683.38853991695,-548662.69677665993,94195.586503621773,1000430.7036369112,-550523.15134541143,253895.1613239932,-253895.1613239932,550523.15134541143,1733503.9936730864,0.0
658523.2936376977,3627751.2368613081,-12500.0,-354493.92542337027,11039.253104424515,106581.42019526927,160176.08554930193,-163323.90621378107,51853.167365768531,339638.30301958643,-226369.89247346763,98483.95438167348,-98483.95438167348,226369.89247346763,589669.93598320533,0.0
663523.2936376977,3627751.2368613081,-12500.0,-175595.92121215202,12950.274280504253,15975.382956579548,70671.682702665275,-61855.557160149452,31546.623400891105,148050.74210445423,-100865.9075297683,34135.366759734832,-34135.366759734832,100865.9075297683,258630.91428520667,0.0
668523.2936376977,3627751.2368613081,-12500.0,-104624.93971977553,-8786.3780494642069,-26254.90527666959,42806.34302886339,-20082.826684643129,19033.901976141136,78839.608141004472,-47810.941553339188,-11389.379783507491,11389.379783507491,47810.941553339188,136678.21280811564,0.0
673523.2936376977,3627751.2368613081,-12500.0,-79485.315876795983,-21479.868458468351,-27293.469764448011,31406.673504714508,-3945.0307059015367,9474.6709274192908,58383.902102375701,-34772.603107480434,-21810.112800581028,21810.112800581028,34772.603107480434,101906.15085491689,0.0
678523.2936376977,3627751.2368613081,-12500.0,-66057.158992768906,-22287.547806989278,-18563.287109705831,24729.786174100384,1750.9471332285052,2958.2483124187856,46758.209347649157,-30993.539422788286,-17771.4212530601,17771.4212530601,30993.539422788286,84113.460167933372,0.0
683523.2936376977,3627751.2368613081,-12500.0,-55462.212266796465,-18869.262636593867,-11439.47716078847,19985.979431495656,3391.5861874435814,-530.98888689792659,37412.946723563291,-27726.590261712132,-12094.61100296674,12094.61100296674,27726.590261712132,69557.111223649699,0.0
688523.2936376977,3627751.2368613081,-12500.0,-46454.644860134722,-14958.702799777886,-6989.3492531378906,16213.408329335467,3443.2139802260499,-1920.4812332280505,30052.074834161856,-24259.683336942955,-7786.2514868811922,7786.2514868811922,24259.683336942955,57260.166957562345,0.0
693523.2936376977,3627751.2368613081,-12500.0,-38835.974719742742,-11603.0157260301,-4367.0025868018556,13077.892939617943,2951.4793782303709,-2198.6301370748633,24285.40257332418,-20914.869869189344,-4894.0331665788017,4894.0331665788017,20914.869869189344,47017.772311348977,0.0
698523.2936376977,3627751.2368613081,-12500.0,-32456.173111720695,-8953.4595497822447,-2826.2330849377636,10480.625662076765,2358.4136457117152,-2007.6081381247459,19739.121598313832,-17887.390393331516,-3015.887828206729,3015.887828206729,17887.390393331516,38594.941406616228,0.0
703523.2936376977,3627751.2368613081,-12500.0,-27156.649291042428,-6924.7083494911612,-1906.9939621691854,8368.4326124256968,1826.8069298785267,-1674.5100784321385,16136.954265574537,-15241.162789725418,-1809.2051827309742,1809.2051827309742,15241.162789725418,31740.001605809612,0.0
708523.2936376977,3627751.2368613081,-12500.0,-22780.099025385614,-5388.5856491840441,-1345.7939432663413,6679.7432089849735,1398.2469136496577,-1339.4674159334199,13273.710904115334,-12974.747095347579,-1037.9270000339948,1037.9270000339948,12974.747095347579,26199.195336872232,0.0
713523.2936376977,3627751.2368613081,-12500.0,-19178.09822804093,-4227.7147415747959,-993.55140749935333,5344.7422617189513,1068.4106607385484,-1051.1262340060732,10990.753413102908,-11057.135399226259,-547.31688895388743,547.31688895388743,11057.135399226259,21734.26132082153,0.0
718523.2936376977,3627751.2368613081,-12500.0,-16216.78081525093,-3347.6673183841554,-765.419522321861,4295.2458455511969,819.58656095382241,-818.85462246056238,9163.2615435185799,-9445.822316162994,-237.4068298092443,237.4068298092443,9445.822316162994,18135.737716293268,0.0
723523.2936376977,3627751.2368613081,-12500.0,-13780.026371596508,-2676.4455216364472,-612.51218481512058,3471.2260051435078,633.10960533840887,-637.44811129393509,7693.0373034764752,-8096.2816689677838,-43.888951843050108,43.888951843050108,8096.2816689677838,15228.148365385096,0.0
728523.2936376977,3627751.2368613081,-12500.0,-11770.090569042493,-2160.5154941978244,-506.23311473527241,2823.0748814285021,493.25589996382973,-497.72910295416767,6503.3291604083761,-6966.7512086641782,74.599487481771121,-74.599487481771121,6966.7512086641782,12869.070912644502,0.0
733523.2936376977,3627751.2368613081,-12500.0,-10106.421198785034,-1760.5117786055657,-429.57233897376699,2311.3041104344934,387.86278668623333,-390.63662562403459,5534.5093960606609,-6020.3005879895427,144.71726189413312,-144.71726189413312,6020.3005879895427,10945.117300567765,0.0
738523.2936376977,3627751.2368613081,-12500.0,-8723.5496621127659,-1447.5797254037032,-372.22852771246136,1905.1503869340061,307.87545249138503,-308.52490764386448,4740.385198930454,-5225.3830651512671,183.70219208726348,-183.70219208726348,5225.3830651512671,9366.9765285897938,0.0
743523.2936376977,3627751.2368613081,-12500.0,-7568.7073949497099,-1200.5367695144766,-327.84387100998288,1580.92209855432,246.66640562540994,-245.35687236488928,4085.1580020688198,-4555.6094714250485,202.74085250846201,-202.74085250846201,4555.6094714250485,8064.6468226394254,0.0
748523.2936376977,3627751.2368613081,-12500.0,-6599.5447638163932,-1003.7632270640664,-292.41501404684794,1320.4675286973136,199.41336452755749,-196.51490466050055,3541.0121856775072,-3989.1816271660118,209.11785927387427,-209.11785927387427,3989.1816271660118,6983.3200803938444,0.0
753523.2936376977,3627751.2368613081,-12500.0,-5782.1202907658426,-845.66970631318759,-263.36751767077538,1109.8932663796779,162.60659969744682,-158.52037776600986,3086.2474405156718,-3508.221557228846,207.58886582694208,-207.58886582694208,3508.221557228846,6080.0192599184338,0.0
543523.2936376977,3632751.2368613081,-12500.0,-5445.3641275205682,114.99681284878933,-221.12653526082772,-961.51286273146764,19.353892776858476,-122.20524240576947,2831.1928235405758,-4014.2280945493958,1133.2451745581284,-1133.2451745581284,4014.2280945493958,5534.7583195073221,0.0
548523.2936376977,3632751.2368613081,-12500.0,-6214.3341468292465,152.11965500915525,-237.76105203187379,-1137.622811527237,27.139786729863673,-149.39087591198145,3240.7677340215746,-4599.8553647225381,1323.4884842509928,-1323.4884842509928,4599.8553647225381,6341.1019483033806,0.0
553523.2936376977,3632751.2368613081,-12500.0,-7129.3734696362599,200.65764345196837,-256.06561564443126,-1354.1264471142158,37.802022361961569,-183.6046189937797,3730.4662334253753,-5299.5253267267472,1555.0109795514229,-1555.0109795514229,5299.5253267267472,7305.5944961243167,0.0
558523.2936376977,3632751.2368613081,-12500.0,-8225.5138253241839,264.50088206222301,-276.45735860492908,-1621.9857891282791,52.491190947090516,-226.7647326034012,4320.1609857308358,-6140.960271967504,1838.7307164387121,-1838.7307164387121,6140.960271967504,8467.3277593260882,0.0
563523.2936376977,3632751.2368613081,-12500.0,-9548.048807796491,349.03581863240362,-299.63750922056704,-1955.4818164945812,72.871696250193537,-281.20863727087732,5035.7521347726652,-7159.9441551304617,2188.9345468932852,-2188.9345468932852,7159.9441551304617,9877.0959913751267,0.0
568523.2936376977,3632751.2368613081,-12500.0,-11156.193999257026,461.78937921353617,-326.83245839106547,-2373.2391096057354,101.37860405987198,-349.60606738840681,5911.3816466327726,-8403.0659491268034,2624.4433447169995,-2624.4433447169995,8403.0659491268034,11601.566236722692,0.0
573523.2936376977,3632751.2368613081,-12500.0,-13128.408805562058,613.37331140944787,-360.24877150192674,-2899.5040366505295,141.61666656888289,-434.57632984153298,6992.6683833780598,-9931.5782811437875,3170.2091098315509,-3170.2091098315509,9931.5782811437875,13729.261682819453,0.0
578523.2936376977,3632751.2368613081,-12500.0,-15570.43856573833,818.87752170216709,-403.9411518048455,-3565.6588304302768,198.98842675988053,-537.58911079039092,8341.6176770161364,-11826.984816130171,3859.5169253888553,-3859.5169253888553,11826.984816130171,16379.431406893727,0.0
583523.2936376977,3632751.2368613081,-12500.0,-18628.095330911405,1099.9101761333698,-465.49276075643161,-4411.8589673383585,281.69040463137145,-656.19086798671378,10044.470599911807,-14199.489892437168,4737.0322962762457,-4737.0322962762457,14199.489892437168,19715.828114459655,0.0
588523.2936376977,3632751.2368613081,-12500.0,-22508.984891417102,1487.544715495098,-559.33042285433032,-5488.5600127474772,402.30406681543576,-777.38373004468326,12225.204590424275,-17201.683718418488,5863.088716110743,-5863.088716110743,17201.683718418488,23969.678144573256,0.0
593523.2936376977,3632751.2368613081,-12500.0,-27522.596738491731,2026.3500256266614,-713.40505619340024,-6857.7975818036111,580.31533759283514,-862.26165151330088,15071.000637279831,-21052.998044268694,7319.9383978628575,-7319.9383978628575,21052.998044268694,29481.874701556193,0.0
598523.2936376977,3632751.2368613081,-12500.0,-34161.019873199097,2779.1731041961252,-983.01739579800324,-8595.5993672461573,845.96870972706938,-811.04870803990923,18885.336808282365,-26088.882294671403,9221.6174830128111,-9221.6174830128111,26088.882294671403,36789.759216633356,0.0
603523.2936376977,3632751.2368613081,-12500.0,-43275.802210256683,3829.9757880640664,-1480.3829110363492,-10805.012603734032,1245.4402702902482,-385.56371025668579,24209.331708198028,-32872.464676699601,11731.768092352455,-11731.768092352455,32872.464676699601,46826.472546478071,0.0
608523.2936376977,3632751.2368613081,-12500.0,-56492.348558824364,5273.1245572957996,-2440.8174177892956,-13683.095339203112,1844.3644246629758,953.75304303509199,32116.145539542595,-42473.804316688409,15101.104441242998,-15101.104441242998,42473.804316688409,61415.60649090579,0.0
613523.2936376977,3632751.2368613081,-12500.0,-77222.854827501098,7143.9825644094744,-4382.1234188427406,-17812.768736705049,2711.8794112489918,4346.3355017096019,44933.123090012487,-57211.577552555929,19752.072744394438,-19752.072744394438,57211.577552555929,84526.930618512226,0.0
618523.2936376977,3632751.2368613081,-12500.0,-113159.33254703056,9116.1941023927557,-8543.417857479044,-25287.424483697858,3797.7644855120243,11860.533774272324,67934.626920198672,-82652.305173555767,26437.229864872115,-26437.229864872115,82652.305173555767,125324.91553085236,0.0
623523.2936376977,3632751.2368613081,-12500.0,-182101.85024719682,9272.6906154764984,-18426.122661069909,-43591.242588932953,4290.686479392165,25718.434847193941,113022.35520334795,-132725.04058539902,36147.77585834104,-36147.77585834104,132725.04058539902,204884.46979716935,0.0
628523.2936376977,3632751.2368613081,-12500.0,-322628.71056646871,-606.45896494485373,-47417.254356099147,-97148.289292573536,-470.16989205957105,40793.380376367415,206051.46957499997,-239777.68729816971,46019.670577104829,-46019.670577104829,239777.68729816971,368936.54717489152,0.0
633523.2936376977,3632751.2368613081,-12500.0,-580412.66080194851,-40560.836705312504,-166526.5789132404,-248231.6922203032,-30037.197503774616,10675.608052867543,388649.73837159557,-440026.10792376433,16819.436062834749,-16819.436062834749,440026.10792376433,684501.99846624513,0.0
638523.2936376977,3632751.2368613081,-12500.0,-683384.41033218731,189133.52022380385,-511959.64971189422,-469685.50235073181,43201.609005641134,-166879.66899821957,572226.76292718749,-465662.32698772661,25124.292874455365,-25124.292874455365,465662.32698772661,991135.16261200362,0.0
643523.2936376977,3632751.2368613081,-12500.0,2994359.6794389491,827359.27905131632,10101901.803357612,-1217147.989395937,2375484.262911106,1494599.3795221744,5277304.4360869657,-1484383.2530502868,6583223.176416399,-6583223.176416399,1484383.2530502868,9319481.7330207601,0.0
648523.2936376977,3632751.2368613081,-12500.0,-496164.35688276828,371407.00500132557,1490549.0420072817,464383.78522651602,-990037.31416183198,39894.657501704387,1531380.0612435346,-706609.25387033855,1096346.0665427051,-1096346.0665427051,706609.25387033855,2677816.612483589,0.0
653523.2936376977,3632751.2368613081,-12500.0,-100025.96302176319,62929.154778850214,252597.24645818767,104409.47892478386,-261362.60677316785,22061.114065266218,335702.89431567694,-126990.0756372059,175716.19002381313,-175716.19002381313,126990.0756372059,587973.75399460981,0.0
658523.2936376977,3632751.2368613081,-12500.0,-88266.571770224939,-7048.3220793301089,73154.314277761121,54294.052256682691,-99684.355289277548,19300.97284169574,137083.12556950864,-71200.612785316625,38735.66365728333,-38735.66365728333,71200.612785316625,243037.67542742204,0.0
663523.2936376977,3632751.2368613081,-12500.0,-63928.892335255914,-9002.4432910361629,14872.946668619672,31759.035809511515,-43435.397417157415,15140.457743374316,70316.29262468309,-39798.009438303161,5779.656801678022,-5779.656801678022,39798.009438303161,123125.23716056782,0.0
668523.2936376977,3632751.2368613081,-12500.0,-46101.503168535855,-13776.05537602394,-13007.487146324191,21658.768996704232,-16289.771360015637,9813.0815711586911,41187.198332113403,-20709.134563315249,-13747.535774684806,13747.535774684806,20709.134563315249,71721.213049226222,0.0
673523.2936376977,3632751.2368613081,-12500.0,-38651.300058153218,-19577.818027659207,-20691.736549128313,17443.660181897118,-3118.9278422295324,4846.7798179774181,34112.474187052816,-14334.872382011432,-21793.428610486764,21793.428610486764,14334.872382011432,59374.423759232865,0.0
678523.2936376977,3632751.2368613081,-12500.0,-35864.719784678688,-21407.459403592864,-18560.859027691851,15227.610316887207,2481.5637925163996,1267.0739401295696,30985.31479477054,-13880.558952209889,-21282.932061229068,21282.932061229068,13880.558952209889,55898.32817584963,0.0
683523.2936376977,3632751.2368613081,-12500.0,-33667.645373343585,-19962.152124145694,-14036.822897990087,13444.740157515786,4282.8174515465325,-758.49350346810547,27359.421795301099,-14431.048957921634,-17437.795710296745,17437.795710296745,14431.048957921634,51138.253701540991,0.0
688523.2936376977,3632751.2368613081,-12500.0,-30958.399375579327,-17124.361920269665,-9976.8954541705771,11675.951820841576,4372.488278721542,-1616.2281133303136,23538.56805248672,-14436.367386399437,-13226.839909042203,13226.839909042203,14436.367386399437,45073.434163877217,0.0
693523.2936376977,3632751.2368613081,-12500.0,-27827.080676800731,-14075.28759770559,-6966.3810562483804,9923.2071892233489,3815.7493412893505,-1795.0008680494996,19944.249897865502,-13793.222532416487,-9679.3477539695232,9679.3477539695232,13793.222532416487,38771.402930269214,0.0
698523.2936376977,3632751.2368613081,-12500.0,-24582.405970577489,-11328.028384992598,-4879.9151789283815,8284.4971481800658,3107.8385956086763,-1656.0159355926617,16765.101953867903,-12736.78119208022,-6966.1297874796946,6966.1297874796946,12736.78119208022,32892.975805762777,0.0
703523.2936376977,3632751.2368613081,-12500.0,-21467.524563395593,-9035.8519026955219,-3467.0690079656856,6834.1598086447248,2449.4319100704802,-1406.4542661134867,14049.015851919385,-11496.032951026376,-4978.1700313590945,4978.1700313590945,11496.032951026376,27720.223071500641,0.0
708523.2936376977,3632751.2368613081,-12500.0,-18620.733150252679,-7194.056426266462,-2513.2613781892405,5600.7451995584679,1902.5448179585014,-1146.0407626900283,11775.056265443287,-10226.856227404767,-3550.1781430461251,3550.1781430461251,10226.856227404767,23314.583866899146,0.0
713523.2936376977,3632751.2368613081,-12500.0,-16098.938911776055,-5741.1629395943255,-1864.4678871618942,4578.9189839656565,1471.1601729365559,-914.63330924669049,9893.230209914369,-9019.0876191819298,-2532.8159712888673,2532.8159712888673,9019.0876191819298,19629.519441363718,0.0
718523.2936376977,3632751.2368613081,-12500.0,-13908.217200678642,-4603.9831348396765,-1417.1016174351714,3745.7273938624194,1139.111530094091,-723.13345947250173,8345.2090570339915,-7916.709564485147,-1809.354334657331,1809.354334657331,7916.709564485147,16575.648562558708,0.0
723523.2936376977,3632751.2368613081,-12500.0,-12027.381210544421,-3715.3384863218967,-1103.2714211629302,3072.1952221416009,886.16400892001423,-570.16213916717356,7074.1573886629358,-6935.476384217387,-1294.0034904471249,1294.0034904471249,6935.476384217387,14054.406964652388,0.0
728523.2936376977,3632751.2368613081,-12500.0,-10423.199894033682,-3019.4172049912563,-878.82586750662244,2529.73400930559,693.95107095768765,-450.09945951987464,6029.0724619080847,-6075.2695816223932,-925.54033200404911,925.54033200404911,6075.2695816223932,11973.504691508579,0.0
733523.2936376977,3632751.2368613081,-12500.0,-9059.1923935759005,-2472.0086751470408,-715.00138643351704,2092.9926190118622,547.58020417656246,-356.60003642767759,5166.722319751113,-5327.9140203678344,-660.86969989927138,660.86969989927138,5327.9140203678344,10252.727033953815,0.0
738523.2936376977,3632751.2368613081,-12500.0,-7900.2212931465037,-2038.9301639512539,-592.92298849551162,1740.7131968914423,435.580188726583,-283.94006158449434,4451.8792027847503,-4681.7988247037638,-469.81193864732904,469.81193864732904,4681.7988247037638,8825.0243979606639,0.0
743523.2936376977,3632751.2368613081,-12500.0,-6914.5804265697325,-1694.0622314520672,-500.07290298075463,1455.621380850328,349.33221797650401,-227.39896521118885,3856.343249747918,-4124.4501242659126,-331.23264267057675,331.23264267057675,4124.4501242659126,7635.5397459930709,0.0
748523.2936376977,3632751.2368613081,-12500.0,-6074.6878315918138,-1417.5391984400487,-428.04424367511501,1223.9270940008118,282.43372427282151,-183.2490568653663,3357.6388986010488,-3643.8621157991547,-230.28728388133914,230.28728388133914,3643.8621157991547,6639.9044286682356,0.0
753523.2936376977,3632751.2368613081,-12500.0,-5357.0635877857903,-1194.2564629399192,-371.11197858262562,1034.7274995583898,230.14637679452656,-148.61173271370208,2937.8460857420805,-3229.1117792375312,-156.49857800501059,156.49857800501059,3229.1117792375312,5802.4327505597967,0.0
543523.2936376977,3637751.2368613081,-12500.0,-5400.8624933462643,485.09617753254611,-268.28779819242033,-954.78322570788987,86.732618644931264,-121.43850526894174,2829.7985940753338,-3933.9416842787587,1350.3404318602645,-1350.3404318602645,3933.9416842787587,5530.095681910625,0.0
548523.2936376977,3637751.2368613081,-12500.0,-6150.8202134721887,596.29989434109893,-297.85880678977747,-1127.6658395191514,110.49417859036504,-148.22003135226822,3236.2204473974289,-4494.5051584146322,1579.8899819508397,-1579.8899819508397,4494.5051584146322,6330.3726026311542,0.0
553523.2936376977,3637751.2368613081,-12500.0,-7039.5140864137102,737.72307639689359,-333.35258116658315,-1339.5190012049322,141.73380710262813,-181.83014711772455,3721.3026121035241,-5160.4353921845413,1859.5748844988977,-1859.5748844988977,5160.4353921845413,7286.1237972751023,0.0
558523.2936376977,3637751.2368613081,-12500.0,-8098.9249073656547,919.08044589453459,-376.828418901357,-1600.6394714850096,183.15153566649855,-224.08481392903562,4304.27532114519,-5956.028966992737,2202.6829384442717,-2202.6829384442717,5956.028966992737,8435.3130260684502,0.0
563523.2936376977,3637751.2368613081,-12500.0,-9369.8755456093877,1153.7319747594015,-431.36253227193737,-1924.3033364068665,238.54663414483872,-277.16402191296186,5010.094605395464,-6912.0988567069408,2626.596795234861,-2626.596795234861,6912.0988567069408,9827.1019813540479,0.0
568523.2936376977,3637751.2368613081,-12500.0,-10904.944420486154,1460.2592977650477,-501.66200760091846,-2327.6005277784429,313.30793028864156,-343.49460210213311,5871.4994610429012,-8067.9245081274294,3154.206651943829,-3154.206651943829,8067.9245081274294,11525.775113056096,0.0
573523.2936376977,3637751.2368613081,-12500.0,-12772.606682549274,1864.8253946529812,-595.10657214593698,-2832.4099829786887,415.13240734343708,-425.3221386594534,6932.0034787586892,-9473.8641186424302,3815.8559065371919,-3815.8559065371919,9473.8641186424302,13616.359667319106,0.0
578523.2936376977,3637751.2368613081,-12500.0,-15063.351845730767,2404.7666142654966,-723.5535572126613,-3466.4222817635941,555.07026840228821,-523.54768993613607,8250.408131947177,-11194.933711339185,4652.0412869434549,-4652.0412869434549,11194.933711339185,16212.930883031861,0.0
583523.2936376977,3637751.2368613081,-12500.0,-17899.282210268826,3134.1814418344302,-906.53919290691329,-4263.9796250963655,749.01629621007044,-634.87677751540514,9908.004842120059,-13315.972901423916,5717.2280858081904,-5717.2280858081904,13315.972901423916,19471.526088906241,0.0
588523.2936376977,3637751.2368613081,-12500.0,-21450.44282418436,4132.8894584287164,-1177.1051824575634,-5266.3073752371893,1019.7563830868365,-745.1514757401203,12020.992251834741,-15949.837854642687,7085.4536414802687,-7085.4536414802687,15949.837854642687,23611.775910821012,0.0
593523.2936376977,3637751.2368613081,-12500.0,-25965.426969703174,5521.3944103638696,-1592.6997695123127,-6520.6847662064683,1399.5520424964504,-814.1366817732353,14764.055296618806,-19252.371622026374,8859.2222488260522,-8859.2222488260522,19252.371622026374,28956.921682495664,0.0
598523.2936376977,3637751.2368613081,-12500.0,-31834.8707886681,7487.5069383796035,-2256.2483078510018,-8079.471797653453,1932.8558448181348,-741.48179271668232,18420.100134310167,-23454.647062361255,11185.742241380474,-11185.742241380474,23454.647062361255,36016.99323306205,0.0
603523.2936376977,3637751.2368613081,-12500.0,-39735.252514732987,10338.18534032603,-3358.4521568720388,-10007.670915383174,2677.9089813137789,-292.71746868194805,23495.130116182423,-28942.58554922359,14292.556389023895,-14292.556389023895,28942.58554922359,45681.508310668964,0.0
608523.2936376977,3637751.2368613081,-12500.0,-50976.091294778416,14613.570239922932,-5266.9563857569829,-12440.690512213821,3705.5922872682854,1051.8972693064507,30999.440302157782,-36471.001930992359,18580.596154939536,-18580.596154939536,36471.001930992359,59701.408267869287,0.0
613523.2936376977,3637751.2368613081,-12500.0,-68368.706766881922,21375.604772283616,-8727.9178248423505,-15856.870531234172,5102.87303356745,4359.1095043489531,43144.246725527832,-47759.899642990305,24896.500634249522,-24896.500634249522,47759.899642990305,81926.815095111742,0.0
618523.2936376977,3637751.2368613081,-12500.0,-98420.543503948618,33044.922156823523,-15376.570617432677,-22142.727789514647,7062.3686273370167,11468.40168073614,65019.928791161394,-67150.710076999254,35371.064651285968,-35371.064651285968,67150.710076999254,121419.52107034785,0.0
623523.2936376977,3637751.2368613081,-12500.0,-156887.74194428488,56128.206191246383,-29315.31541444335,-38267.668400726579,10583.752319907911,24001.310687457579,108654.18314367652,-106071.41491791021,56015.836274461646,-56015.836274461646,106071.41491791021,200248.68379227386,0.0
628523.2936376977,3637751.2368613081,-12500.0,-284043.32188777905,111229.14126546115,-63914.181358099035,-87934.763629833789,21751.202187200011,35831.262711478252,205053.16398622855,-194964.48422604077,104627.47594165429,-104627.47594165429,194964.48422604077,376955.63260334171,0.0
633523.2936376977,3637751.2368613081,-12500.0,-604247.13927467947,278013.00945273711,-191227.13604336409,-250763.26058364511,77311.650349804491,-3640.7713059453881,457907.26717159792,-419090.62889712682,231525.1715031403,-231525.1715031403,419090.62889712682,849530.87110743113,0.0
638523.2936376977,3637751.2368613081,-12500.0,-1396882.7477521216,1273429.6185876399,-1668912.1170337563,-533643.17007826618,437087.87326542014,-403576.26908120443,1428759.0658129589,-496488.01065540197,231613.40296777571,-231613.40296777571,496488.01065540197,2761013.9042545576,0.0
643523.2936376977,3637751.2368613081,-12500.0,683770.12667666085,-70275.047822197215,1773917.1998479208,126121.01472779464,-856596.61474287685,156339.70822273387,1186864.3785317226,-137529.0490516646,812256.9346358676,-812256.9346358676,137529.0490516646,2074943.0772210115,0.0
648523.2936376977,3637751.2368613081,-12500.0,53185.065077257233,-105675.64884573853,491697.32880554406,40001.68459876968,-310589.25161067146,-11946.377579440461,410510.57870766375,-143841.40713742317,186826.2920288837,-186826.2920288837,143841.40713742317,743502.20501305826,0.0
653523.2936376977,3637751.2368613081,-12500.0,39261.70340545044,37244.829736582011,230968.1235915242,16251.760248434048,-147591.27701236808,-20076.53912348799,198626.84950731258,-53365.822303951209,144240.83420800569,-144240.83420800569,53365.822303951209,349215.3303229998,0.0
658523.2936376977,3637751.2368613081,-12500.0,27163.048241937926,19242.4707831796,75231.286284467424,12622.72950657925,-70942.102012148331,-4638.4526314943078,84724.256727772299,-5829.099730534781,45727.937226784998,-45727.937226784998,5829.099730534781,146757.27082577412,0.0
663523.2936376977,3637751.2368613081,-12500.0,8456.8027414701464,3113.5734671836008,17757.104754674681,9421.0171286263303,-33917.337149097904,2993.1568580176404,36111.299118072959,1311.5732775771044,6731.3330319324486,-6731.3330319324486,-1311.5732775771044,62559.312567857436,0.0
668523.2936376977,3637751.2368613081,-12500.0,-1067.700257662442,-6131.1929631383209,-6708.2756479168156,7450.3212329420949,-13951.731835789091,3850.5413201687288,17336.230489988615,3067.821837813829,-10630.49820290316,10630.49820290316,-3067.821837813829,30773.296994105069,0.0
673523.2936376977,3637751.2368613081,-12500.0,-6979.8940180665022,-12589.503329836532,-15995.685130069354,7153.4263494247407,-3218.760691665595,2263.2222605354591,17379.691449492078,2254.7691811829791,-18505.596603336606,18505.596603336606,-2254.7691811829791,30168.464703450143,0.0
678523.2936376977,3637751.2368613081,-12500.0,-11615.537449351485,-16047.641720231368,-17181.712372800735,7461.4275907655483,1954.2349332660892,527.2333603945433,19064.868590085349,-364.41138744480122,-20215.641765674503,20215.641765674503,364.41138744480122,34598.760014507621,0.0
683523.2936376977,3637751.2368613081,-12500.0,-14851.707789127773,-16741.774634920712,-14907.902724914302,7595.4569936390653,3945.0399683129676,-629.61717344975239,18901.250832663274,-3253.5993711645551,-18477.473607333312,18477.473607333312,3253.5993711645551,35548.476823643359,0.0
688523.2936376977,3637751.2368613081,-12500.0,-16531.642596278467,-15659.557167778226,-11788.864981838327,7330.5622764431955,4300.6755102187599,-1188.1483939350408,17562.939698920334,-5472.5318871476338,-15419.069950499994,15419.069950499994,5472.5318871476338,33726.992520516556,0.0
693523.2936376977,3637751.2368613081,-12500.0,-16896.603222024973,-13756.473221890874,-8933.0135710614795,6739.6127057369604,3933.3046358345082,-1339.6692962529285,15704.628197152386,-6799.5588418627385,-12244.05606008758,12244.05606008758,6799.5588418627385,30527.845913958532,0.0
698523.2936376977,3637751.2368613081,-12500.0,-16352.404482351003,-11654.545782349376,-6655.0212710035185,5974.6548353923063,3324.8223665136634,-1272.2190988194332,13728.639334456064,-7368.7142872394506,-9463.5254153739697,9463.5254153739697,7368.7142872394506,26887.748891988111,0.0
703523.2936376977,3637751.2368613081,-12500.0,-15276.608143680427,-9675.3398149322456,-4945.4271882257053,5165.6598846495663,2700.84567869596,-1112.5388999479824,11847.030967977977,-7405.562284200053,-7213.4334085994933,7213.4334085994933,7405.562284200053,23319.413048536859,0.0
708523.2936376977,3637751.2368613081,-12500.0,-13949.760123326911,-7949.085423762217,-3697.037287735202,4395.0345121085966,2150.3855342636125,-930.87589410522696,10154.981595951835,-7113.3181440653107,-5465.4341014634565,5465.4341014634565,7113.3181440653107,20062.801315745273,0.0
713523.2936376977,3637751.2368613081,-12500.0,-12554.763308436253,-6503.7902352653409,-2794.3945882772427,3704.0159051475825,1696.8600097605806,-760.30927211087987,8681.9816868301532,-6642.2439578599142,-4136.1533343279907,4136.1533343279907,6642.2439578599142,17203.220301701589,0.0
718523.2936376977,3637751.2368613081,-12500.0,-11199.152059710177,-5320.4232729472988,-2141.6837115678336,3106.551437498033,1335.8462918467237,-613.23010187446664,7423.6588777012958,-6092.3501700953766,-3135.6568898362671,3135.6568898362671,6092.3501700953766,14745.981702271627,0.0
723523.2936376977,3637751.2368613081,-12500.0,-9939.2515934398089,-4362.6990209163332,-1666.8328427363367,2601.2582432639751,1053.387301774289,-491.85083517060713,6360.4900294665822,-5525.3754993759503,-2385.4181953150869,2385.4181953150869,5525.3754993759503,12659.438135422786,0.0
728523.2936376977,3637751.2368613081,-12500.0,-8799.3245698641476,-3591.5313987759314,-1318.0110025772899,2179.4519431272474,834.05890927416658,-394.0191192395265,5468.4080478730657,-4976.7760906985113,-1822.6574168565717,1822.6574168565717,4976.7760906985113,10898.200547807177,0.0
733523.2936376977,3637751.2368613081,-12500.0,-7784.8655110148384,-2971.205272638857,-1058.707392076981,1829.847241108951,664.06312545101957,-316.13423922544996,4723.5132913406005,-4465.0627754979241,-1399.3371265964461,1399.3371265964461,4465.0627754979241,9414.8514043956839,0.0
738523.2936376977,3637751.2368613081,-12500.0,-6891.1584817419653,-2471.4187778063383,-863.40387396246615,1541.0242662517644,532.08221244205356,-254.4770820704411,4100.6305890837693,-3998.32813339311,-1079.5298055085739,1079.5298055085739,3998.32813339311,8165.3176827923644,0.0
743523.2936376977,3637751.2368613081,-12500.0,-6108.5033731401736,-2067.4376005548743,-714.27277029936624,1302.5658158545887,429.22066264934136,-205.73760688685164,3576.2926755145681,-3578.5423225410941,-836.66922708129664,836.66922708129664,3578.5423225410941,7110.91461714667,0.0
748523.2936376977,3637751.2368613081,-12500.0,-5425.2653724352458,-1739.493546649534,-598.80802846915662,1105.4669068183716,348.63922885473653,-167.16378114799531,3132.5282999275678,-3204.2702243764656,-651.20253912283852,651.20253912283852,3204.2702243764656,6218.7339849233585,0.0
753523.2936376977,3637751.2368613081,-12500.0,-4829.5687702713212,-1471.9641893352302,-508.17553035315581,942.17787395407868,285.13675690244207,-136.54754440667779,2755.3496792943488,-2872.3380385677742,-508.74557068059903,508.74557068059903,2872.3380385677742,5461.2763739949114,0.0
543523.2936376977,3642751.2368613081,-12500.0,-5232.980931368098,830.80137688123398,-356.11206830974157,-928.36887664160486,150.29048024540526,-118.46589013846392,2789.4208388500342,-3750.0432964075335,1498.9858210020891,-1498.9858210020891,3750.0432964075335,5451.9130259393032,0.0
548523.2936376977,3642751.2368613081,-12500.0,-5933.4125610089222,1007.6961300125789,-409.02224655261676,-1092.3485160063581,188.55364021417512,-144.12351095936458,3182.9732883793208,-4259.6960035989769,1748.9292847576226,-1748.9292847576226,4259.6960035989769,6227.772590108405,0.0
553523.2936376977,3642751.2368613081,-12500.0,-6755.9747631787559,1230.297294350614,-475.33038106993718,-1291.9342562384791,238.25421559405436,-176.145864219933,3650.7272659983419,-4858.1497992884779,2051.508270762029,-2051.508270762029,4858.1497992884779,7150.7725920446865,0.0
558523.2936376977,3642751.2368613081,-12500.0,-7726.217799948382,1512.6332716922786,-559.91557168066606,-1535.9908524773098,303.32608043357476,-216.14394586501953,4210.1552168617018,-5563.4037685833482,2419.8412350605222,-2419.8412350605222,5563.4037685833482,8255.6429186027344,0.0
563523.2936376977,3642751.2368613081,-12500.0,-8875.6567390202599,1873.7357149710174,-669.90423113453744,-1835.6824348939924,389.21450317366418,-266.00136591876492,4883.6587484207957,-6397.2025298489461,2870.6802272733057,-2870.6802272733057,6397.2025298489461,9586.8737905972357,0.0
568523.2936376977,3642751.2368613081,-12500.0,-10243.198290215949,2339.6748669965214,-815.8973486440907,-2204.9531703349726,503.49535989135325,-327.72403695667822,5700.2081722150551,-7385.585434313708,3425.42767583564,-3425.42767583564,7385.585434313708,11201.90548872374,0.0
573523.2936376977,3642751.2368613081,-12500.0,-11876.905776407442,2946.5336137019012,-1013.9705334117507,-2660.9534151385833,656.74055520751244,-402.98274092524537,6697.6614692541907,-8559.2873827907315,4111.380275560985,-4111.380275560985,8559.2873827907315,13175.580204049029,0.0
578523.2936376977,3642751.2368613081,-12500.0,-13836.202604915083,3744.8100057544307,-1289.0019498577251,-3224.204467172302,863.69328855362244,-491.96258092689158,7926.1482549512639,-9953.7368956555947,4963.170223592505,-4963.170223592505,9953.7368956555947,15606.515193723681,0.0
583523.2936376977,3642751.2368613081,-12500.0,-16194.828072189492,4806.0705396626408,-1680.3442144660389,-3918.1017202858275,1144.7786924085267,-590.68615577419939,9453.3039956494922,-11608.272418400349,6024.3089904466979,-6024.3089904466979,11608.272418400349,18626.714170144052,0.0
588523.2936376977,3642751.2368613081,-12500.0,-19045.366531933429,6233.2916946324349,-2251.7531640540351,-4767.0561806970363,1527.8215652270851,-685.02726582354808,11373.031839407548,-13564.051109613087,7348.6110075944052,-7348.6110075944052,13564.051109613087,22417.181694511371,0.0
593523.2936376977,3642751.2368613081,-12500.0,-22507.686300071357,8177.6837970224651,-3109.350291354192,-5792.3660834612992,2049.4293120451798,-737.68214198916439,13821.778253441642,-15860.294485621454,9001.2073075846401,-9001.2073075846401,15860.294485621454,27236.101011017014,0.0
598523.2936376977,3642751.2368613081,-12500.0,-26747.46665857649,10868.073035739279,-4435.4924889152244,-7005.7090845158118,2754.5759728107669,-660.60836315540848,17012.245340393947,-18529.71997215673,11059.223125456303,-11059.223125456303,18529.71997215673,33476.066657374977,0.0
603523.2936376977,3642751.2368613081,-12500.0,-32019.681941925719,14667.713749609342,-6556.3063762436641,-8405.5503814751573,3691.4604189879856,-259.50001435442255,21309.331438481913,-21597.869811621997,13614.259614895898,-13614.259614895898,21597.869811621997,41792.788402523714,0.0
608523.2936376977,3642751.2368613081,-12500.0,-38765.784682801022,20198.298219264994,-10087.302338980751,-10003.33296677022,4899.1158725171499,866.53063716615429,27406.480933499664,-25097.78988017243,16785.206706458092,-16785.206706458092,25097.78988017243,53410.662654661734,0.0
613523.2936376977,3642751.2368613081,-12500.0,-47782.656573240238,28640.340575430073,-16283.341095480248,-11973.123013574168,6403.3213987731115,3456.2969956648153,36717.336750776412,-29097.283810196674,20757.372505526637,-20757.372505526637,29097.283810196674,70834.505708157536,0.0
618523.2936376977,3642751.2368613081,-12500.0,-60227.135662866509,42483.227753953572,-28004.641241571226,-15157.840210120328,8344.6504677443936,8538.2146946394496,52120.361659669346,-33509.235803641946,25787.811742405745,-25787.811742405745,33509.235803641946,99316.79260439174,0.0
623523.2936376977,3642751.2368613081,-12500.0,-75537.337944540152,67088.02749149657,-52798.006581950758,-22068.578014826911,11789.847228179551,16267.749612399435,78920.167944557863,-35901.564197880376,31230.868485674637,-31230.868485674637,35901.564197880376,149124.58946567654,0.0
628523.2936376977,3642751.2368613081,-12500.0,-76666.535048695063,110006.89511625184,-113460.46997514024,-35274.948174291741,21366.608499316288,21526.213663047656,124783.91443159862,-17319.734982283124,25871.343973182855,-25871.343973182855,17319.734982283124,236676.19199029665,0.0
633523.2936376977,3642751.2368613081,-12500.0,42657.668509375653,126698.79002987585,-266632.17817520606,-27568.696941227659,37142.2405768065,10358.720293110991,204112.63217201363,120355.06454534622,-79334.671332734404,79334.671332734404,-120355.06454534622,375885.86302171455,0.0
638523.2936376977,3642751.2368613081,-12500.0,308458.57976140233,-355646.65196106792,90063.651124923374,101337.05169094214,-158859.65958029183,1941.0195174979517,411249.09674011997,182377.12235347656,-273638.53278817527,273638.53278817527,-182377.12235347656,748784.26166166191,0.0
643523.2936376977,3642751.2368613081,-12500.0,154490.24965678359,53420.635183075938,801934.99210878788,-21158.408170702511,-334960.72252212703,-43899.587921177917,541651.75789362006,-193404.13863087387,474209.81633868569,-474209.81633868569,193404.13863087387,966172.89543610706,0.0
648523.2936376977,3642751.2368613081,-12500.0,178803.10213278519,97400.340987666277,348127.97271214513,-30104.507817308298,-175369.89614685762,-54417.647849421002,285996.17294152698,-13983.88975979446,236169.34695688551,-236169.34695688551,13983.88975979446,495979.86672457273,0.0
653523.2936376977,3642751.2368613081,-12500.0,99417.601933334721,57771.359986925316,169542.82987844988,-8228.4585257483195,-92630.065836666647,-32931.428598610117,150169.00079363276,3962.5292602881236,118120.62417026276,-118120.62417026276,-3962.5292602881236,260137.50094042582,0.0
658523.2936376977,3642751.2368613081,-12500.0,60151.303197940339,36929.25947631133,74813.266207668727,-2496.3448611077274,-51459.211849614985,-12656.881733207068,78817.348402525182,13469.486913858265,55538.854294309094,-55538.854294309094,-13469.486913858265,136519.86356749083,0.0
663523.2936376977,3642751.2368613081,-12500.0,37688.097917955049,18944.3562110809,25022.136617131251,-1798.7828006100269,-27469.70605793241,-2227.672557825882,39036.398730412708,15997.792468522573,18843.253811262512,-18843.253811262512,-15997.792468522573,67810.402685622495,0.0
668523.2936376977,3642751.2368613081,-12500.0,23187.81057510469,5983.2173528967587,480.37203025421411,-1157.9619337951583,-12771.870508792297,1043.2062275611202,18976.018859494816,14830.510761314275,-1089.1567420898318,1089.1567420898318,-14830.510761314275,33225.673066651012,0.0
673523.2936376977,3642751.2368613081,-12500.0,12945.534696649293,-2911.1448055753658,-10586.809834033991,213.71096710814905,-4040.6794941640401,1145.7153462741087,12740.85026664406,12043.165984828536,-11374.02216634359,11374.02216634359,-12043.165984828536,22133.055440958949,0.0
678523.2936376977,3642751.2368613081,-12500.0,5120.6578438131546,-8452.6604502662085,-14179.702028167967,1763.6887274334117,679.56823668372249,390.87948102702842,12996.197969422934,8382.082086578157,-15630.079212704415,15630.079212704415,-8382.082086578157,22992.344570352452,0.0
683523.2936376977,3642751.2368613081,-12500.0,-789.67089875503223,-11216.982300512576,-13923.793602279387,2977.5560342186168,2850.2198916757334,-306.39149379992307,13496.003463331806,4633.05094840936,-16189.795765570667,16189.795765570667,-4633.05094840936,24647.860862004611,0.0
688523.2936376977,3642751.2368613081,-12500.0,-4924.7328285409767,-11970.310258816,-12061.690449723103,3678.3080017055763,3549.0840266531873,-722.79160012646969,13172.907956755762,1419.1847350962325,-14802.661942595478,14802.661942595478,-1419.1847350962325,24633.805537825596,0.0
693523.2936376977,3642751.2368613081,-12500.0,-7512.5769545612784,-11492.986641597812,-9813.9030890763879,3918.4382910773147,3493.218091188116,-890.17683779400056,12268.638441251773,-992.64652404012395,-12644.593542614039,12644.593542614039,992.64652404012395,23309.418855872085,0.0
698523.2936376977,3642751.2368613081,-12500.0,-8888.3302748339083,-10395.470831291937,-7732.5032046521337,3834.1491163585447,3110.3769593947236,-897.77210511039152,11083.154852716232,-2612.7568239175416,-10383.503219990347,10383.503219990347,2612.7568239175416,21290.188512134318,0.0
703523.2936376977,3642751.2368613081,-12500.0,-9401.0133338473097,-9075.7230009954201,-6002.9099130391751,3559.927206228047,2630.3356509778555,-822.49096298008146,9822.9438517534345,-3582.9071590907652,-8333.8918843927495,8333.8918843927495,3582.9071590907652,19022.852907379318,0.0
708523.2936376977,3642751.2368613081,-12500.0,-9348.2605709781092,-7758.6569399954151,-4640.2107179454806,3197.0959104864874,2162.9849694706613,-714.62305532919197,8607.0078005209489,-4074.2036779540854,-6604.9052124168011,6604.9052124168011,4074.2036779540854,16773.427961755646,0.0
713523.2936376977,3642751.2368613081,-12500.0,-8954.9126522860497,-6553.613721321015,-3595.1002447450819,2811.1189697702189,1752.4567617270584,-602.16314449902802,7494.1409713269159,-4238.396018935111,-5202.8570374907194,5202.8570374907194,4238.396018935111,14679.812159955713,0.0
718523.2936376977,3642751.2368613081,-12500.0,-8377.6210011219282,-5501.8063462861164,-2803.3822266260504,2439.3675347896119,1410.0010207472169,-498.51785735863285,6506.5388528712901,-4192.9206321764705,-4090.8352502080202,4090.8352502080202,4192.9206321764705,12800.698097132035,0.0
723523.2936376977,3642751.2368613081,-12500.0,-7719.0954126734769,-4608.2241436172089,-2205.7688682123617,2100.3086562701246,1132.1600766167448,-408.75176072670826,5646.0790482486245,-4021.8347339652992,-3219.3274277259679,3219.3274277259679,4021.8347339652992,11149.888794760276,0.0
728523.2936376977,3642751.2368613081,-12500.0,-7043.1629046231255,-3860.7728619772006,-1753.8317553338677,1800.8987960482323,910.05825709106307,-333.64180829506586,4904.457476246529,-3782.2410500323131,-2540.1480666226125,2540.1480666226125,3782.2410500323131,9717.8622755909164,0.0
733523.2936376977,3642751.2368613081,-12500.0,-6387.2335153968143,-3240.8498610854176,-1410.2374652907276,1541.6649885379295,733.7787370102692,-272.01856842569373,4269.0921568359718,-3511.3814827878996,-2011.6926827121713,2011.6926827121713,3511.3814827878996,8484.4418128368306,0.0
738523.2936376977,3642751.2368613081,-12500.0,-5771.5225553820692,-2728.7522524648953,-1147.0440243966548,1319.8916879428655,594.20308741221891,-222.00961898890796,3726.434677920935,-3232.6339300245259,-1600.09028660998,1600.09028660998,3232.6339300245259,7425.8422269755665,0.0
743523.2936376977,3642751.2368613081,-12500.0,-5205.4482385083047,-2306.1727887443694,-943.64318469473869,1131.4893645379036,483.61988697281095,-181.64752595000957,3264.5010887336466,-2960.0406578508082,-1278.6303724797051,1278.6303724797051,2960.0406578508082,6518.3483012284469,0.0
748523.2936376977,3642751.2368613081,-12500.0,-4691.8902618772363,-1957.1495388390126,-784.9276390039762,972.02391962927595,395.7814109423669,-149.13506616113264,2876.5325079574563,-2701.5259677865397,-1026.6180653829308,1026.6180653829308,2701.5259677865397,5740.0636040969521,0.0
543523.2936376977,3647751.2368613081,-12500.0,-4955.287517331607,1133.6249979566421,-476.81079985176484,-884.27992529365201,206.99440668088818,-113.49948067659001,2712.7623827145003,-3476.7471477292679,1574.1376778496228,-1574.1376778496228,3476.7471477292679,5305.2370378497617,0.0
548523.2936376977,3647751.2368613081,-12500.0,-5580.8973452645314,1362.3853283633716,-560.47402774130944,-1034.5376181664126,257.27584056646077,-137.4119164479068,3084.788757446167,-3915.0074098055602,1824.7758667741016,-1824.7758667741016,3915.0074098055602,6040.3013913944806,0.0
553523.2936376977,3647751.2368613081,-12500.0,-6305.080200426084,1647.1282867696195,-666.90097728530884,-1215.5103336045279,321.92332473133519,-167.01128566959855,3524.0392784017718,-4419.9713115281083,2124.2097796341141,-2124.2097796341141,4419.9713115281083,6909.4006326682374,0.0
558523.2936376977,3647751.2368613081,-12500.0,-7144.7671335784735,2003.9196591938494,-804.2832012399773,-1434.0905500538013,405.62052847671532,-203.62836801917538,4045.3608125026267,-5001.6674880624578,2483.0027059248255,-2483.0027059248255,5001.6674880624578,7942.3849190258288,0.0
563523.2936376977,3647751.2368613081,-12500.0,-8119.2192970728674,2454.0430104917473,-984.3845104818123,-1698.5872883363074,514.72160065830383,-248.75409193039647,4667.3844378067124,-5670.5716882397701,2913.8613149773191,-2913.8613149773191,5670.5716882397701,9176.7648789690047,0.0
568523.2936376977,3647751.2368613081,-12500.0,-9249.7093305700892,3025.8366542847325,-1224.3484086394335,-2018.7828812644957,657.85551839776554,-303.85943833455946,5413.5922121908116,-6436.6202819506352,3431.7604373185359,-3431.7604373185359,6436.6202819506352,10659.869186468268,0.0
573523.2936376977,3647751.2368613081,-12500.0,-10558.565063573513,3757.1914878533839,-1549.546031096454,-2405.7237309629218,846.70864337100602,-369.93072451905658,6313.721271183902,-7307.2636966974615,4053.7181809474414,-4053.7181809474414,7307.2636966974615,12451.659454290757,0.0
578523.2936376977,3647751.2368613081,-12500.0,-12067.042639729931,4698.9055583726331,-1998.1309095176891,-2870.9408210085885,1096.9647630567001,-446.4013924200363,7405.6446847279758,-8283.8283886628051,4797.7833013377031,-4797.7833013377031,8283.8283886628051,14628.43513396902,0.0
583523.2936376977,3647751.2368613081,-12500.0,-13791.211333817,5919.1409550856069,-2628.4606726158654,-3424.5724600919202,1429.2618132675505,-528.83641523673225,8738.047319499381,-9355.0001529316287,5680.4170884243031,-5680.4170884243031,9355.0001529316287,17287.948199483479,0.0
588523.2936376977,3647751.2368613081,-12500.0,-15734.469037224964,7509.2053329008604,-3531.4319792969281,-4071.5221336453951,1869.7110346495995,-604.09948028617316,10374.559777108683,-10485.424047534159,6710.6845618213065,-6710.6845618213065,10485.424047534159,20556.983379664416,0.0
593523.2936376977,3647751.2368613081,-12500.0,-17874.460283917382,9590.7957437421592,-4851.4652980748861,-4804.4936797871915,2448.8255430129934,-640.61888836725063,12400.926027264943,-11596.161651655826,7878.2716340175048,-7878.2716340175048,11596.161651655826,24604.009119235707,0.0
598523.2936376977,3647751.2368613081,-12500.0,-20140.44174095034,12324.610864552591,-6823.2910007461196,-5593.145697711504,3196.3227033334124,-569.75137870934009,14938.897383485328,-12531.608102246473,9129.6529071807654,-9129.6529071807654,12531.608102246473,29663.444897637455,0.0
603523.2936376977,3647751.2368613081,-12500.0,-22371.666202274631,15919.264361367754,-9838.9622602144009,-6371.7293923454945,4127.074089356347,-253.43118641098329,18174.973519535855,-13002.656749606964,10320.835600596356,-10320.835600596356,13002.656749606964,36086.668709204336,0.0
608523.2936376977,3647751.2368613081,-12500.0,-24225.69383465514,20633.784575593145,-14575.79596689248,-7038.0851526207189,5212.12335448661,559.52497409882665,22419.722449030509,-12480.453664429051,11118.900783318086,-11118.900783318086,12480.453664429051,44447.886173485989,0.0
613523.2936376977,3647751.2368613081,-12500.0,-24917.141106625968,26730.35162507353,-22249.94552421441,-7497.1889999598616,6336.2953732814776,2243.5623107702941,28206.094143465132,-9955.0548755600466,10767.188566786604,-10767.188566786604,9955.0548755600466,55722.341785934514,0.0
618523.2936376977,3647751.2368613081,-12500.0,-22350.197729602303,34112.679665774493,-35088.603157869162,-7762.7684894183885,7274.8479340215017,5075.7941749437541,36344.52511311604,-3260.4612695094565,7405.8574838071327,-7405.8574838071327,3260.4612695094565,71375.010417828729,0.0
623523.2936376977,3647751.2368613081,-12500.0,-10450.901388938826,40228.513236151754,-56677.493848178143,-7742.2319281356022,7668.3132170317631,8257.3692926010717,47827.347365431538,12748.320675165342,-4073.6443546491109,4073.6443546491109,-12748.320675165342,92536.221160923757,0.0
628523.2936376977,3647751.2368613081,-12500.0,25302.576688031055,30478.176402374898,-86899.867437178487,-4790.090158747018,5624.519518743241,7787.1573868706682,64268.956976250935,47589.93549768081,-36689.500833106911,36689.500833106911,-47589.93549768081,117819.36931836778,0.0
633523.2936376977,3647751.2368613081,-12500.0,88520.809486197963,-41622.396033837911,-77191.954691481049,10705.506084073917,-12648.250995380238,-3606.9173690812727,94163.168146947792,86410.216653803,-95168.833793402984,95168.833793402984,-86410.216653803,163409.08141349204,0.0
638523.2936376977,3647751.2368613081,-12500.0,75023.103743073865,-140243.66056363223,142305.0434808291,26934.599768105847,-75291.828525032412,-27578.734991018959,169353.40150802798,-3008.0686079176612,-31650.673305467113,31650.673305467113,3008.0686079176612,316457.10098523076,1.0
643523.2936376977,3647751.2368613081,-12500.0,25807.517551456345,-29128.247340798876,343787.90837789397,4921.4742045513467,-116318.03304578068,-47623.375087370572,228931.69395910559,-108490.60610710831,176917.66388385772,-176917.66388385772,108490.60610710831,416005.87787108676,0.0
648523.2936376977,3647751.2368613081,-12500.0,57319.302720075284,59458.82404731775,256536.34197045994,-8632.8167974831322,-91359.317838455841,-43133.510599340363,183159.07555700361,-54433.86775941321,181263.10215987405,-181263.10215987405,54433.86775941321,325052.78833123477,0.0
653523.2936376977,3647751.2368613081,-12500.0,62373.433114337946,59316.251883750316,144950.80342173929,-7717.5380564020561,-60027.413573095851,-25476.247388330285,118365.47868463871,-10120.328444245279,113773.17278567023,-113773.17278567023,10120.328444245279,208170.09771807835,0.0
658523.2936376977,3647751.2368613081,-12500.0,51755.758135574135,43812.920498755244,74426.658084751281,-6924.5827334797159,-38170.861395165361,-10558.527175667195,72183.024408216734,7742.6657686762992,63407.424970641405,-63407.424970641405,-7742.6657686762992,126820.22831941253,0.0
663523.2936376977,3647751.2368613081,-12500.0,40612.190908683799,28500.164209729657,32345.315991426854,-6678.4848950378873,-22871.983711572309,-2523.9690237691484,42924.404141086961,14709.564953939447,30446.950447476305,-30446.950447476305,-14709.564953939447,75580.65727535756,0.0
668523.2936376977,3647751.2368613081,-12500.0,30759.91699039557,15717.516260147258,8428.0503842279595,-5650.2373914515329,-12174.322086421835,454.5793568357189,25400.124487846966,16369.27172918979,9715.2347714015523,-9715.2347714015523,-16369.27172918979,44965.429525439416,0.0
673523.2936376977,3647751.2368613081,-12500.0,22077.067223414695,5954.2185952415703,-4136.4604678790993,-3880.419782993089,-5107.1687354303431,937.6615363410682,16026.614836398583,15137.019004585156,-2599.6711587956779,2599.6711587956779,-15137.019004585156,28454.626306846374,0.0
678523.2936376977,3647751.2368613081,-12500.0,14514.111435596446,-880.79431865986726,-9762.2549278008046,-1938.5291028859142,-839.75909527369868,558.59314487749702,12338.249339367736,12376.983143217127,-9143.001010715172,9143.001010715172,-12376.983143217127,21471.512450540929,0.0
683523.2936376977,3647751.2368613081,-12500.0,8202.1559081363393,-5147.6555731687531,-11375.085364929069,-275.13907984878716,1444.9367667635854,65.200591150887945,11149.349159097212,9059.1286636685782,-11856.476100939793,11856.476100939793,-9059.1286636685782,19394.973195268904,0.0
688523.2936376977,3647751.2368613081,-12500.0,3252.9408497063218,-7394.4246274497609,-10908.653571156901,923.64788014715896,2455.6816517468428,-295.29437427272563,10479.995170594873,5861.590393089693,-12233.068664390023,12233.068664390023,-5861.590393089693,18643.366156643599,0.0
693523.2936376977,3647751.2368613081,-12500.0,-369.04115235322433,-8224.3310511522141,-9554.7238807747763,1662.9053820511281,2725.4345335671933,-492.13232044555639,9769.4694255857739,3157.9732641246746,-11359.140814457638,11359.140814457638,-3157.9732641246746,17797.748426197115,0.0
698523.2936376977,3647751.2368613081,-12500.0,-2834.8171132208554,-8167.8495395808122,-7971.9410533160099,2035.4581868626005,2610.2799758059932,-564.22601878881494,8949.9130371698266,1072.6482339186005,-9946.4426673622347,9946.4426673622347,-1072.6482339186005,16619.903345529947,0.0
703523.2936376977,3647751.2368613081,-12500.0,-4380.0218749419246,-7623.0939983980406,-6476.9421871542381,2151.9677641806352,2325.8537158140884,-559.12277722154124,8073.5212662672138,-423.15709960853792,-8410.1668002339211,8410.1668002339211,423.15709960853792,15213.96839293437,0.0
708523.2936376977,3647751.2368613081,-12500.0,-5241.8912198953767,-6855.8097210109627,-5191.6507562145134,2107.8428551083716,1991.431110483574,-513.71392453279964,7200.8975135349565,-1427.2399587337823,-6962.7771012429657,6962.7771012429657,1427.2399587337823,13724.190967846291,0.0
713523.2936376977,3647751.2368613081,-12500.0,-5624.507847440098,-6027.0575822128039,-4139.5127711524465,1973.6782352468401,1666.6445310194069,-451.83843887274571,6374.5566409061921,-2053.2178464664175,-5693.6906150834593,5693.6906150834593,2053.2178464664175,12258.708300186408,0.0
718523.2936376977,3647751.2368613081,-12500.0,-5687.557688551743,-5225.4727041471051,-3300.8624644786505,1796.8694368371607,1377.1126498543322,-387.12779847231985,5617.8930341103451,-2404.2772352220031,-4625.0775997060755,4625.0775997060755,2404.2772352220031,10882.673955591899,0.0
723523.2936376977,3647751.2368613081,-12500.0,-5548.3700243273124,-4493.9339045683209,-2641.5831520222473,1606.9057122147469,1130.4851844310253,-326.4913303852955,4940.2303983343563,-2563.8958886193182,-3746.3787961354533,3746.3787961354533,2563.8958886193182,9628.3587674803512,0.0
728523.2936376977,3647751.2368613081,-12500.0,-5289.3393792707302,-3848.4474814834607,-2126.4195372910599,1420.8152893576255,925.73721258186242,-272.84565839945344,4342.0235436900894,-2595.2254506749018,-3033.7659777719987,3033.7659777719987,2595.2254506749018,8506.5424306425703,0.0
733523.2936376977,3647751.2368613081,-12500.0,-4966.2929928011717,-3290.3455809337875,-1724.2651435472753,1247.5304302960089,758.21915444865976,-226.92707082294876,3818.7667871123217,-2543.9994253884684,-2460.216688427085,2460.216688427085,2543.9994253884684,7515.3167011684645,0.0
738523.2936376977,3647751.2368613081,-12500.0,-4615.8626798789419,-2813.6750306519843,-1409.6027501190626,1091.0016809294857,622.22951159014895,-188.3878023890837,3363.5748839595913,-2442.3193509383191,-2000.2139710440797,2000.2139710440797,2442.3193509383191,6646.0262917980372,0.0
743523.2936376977,3647751.2368613081,-12500.0,-4261.2870281240139,-2409.4377867669091,-1162.2896945205378,952.2697204501228,512.22097227955169,-156.41600692559993,2968.7517419946098,-2312.1639636826417,-1631.5744234056201,1631.5744234056201,2312.1639636826417,5886.9772722989246,0.0
748523.2936376977,3647751.2368613081,-12500.0,-3916.7001535018758,-2067.8934874234283,-966.75721073278714,830.77951693434397,423.29006859354155,-130.06497355201859,2626.6774862469565,-2168.2431556614602,-1335.8490553891249,1335.8490553891249,2168.2431556614602,5225.6166445176823,0.0
543523.2936376977,3652751.2368613081,-12500.0,-4587.6310606359702,1379.5563555819779,-619.56447312882142,-825.48574892205056,254.48167383363764,-106.85267134989709,2604.1120188258756,-3133.5802257402311,1577.0458558127712,-1577.0458558127712,3133.5802257402311,5098.1359878768562,0.0
548523.2936376977,3652751.2368613081,-12500.0,-5120.3808460896253,1642.8498812560611,-737.44066703974295,-958.41135496384982,313.60378519519531,-128.53786470199179,2947.5537325542787,-3487.0249905213168,1810.2604361559152,-1810.2604361559152,3487.0249905213168,5779.0378064685765,0.0
553523.2936376977,3652751.2368613081,-12500.0,-5724.2681376010705,1966.2559689536104,-887.66450449039712,-1116.1936344039127,388.76920568234954,-155.08597075762688,3349.413983258823,-3882.5067056283106,2083.1442968172951,-2083.1442968172951,3882.5067056283106,6577.3987860206162,0.0
558523.2936376977,3652751.2368613081,-12500.0,-6406.9094709235887,2365.3821768911566,-1081.4240976110445,-1303.5026503533868,484.85910575094903,-187.50705664472704,3821.3893771804742,-4321.8358554843853,2401.9941260529199,-2401.9941260529199,4321.8358554843853,7517.1899888258476,0.0
563523.2936376977,3652751.2368613081,-12500.0,-7174.6975006337871,2860.1275358957573,-1334.4557200749903,-1525.507761869713,608.31789556335673,-226.85479035434071,4377.6695596240061,-4804.2317255620419,2773.1909283773589,-2773.1909283773589,4804.2317255620419,8627.6603692062745,0.0
568523.2936376977,3652751.2368613081,-12500.0,-8030.9928477084177,3475.7463461364223,-1669.129066925861,-1787.5423176350366,767.60808061186424,-274.02590881955462,5035.4051649293988,-5324.1401665279263,3202.2730216181467,-3202.2730216181467,5324.1401665279263,9944.400783119856,0.0
573523.2936376977,3652751.2368613081,-12500.0,-8973.0016404086036,4243.9728897371097,-2117.5728813605906,-2094.344346132249,973.70783583407558,-329.31016119412129,5815.2007168474083,-5867.6229909215645,3692.0898633160059,-3692.0898633160059,5867.6229909215645,11510.480786786247,0.0
578523.2936376977,3652751.2368613081,-12500.0,-9986.5232949725778,5203.9486122513435,-2726.383080736176,-2448.5377542017968,1240.526317295155,-391.45177709295268,6741.6552545045788,-6406.4680725470171,4239.3027151696369,-4239.3027151696369,6406.4680725470171,13377.572286778497,0.0
583523.2936376977,3652751.2368613081,-12500.0,-11037.262549791836,6402.326841258081,-3563.7248934646937,-2847.8081825642448,1584.9118726468148,-455.78079144507007,7844.370757628405,-6888.6943609115615,4827.9349648325961,-4827.9349648325961,6888.6943609115615,15606.910557029296,0.0
588523.2936376977,3652751.2368613081,-12500.0,-12056.660820448802,7891.1513556844302,-4729.9902695963274,-3279.970261468829,2025.5028866255359,-510.64636654254457,9164.1291556707311,-7223.4761952016779,5417.7057472925044,-5417.7057472925044,7223.4761952016779,18269.923830872816,0.0
593523.2936376977,3652751.2368613081,-12500.0,-12919.085431416519,9720.5014246909777,-6373.5470948747625,-3714.9699695733188,2578.8367505071274,-530.96478873549779,10773.622177369611,-7257.7180937865023,5923.2444927604311,-5923.2444927604311,7257.7180937865023,21448.57414870357,0.0
598523.2936376977,3652751.2368613081,-12500.0,-13405.302383612325,11919.405893462228,-8713.1089155742247,-4093.3099794037703,3249.6327383784069,-467.58160548114978,12728.769256783775,-6740.725659554887,6177.5030955462489,-6177.5030955462489,6740.725659554887,25236.03809381985,0.0
603523.2936376977,3652751.2368613081,-12500.0,-13143.321253407559,14450.49686459529,-12066.292045161046,-4312.6551259539337,4009.955884470723,-233.06955014882516,15084.154524023092,-5273.138229723354,5867.9561259245202,-5867.9561259245202,5273.138229723354,29739.143783575502,0.0
608523.2936376977,3652751.2368613081,-12500.0,-11508.856317850383,17103.332146449648,-16873.478297649828,-4220.1813829750809,4760.0165913101655,305.72765084369166,17928.565023991279,-2238.0251456636524,4426.0846019523824,-4426.0846019523824,2238.0251456636524,35081.609402644586,0.0
613523.2936376977,3652751.2368613081,-12500.0,-7451.5896300028626,19233.844815931687,-23658.951677782181,-3624.8871272040683,5264.4767926509639,1286.1487183634449,21399.99609444524,3275.0091426806157,839.87433426977168,-839.87433426977168,-3275.0091426806157,41388.745714856683,0.0
618523.2936376977,3652751.2368613081,-12500.0,762.44919750187751,19104.623462780513,-32665.519018090199,-2323.8823822407467,5057.9698283267517,2643.5805335739951,25730.761123338754,12449.461748080106,-6613.9656771314876,6613.9656771314876,-12449.461748080106,48700.723710576291,0.0
623523.2936376977,3652751.2368613081,-12500.0,15443.930059916203,12368.898132711833,-42085.699044002897,-20.043778927948683,3241.7619289712898,3565.94057217204,31429.887129571216,25956.862921320208,-20300.135603349219,20300.135603349219,-25956.862921320208,57078.066881238141,0.0
628523.2936376977,3652751.2368613081,-12500.0,36223.438887267497,-9462.8059822551404,-41707.164982044262,3998.3085519935494,-2223.1522888899622,1807.2291804239251,40380.532978178126,39524.896190353254,-39825.430448552761,39825.430448552761,-39524.896190353254,70049.976645084316,0.0
633523.2936376977,3652751.2368613081,-12500.0,48725.733886160066,-49550.192161269726,-2111.8554975950256,9832.3180217354748,-15468.941774671532,-5430.7122547580539,58454.199520665992,32833.816381829252,-46799.648675475255,46799.648675475255,-32833.816381829252,105535.54151636515,1.0
638523.2936376977,3652751.2368613081,-12500.0,30008.82397397493,-70310.860615676036,96550.113269460358,12229.728500840682,-36831.816288919574,-16908.980196037133,90114.203114112635,-15721.301774348902,1463.3790837375109,-1463.3790837375109,15721.301774348902,170588.07966037033,0.0
643523.2936376977,3652751.2368613081,-12500.0,8164.9164819918969,-29117.919669747411,175804.17304378242,6294.6191975980464,-51523.898869046949,-24337.792295024661,114961.09392774856,-57937.673638026317,81968.042568966164,-81968.042568966164,57937.673638026317,212684.3653122391,0.0
648523.2936376977,3652751.2368613081,-12500.0,15413.206009544121,21387.736230069433,166614.93992563369,-979.53866199110996,-49860.636245285277,-21652.253491743708,108034.71566580054,-48769.458635683855,110221.8246429182,-110221.8246429182,48769.458635683855,196656.06470111967,0.0
653523.2936376977,3652751.2368613081,-12500.0,28156.446805572061,40108.741933374258,116895.83121461957,-5200.1467416370779,-40024.898045447087,-13132.167166860119,83780.36244137949,-22510.422967203733,91162.922039386176,-91162.922039386176,22510.422967203733,151514.32171105375,0.0
658523.2936376977,3652751.2368613081,-12500.0,33172.074829392492,38717.377287656353,70555.81552207678,-7394.8778356237508,-29152.629153216178,-5393.3126574652651,59345.488519286897,-3314.3667332803052,61886.700471062679,-61886.700471062679,3314.3667332803052,107411.99910653065,0.0
663523.2936376977,3652751.2368613081,-12500.0,32507.865796616894,30368.645582664845,37146.510578268397,-8054.5761826408343,-19476.365989253969,-908.01410927563848,40333.435024273967,7495.2346076002395,36690.852449539423,-36690.852449539423,-7495.2346076002395,73433.789529818372,0.0
668523.2936376977,3652751.2368613081,-12500.0,28842.550649282606,20705.517808895223,15381.914471022334,-7358.5984406814496,-11702.022264804329,856.16506600473406,26912.295691763044,12495.264290165094,18028.794699502472,-18028.794699502472,-12495.264290165094,49468.436821405019,0.0
673523.2936376977,3652751.2368613081,-12500.0,23718.911607220103,12001.729312071089,2329.6560253405137,-5805.3290066392055,-6013.1360600423368,1124.4634578414655,18152.282316841585,13746.424922233997,5365.5056572065432,-5365.5056572065432,-13746.424922233997,33562.395403483126,0.0
678523.2936376977,3652751.2368613081,-12500.0,18146.617271343501,5115.2497697375766,-4708.0292331375304,-3976.220586589207,-2221.0511627015289,809.98295242220115,13155.909143844146,12744.380266068609,-2487.1937925050725,2487.1937925050725,-12744.380266068609,23820.131051244207,0.0
683523.2936376977,3652751.2368613081,-12500.0,12827.632277889041,199.62431631163429,-7870.2352776275156,-2287.8314262891008,69.999320699660473,389.82588587807737,10554.96868460041,10592.121167579116,-6785.8473089044246,6785.8473089044246,-10592.121167579116,18479.757764399561,0.0
688523.2936376977,3652751.2368613081,-12500.0,8196.286868584677,-2962.3679430336433,-8731.2674724981316,-941.17300486111992,1296.9251134067963,49.518072756636279,9109.5434248065612,8063.5788387178209,-8661.3553489782626,8661.3553489782626,-8063.5788387178209,15780.918918165242,0.0
693523.2936376977,3652751.2368613081,-12500.0,4446.6740379511311,-4748.4555505715198,-8365.7077400704475,22.555682643071052,1836.4727333104224,-171.27746509341085,8152.1232869706118,5638.1073819682015,-9026.7141210512164,9026.7141210512164,-5638.1073819682015,14285.606677532203,0.0
698523.2936376977,3652751.2368613081,-12500.0,1590.9644117661464,-5556.3339234132891,-7447.6380134905057,648.12142847563803,1969.37505066681,-289.64590494616982,7377.3552879450253,3557.6549820775863,-8548.2835148474296,8548.2835148474296,-3557.6549820775863,13181.387576037518,0.0
703523.2936376977,3652751.2368613081,-12500.0,-467.85643325640535,-5726.865289989657,-6362.6680165439784,1011.2783546674096,1884.4151418693941,-336.32941354905034,6671.675088745752,1901.2550360599544,-7668.7896271718146,7668.7896271718146,-1901.2550360599544,12151.27569929602,0.0
708523.2936376977,3652751.2368613081,-12500.0,-1873.390370007289,-5517.7988053719337,-5308.6696269332888,1187.9104418314528,1698.5900240174915,-338.93374117756724,6005.9260979520768,654.14042285878213,-6657.1860874770173,6657.1860874770173,-654.14042285878213,11119.996249041658,0.0
713523.2936376977,3652751.2368613081,-12500.0,-2774.3097942906106,-5107.4012613547238,-4372.057500291402,1240.9551251829394,1479.1991762024709,-317.54056593499513,5380.3015149811763,-241.66937668956507,-5661.9534532946818,5661.9534532946818,241.66937668956507,10097.249753395994,0.0
718523.2936376977,3652751.2368613081,-12500.0,-3302.6737502024157,-4610.4396610130034,-3578.6971779473233,1217.465156545436,1261.9004935933172,-285.16053979793406,4801.2463486242023,-856.44507512620021,-4755.1972352094235,4755.1972352094235,856.44507512620021,9110.8058721583984,0.0
723523.2936376977,3652751.2368613081,-12500.0,-3565.9932910889938,-4096.0202483472503,-2924.7624770625152,1150.2786993085604,1063.4992787640269,-249.52422445477657,4273.6019015800575,-1256.7925738305325,-3964.2245338607086,3964.2245338607086,1256.7925738305325,8184.0199717597789,0.0
728523.2936376977,3652751.2368613081,-12500.0,-3647.0187906361784,-3602.6922334387532,-2394.0004287655179,1061.1413518051725,890.23359688823871,-214.84540563093896,3798.9454580018755,-1499.1167953858071,-3292.0872114414356,3292.0872114414356,1499.1167953858071,7330.9670133377485,0.0
733523.2936376977,3652751.2368613081,-12500.0,-3607.0081177585148,-3149.6631849077517,-1966.665990088077,963.79774812842459,742.81043352082838,-183.16480958107715,3376.046725935425,-1628.2054708695669,-2730.0183772770342,2730.0183772770342,1628.2054708695669,6557.4618360490686,0.0
738523.2936376977,3652751.2368613081,-12500.0,-3490.0125463755135,-2744.4947122146136,-1623.7201564832721,866.5152779459836,619.31175521353566,-155.26076971182806,3001.8036199015564,-1678.1908222842796,-2264.5029289216673,2264.5029289216673,1678.1908222842796,5863.440614593499,0.0
743523.2936376977,3652751.2368613081,-12500.0,-3326.9765389777722,-2388.1067351365273,-1348.5052664831146,773.95576219159352,516.79082154378864,-131.22386766155296,2672.0914897253242,-1674.3601568229212,-1881.0408817133955,1881.0408817133955,1674.3601568229212,5245.1769291904684,0.0
543523.2936376977,3657751.2368613081,-12500.0,-4153.7841477840138,1560.102024073869,-772.02260957775832,-755.57840658741043,291.22693812247763,-98.906588220580588,2468.9283688462451,-2743.0506818685303,1514.5449027240643,-1514.5449027240643,2743.0506818685303,4840.9301484116877,0.0
548523.2936376977,3657751.2368613081,-12500.0,-4583.8091888674853,1839.3328462849681,-923.36839986603695,-868.94861452920429,355.69172201741787,-118.04393805681831,2778.6619959375425,-3005.9064879571788,1715.7013975751686,-1715.7013975751686,3005.9064879571788,5457.9682678301733,0.0
553523.2936376977,3657751.2368613081,-12500.0,-5056.874969931765,2176.7659027591176,-1115.2413235823717,-1000.9530997572368,436.59271098222081,-141.14823198816066,3136.9730274142662,-3286.5354495187926,1943.8903522808801,-1943.8903522808801,3286.5354495187926,6173.9243235937747,0.0
558523.2936376977,3657751.2368613081,-12500.0,-5572.0150863690824,2585.3810822030564,-1360.8175579365466,-1154.0796853210052,538.49238097304124,-168.90365961657966,3552.255922043898,-3579.5764906939989,2200.3981364876931,-2200.3981364876931,3579.5764906939989,7006.599470580878,0.0
563523.2936376977,3657751.2368613081,-12500.0,-6124.2574580450628,3080.7039037398072,-1678.1340657202818,-1330.512926990405,667.19252392178396,-201.93298491921433,4034.1579799843917,-3874.9082386899531,2484.5375960497572,-2484.5375960497572,3874.9082386899531,7976.7785586670707,1.0
568523.2936376977,3657751.2368613081,-12500.0,-6701.949287854698,3680.8030735134184,-2092.0068991884718,-1531.5188478300715,829.95324009593378,-240.58886713917099,4593.5565713153837,-4154.9165529145121,2791.8740376360988,-2791.8740376360988,4154.9165529145121,9108.3642277455529,0.0
573523.2936376977,3657751.2368613081,-12500.0,-7282.6008100688659,4405.6989131230994,-2636.6810995773103,-1756.3449309927644,1035.5991304797199,-284.53811351107947,5242.5080631641631,-4390.3598823394714,3111.229424239486,-3111.229424239486,4390.3598823394714,10428.192653111046,0.0
578523.2936376977,3657751.2368613081,-12500.0,-7826.5384786234781,5275.5355544569356,-3359.4078891555132,-2000.3374696661342,1294.2983332249116,-331.97446615485688,5996.8665284237723,-4534.2224557166628,3419.7019699605398,-3419.7019699605398,4534.2224557166628,11965.285201296334,0.0
583523.2936376977,3657751.2368613081,-12500.0,-8267.3732366437252,6306.2632014166174,-4325.0295196696461,-2251.84068070172,1616.5622265365621,-378.19071049723482,6904.3584670121545,-4512.7923039908537,3674.4998138803462,-3674.4998138803462,4512.7923039908537,13749.12550298428,0.0
588523.2936376977,3657751.2368613081,-12500.0,-8498.1254024528916,7500.5242812013594,-5621.2518569218237,-2487.3525050453445,2010.5826762027809,-413.12402950400411,7980.7559052629585,-4213.2899259372625,3799.8364096396999,-3799.8364096396999,4213.2899259372625,15806.511666317221,0.0
593523.2936376977,3657751.2368613081,-12500.0,-8351.8910020559542,8829.4766098105047,-7363.0383948077697,-2664.5096386276664,2476.2633489493824,-417.46898861493071,9231.8500890479463,-3468.0521473670606,3666.5344308634849,-3666.5344308634849,3468.0521473670606,18156.551303699795,0.0
598523.2936376977,3657751.2368613081,-12500.0,-7577.0074413958846,10197.90661564635,-9691.2487675331558,-2713.2410932509329,2993.1572006342185,-357.47057234550437,10673.846358588919,-2037.7600711800455,3061.9791978012031,-3061.9791978012031,2037.7600711800455,20804.073447058778,0.0
603523.2936376977,3657751.2368613081,-12500.0,-5810.259400049742,11379.231238665832,-12751.956072848205,-2527.6775091603458,3498.2156562957675,-180.78855160965821,12323.615385674797,396.96678778492571,1650.5112184494042,-1650.5112184494042,-396.96678778492571,23733.87628776006,0.0
608523.2936376977,3657751.2368613081,-12500.0,-2562.5208953474889,11898.508908999082,-16620.515825111514,-1966.0561543290987,3848.9722920609165,177.28100474602493,14208.228172207166,4208.6380269673446,-1064.6433790716414,1064.6433790716414,-4208.6380269673446,26914.926962761281,0.0
613523.2936376977,3657751.2368613081,-12500.0,2735.9105022983672,10836.01631511784,-21077.93927895062,-871.53417167040243,3771.1463492234057,752.50523654760866,16401.818741705498,9689.15898065082,-5727.9019139453885,5727.9019139453885,-9689.15898065082,30348.013466150063,0.0
618523.2936376977,3657751.2368613081,-12500.0,10483.137855889916,6565.7389619492878,-25019.828306923846,874.88702018698484,2798.3161987971371,1431.5724093986141,19137.987452121557,16630.144422320991,-12889.774832592166,12889.774832592166,-16630.144422320991,34295.026002494043,0.0
623523.2936376977,3657751.2368613081,-12500.0,20061.770399643246,-3252.9628694744338,-25119.923400334916,3273.0346268868839,220.70958882569298,1739.6453872494474,23103.957382543631,23252.027150541075,-22015.582078185678,22015.582078185678,-23252.027150541075,40165.791228290451,0.0
628523.2936376977,3657751.2368613081,-12500.0,27979.623539165568,-19998.186856439454,-13955.637545952981,6057.6839893905244,-4890.4770618198881,747.21961688430031,29849.551699072952,24365.776314013663,-28819.794459300134,28819.794459300134,-24365.776314013663,52343.0158995905,0.0
633523.2936376977,3657751.2368613081,-12500.0,27116.758949790372,-38285.198827367225,18035.69641511048,8299.8068563824072,-13154.637916062187,-2291.5609004174448,40986.724907750846,11847.945994895828,-22322.163465496702,22322.163465496702,-11847.945994895828,76179.520916006499,0.0
638523.2936376977,3657751.2368613081,-12500.0,14795.876953032797,-41941.023357602164,67528.321141510882,8215.4570364588672,-23101.362747354557,-6431.6104412142577,55480.037091127197,-14381.14256145708,7234.7534039929269,-7234.7534039929269,14381.14256145708,106917.45690765241,0.0
643523.2936376977,3657751.2368613081,-12500.0,3240.710342414282,-21749.580449594676,106107.76452941206,4970.8492672450166,-30401.372153389002,-8842.0315773069706,67193.649871425572,-35637.329504585941,46703.764776041819,-46703.764776041819,35637.329504585941,127422.64563307645,0.0
648523.2936376977,3657751.2368613081,-12500.0,3841.7696352012431,6360.4463594192775,110821.53646641852,252.14117133452766,-31957.879929368963,-7754.7865013412757,67597.262920568668,-36629.513003628796,69021.840651510603,-69021.840651510603,36629.513003628796,126511.74777444954,0.0
653523.2936376977,3657751.2368613081,-12500.0,11819.47718960036,24317.778225520968,90272.862284686751,-3893.4795731208865,-28681.209630455087,-4454.6508167369402,58796.879625469381,-24163.356194844186,67835.477733339678,-67835.477733339678,24163.356194844186,109471.0794111696,0.0
658523.2936376977,3657751.2368613081,-12500.0,19130.391579965508,29728.299807568441,62766.194150872769,-6578.8305239545707,-22977.081443169409,-1256.0090270423295,46707.974551745741,-10001.09259894018,54026.476124006898,-54026.476124006898,10001.09259894018,87030.240860337261,0.0
663523.2936376977,3657751.2368613081,-12500.0,22902.09874528999,27350.304193524375,38398.972741606849,-7656.2624579633566,-16723.818679534874,678.31074251596817,35165.414487865666,712.56276546977824,37399.297149750593,-37399.297149750593,-712.56276546977824,65859.546884550495,0.0
668523.2936376977,3657751.2368613081,-12500.0,23318.378060901185,21534.476677425533,20109.770244480536,-7390.1991656534565,-11059.926233878427,1387.7877097403618,25639.601403374949,7251.0104474764994,22597.778941729961,-22597.778941729961,-7251.0104474764994,48403.423298181035,0.0
673523.2936376977,3657751.2368613081,-12500.0,21369.316967757946,14942.047481847068,7733.4894734278378,-6270.5306900531705,-6530.6413607717777,1353.5123395339128,18473.021344295852,10337.599008517343,11141.716399300432,-11141.716399300432,-10337.599008517343,35061.902562507479,0.0
678523.2936376977,3657751.2368613081,-12500.0,18079.05593761522,8963.1725956817045,102.76268343281434,-4792.6295507788427,-3247.7039795381834,1011.2424204432369,13601.947242127348,10990.541537424702,3112.3425568076354,-3112.3425568076354,-10990.541537424702,25479.548324371834,0.0
683523.2936376977,3657751.2368613081,-12500.0,14279.372553367741,4181.0104278376757,-4103.2386756318219,-3318.3183393297486,-1067.1886534833195,620.63188172685113,10501.16241714183,10150.082851674057,-2004.300488132636,2004.300488132636,-10150.082851674057,19033.948669417176,0.0
688523.2936376977,3657751.2368613081,-12500.0,10550.200035063708,702.47583926503853,-6036.9640179155622,-2047.9592303978736,257.72649503072154,295.5044747497713,8527.1089656881068,8554.7047942147383,-4904.2060936685439,4904.2060936685439,-8554.7047942147383,14981.941515170065,0.0
693523.2936376977,3657751.2368613081,-12500.0,7232.6239562518685,-1614.4081477653501,-6582.6930010813321,-1054.9137991000875,978.57244692334416,65.058078428277042,7236.6550685191887,6715.8243308234451,-6258.2857265305556,6258.2857265305556,-6715.8243308234451,12539.739682495876,0.0
698523.2936376977,3657751.2368613081,-12500.0,4478.2562350061053,-3010.1579528174839,-6358.4281719394385,-334.92304238635239,1304.8866524681387,-79.680637826750043,6334.6625251804689,4943.2851461629753,-6619.1830232820421,6619.1830232820421,-4943.2851461629753,11020.138592497811,0.0
703523.2936376977,3657751.2368613081,-12500.0,2310.11138320092,-3734.4400298390187,-5762.5958150260649,153.15743048720219,1391.761855688364,-159.60331387259779,5641.5310792276323,3394.0996941569788,-6396.6633395959034,6396.6633395959034,-3394.0996941569788,9952.4022413884795,0.0
708523.2936376977,3657751.2368613081,-12500.0,677.59876554328309,-4002.3237965166286,-5032.8719007906029,461.19449615959337,1344.8489584165893,-195.49660667649704,5062.0943088028143,2124.0119706943033,-5870.4689240570196,5870.4689240570196,-2124.0119706943033,9083.2664728771815,0.0
713523.2936376977,3657751.2368613081,-12500.0,-502.64166683214688,-3980.1678415411247,-4299.4073785122182,638.03551580794567,1231.5124045851578,-203.87492040044947,4551.9086091124345,1130.1150184000728,-5218.2239237872818,5218.2239237872818,-1130.1150184000728,8302.7334826283331,0.0
718523.2936376977,3657751.2368613081,-12500.0,-1320.9120727499928,-3787.4707547233006,-3625.6312111987895,723.97277076980788,1092.197689298926,-196.44220410996141,4092.2429750544793,380.82347740946034,-4544.7969811752919,4544.7969811752919,-380.82347740946034,7573.2193464276461,0.0
723523.2936376977,3657751.2368613081,-12500.0,-1860.6012224726462,-3505.2858879801502,-3036.3418516757497,749.73820344156582,949.66837340507288,-180.89277169192968,3675.6175269734913,-165.58717166558631,-3906.8716228373705,3906.8716228373705,165.58717166558631,6887.0681444600941,0.0
728523.2936376977,3657751.2368613081,-12500.0,-2192.3397782216462,-3185.8932956764952,-2535.5815987459932,737.5623980134153,815.6818532818935,-161.9893642069616,3298.689505571092,-550.85696708022533,-3331.1092296892457,3331.1092296892457,550.85696708022533,6246.1822522221191,0.0
733523.2936376977,3657751.2368613081,-12500.0,-2372.8036304109096,-2861.3246847439482,-2117.3073632598935,702.900339810476,695.46851689040545,-142.50989050801644,2959.1981288513243,-812.03082106875399,-2826.5323085763994,2826.5323085763994,812.03082106875399,5653.7093730781808,0.0
738523.2936376977,3657751.2368613081,-12500.0,-2445.8321773094335,-2550.0031272575479,-1771.3976828096409,656.14634397073883,590.58151595133211,-123.95906774268845,2654.8669369223621,-979.86979719010446,-2392.4798333152148,2392.4798333152148,979.86979719010446,5111.3106743276194,0.0
743523.2936376977,3657751.2368613081,-12500.0,-2444.4521976745987,-2261.5506019751228,-1486.8223539432904,604.0751520997685,500.63465612581626,-107.06039772831322,2383.1488368616415,-1078.8742462845464,-2023.4727059776844,2023.4727059776844,1078.8742462845464,4618.7182335272882,0.0
543523.2936376977,3662751.2368613081,-12500.0,-3678.8779825069782,1672.5083458792919,-921.87547019574856,-678.40129902220531,316.59124302042716,-90.072539249000243,2313.3552306707593,-2328.2035980845117,1397.6936573137118,-1397.6936573137118,2328.2035980845117,4545.2688868002551,0.0
548523.2936376977,3662751.2368613081,-12500.0,-4004.2746676427005,1949.9544435042133,-1102.1833274402131,-771.37887371915178,382.94778082212662,-106.505937922608,2586.3105157319746,-2501.8739385848921,1556.8052650500642,-1556.8052650500642,2501.8739385848921,5092.6461142342559,0.0
553523.2936376977,3662751.2368613081,-12500.0,-4346.755456689325,2278.6389777971608,-1328.5552658916035,-876.95556835355774,464.98351007685335,-126.00859867299403,2897.7478040594247,-2671.9203841498261,1728.8635401404804,-1728.8635401404804,2671.9203841498261,5719.9253870090797,0.0
558523.2936376977,3662751.2368613081,-12500.0,-4698.5531450877252,2667.4580132620263,-1614.7468807796845,-995.71096083036241,566.54333645403653,-148.96391401647537,3252.9400287905833,-2827.7403419820143,1910.3763022502421,-1910.3763022502421,2827.7403419820143,6439.084037563186,0.0
563523.2936376977,3662751.2368613081,-12500.0,-5046.2671360761415,3125.7780180358609,-1978.9343347615065,-1127.331982792816,692.26014145387614,-175.61124842022363,3657.38540500107,-2952.958618259097,2094.3034698325614,-2094.3034698325614,2952.958618259097,7263.1718886849467,0.0
568523.2936376977,3662751.2368613081,-12500.0,-5368.0497320161103,3662.4184165175266,-2445.059949148445,-1269.8663198570455,847.51775618568752,-205.84252221658673,4116.66362100688,-3022.8337822062795,2267.8808420728783,-2267.8808420728783,3022.8337822062795,8205.8296376038197,0.0
573523.2936376977,3662751.2368613081,-12500.0,-5629.5960065280633,4283.5898003088578,-3044.4011494569427,-1418.5261964178067,1038.1724417279092,-238.83513208241885,4649.763868903,-3000.6849513921143,2409.2771484172927,-2409.2771484172927,3000.6849513921143,9280.3474322977072,0.0
578523.2936376977,3662751.2368613081,-12500.0,-5778.6019737769793,4988.9901253545504,-3817.1349011372331,-1563.8337275496729,1269.7729669065859,-272.41815611579898,5287.5625838981687,-2833.1777635510366,2482.5634819398961,-2482.5634819398961,2833.1777635510366,10498.046504662727,0.0
583523.2936376977,3662751.2368613081,-12500.0,-5737.4554136639017,5764.7284705115926,-4813.2413395014792,-1688.8624508606865,1545.8039898528111,-302.02715692686525,6016.8621211586942,-2444.5579244406144,2430.3711308422608,-2430.3711308422608,2444.5579244406144,11865.754707145088,0.0
588523.2936376977,3662751.2368613081,-12500.0,-5394.4090051539297,6570.9563369375037,-6091.1420120318226,-1765.3956215591218,1864.1303539914563,-319.09742575001144,6843.2211230717166,-1730.6769885065414,2163.7360731887266,-2163.7360731887266,1730.6769885065414,13382.36056105796,0.0
593523.2936376977,3662751.2368613081,-12500.0,-4594.7770780438759,7321.0181967600593,-7710.4239258139951,-1749.1541438184381,2210.3145259782518,-308.88052080424342,7771.1232335941249,-555.46946103282926,1549.4222475678744,-1549.4222475678744,555.46946103282926,15035.176040121691,0.0
598523.2936376977,3662751.2368613081,-12500.0,-3136.7994875190643,7847.9706674026183,-9710.8095482852259,-1575.2089841482116,2545.9333038644127,-248.23350498834992,8804.390084469278,1243.4321096387557,397.65435080390176,-397.65435080390176,-1243.4321096387557,16799.166453383019,0.0
603523.2936376977,3662751.2368613081,-12500.0,-783.45426604317686,7854.860586240502,-12061.301010227737,-1156.787873845944,2789.9058654907863,-105.52636022496412,9953.7172141710889,3825.115508068181,-1539.7506561897287,1539.7506561897287,-3825.115508068181,18648.23540483601,0.0
608523.2936376977,3662751.2368613081,-12500.0,2685.4110562786395,6852.015828366405,-14548.880041341203,-394.25306997094208,2792.5043748621401,151.73860748300186,11260.139477099738,7262.2735102611841,-4533.9851604294836,4533.9851604294836,-7262.2735102611841,20603.037359178106,0.0
613523.2936376977,3662751.2368613081,-12500.0,7334.1498671332483,4111.4737750985714,-16556.758981407867,795.13220077759445,2307.6345817696583,531.06518483338732,12851.735534945325,11354.01869092891,-8744.185410727996,8744.185410727996,-11354.01869092891,22871.609001536366,0.0
618523.2936376977,3662751.2368613081,-12500.0,12777.214036083309,-1251.2614966796655,-16685.221660477215,2416.5472479907103,982.00377732704658,960.91322357194997,15046.740740274381,15277.034466972753,-13862.943818661846,13862.943818661846,-15277.034466972753,26165.476132997785,0.0
623523.2936376977,3662751.2368613081,-12500.0,17714.978259349624,-9783.2147772901626,-12318.987796877815,4307.3953475889894,-1599.2407371153972,1227.4647689053754,18440.229674210001,17124.420908621723,-18408.572675671407,18408.572675671407,-17124.420908621723,32080.513534284542,0.0
628523.2936376977,3662751.2368613081,-12500.0,19670.907031707105,-20377.892025831734,146.32328532232759,6042.6092799455027,-5742.9355703680285,1002.7373108277897,23702.510766578962,13873.896133587277,-18897.566677992876,18897.566677992876,-13873.896133587277,42655.368313565545,0.0
633523.2936376977,3662751.2368613081,-12500.0,16183.273003746215,-28587.79304865815,22728.673323882005,6914.9760809199624,-11279.870812052206,114.84375745957709,30804.692903960538,3219.8419867939838,-10489.260735348344,10489.260735348344,-3219.8419867939838,58164.885103591892,0.0
638523.2936376977,3662751.2368613081,-12500.0,8193.7245976352733,-27801.283673955564,50792.437136256398,6194.1558508261633,-17134.886028460685,-1054.8759026815576,38391.208183899333,-12345.645329222167,8445.3359160609289,-8445.3359160609289,12345.645329222167,74892.023438796925,0.0
643523.2936376977,3662751.2368613081,-12500.0,1367.6060768865443,-15829.799081662393,72460.230603241565,3740.5786413245373,-21517.129090254704,-1666.1166655679888,44526.536693274051,-24690.875844460879,31157.43600586522,-31157.43600586522,24690.875844460879,86381.271020071334,0.0
648523.2936376977,3662751.2368613081,-12500.0,557.55861131617803,1119.0594735987715,78406.015366817068,309.19963197611679,-23074.117866425211,-1229.9878708526794,46048.101510220346,-27408.36471308436,46789.998220796639,-46789.998220796639,27408.36471308436,88340.38554449052,0.0
653523.2936376977,3662751.2368613081,-12500.0,4955.2345169563378,14785.048651563337,69749.545410814389,-2990.1641721581991,-21749.387679088086,-106.07208856948148,42754.059203885074,-21613.404365857336,50455.427233620678,-50455.427233620678,21613.404365857336,81569.524039037482,0.0
658523.2936376977,3662751.2368613081,-12500.0,10790.206975342571,21657.88601569353,53756.781493041359,-5358.6511714741291,-18444.639543976093,980.28349423527834,36634.0602086215,-12371.748735291321,44785.952116345099,-44785.952116345099,12371.748735291321,69841.331771484911,0.0
663523.2936376977,3662751.2368613081,-12500.0,15288.040849325864,22587.651548094382,36850.110014336591,-6512.2096233145676,-14281.737299210643,1588.8366928465805,29668.376820617752,-3668.3432867129395,34699.004995747491,-34699.004995747491,3668.3432867129395,56724.870202448044,0.0
668523.2936376977,3662751.2368613081,-12500.0,17492.556043150933,19845.881251302791,22414.984261268,-6577.6132189484642,-10158.786340281598,1691.47341953969,23106.865437609791,2757.0806139567412,23930.364112038238,-23930.364112038238,-2757.0806139567412,44414.62620852657,0.0
673523.2936376977,3662751.2368613081,-12500.0,17565.615150225574,15469.509519530682,11530.870771016203,-5892.3712974290356,-6613.0626900078823,1467.1359287155526,17586.589464206223,6642.4186287779103,14486.854680914492,-14486.854680914492,-6642.4186287779103,33936.765509440273,0.0
678523.2936376977,3662751.2368613081,-12500.0,16106.489740407782,10829.684470070468,4058.4729694238094,-4822.6970105854034,-3856.5807612279405,1109.5594674461174,13376.054576392075,8398.8555629014427,7127.0772812251753,-7127.0772812251753,-8398.8555629014427,25605.085829172112,0.0
683523.2936376977,3662751.2368613081,-12500.0,13769.961449552338,6685.350238203112,-635.2129513521412,-3657.7012456629268,-1881.4187015220382,748.69550496141676,10356.924914359541,8638.8902936325958,1891.9841248963962,-1891.9841248963962,-8638.8902936325958,19347.50829148437,0.0
688523.2936376977,3662751.2368613081,-12500.0,11096.57470538921,3355.800260971278,-3286.1248845681125,-2578.9021652024348,-566.78070713007662,447.25241256357191,8226.8841233951625,7945.2310516210437,-1520.5648154161468,1520.5648154161468,-7945.2310516210437,14893.093225877275,0.0
693523.2936376977,3662751.2368613081,-12500.0,8462.33880053141,888.71185897185933,-4551.1615480390037,-1674.172406009053,243.41389172966646,222.6802332080475,6739.6703931609409,6777.6767580488531,-3526.4080518623423,3526.4080518623423,-6777.6767580488531,11873.167311141664,0.0
698523.2936376977,3662751.2368613081,-12500.0,6088.7674416997552,-810.49091969668518,-4943.7948486889163,-966.95989023890434,696.46785624939037,69.120371463700735,5696.9861241678027,5454.5662925954393,-4530.1001065468108,4530.1001065468108,-5454.5662925954393,9887.9913823821425,0.0
703523.2936376977,3662751.2368613081,-12500.0,4077.7557131766225,-1891.9995468756713,-4830.8110859478347,-444.11943967059659,912.2155733649563,-27.973062226557076,4943.1913212745303,4170.6369593496311,-4868.7851911865655,4868.7851911865655,-4170.6369593496311,8571.4956092826287,0.0
708523.2936376977,3662751.2368613081,-12500.0,2450.8771141037519,-2511.0382646613216,-4455.9999904004217,-76.221759996666862,979.51949127236719,-84.074249794729297,4368.5806655093602,3027.9484284229302,-4797.4330693747761,4797.4330693747761,-3027.9484284229302,7644.2184877808786,0.0
713523.2936376977,3662751.2368613081,-12500.0,1182.9354967679089,-2803.2614173495213,-3971.1471080575311,170.00753315097566,960.01863212343335,-112.32579181401958,3904.1375026916276,2066.7307663184224,-4495.4654855475837,4495.4654855475837,-2066.7307663184224,6927.6853533440253,0.0
718523.2936376977,3662751.2368613081,-12500.0,226.36302427851243,-2876.4152542974325,-3464.5240255811209,325.25850548824968,894.23192778303155,-122.70191187864971,3510.2309736351385,1290.2815009231249,-4081.746376606437,4081.746376606437,-1290.2815009231249,6324.0619814874781,0.0
723523.2936376977,3662751.2368613081,-12500.0,-473.15299948829147,-2810.740089460282,-2983.2530831341273,415.05902505052342,807.53229687878309,-122.25586587136053,3165.4183934252933,682.57136852851272,-3630.6245494415471,3630.6245494415471,-682.57136852851272,5786.0560763420353,0.0
728523.2936376977,3662751.2368613081,-12500.0,-967.85001201992532,-2663.1615829521356,-2549.2508625615601,459.33453671588109,715.02398023161447,-115.72543350794474,2858.3252394264123,219.47823055602134,-3185.7166631093842,3185.7166631093842,-219.47823055602134,5293.2529561829406,0.0
733523.2936376977,3662751.2368613081,-12500.0,-1303.6916373009726,-2472.4604309552324,-2169.8452787395149,472.97472043148315,625.1510597475758,-106.15968756684867,2582.6987553533127,-124.70952288915828,-2770.4691426647178,2770.4691426647178,124.70952288915828,4837.7980641137465,0.0
738523.2936376977,3662751.2368613081,-12500.0,-1518.9784082428753,-2264.0666557349005,-1844.4779845052792,466.75250155701008,542.20316154896079,-95.440962002889322,2334.7159322762941,-373.93847265745444,-2395.6834463617042,2395.6834463617042,373.93847265745444,4416.9321518086899,0.0
543523.2936376977,3667751.2368613081,-12500.0,-3187.0431894368926,1719.2387984285267,-1058.222020689059,-597.70106552292486,330.76095968490574,-80.756465342964418,2143.7373702357577,-1910.4563115601093,1240.0707370483035,-1240.0707370483035,1910.4563115601093,4223.2051942739217,0.0
548523.2936376977,3667751.2368613081,-12500.0,-3412.7356999803833,1979.7443061278252,-1260.1725301079173,-670.68209941926489,395.91157294807994,-94.48045403247778,2378.8119723749701,-2002.2248180345398,1352.1410141390236,-1352.1410141390236,2002.2248180345398,4698.8760311432161,0.0
553523.2936376977,3667751.2368613081,-12500.0,-3633.706078943188,2281.0133085316461,-1510.4213683977191,-750.84411168993745,475.08681952086192,-110.43239379376114,2642.6949478953811,-2073.4728818175322,1463.5441804322304,-1463.5441804322304,2073.4728818175322,5236.2553905705172,0.0
558523.2936376977,3667751.2368613081,-12500.0,-3837.6948181167199,2627.2658734243714,-1821.8481367708803,-837.27753130176029,571.17499840131802,-128.74114689318185,2937.962593314001,-2110.6447825449541,1566.9907620289596,-1566.9907620289596,2110.6447825449541,5842.3192969247821,0.0
563523.2936376977,3667751.2368613081,-12500.0,-4006.3734411825649,3021.2674816831986,-2210.6890510858866,-927.84040811095167,687.37185501512329,-149.33691898424939,3266.8152250610547,-2094.512040130986,1650.8184884331511,-1650.8184884331511,2094.512040130986,6523.7618093447118,0.0
568523.2936376977,3667751.2368613081,-12500.0,-4112.9774486407932,3462.6088194067597,-2697.0821025479436,-1018.4185451524237,826.92576834524561,-171.76438601112054,3657.0379014899686,-1998.2231746033362,1696.9014970851199,-1696.9014970851199,1998.2231746033362,7286.2543182271702,0.0
573523.2936376977,3667751.2368613081,-12500.0,-4119.2797688486371,3944.795189055912,-3305.3032905171417,-1101.8380391530882,992.56820210654871,-194.87350779443562,4107.3256299305067,-1784.9761317401212,1677.7346467070133,-1677.7346467070133,1784.9761317401212,8133.3321076317025,0.0
578523.2936376977,3667751.2368613081,-12500.0,-3971.986367100475,4450.4644606446554,-4063.1486969508683,-1166.3272807166863,1185.3777617731371,-216.32859100314741,4611.993106533112,-1405.5770829875607,1552.5439826983354,-1552.5439826983354,1405.5770829875607,9064.8701839832302,0.0
583523.2936376977,3667751.2368613081,-12500.0,-3599.024461554608,4943.7825038785686,-4999.362629589592,-1193.4726654920657,1402.6715455658837,-231.87127351933322,5173.4190013382713,-796.64936184779719,1262.5008598176973,-1262.5008598176973,796.64936184779719,10075.334755947142,0.0
588523.2936376977,3667751.2368613081,-12500.0,-2907.0153206814002,5358.8300429690671,-6136.9824453401261,-1155.7762049142109,1634.3066635345256,-234.3095013829622,5792.9398966965446,118.74056661766792,725.7564618800867,-725.7564618800867,-118.74056661766792,11152.591849446802,0.0
593523.2936376977,3667751.2368613081,-12500.0,-1782.8733751709344,5582.9179504336134,-7478.6630702026414,-1014.3486951254065,1856.5645516460374,-212.35414907543952,6472.3280936340652,1424.363776483232,-165.4249876227783,165.4249876227783,-1424.363776483232,12279.577446574627,0.0
598523.2936376977,3667751.2368613081,-12500.0,-105.44711687436516,5435.1083460288792,-8977.2047962893776,-718.16681633134317,2022.788213489604,-149.83313181642598,7219.1686500582009,3191.0906471024473,-1539.7866276978591,1539.7866276978591,-3191.0906471024473,13444.693669586337,0.0
603523.2936376977,3667751.2368613081,-12500.0,2222.3174748326514,4644.6252464732252,-10480.76135513119,-207.85730759748219,2050.6339215587091,-26.668013855144743,8060.6406440228202,5432.5717208177575,-3522.3309950336957,3522.3309950336957,-5432.5717208177575,14673.774258880845,0.0
608523.2936376977,3667751.2368613081,-12500.0,5205.0273701718706,2845.2889835574338,-11640.142014060815,571.02379880298577,1808.2233455539792,175.67204247271479,9071.9960535599348,8020.7097503084242,-6167.0318162357307,6167.0318162357307,-8020.7097503084242,16106.148886237152,0.0
613523.2936376977,3667751.2368613081,-12500.0,8635.0936482917223,-373.84786567917507,-11774.711808709362,1639.2279830318889,1106.9602821987301,460.72519171087345,10420.033665894332,10550.343817066181,-9313.1221325510978,9313.1221325510978,-10550.343817066181,18130.078972362291,0.0
618523.2936376977,3667751.2368613081,-12500.0,11932.05554759699,-5284.1393405451709,-9740.0484091806247,2937.1823698817689,-282.26816280476777,795.45199222336839,12391.253359939481,12180.63159992936,-12339.343082069105,12339.343082069105,-12180.63159992936,21499.69607146538,0.0
623523.2936376977,3667751.2368613081,-12500.0,14043.325996668522,-11606.970329427366,-3970.1687531510656,4271.5423942640309,-2564.3584358598082,1094.0311490558688,15320.792360814383,11594.360907703991,-13879.583405877151,13879.583405877151,-11594.360907703991,27157.678139453532,0.0
628523.2936376977,3667751.2368613081,-12500.0,13684.902349022686,-17933.109876247858,6931.6320564639682,5290.9040465700173,-5787.1601025424661,1241.9272414534544,19351.729178777427,7403.8891264765871,-11825.524843645675,11825.524843645675,-7403.8891264765871,35575.93944754087,0.0
633523.2936376977,3667751.2368613081,-12500.0,10239.914524774442,-21534.741422852523,22753.435846824726,5551.477950847192,-9666.882564708385,1187.1766471510484,24122.961276698217,-696.2183167629139,-4253.5902210343083,4253.5902210343083,696.2183167629139,45998.475515348458,0.0
638523.2936376977,3667751.2368613081,-12500.0,4923.2354053389281,-19592.576530082788,40183.438050686018,4716.2860370700346,-13501.190439493239,1036.6621459433736,28705.328457969779,-10634.16593848457,8582.2607938925103,-8582.2607938925103,10634.16593848457,56219.323724819871,0.0
643523.2936376977,3667751.2368613081,-12500.0,612.57825439332839,-11663.141531175783,53556.81074389485,2807.0039118142645,-16360.955471582938,1006.3899012844455,32211.021209068069,-18424.830410676601,23022.827910607171,-23022.827910607171,18424.830410676601,63381.099721970983,0.0
648523.2936376977,3667751.2368613081,-12500.0,-338.09518735578007,-671.84237054180437,58486.285412771176,276.13633529369969,-17541.368011292037,1213.8642791232401,33586.833399163741,-20969.451789635379,33937.340479087557,-33937.340479087557,20969.451789635379,65544.678825243813,0.0
653523.2936376977,3667751.2368613081,-12500.0,2088.8662314651265,9259.3367633427879,54714.621191932754,-2216.4210559128405,-16908.077291862552,1556.6068672315919,32292.629719464734,-18211.469746246905,38295.275539321861,-38295.275539321861,18211.469746246905,62668.626025888094,0.0
658523.2936376977,3667751.2368613081,-12500.0,6161.2469988399362,15557.634856225728,45250.134287210887,-4125.5996250982862,-14860.440271636347,1825.8765722414464,29004.082654438807,-12362.051000061161,36425.434888372802,-36425.434888372802,12362.051000061161,56177.229649537163,0.0
663523.2936376977,3667751.2368613081,-12500.0,10035.169288713019,17853.45108880728,33731.912165831651,-5199.0224082613458,-12041.723687087982,1886.1676515242414,24698.466455657202,-5886.6353120911735,30573.69401753792,-30573.69401753792,5886.6353120911735,47889.274629957588,0.0
668523.2936376977,3667751.2368613081,-12500.0,12645.241415973431,17084.969252387829,22779.952070956555,-5465.9095763404512,-9059.0158912025345,1733.5114381586043,20199.018633130247,-379.87849444413405,23136.989367841845,-23136.989367841845,379.87849444413405,39292.235486746154,0.0
673523.2936376977,3667751.2368613081,-12500.0,13717.183393753665,14518.031599491726,13717.544681072901,-5124.0947975005492,-6336.0205489626096,1444.3735009167945,16066.031012566704,3516.4740191320961,15826.125177824732,-15826.125177824732,-3516.4740191320961,31339.280991278269,0.0
678523.2936376977,3667751.2368613081,-12500.0,13457.736175470933,11224.039774288483,6914.3873862318678,-4419.3249208076568,-4089.8343629385136,1107.8472908509523,12632.954474812892,5792.8667170760618,9568.6285346178756,-9568.6285346178756,-5792.8667170760618,24520.079089186162,0.0
683523.2936376977,3667751.2368613081,-12500.0,12264.410221065413,7925.8019611715281,2204.5344275468592,-3566.0208547535813,-2375.9850159173243,788.86131204148376,9958.8546087132872,6747.0547357846945,4701.4807520832701,-4701.4807520832701,-6747.0547357846945,18999.662255880408,0.0
688523.2936376977,3667751.2368613081,-12500.0,10544.141928908713,5023.6375259113547,-805.25898648205521,-2715.1988555757748,-1151.6542130022506,521.19724561270982,7925.5841043012606,6765.7622802244105,1202.2649654244005,-1202.2649654244005,-6765.7622802244105,14741.795766776371,0.0
693523.2936376977,3667751.2368613081,-12500.0,8627.5119070975452,2681.203706029205,-2551.6170204037962,-1954.2657130768557,-329.33790333127394,314.75455844400398,6410.9202808930058,6207.0721807272048,-1128.5958965961972,1128.5958965961972,-6207.0721807272048,11597.193018440621,0.0
698523.2936376977,3667751.2368613081,-12500.0,6744.4516017475398,913.96136661475225,-3423.1672433735293,-1321.3389112494106,187.70642939173931,165.56437717714977,5300.8388751134344,5352.0595526369834,-2548.5624466958725,2548.5624466958725,-5352.0595526369834,9360.5608365018234,0.0
703523.2936376977,3667751.2368613081,-12500.0,5032.362442246781,-340.95592149557046,-3727.1668101951536,-822.41427317041359,486.59182256582,63.646363652843249,4489.6478461815468,4396.7234066863948,-3306.0732526331285,3306.0732526331285,-4396.7234066863948,7809.0999284973595,0.0
708523.2936376977,3667751.2368613081,-12500.0,3557.1819312872212,-1177.4791126157447,-3687.7769688268477,-445.7835270408392,637.46346312456808,-2.2036095189792624,3887.6346923728934,3463.4805381911606,-3610.1227457977643,3610.1227457977643,-3463.4805381911606,6733.9195110262026,0.0
713523.2936376977,3667751.2368613081,-12500.0,2336.2233061237475,-1692.7033809532193,-3458.5720212927527,-172.10870853183758,692.78633549400831,-42.054276461067658,3426.1524357221679,2619.2518209365826,-3622.0132112634647,3622.0132112634647,-2619.2518209365826,5964.7868758139402,0.0
718523.2936376977,3667751.2368613081,-12500.0,1357.517950722131,-1972.9366884613939,-3139.1103947436686,19.465624983957365,689.71778849935549,-63.996958106824295,3057.4576659312174,1893.159009013847,-3458.6556133375861,3458.6556133375861,-1893.159009013847,5380.8970465660632,0.0
723523.2936376977,3667751.2368613081,-12500.0,594.04211496577329,-2088.5492618587959,-2790.4649436705399,148.11815904372315,653.43333176394322,-74.09848987100284,2750.7949398489891,1290.871378075519,-3200.547871370808,3200.547871370808,-1290.871378075519,4906.4070037541478,0.0
728523.2936376977,3667751.2368613081,-12500.0,13.110840475971195,-2093.6982319043573,-2447.7562953337961,230.03012171795095,600.32610627818156,-76.692508803763857,2487.3677967389749,804.97226848696801,-2900.5780247789489,2900.5780247789489,-804.97226848696801,4498.1741097795084,0.0
733523.2936376977,3667751.2368613081,-12500.0,-418.0277985632564,-2028.3209808771098,-2129.4048448795988,278.13029731245996,540.65024029600409,-74.761473835910522,2255.9777458033991,421.8205111031134,-2591.8334729579528,2591.8334729579528,-421.8205111031134,4133.4412674557989,0.0
738523.2936376977,3667751.2368613081,-12500.0,-729.25569486658969,-1920.8708217193632,-1843.5557769811228,302.36710124368688,480.52594539567156,-70.293923614187833,2049.9178352832741,125.7468122248838,-2293.8087330551775,2293.8087330551775,-125.7468122248838,3800.8425026994555,0.0
548523.2936376977,3672751.2368613081,-12500.0,-2835.5907356421058,1938.9394737087994,-1387.2131992273221,-571.20488666061101,396.01384463476506,-82.46318874657085,2164.0129790710484,-1529.2518520838016,1120.6910113381646,-1120.6910113381646,1529.2518520838016,4291.5854290504731,0.0
553523.2936376977,3672751.2368613081,-12500.0,-2950.3212283961448,2199.4729274216411,-1649.061376169682,-628.2175957888162,469.20608952620125,-95.081292507012321,2381.9070406922528,-1518.3167307001743,1172.9986716631363,-1172.9986716631363,1518.3167307001743,4742.1241842838781,0.0
558523.2936376977,3672751.2368613081,-12500.0,-3029.3285373226099,2488.2489111770733,-1968.8857286065891,-685.95670295933917,556.03429101965662,-109.11528260202232,2620.9206367460215,-1460.8415772301357,1203.2691760020609,-1203.2691760020609,1460.8415772301357,5241.063382846377,0.0
563523.2936376977,3672751.2368613081,-12500.0,-3052.6483213973756,2802.1168749276221,-2359.4236675649358,-741.15320326280028,658.23209402985276,-124.27133329789879,2911.5367227454963,-1337.7426693340683,1197.3763725848601,-1197.3763725848601,1337.7426693340683,5790.4437398580149,0.0
568523.2936376977,3672751.2368613081,-12500.0,-2993.1747139590739,3133.0272977029144,-2835.082985148515,-788.56234806200803,777.01216071755846,-139.8680419838123,3234.4346155201501,-1124.1105780684375,1135.1346760264887,-1135.1346760264887,1124.1105780684375,6390.5855242665084,0.0
573523.2936376977,3672751.2368613081,-12500.0,-2814.9620220583315,3464.9746928311038,-3410.9681626522865,-820.10962458719314,912.33929594476899,-154.58812782843273,3590.9661693706726,-788.31028481973362,988.30618339037119,-988.30618339037119,788.31028481973362,7039.2747482705345,0.0
578523.2936376977,3672751.2368613081,-12500.0,-2471.7997978690182,3769.4839845214215,-4100.5290036585893,-823.80614312936882,1061.6739878046021,-166.11363802025639,3982.006183234595,-291.77970024387082,718.43765711555852,-718.43765711555852,291.77970024387082,7731.0244511091032,0.0
583523.2936376977,3672751.2368613081,-12500.0,-1906.8997513347697,3999.2463228937136,-4910.6785036450447,-782.51105737982607,1217.8986071147019,-170.62624892491669,4408.0863604588221,409.4357075886154,275.11647134184341,-275.11647134184341,-409.4357075886154,8457.0342965295349,0.0
588523.2936376977,3672751.2368613081,-12500.0,-1055.3145453950781,4079.7691305764106,-5832.482160783994,-672.81331757838871,1366.0635245152555,-162.1968770261455,4870.7056303958898,1359.527433162028,-403.95880604231991,403.95880604231991,-1359.527433162028,9207.3629674035983,0.0
593523.2936376977,3672751.2368613081,-12500.0,148.06096598052548,3899.784647494057,-6824.5281419569756,-464.68430284350353,1478.6055263265064,-132.20559675979581,5375.9134740114805,2591.0030012056995,-1388.1948988699169,1388.1948988699169,-2591.0030012056995,9978.624300649104,0.0
598523.2936376977,3672751.2368613081,-12500.0,1750.448486841015,3303.3948704193394,-7785.206016615416,-123.19523122734148,1508.9998764220345,-69.173604868221815,5942.2828549853239,4101.3874046984565,-2739.2184055303728,2739.2184055303728,-4101.3874046984565,10793.630985835311,0.0
603523.2936376977,3672751.2368613081,-12500.0,3747.4427511010726,2091.5350042278947,-8510.4725795910854,385.56362473509478,1384.7458601943865,40.218172591083793,6615.6053090164642,5813.2875614141221,-4477.1523362331709,4477.1523362331709,-5813.2875614141221,11742.199733208208,0.0
608523.2936376977,3672751.2368613081,-12500.0,6029.5127918648341,48.443711588388062,-8638.6351266477468,1081.5831350215581,1002.6955950210179,207.75382841554909,7489.3097877836826,7515.7926346396998,-6516.9023417733188,6516.9023417733188,-7515.7926346396998,13045.524947213013,0.0
613523.2936376977,3672751.2368613081,-12500.0,8314.8633410688872,-2981.0811723895231,-7599.7081037046401,1949.0810955660274,233.23421513591322,437.0046770847722,8717.2077987213343,8798.8035874620309,-8568.1092762062963,8568.1092762062963,-8798.8035874620309,15105.693551718885,0.0
618523.2936376977,3672751.2368613081,-12500.0,10102.419829019665,-6935.9615151216103,-4622.9207285475914,2908.1109935702825,-1056.3565128159987,714.55834445093558,10486.934589547975,9025.0563853936983,-10018.97671529113,10018.97671529113,-9025.0563853936983,18432.846297825647,0.0
623523.2936376977,3672751.2368613081,-12500.0,10725.951134317073,-11312.944484705291,1092.007738215482,3791.7986520061841,-2949.240519237359,1005.3533312190775,12928.345018416147,7435.7132679252973,-9891.1473909223168,9891.1473909223168,-7435.7132679252973,23384.409479664875,0.0
628523.2936376977,3672751.2368613081,-12500.0,9618.2228436255591,-14994.706951812017,9925.072240909818,4353.6622643602623,-5399.3748329153132,1262.6832129856184,15983.540707227699,3503.1920964881383,-7045.0472698238818,7045.0472698238818,-3503.1920964881383,29854.977343466784,0.0
633523.2936376977,3672751.2368613081,-12500.0,6784.8290658873575,-16419.896499612099,21174.669600825742,4331.4878103522415,-8157.6489803747945,1456.1125651329348,19316.297356383304,-2504.3091239365735,-795.78597429190631,795.78597429190631,2504.3091239365735,37106.713471510266,0.0
638523.2936376977,3672751.2368613081,-12500.0,3161.5120364895265,-14329.975673783867,32685.843410088339,3566.0128663691717,-10770.500609759545,1595.9103360704817,22353.670389697916,-9161.1019653380372,8267.2331204614111,-8267.2331204614111,9161.1019653380372,43847.070563746907,0.0
643523.2936376977,3672751.2368613081,-12500.0,319.01832756937677,-8748.1831455542051,41472.588596026435,2114.0960250784083,-12705.445064234245,1719.2041115786176,24566.978239302371,-14331.69008743911,18030.406150368901,-18030.406150368901,14331.69008743911,48633.728583304284,0.0
648523.2936376977,3672751.2368613081,-12500.0,-494.92918239798848,-1240.671583604443,45245.115328217733,263.56755769730461,-13563.586899695107,1841.6601304355947,25610.406929328979,-16368.992568690297,25781.551462221727,-25781.551462221727,16368.992568690297,50472.512247184226,0.0
653523.2936376977,3672751.2368613081,-12500.0,876.43518185109042,5964.7870202109925,43591.651031986839,-1581.3165004867906,-13241.372515023957,1930.5206330928725,25089.98214681241,-15028.958119429826,29681.565294279459,-29681.565294279459,15028.958119429826,49202.793113261294,0.0
658523.2936376977,3672751.2368613081,-12500.0,3613.6313666928309,11183.449512718284,37835.038152917623,-3066.2701450992517,-11935.628640684195,1932.0297333025796,23212.455577852172,-11319.486357830549,29491.735941013972,-29491.735941013972,11319.486357830549,45412.240640536838,0.0
663523.2936376977,3672751.2368613081,-12500.0,6603.386574314055,13815.382265601522,29997.861644203993,-3998.0494864651041,-10017.436804032552,1817.504990244483,20468.664889383068,-6678.3513850406489,26200.264368321881,-26200.264368321881,6678.3513850406489,40047.022294167131,0.0
668523.2936376977,3672751.2368613081,-12500.0,9002.2562655956881,14142.105130672786,21866.768661271508,-4358.5293632107732,-7877.7767595885607,1600.9978735711381,17363.180777239209,-2281.854766962846,21218.002015818151,-21218.002015818151,2281.854766962846,34039.003107089768,0.0
673523.2936376977,3672751.2368613081,-12500.0,10416.91427799624,12857.533584399023,14593.165386770526,-4251.0096043593949,-5823.1461822250449,1324.5812650365669,14306.052836324185,1205.7937001300706,15783.577067438986,-15783.577067438986,-1205.7937001300706,28106.446070935614,0.0
678523.2936376977,3672751.2368613081,-12500.0,10823.434021197518,10694.966927362348,8708.2121142587475,-3829.2147067624664,-4039.3448715700897,1034.5533103876505,11591.905281975576,3573.7074318450086,10729.13597999985,-10729.13597999985,-3573.7074318450086,22708.483522246992,0.0
683523.2936376977,3672751.2368613081,-12500.0,10408.380451750852,8239.1168252655752,4304.8948970085748,-3242.7616476660405,-2603.4944879434647,765.91556329519199,9341.7948156089733,4900.0418322261048,6486.519323147395,-6486.519323147395,-4900.0418322261048,18080.575710450954,0.0
688523.2936376977,3672751.2368613081,-12500.0,9432.8135740872349,5876.6240527876953,1230.5029381987142,-2608.7834368706681,-1516.589082108351,538.01206956324461,7530.0824394552128,5399.0313826392203,3190.8419658319917,-3190.8419658319917,-5399.0313826392203,14295.418138501904,0.0
693523.2936376977,3672751.2368613081,-12500.0,8147.3329940542753,3818.417140660963,-769.54319112692122,-2004.6910476157154,-737.03852619135739,357.0174250461572,6105.8925515083147,5316.6958816179504,795.95568806824258,-795.95568806824258,-5316.6958816179504,11320.838419965634,0.0
698523.2936376977,3672751.2368613081,-12500.0,6752.1360162577694,2147.0450559214078,-1963.3819984932752,-1472.9519659563989,-206.28742382757341,220.63106155278024,5011.2706058732601,4873.890173268107,-833.39868100370404,833.39868100370404,-4873.890173268107,9064.2813032706144,0.0
703523.2936376977,3672751.2368613081,-12500.0,5386.9027563861464,864.14168075669807,-2587.8737335588776,-1030.3648796003251,135.14614086193529,122.33710099476559,4183.1678961725156,4243.3148208353705,-1860.172803728497,1860.172803728497,-4243.3148208353705,7403.3065931982901,0.0
708523.2936376977,3672751.2368613081,-12500.0,4136.6640514270812,-72.013957257679891,-2832.1232702873135,-677.37071290346626,339.47709682564971,54.343975912731757,3559.9324032862487,3546.7445969983214,-2440.0049941618367,2440.0049941618367,-3546.7445969983214,6206.3112172074925,0.0
713523.2936376977,3672751.2368613081,-12500.0,3044.0230640600944,-720.80188226131793,-2836.9093469003765,-405.46743892283945,448.70517812201427,9.2476308217109526,3087.1246810676685,2862.1154315517715,-2704.9998498983114,2704.9998498983114,-2862.1154315517715,5348.2525510926616,0.0
718523.2936376977,3672751.2368613081,-12500.0,2122.1253518739891,-1143.7643666462566,-2701.4743427800995,-202.32617634795577,494.63823994281091,-19.225075431687113,2720.8931660772023,2233.8951004763226,-2759.1267954632463,2759.1267954632463,-2233.8951004763226,4722.8040176220748,0.0
723523.2936376977,3672751.2368613081,-12500.0,1365.7133031987437,-1396.5462101372848,-2492.5616223257152,-54.922114900708337,500.29407454001563,-36.026965027376527,2428.6576327970188,1683.1839655437973,-2679.8275525820536,2679.8275525820536,-1683.1839655437973,4248.9784186112465,0.0
728523.2936376977,3672751.2368613081,-12500.0,759.42883358067684,-1525.6377885398529,-2253.061223379184,48.787027956498129,481.72147950997589,-44.883425771699201,2187.7680219295421,1216.0212398315252,-2522.2832141922008,2522.2832141922008,-1216.0212398315252,3871.0529741987798,0.0
733523.2936376977,3672751.2368613081,-12500.0,283.48854032213063,-1567.8847146148667,-2009.1839174320296,119.12916209280017,449.74608129954049,-48.497652095215784,1983.2306669629638,829.54770651223475,-2324.2961654692072,2324.2961654692072,-829.54770651223475,3553.8153512070453,0.0
548523.2936376977,3677751.2368613081,-12500.0,-2293.2919414224243,1840.9728349477173,-1477.2688943846242,-476.42402284085534,385.27820558496052,-70.861778066257003,1948.9423345801536,-1099.2029508265318,879.86048499455501,-879.86048499455501,1099.2029508265318,3883.98449833721,0.0
553523.2936376977,3677751.2368613081,-12500.0,-2320.4715740362662,2053.0503614699805,-1738.494054299849,-513.34830982784604,450.34183840318968,-80.478604912224966,2130.4177978685043,-1024.8557083101375,879.24145410552751,-879.24145410552751,1024.8557083101375,4254.0205592898019,0.0
558523.2936376977,3677751.2368613081,-12500.0,-2300.6044845049682,2277.1903337150261,-2050.8055528181221,-546.9105034530503,525.54018079865045,-90.750396467166695,2344.8527914956994,-898.35378251283203,846.77817193727026,-846.77817193727026,898.35378251283203,4655.8064387893664,0.0
563523.2936376977,3677751.2368613081,-12500.0,-2214.6706903654426,2505.72187463107,-2422.6111274110731,-573.33760908527699,611.30367612173825,-101.24196305646123,2580.289171140374,-702.930948080603,767.93891777154454,-767.93891777154454,702.930948080603,5088.4613036067876,0.0
568523.2936376977,3677751.2368613081,-12500.0,-2038.4648820902112,2725.3605578019246,-2861.8618321700601,-587.10498533091459,707.15095296593631,-111.15674422879168,2837.1079940575542,-418.21241611255061,623.33243493216503,-623.33243493216503,418.21241611255061,5549.4570500687032,0.0
573523.2936376977,3677751.2368613081,-12500.0,-1742.1463590598248,2914.5542920814642,-3374.2370520575505,-580.35699034941433,810.93335319413336,-119.14649373795132,3115.6045325947548,-20.531128157894841,387.78426891420037,-387.78426891420037,20.531128157894841,6034.3925254423748,0.0
578523.2936376977,3677751.2368613081,-12500.0,-1290.5966686101663,3039.9827069897656,-3959.8172114493368,-542.27675700478653,917.65190275146881,-123.05302610896075,3416.118761865609,515.62746213902972,29.877870464518509,-29.877870464518509,-515.62746213902972,6537.3740754609289,0.0
583523.2936376977,3677751.2368613081,-12500.0,-645.44143474027055,3052.2995208039988,-4607.3264647449078,-458.54785893825982,1017.6844169680292,-119.5851631179698,3740.0273991589502,1214.0989765607401,-487.24361833755944,487.24361833755944,-1214.0989765607401,7052.9341502940451,0.0
588523.2936376977,3677751.2368613081,-12500.0,229.89110424739314,2881.7090968879584,-5284.6935880219171,-311.2197453657854,1094.2795823526296,-103.97246566229983,4092.0738506845519,2089.98531437971,-1202.3473911512203,1202.3473911512203,-2089.98531437971,7581.3355577782013,0.0
593523.2936376977,3677751.2368613081,-12500.0,1360.1427085708319,2435.0166436012732,-5924.5021037271308,-79.555836982695951,1120.3117516704403,-69.713032431711596,4485.0122508840705,3137.1626819161984,-2147.406254877269,2147.406254877269,-3137.1626819161984,8140.4389989497067,0.0
598523.2936376977,3677751.2368613081,-12500.0,2741.033435726335,1597.7139004606145,-6403.3959689673729,257.20395041894119,1054.6755154336402,-8.6616352469332014,4947.4753460390657,4308.4552836162502,-3330.1367243227091,3330.1367243227091,-4308.4552836162502,8788.0926103385191,0.0
603523.2936376977,3677751.2368613081,-12500.0,4313.6765174466582,247.62334049462868,-6516.8119730478138,713.93301164328784,839.5182987479177,88.134423134844369,5534.2702879072185,5488.1607286559047,-4703.6765301856612,4703.6765301856612,-5488.1607286559047,9654.9172874967353,0.0
608523.2936376977,3677751.2368613081,-12500.0,5933.3832311204551,-1710.1229053968611,-5956.4313075957598,1289.4749320332191,400.8762613347314,228.37138518725365,6333.1204793753986,6461.7613249464739,-6121.4706522768774,6121.4706522768774,-6461.7613249464739,10969.37647837839,0.0
613523.2936376977,3677751.2368613081,-12500.0,7345.0926962225039,-4276.6697966748688,-4309.5835318602758,1952.5241526173324,-343.06234114549011,415.0090668816602,7454.6825525123477,6898.7562993361671,-7284.3712884731458,7284.3712884731458,-6898.7562993361671,13028.79491036541,0.0
618523.2936376977,3677751.2368613081,-12500.0,8193.0308895730523,-7261.9080291437358,-1116.2716752621006,2627.1787030027181,-1461.1316847556698,642.22109754719656,8994.2209798538461,6381.2133186183601,-7707.5184779132651,7707.5184779132651,-6381.2133186183601,16084.213244043416,0.0
623523.2936376977,3677751.2368613081,-12500.0,8104.6680170504069,-10188.29153895427,3972.6809389539126,3187.0877208117931,-2973.7508192940049,893.2887526274875,10972.365865896352,4521.3548496176636,-6764.578524180205,6764.578524180205,-4521.3548496176636,20191.235768209986,0.0
628523.2936376977,3677751.2368613081,-12500.0,6871.7242011173112,-12281.448220650904,10927.247526794441,3471.0849532354291,-4810.2133965901785,1143.6822469520744,13282.053866538276,1185.1787957205067,-3879.682195128883,3879.682195128883,-1185.1787957205067,25110.746783775459,0.0
633523.2936376977,3677751.2368613081,-12500.0,4670.82907241868,-12660.489637614102,19061.43790760907,3328.8542189656832,-6780.6265124209212,1369.5906056986573,15671.294094604722,-3257.7333688854942,1127.0612330695785,-1127.0612330695785,3257.7333688854942,30290.809200753956,0.0
638523.2936376977,3677751.2368613081,-12500.0,2151.1865401638975,-10746.690688210565,26988.471375963152,2686.9332909394921,-8592.7931758547547,1555.7793437521636,17787.476925077837,-7864.3917146711765,7707.555752119827,-7707.555752119827,7864.3917146711765,34952.463766347923,0.0
643523.2936376977,3677751.2368613081,-12500.0,217.17964772669487,-6675.3105387364667,33017.046751954476,1601.0522263079226,-9928.5175992470413,1694.6874003588564,19308.670566760386,-11415.259369364094,14578.058768718949,-14578.058768718949,11415.259369364094,38296.841325333386,0.0
648523.2936376977,3677751.2368613081,-12500.0,-426.87906224033753,-1357.3488200232198,35860.418232979071,255.49985604436068,-10552.364567661005,1778.0495495687881,20078.109820893616,-12976.331594434123,20190.918828723741,-20190.918828723741,12976.331594434123,39766.80747830795,0.0
653523.2936376977,3677751.2368613081,-12500.0,366.46037618380899,3925.001028129805,35178.986989554069,-1099.1150831819693,-10393.069639260939,1792.8851920245224,19881.586713467092,-12325.695071061757,23411.658943424922,-23411.658943424922,12325.695071061757,39219.612387027839,0.0
658523.2936376977,3677751.2368613081,-12500.0,2195.1397460223147,8089.3234465069472,31586.768289990472,-2234.5295910943028,-9552.3006278023931,1728.6026761614653,18757.954102265961,-9943.491696955587,23919.59325458543,-23919.59325458543,9943.491696955587,36916.499568110339,0.0
663523.2936376977,3677751.2368613081,-12500.0,4402.6747817661271,10596.383126327895,26221.034695385457,-3010.4109773444397,-8246.1447100615569,1587.4990504854577,16961.230785273965,-6661.1807118713614,22133.855877709557,-22133.855877709557,6661.1807118713614,33367.993610922247,0.0
668523.2936376977,3677751.2368613081,-12500.0,6394.770749270323,11449.148137708486,20244.96297315988,-3391.6531215792993,-6722.0829091674223,1387.6414095450966,14796.024629621272,-3278.6803608786286,18856.698345493169,-18856.698345493169,3278.6803608786286,29147.332305900618,0.0
673523.2936376977,3677751.2368613081,-12500.0,7806.3057619462197,10990.999972434947,14540.828373747463,-3425.5901292722983,-5192.8521066429821,1156.5543121838132,12542.23180326378,-348.69561647765659,14919.455774547208,-14919.455774547208,348.69561647765659,24756.075497575544,0.0
678523.2936376977,3677751.2368613081,-12500.0,8514.6865212149387,9683.4007761197663,9625.6500620738971,-3203.0553068738745,-3804.4194083870229,921.86840795153239,10429.951495902149,1861.2951529323973,10975.175463136675,-10975.175463136675,-1861.2951529323973,20562.702491664691,0.0
683523.2936376977,3677751.2368613081,-12500.0,8572.1415168417934,7954.711140163291,5704.2196362964432,-2823.4414900938091,-2633.6913866279297,704.69233960434565,8591.1520693432121,3307.1240499123078,7437.0259579283475,-7437.0259579283475,-3307.1240499123078,16796.286711773679,0.0
688523.2936376977,3677751.2368613081,-12500.0,8122.3985460230942,6130.600481479436,2770.0053115519786,-2372.6665795025838,-1702.8818428440902,517.38188350526639,7042.0006358752335,4079.2823690232681,4504.5633989398784,-4504.5633989398784,-4079.2823690232681,13569.089823424514,0.0
693523.2936376977,3677751.2368613081,-12500.0,7334.8981218184426,4421.687741735589,700.92395076483479,-1913.9734683419017,-998.71642162880835,364.51444143458599,5769.1156772548402,4327.0576673818368,2223.6051622184405,-2223.6051622184405,-4327.0576673818368,10908.284507531669,0.0
698523.2936376977,3677751.2368613081,-12500.0,6364.7188819732637,2940.6761458651235,-670.2161577878552,-1487.5383150331133,-489.47248859703762,245.22544084593147,4748.4929096300311,4207.7676332935835,547.07484813549308,-547.07484813549308,-4207.7676332935835,8785.6736456016497,0.0
703523.2936376977,3677751.2368613081,-12500.0,5334.2763568383034,1729.3024276720093,-1512.2538807736678,-1114.5400415012,-137.21471916215575,155.59114930940899,3946.6117512023761,3859.3043936554423,-617.13299991651297,617.13299991651297,-3859.3043936554423,7140.8875301073676,0.0
708523.2936376977,3677751.2368613081,-12500.0,4329.4731237701471,784.29458960478871,-1973.4375493642967,-802.55840002166633,94.788736539193081,90.459025281768234,3325.3830258139001,3389.4283331800907,-1374.0996932670232,1374.0996932670232,-3389.4283331800907,5897.6609732737033,0.0
713523.2936376977,3677751.2368613081,-12500.0,3403.6542750957024,77.861917674822251,-2173.2704814322688,-550.56210216750196,238.38241570524454,44.613109186662719,2846.9125511936531,2875.1216768197646,-1823.3736813003325,1823.3736813003325,-2875.1216768197646,4974.952191322559,0.0
718523.2936376977,3677751.2368613081,-12500.0,2584.677869184784,-428.10672868449745,-2202.4285297017814,-352.78959928333461,319.29077798347095,13.390723616006458,2476.959342500144,2366.8951117547449,-2050.201821077877,2050.201821077877,-2366.8951117547449,4295.1050664144468,0.0
723523.2936376977,3677751.2368613081,-12500.0,1882.315899910755,-773.26615723188377,-2126.5322164414079,-201.43097976784114,357.2745750502412,-7.0750090816029161,2186.9508255294331,1894.7575807212002,-2122.9052193985599,2122.9052193985599,-1894.7575807212002,3790.100311986414,0.0
728523.2936376977,3677751.2368613081,-12500.0,1294.632951233767,-994.05321423963824,-1991.1846655206386,-88.298401957074262,366.93754481324976,-19.832337090305224,1954.6343247548161,1474.0403764593734,-2093.6427437825391,2093.6427437825391,-1474.0403764593734,3405.4467975231696,0.0
553523.2936376977,3682751.2368613081,-12500.0,-1759.2277312310896,1861.5141172977246,-1778.004798886132,-409.12096040332972,421.75447888496694,-66.997489187239154,1909.1364437394686,-603.10158461292406,599.66840758008664,-599.66840758008664,603.10158461292406,3785.1348352336254,0.0
558523.2936376977,3682751.2368613081,-12500.0,-1666.5545729471137,2020.4654016029806,-2069.5085446872349,-423.30622422349808,484.25119911346815,-74.087792615086059,2083.5662940346533,-431.83298774027088,517.91543087476475,-517.91543087476475,431.83298774027088,4102.184373105727,0.0
563523.2936376977,3682751.2368613081,-12500.0,-1505.532051633234,2166.860377177642,-2406.7100971356977,-427.61774239391076,552.90536232747502,-80.748959888424139,2271.9208344263325,-195.16781613517685,385.56551885208353,-385.56551885208353,195.16781613517685,4435.949444318544,0.0
568523.2936376977,3682751.2368613081,-12500.0,-1256.6414801130056,2284.7033556056722,-2791.4210353956464,-416.85264544989997,625.99636098047677,-86.158423289527406,2474.2871813324814,121.59963679774468,186.00661393552656,-186.00661393552656,-121.59963679774468,4783.1509823888491,0.0
573523.2936376977,3682751.2368613081,-12500.0,-897.72407936454999,2350.5789375666077,-3221.0928098297627,-384.07458744752779,700.00078223216201,-89.038027869419409,2690.9581711251776,533.53768995844371,-100.64507066737175,100.64507066737175,-533.53768995844371,5139.9512107737628,0.0
578523.2936376977,3682751.2368613081,-12500.0,-405.45362925301737,2331.4342689598984,-3685.2626644872298,-320.35482463340048,768.60223732082136,-87.480556004726154,2923.1441992951991,1053.7546160273064,-496.70875992967865,496.70875992967865,-1053.7546160273064,5503.4563895427582,0.0
583523.2936376977,3682751.2368613081,-12500.0,241.53028129011327,2182.4773633831737,-4160.096789968512,-214.733272315069,821.33946691106291,-78.754416098854378,3174.4770796420216,1689.2019773752272,-1024.5364473940181,1024.5364473940181,-1689.2019773752272,5875.2768774548604,0.0
588523.2936376977,3682751.2368613081,-12500.0,1056.9581496268136,1846.0727053552541,-4600.467325126272,-54.669211385723322,841.89701653089878,-59.126871992248773,3453.7645872089829,2433.7790873297627,-1701.3932924979229,1701.3932924979229,-2433.7790873297627,6268.750447441189,0.0
593523.2936376977,3682751.2368613081,-12500.0,2037.8308629391574,1253.3522535829513,-4929.3354457689766,172.597579263726,806.21058822697796,-23.793129077479353,3779.3625593940901,3258.0152547492426,-2530.0657710273072,2530.0657710273072,-3258.0152547492426,6721.6065464105304,0.0
598523.2936376977,3682751.2368613081,-12500.0,3151.4804896664423,331.41752191841283,-5025.2670198553988,477.22226199073367,680.88924938115667,32.93814455722616,4184.6600101208569,4095.3562016578257,-3483.5531450183721,3483.5531450183721,-4095.3562016578257,7313.5859420869338,0.0
603523.2936376977,3682751.2368613081,-12500.0,4320.0259178928491,-979.79835112896774,-4711.3468589849945,861.92703279718501,423.0100401089714,116.99354892177493,4721.8943696997012,4827.147279885171,-4483.1563544559967,4483.1563544559967,-4827.147279885171,8180.3181325918331,0.0
608523.2936376977,3682751.2368613081,-12500.0,5407.0060710398939,-2696.8436655668716,-3753.1307167971036,1315.0528084875414,-16.95557521401965,233.22376158675641,5458.4310120745949,5272.5182649053695,-5372.5832369942436,5372.5832369942436,-5272.5182649053695,9502.1801237328109,0.0
613523.2936376977,3682751.2368613081,-12500.0,6216.5763974645424,-4747.4230456728474,-1879.2187772205421,1802.5388430694788,-686.81497606486585,383.43550927088455,6459.8253421534919,5195.4477553851902,-5897.8164144533603,5897.8164144533603,-5195.4477553851902,11450.771951104209,0.0
618523.2936376977,3682751.2368613081,-12500.0,6521.0787342676522,-6919.7922244413594,1157.9447603280653,2261.9360504324904,-1617.1881745389414,564.23563394848645,7761.3354024772398,4346.3780658886553,-5713.2409217037894,5713.2409217037894,-4346.3780658886553,14111.887481416412,0.0
623523.2936376977,3682751.2368613081,-12500.0,6130.9256448682609,-8834.3220389478374,5470.2617156913657,2603.8380304648358,-2799.9042097861134,765.73866604610487,9338.4676149606294,2551.5816757252778,-4442.7995046447222,4442.7995046447222,-2551.5816757252778,17426.163333246332,0.0
628523.2936376977,3682751.2368613081,-12500.0,5000.6932386097524,-9981.8317830843589,10889.955163536308,2726.5348311163661,-4166.7035098032811,972.3144786454518,11088.730603466516,-161.6086823198325,-1815.0554541391643,1815.0554541391643,161.6086823198325,21164.417008588578,0.0
633523.2936376977,3682751.2368613081,-12500.0,3324.5668368917104,-9864.3786022616914,16863.718811227569,2545.3502976289965,-5580.6370215181132,1165.554185735298,12834.33846255095,-3462.2517441766367,2154.6422477443584,-2154.6422477443584,3462.2517441766367,24939.647570636327,0.0
638523.2936376977,3682751.2368613081,-12500.0,1540.602993737572,-8213.6864872249644,22490.62858054939,2028.4074355582798,-6853.1690189616611,1327.8867352960519,14354.030956488319,-6728.7855134558631,7032.0868442515584,-7032.0868442515584,6728.7855134558631,28267.300109212294,0.0
643523.2936376977,3682751.2368613081,-12500.0,191.48353962305256,-5172.9847265879971,26761.041637257007,1221.0282223703382,-7789.6015282969393,1444.7517649571653,15451.710949622771,-9231.3603424075263,12007.056439754069,-12007.056439754069,9231.3603424075263,30675.707562111696,0.0
648523.2936376977,3682751.2368613081,-12500.0,-305.87627529753564,-1302.8178860143075,28911.420993418968,241.69730750880839,-8247.0706817020855,1505.1590878647955,16035.776957843595,-10414.502055402987,16146.920216542803,-16146.920216542803,10414.502055402987,31832.790182297864,0.0
653523.2936376977,3682751.2368613081,-12500.0,161.91284492349496,2621.8924399907128,28693.525221419182,-752.485843673977,-8177.3636656818608,1502.5536930147357,15985.510480468092,-10110.508445467087,18734.488421557176,-18734.488421557176,10110.508445467087,31631.140857866812,0.0
658523.2936376977,3682751.2368613081,-12500.0,1391.0602325018751,5900.5938136560899,26404.255335343569,-1614.0669819238447,-7633.8896824342864,1436.9565661827667,15291.045403766153,-8556.7161313482375,19490.620433486161,-19490.620433486161,8556.7161313482375,30192.871601684623,0.0
663523.2936376977,3682751.2368613081,-12500.0,2993.6418291407654,8112.4707189279243,22696.631711447018,-2243.6177077287693,-6743.5734818820956,1316.6380210705433,14088.328959052633,-6238.7714037680662,18579.668389685259,-18579.668389685259,6238.7714037680662,27803.372022218122,0.0
668523.2936376977,3682751.2368613081,-12500.0,4570.0761861641477,9161.093881482755,18317.299998958912,-2604.1364926067222,-5662.1998418211251,1157.0888686389042,12562.336984278891,-3683.7059365626847,16451.624847287669,-16451.624847287669,3683.7059365626847,24816.461685572085,0.0
673523.2936376977,3682751.2368613081,-12500.0,5828.1848911839825,9195.5175342104849,13904.291802286029,-2712.7343850322272,-4534.2314593966548,977.29233079204721,10898.73904846862,-1310.4954924182812,13644.266121004959,-13644.266121004959,1310.4954924182812,21572.161803659907,0.0
678523.2936376977,3682751.2368613081,-12500.0,6622.1035321283098,8488.9473780133521,9893.8722695294164,-2620.3038929554414,-3468.8743474025382,795.29992864425242,9265.6385464478244,628.26609428304891,10635.69077886868,-10635.69077886868,-628.26609428304891,18346.770634692613,0.0
683523.2936376977,3682751.2368613081,-12500.0,6932.86973480099,7335.4124007666715,6516.9208610853048,-2390.2788492284258,-2533.2092564040668,625.07562091044076,7786.5033703691506,2035.2439314859371,7773.4511820291609,-7773.4511820291609,-2035.2439314859371,15334.736117743891,0.0
688523.2936376977,3682751.2368613081,-12500.0,6824.524411625448,5987.0295862297562,3842.788974166489,-2082.9777872940399,-1757.0087161478607,475.31515695695299,6494.8978582752525,2924.6300061645961,5264.6960764581017,-5264.6960764581017,-2924.6300061645961,12652.380812170897,0.0
693523.2936376977,3682751.2368613081,-12500.0,6400.2592103833376,4628.7255854982959,1835.7518531123278,-1747.1267448396641,-1142.7866558223877,349.85276379153987,5393.8597368518713,3373.8990936832106,3199.9311737456501,-3199.9311737456501,-3373.8990936832106,10352.563068675874,0.0
698523.2936376977,3682751.2368613081,-12500.0,5769.8918437137218,3377.7500764701877,404.59788126002201,-1417.2501205300175,-676.35612449167945,248.87795009191424,4478.2728469637532,3485.1825222708403,1587.9829903920961,-1587.9829903920961,-3485.1825222708403,8442.2665486323895,0.0
703523.2936376977,3682751.2368613081,-12500.0,5030.6359600162468,2295.5641501851023,-561.62272296416984,-1114.7065506354095,-335.45047997903686,170.30578027899321,3733.3727548858046,3360.0367511048125,389.01323669846852,-389.01323669846852,-3360.0367511048125,6898.5564027653836,0.0
708523.2936376977,3682751.2368613081,-12500.0,4258.67847584418,1403.4359435974507,-1171.5874669278128,-850.39672282678589,-95.686155350455095,110.93112490845627,3137.8683040024248,3086.0275208233179,-459.96252070885635,459.96252070885635,-3086.0275208233179,5681.0310455338458,0.0
713523.2936376977,3682751.2368613081,-12500.0,3507.8868431520996,696.94875775288267,-1520.4030962199304,-627.82009181056424,65.89489269630468,67.241621533108997,2667.6035813047033,2731.7309456017433,-1027.9519221319242,1027.9519221319242,-2731.7309456017433,4740.6635431253353,0.0
718523.2936376977,3682751.2368613081,-12500.0,2812.3894019766526,157.43622581484053,-1685.4814878085845,-445.77792719751432,169.09848137607744,35.907880233369141,2298.4259971079678,2346.8173751722161,-1379.9684189667164,1379.9684189667164,-2346.8173751722161,4025.8827646890923,0.0
723523.2936376977,3682751.2368613081,-12500.0,2190.7124660864952,-239.98578890673855,-1726.6112209692647,-300.45769857847847,230.03840539012225,14.027777337955616,2008.1734382565028,1964.669414211221,-1572.1702049457554,1572.1702049457554,-1964.669414211221,3486.9699796978894,0.0
553523.2936376977,3687751.2368613081,-12500.0,-1273.8276521676971,1643.29105682622,-1771.0328700166831,-317.14088580462766,386.61014122494726,-54.867823202969305,1701.5120588583775,-255.92502190539565,346.5100472394862,-346.5100472394862,255.92502190539565,3345.22091963616,0.0
558523.2936376977,3687751.2368613081,-12500.0,-1132.0544481258589,1741.4300857393187,-2031.939694889754,-316.56874479348699,436.39146944393605,-59.365936713840263,1841.9662691372869,-60.86054125801985,229.69572197394035,-229.69572197394035,60.86054125801985,3591.0230785329536,1.0
563523.2936376977,3687751.2368613081,-12500.0,-925.44893859809667,1814.5796608865198,-2324.0076830757744,-304.88202035991537,488.59888096425789,-63.008714019685129,1991.7098893072127,191.6531343155159,62.970374606783381,-62.970374606783381,-191.6531343155159,3844.3577871945263,0.0
568523.2936376977,3687751.2368613081,-12500.0,-639.73545929090267,1846.1962005785545,-2643.9293333458108,-277.55468062510778,540.73445440178682,-65.011321063654606,2151.014211789718,510.66465367127375,-166.46254020615595,166.46254020615595,-510.66465367127375,4102.7517354577012,0.0
573523.2936376977,3687751.2368613081,-12500.0,-260.34677661644872,1813.8133691964283,-2982.9186544778054,-228.90089889638497,588.574490633501,-64.229069606644572,2320.9001416771976,903.49425759310498,-472.42674311878403,472.42674311878403,-903.49425759310498,4364.7460191203672,0.0
578523.2936376977,3687751.2368613081,-12500.0,225.63071851270263,1688.017843465653,-3323.4837500156414,-152.07394363374328,625.41836148656512,-59.048445389471681,2504.1117863819109,1373.199263917835,-868.17901393210673,868.17901393210673,-1373.199263917835,4632.2708632817858,0.0
583523.2936376977,3687751.2368613081,-12500.0,826.17800005837057,1432.0629201764266,-3634.962502405544,-39.320423982418383,641.16085731954479,-47.27973638410284,2706.7888328307881,1914.6485580348024,-1363.3457531412807,1363.3457531412807,-1914.6485580348024,4915.1193229642577,0.0
588523.2936376977,3687751.2368613081,-12500.0,1539.3414317685847,1002.9700493630296,-3867.7833874392772,117.31396642023537,621.26917106063422,-26.084987511266842,2940.9807359147048,2508.917996081439,-1958.6803395056568,1958.6803395056568,-2508.917996081439,5238.3359236480719,0.0
593523.2936376977,3687751.2368613081,-12500.0,2346.3644891068034,355.46310882109248,-3946.9228581099483,324.57031537190159,545.88931514408398,7.9985673827684316,3227.7067839430147,3116.0791193357281,-2637.9346729255658,2637.9346729255658,-3116.0791193357281,5652.1232574489804,0.0
598523.2936376977,3687751.2368613081,-12500.0,3203.5199586485987,-549.44970726494887,-3766.0714586027138,585.59128189707167,389.53762938573925,58.850218910092053,3599.2018268454062,3667.3350450521912,-3356.5741718981171,3356.5741718981171,-3667.3350450521912,6239.9314220705419,0.0
603523.2936376977,3687751.2368613081,-12500.0,4034.6367010881345,-1729.3811603258703,-3185.787188532468,896.44139388318013,122.13729563276155,130.26746797818586,4097.5804228197985,4059.1035630893175,-4028.3839841078698,4028.3839841078698,-4059.1035630893175,7114.4410207435139,0.0
608523.2936376977,3687751.2368613081,-12500.0,4728.542285303005,-3158.2636748260934,-2041.2882299532539,1241.8253888980796,-287.56778239426023,225.10337885077323,4767.0315622061553,4154.0615482653966,-4513.7302946419086,4513.7302946419086,-4154.0615482653966,8391.8063582328341,0.0
613523.2936376977,3687751.2368613081,-12500.0,5148.0145989437606,-4739.6821327339658,-167.44981270939991,1591.0821181486649,-865.22100488695378,344.08379402682249,5639.5924918077872,3796.4758108849774,-4617.3822010662525,4617.3822010662525,-3796.4758108849774,10150.418666264155,0.0
618523.2936376977,3687751.2368613081,-12500.0,5157.3307807494311,-6285.2742425718625,2552.5795990084212,1896.5850021684996,-1620.4501349015745,484.56701910525641,6718.8401998577001,2848.9800535497448,-4107.8740891578045,4107.8740891578045,-2848.9800535497448,12394.787606258031,0.0
623523.2936376977,3687751.2368613081,-12500.0,4670.444736374262,-7515.5047315303018,6117.0568096515381,2097.415885005641,-2534.5041450257154,639.73867953451497,7967.1302020854218,1251.2946288227622,-2769.9029807098909,2769.9029807098909,-1251.2946288227622,15036.195460597577,0.0
628523.2936376977,3687751.2368613081,-12500.0,3708.5565041027371,-8102.75867793213,10333.251797308041,2130.5529974179935,-3550.3353042012718,798.77659390974384,9300.6919257211448,-914.2551510991683,-489.75832221889266,489.75832221889266,914.2551510991683,17889.279394332953,0.0
633523.2936376977,3687751.2368613081,-12500.0,2438.1557172224075,-7763.8115782214718,14783.323587009136,1948.826115187027,-4571.6049177950254,948.18179924204719,10596.160696305866,-3384.9757616063616,2651.3054040925808,-2651.3054040925808,3384.9757616063616,20686.709865753244,0.0
638523.2936376977,3687751.2368613081,-12500.0,1153.9239965453901,-6376.8610024569252,18873.012085235958,1540.1338372514163,-5475.9499425708627,1073.9031912316377,11711.712302230857,-5747.8031573030275,6327.0694877994083,-6327.0694877994083,5747.8031573030275,23118.338402378198,0.0
643523.2936376977,3687751.2368613081,-12500.0,192.68868712107192,-4064.8529908929104,21974.860073486223,938.83933609554504,-6141.9311753406782,1163.5569377790855,12526.984675675094,-7549.6831291533472,10010.355988878362,-10010.355988878362,7549.6831291533472,24892.594479750114,0.0
648523.2936376977,3687751.2368613081,-12500.0,-189.19934593551227,-1187.0956941221673,23616.356309401512,221.80893828999538,-6480.8451137688262,1208.2810037239158,12985.644966905276,-8447.6302072277558,13115.46994829918,-13115.46994829918,8447.6302072277558,25802.497582371467,0.0
653523.2936376977,3687751.2368613081,-12500.0,90.562172511590134,1769.446601343431,23621.7256154284,-511.10702701928716,-6459.9906298204514,1204.1427637914057,13005.228709702558,-8321.4632263584863,15177.485792292329,-15177.485792292329,8321.4632263584863,25770.580506201302,0.0
658523.2936376977,3687751.2368613081,-12500.0,925.92116106720505,4344.2022736751596,22138.405017654037,-1163.8860055591542,-6107.5472262398625,1152.9574382055455,12567.349719724078,-7291.8601668482779,15978.91308037447,-15978.91308037447,7291.8601668482779,24855.413593849342,0.0
663523.2936376977,3687751.2368613081,-12500.0,2084.8538344613271,6224.9969034127153,19549.996622134146,-1666.891049719125,-5498.7725703917113,1062.0857377195073,11748.032930292429,-5647.2844535371914,15571.365208946438,-15571.365208946438,5647.2844535371914,23221.47484596655,0.0
668523.2936376977,3687751.2368613081,-12500.0,3303.3189369044517,7293.1526291721248,16335.948519079024,-1987.4397133529644,-4731.8018449789697,942.94223877726836,10661.322608923045,-3731.7545646729759,14205.668812806691,-14205.668812806691,3731.7545646729759,21089.631313150046,0.0
673523.2936376977,3687751.2368613081,-12500.0,4362.7995816962366,7597.2924034287043,12945.349933703557,-2127.7122456642119,-3903.64715113694,808.58992022219195,9429.3901555579723,-1848.9657198164523,12223.707731156566,-12223.707731156566,1848.9657198164523,18688.23633401563,0.0
678523.2936376977,3687751.2368613081,-12500.0,5128.4787266729209,7290.5620947631596,9721.5511192245976,-2114.5741416775591,-3093.6246029726667,671.2853177273372,8169.0462242498716,-210.49100808177354,9962.4062489937387,-9962.4062489937387,210.49100808177354,16217.823436267865,0.0
683523.2936376977,3687751.2368613081,-12500.0,5550.9277179032415,6565.6861748270367,6879.562708131516,-1987.1514739645008,-2356.1724983644513,540.74394269427717,6986.2751603744182,1073.4131316609255,7694.438187605705,-7694.438187605705,-1073.4131316609255,13832.916618572242,0.0
688523.2936376977,3687751.2368613081,-12500.0,5646.3752769747562,5607.1745017657904,4519.3849439838186,-1786.3591034092613,-1721.2224587108713,423.41740471218606,5925.3092533877698,1976.3009661104529,5606.2787676024855,-5606.2787676024855,-1976.3009661104529,11638.103264290736,0.0
693523.2936376977,3687751.2368613081,-12500.0,5470.4967822384824,4565.1498980520792,2655.6715859799824,-1548.1403930954486,-1198.8903400517841,322.6282695428099,4992.952287584686,2528.0035916018742,3802.2915494576619,-3802.2915494576619,-2528.0035916018742,9693.1652240430776,0.0
698523.2936376977,3687751.2368613081,-12500.0,5095.1661191134472,3546.8066054638798,1249.5013174740004,-1300.3285794378364,-785.59659168193525,239.20529178669867,4192.9649740756277,2788.2350877208892,2321.8684157960433,-2321.8684157960433,-2788.2350877208892,8022.3846977748499,0.0
703523.2936376977,3687751.2368613081,-12500.0,4592.0244550362995,2618.9636878100473,234.80919832916672,-1062.1583175643809,-469.76211489218537,172.27789208644899,3521.6937911322343,2826.4870020159146,1159.9236062327827,-1159.9236062327827,-2826.4870020159146,6624.5890379558487,0.0
708523.2936376977,3687751.2368613081,-12500.0,4023.0547004973178,1815.902864157292,-462.8961140488201,-845.30654840040506,-236.22957724225893,120.00469761259805,2968.9484751084683,2709.19258295686,285.23247376043855,-285.23247376043855,-2709.19258295686,5481.9901544833619,0.0
713523.2936376977,3687751.2368613081,-12500.0,3436.6633965955011,1148.533328774171,-915.03792723287904,-655.56744008313956,-69.252121063984717,80.134663958219875,2520.589279259415,2493.0312563600819,-345.59120957998516,345.59120957998516,-2493.0312563600819,4567.0624050658598,0.0
718523.2936376977,3687751.2368613081,-12500.0,2867.3737345686018,612.696178958671,-1184.0591170798095,-494.58588435193673,45.752185911841778,50.382708612021887,2160.7874458704964,2222.5709530042905,-778.69308818510297,778.69308818510297,-2222.5709530042905,3847.4682335343573,0.0
723523.2936376977,3687751.2368613081,-12500.0,2337.4896876221014,195.71046969890676,-1321.2753312405475,-361.35234910888528,121.35643625309712,28.648123509166933,1873.7011795100352,1930.5430580513616,-1057.4045435898797,1057.4045435898797,-1930.5430580513616,3289.4708633585615,0.0
558523.2936376977,3692751.2368613081,-12500.0,-694.38129077785663,1459.0004566965124,-1948.0375051092926,-226.7537718371612,385.55814290420807,-46.656242229441077,1623.0256164090413,221.34867478012117,-11.424999971771371,11.424999971771371,-221.34867478012117,3128.8161077743107,0.0
563523.2936376977,3692751.2368613081,-12500.0,-465.81333677289592,1470.9022015678602,-2189.5887224380481,-204.31056497450354,422.86911888178628,-48.016935204234329,1742.2219494741112,470.69144298544722,-195.64258384080313,195.64258384080313,-470.69144298544722,3319.4104480097062,0.0
568523.2936376977,3692751.2368613081,-12500.0,-170.19662074347272,1434.3352570238364,-2441.4037957197311,-166.92046539167021,456.7944069022609,-47.569838637439076,1868.8062215864538,771.39448161996722,-434.32099245458824,434.32099245458824,-771.39448161996722,3511.9017342706184,0.0
573523.2936376977,3692751.2368613081,-12500.0,200.51835786330537,1329.556890083335,-2690.6510683629704,-110.20797721922087,482.94115980257311,-44.334442486008776,2004.8438616316976,1124.6406873558449,-735.52198711760366,735.52198711760366,-1124.6406873558449,3708.126356101619,0.0
578523.2936376977,3692751.2368613081,-12500.0,651.1534834087405,1132.4887542440831,-2916.1435412142605,-29.268338142354985,494.87886071444626,-36.994771936818829,2154.6650025399122,1526.3635687390026,-1104.7526473970531,1104.7526473970531,-1526.3635687390026,3915.2527839326549,0.0
583523.2936376977,3692751.2368613081,-12500.0,1180.4530805827114,815.44670239649895,-3085.1089272675608,80.949154800837874,483.57130218632585,-23.849452882555678,2326.358546628865,1964.0833052440173,-1541.9359212501402,1541.9359212501402,-1964.0833052440173,4150.2263294247768,0.0
588523.2936376977,3692751.2368613081,-12500.0,1777.2807041896901,349.36766018362323,-3149.5924726703497,224.90086282467644,436.86575891532789,-2.7999261668749553,2533.5481315973711,2412.9419084616707,-2036.9017890900257,2036.9017890900257,-2412.9419084616707,4445.5600766679654,0.0
593523.2936376977,3692751.2368613081,-12500.0,2416.1330079743047,-291.60901982983506,-3043.2263793794268,405.22204167653246,339.24569910067623,28.583785551699663,2796.7532521578314,2831.3938409871084,-2563.283619522254,2563.283619522254,-2831.3938409871084,4854.2241453368124,0.0
598523.2936376977,3692751.2368613081,-12500.0,3052.8548234054779,-1122.3162511394858,-2679.8690454858393,620.93310648816203,172.19018466374899,72.868711737389859,3142.9655724517734,3157.7164623977492,-3071.2679012116291,3071.2679012116291,-3157.7164623977492,5448.4315285561534,0.0
603523.2936376977,3692751.2368613081,-12500.0,3622.3826178776317,-2135.0428240328229,-1956.6296094878157,865.15384775100927,-84.382844245217768,132.38558145667312,3601.9190354331186,3309.5260226001442,-3480.7585210781049,3480.7585210781049,-3309.5260226001442,6306.8834714987879,0.0
608523.2936376977,3692751.2368613081,-12500.0,4041.4137188254344,-3285.2030751792095,-764.71288344056461,1122.7073870235695,-449.06820967191527,208.65391195779378,4198.7555370780365,3189.5511142220821,-3678.224444904009,3678.224444904009,-3189.5511142220821,7492.1460158764257,0.0
613523.2936376977,3692751.2368613081,-12500.0,4219.4636416459316,-4477.6165882332152,988.50962074579945,1368.45141923044,-934.00333898829388,301.65413381401925,4944.8908266061517,2701.2707231338477,-3522.3988907791268,3522.3988907791268,-2701.2707231338477,9028.4133904107221,0.0
618523.2936376977,3692751.2368613081,-12500.0,4080.5714515458417,-5560.2595222563523,3345.2189218896178,1567.6231432882028,-1538.2944055884934,409.10270631582569,5829.8627894767706,1776.2721673358096,-2864.7283659651289,2864.7283659651289,-1776.2721673358096,10887.673586131888,0.0
623523.2936376977,3692751.2368613081,-12500.0,3593.652081643374,-6334.9358210893897,6255.7699980555444,1679.5863861984365,-2241.2741233168599,525.99106259914652,6816.3352109055777,410.00317543241988,-1587.7729438013926,1587.7729438013926,-410.00317543241988,12984.263060895904,0.0
628523.2936376977,3692751.2368613081,-12500.0,2802.1844718646043,-6592.5198337381962,9544.4221633663692,1665.6347442331166,-2998.2837315602601,644.66501626449747,7839.8205708429359,-1305.6968325770965,343.44108390967313,-343.44108390967313,1305.6968325770965,15176.799888869728,0.0
633523.2936376977,3692751.2368613081,-12500.0,1837.1938771181517,-6171.0000520069852,12903.571504322324,1499.7375476761522,-3742.2239938609596,755.59229758653464,8814.7751197390953,-3171.9538664981837,2834.40322525386,-2834.40322525386,3171.9538664981837,17280.279847503429,0.0
638523.2936376977,3692751.2368613081,-12500.0,898.25234912162193,-5018.9127254712575,15934.659309087947,1178.871770136587,-4392.9341725956192,848.71997121712366,9648.6058373425512,-4910.8226515858532,5644.6113598559914,-5644.6113598559914,4910.8226515858532,19091.151338703847,0.0
643523.2936376977,3692751.2368613081,-12500.0,200.52638671720274,-3234.5450570217054,18234.908816851097,728.32941473448284,-4873.2648818080479,915.10794382291999,10267.832730721153,-6232.4727799760467,8422.2411098823941,-8422.2411098823941,6232.4727799760467,20422.705686840698,0.0
648523.2936376977,3692751.2368613081,-12500.0,-93.274538240459194,-1055.6861704376124,19501.810040248052,198.62398772492799,-5126.9623039245589,948.45530062919352,10636.860642789563,-6918.4193257635943,10787.120826723438,-10787.120826723438,6918.4193257635943,21141.399152590933,0.0
653523.2936376977,3692751.2368613081,-12500.0,75.573387771012122,1201.6312669120036,19611.491265938886,-345.75620266562424,-5131.6793785462614,946.18840708944947,10689.510278772019,-6883.7883555732533,12430.634115539966,-12430.634115539966,6883.7883555732533,21191.851953663117,0.0
658523.2936376977,3692751.2368613081,-12500.0,650.78108925406377,3229.077736181428,18638.035231407724,-841.57000225076024,-4902.2440977603819,909.86143051285967,10410.417111098528,-6191.1388833645433,13189.758787408817,-13189.758787408817,6191.1388833645433,20602.180251692909,0.0
663523.2936376977,3692751.2368613081,-12500.0,1491.3258331113304,4799.2927836437075,16811.809460913679,-1240.2201643126714,-4483.7683118870273,844.74064450477238,9844.2548133097953,-5015.1083013886919,13067.827541193135,-13067.827541193135,5015.1083013886919,19469.666033429152,0.0
668523.2936376977,3692751.2368613081,-12500.0,2423.2659127061183,5801.2468360970561,14442.933297466141,-1515.0791288929356,-3938.3766983623741,758.65995653444361,9062.7129326104623,-3580.6385681065649,12203.819674059989,-12203.819674059989,3580.6385681065649,17934.144776500238,0.0
673523.2936376977,3692751.2368613081,-12500.0,3288.4781908219093,6235.2303588668974,11843.973000828704,-1661.7886857963495,-3330.9441320133424,660.48083888334156,8146.6197526310316,-2103.2392289747841,10813.528236232629,-10813.528236232629,2103.2392289747841,16149.029799216474,0.0
678523.2936376977,3692751.2368613081,-12500.0,3974.8107982577417,6181.7375787583342,9275.310927805107,-1693.3900867271841,-2718.0665675486107,558.60895256204446,7175.210884742668,-749.71715159127871,9129.4970279181543,-9129.4970279181543,749.71715159127871,14257.675863610779,0.0
683523.2936376977,3692751.2368613081,-12500.0,4424.9358254867375,5762.5921611716876,6920.0365035100267,-1633.2628036829992,-2142.0553989367236,459.93082431125515,6228.3758534631088,376.55413774574572,7357.1280284485865,-7357.1280284485865,-376.55413774574572,12378.615840296323,0.0
688523.2936376977,3692751.2368613081,-12500.0,4629.6224608810253,5107.589595682909,4883.0484381971628,-1508.4080412403109,-1629.5756945422213,369.3108874963653,5362.4610018564763,1231.5484784785422,5651.9871550868611,-5651.9871550868611,-1231.5484784785422,10599.481250306486,0.0
693523.2936376977,3692751.2368613081,-12500.0,4613.5211951197934,4332.4051094079286,3204.4982940484456,-1344.4862856444447,-1193.4387500716286,289.58559007458302,4583.5371013500644,1816.5131317472476,4114.933342180163,-4114.933342180163,-1816.5131317472476,8977.4306305034825,0.0
698523.2936376977,3692751.2368613081,-12500.0,4419.9696940443255,3527.7835920629745,1878.5321285223147,-1162.9502831055124,-835.9046221650068,221.87914212477745,3896.9795692423027,2161.3750164619446,2798.4876809146149,-2798.4876809146149,-2161.3750164619446,7543.4093791689183,0.0
703523.2936376977,3692751.2368613081,-12500.0,4098.5157833045487,2757.2105135972251,871.35085308956627,-979.95533565921357,-552.24040804122933,166.05761894375317,3305.0351880674671,2310.1604193674284,1718.2404001526702,-1718.2404001526702,-2310.1604193674284,6307.9794591492873,0.0
708523.2936376977,3692751.2368613081,-12500.0,3696.427284965057,2059.6774864027943,135.66453203144528,-806.47663188101137,-333.8031413289055,121.184000868485,2804.4366804302294,2310.2955914817599,864.95083142763121,-864.95083142763121,-2310.2955914817599,5267.1723090522719,0.0
713523.2936376977,3692751.2368613081,-12500.0,3253.9696667289213,1454.7424725840397,-379.20734815497502,-649.08329769839963,-170.35827810538916,85.898170166764075,2387.8835842336994,2205.91299242064,214.97473168586271,-214.97473168586271,-2205.91299242064,4407.528545729655,0.0
718523.2936376977,3692751.2368613081,-12500.0,2802.5639767707057,948.00567403579282,-721.14858338991201,-510.95205432349218,-51.623578959469533,58.695137046196741,2045.728992629447,2034.4301003571409,-261.87241137632054,261.87241137632054,-2034.4301003571409,3710.0022349659484,0.0
563523.2936376977,3697751.2368613081,-12500.0,-112.88233285834428,1150.8927952050824,-2018.9137815489603,-123.98618015289247,359.04312572162689,-35.615423171688299,1523.8647305571908,658.58739272695698,-392.25099135719051,392.25099135719051,-658.58739272695698,2862.2920035683924,0.0
568523.2936376977,3697751.2368613081,-12500.0,174.0176496469285,1064.0192161252353,-2204.6406807641647,-81.518630196286779,377.89245296429283,-33.50762332800668,1626.555851763499,928.49537940084542,-624.72932901443914,624.72932901443914,-928.49537940084542,3008.6882737341471,0.0
573523.2936376977,3697751.2368613081,-12500.0,517.92503317374508,910.4397452651059,-2371.214216164245,-22.373703497843692,386.94546372134766,-28.77143703947263,1739.1618613477472,1231.9612315996346,-904.82812532681021,904.82812532681021,-1231.9612315996346,3162.8948948431303,0.0
578523.2936376977,3697751.2368613081,-12500.0,918.0273394290781,671.82270467992407,-2496.4332252990412,56.720066266160579,380.43064111139824,-20.366301177259693,1867.2282219783492,1560.5502425547511,-1232.1585773831112,1232.1585773831112,-1560.5502425547511,3336.5980651231034,0.0
583523.2936376977,3697751.2368613081,-12500.0,1367.5021294070457,328.97799530950846,-2548.7256880407549,158.7286930311914,350.70242181191247,-7.006272957124315,2019.8182799609517,1898.2746589485655,-1600.1293392985181,1600.1293392985181,-1898.2746589485655,3551.4034056735018,0.0
588523.2936376977,3697751.2368613081,-12500.0,1850.9566293402188,-135.59078454006303,-2485.2864005775627,285.65658473534336,288.06941407564221,12.820675051380004,2210.3605812919786,2219.1387980657591,-1992.5040712257799,1992.5040712257799,-2219.1387980657591,3841.8808907715802,0.0
593523.2936376977,3697751.2368613081,-12500.0,2341.9084764201002,-733.44141517270248,-2251.1389479982304,437.59114242548975,180.90960251941888,40.774738089613727,2456.5670401488774,2485.048015220978,-2379.3192439432437,2379.3192439432437,-2485.048015220978,4255.4126168526009,0.0
598523.2936376977,3697751.2368613081,-12500.0,2801.1413857550297,-1463.9869453531282,-1780.3064266471038,611.46194092114195,16.299286799140145,78.500013806140004,2778.5939720185688,2645.0885140311962,-2712.8495551875808,2712.8495551875808,-2645.0885140311962,4845.7226690009848,0.0
603523.2936376977,3697751.2368613081,-12500.0,3177.2747374015316,-2306.5910947747893,-1000.7312771898082,799.65376660130471,-218.57849316285558,127.35201202444264,3195.1486465332428,2637.6959640273476,-2925.0595072058891,2925.0595072058891,-2637.6959640273476,5660.2052035143433,0.0
608523.2936376977,3697751.2368613081,-12500.0,3411.2420032546497,-3212.2662557096583,155.28785861596961,988.80780671493801,-534.02977499420638,188.01689076247581,3718.2872963219061,2397.5139977703197,-2928.8619690633873,2928.8619690633873,-2397.5139977703197,6726.105402384268,0.0
613523.2936376977,3697751.2368613081,-12500.0,3446.1544885508488,-4097.7853359054025,1734.0754675746764,1159.3745798495024,-934.44572081963383,260.06389799523316,4348.3296180576172,1868.3243520309802,-2626.1064696805474,2626.1064696805474,-1868.3243520309802,8040.8393596959804,0.0
618523.2936376977,3697751.2368613081,-12500.0,3242.6575097297059,-4846.5154757749606,3738.0523896729997,1286.6338428715153,-1414.3274736807982,341.52949692719562,5070.0957684537634,1021.6962614568243,-1924.7138991863567,1924.7138991863567,-1021.6962614568243,9567.2643484652599,0.0
623523.2936376977,3697751.2368613081,-12500.0,2797.0629621151888,-5320.6033179165715,6102.5052059830314,1343.7822000143228,-1954.7685866589604,428.67888114901314,5851.2200679259186,-122.28477996277718,-764.79987216947313,764.79987216947313,122.28477996277718,11232.578504453746,0.0
628523.2936376977,3697751.2368613081,-12500.0,2155.9574206784605,-5386.7566740927268,8680.6624775991204,1307.1330982993895,-2521.9467808197742,516.0957258230128,6643.279379908643,-1479.7889580377632,851.29092354142676,-851.29092354142676,1479.7889580377632,12931.296000581422,0.0
633523.2936376977,3697751.2368613081,-12500.0,1418.8150155582887,-4952.0658169703811,11247.977221238434,1162.4919936979757,-3069.2005080837143,597.18723605865569,7386.6221370548046,-2903.1726806426682,2835.7587847389545,-2835.7587847389545,2903.1726806426682,14534.318709197569,0.0
638523.2936376977,3697751.2368613081,-12500.0,722.27866130907012,-3998.8850763231794,13532.655341181293,910.74083119192312,-3543.3978082436647,665.06413014776058,8020.0283535172248,-4202.7717479778312,5012.1195584381476,-5012.1195584381476,4202.7717479778312,15905.048258545105,0.0
643523.2936376977,3697751.2368613081,-12500.0,207.31000392110386,-2603.5719877387323,15269.023650453159,570.2847478487862,-3894.6261304422733,713.6236150127155,8500.657205832922,-5188.3294097769449,7140.3622221792848,-7140.3622221792848,5188.3294097769449,16920.443087341853,0.0
648523.2936376977,3697751.2368613081,-12500.0,-19.954043044721708,-927.69165805459863,16257.826041677308,174.82206089676058,-4086.4874753649742,738.57967632483633,8802.056480287476,-5716.8917883426384,8966.8193997159833,-8966.8193997159833,5716.8917883426384,17491.8814360947,0.0
653523.2936376977,3697751.2368613081,-12500.0,82.320067292543882,817.94976966463128,16411.292215019894,-233.27603845974372,-4103.5661172128921,738.18437829956588,8868.2714915451779,-5728.5082423384356,10282.109991875601,-10282.109991875601,5728.5082423384356,17579.648533774525,0.0
658523.2936376977,3697751.2368613081,-12500.0,483.87148176605535,2423.1195793140482,15766.439409137891,-611.80416409664895,-3953.5869875376325,713.45902063210951,8689.6927975620256,-5255.9312760997909,10965.592847245132,-10965.592847245132,5255.9312760997909,17196.828034012608,0.0
663523.2936376977,3697751.2368613081,-12500.0,1097.4881895316621,3722.9122503168051,14464.483104234549,-926.78805360196486,-3663.9218006518913,667.88507867298904,8293.6894557877276,-4406.9546030560105,11001.596717668725,-11001.596717668725,4406.9546030560105,16402.24431363562,0.0
668523.2936376977,3697751.2368613081,-12500.0,1808.0862966634052,4623.2668574522868,12708.163357489853,-1157.4282123809835,-3274.2106788009901,606.65586130775489,7726.2299180116306,-3329.7557531088828,10466.309689166963,-10466.309689166963,3329.7557531088828,15285.773633191509,0.0
673523.2936376977,3697751.2368613081,-12500.0,2502.9830596764123,5103.5990696514682,10714.487587884543,-1297.1258452208492,-2827.8645148879323,535.71213431184094,7041.4311135074704,-2175.9773261735554,9495.6767780228729,-9495.6767780228729,2175.9773261735554,13951.037435702037,0.0
678523.2936376977,3697751.2368613081,-12500.0,3093.7342498291587,5202.1372027411253,8677.0430854415681,-1351.2958991469247,-2364.8804495401396,460.81678007638607,6293.7068221456884,-1072.9077248508502,8248.498743829372,-8248.498743829372,1072.9077248508502,12499.946327888803,0.0
683523.2936376977,3697751.2368613081,-12500.0,3526.0002455231629,4993.3751088330691,6744.289747685475,-1333.4444446558,-1917.2796388822603,386.86537953035639,5536.0811691583422,-109.29664511379906,6875.8057615655734,-6875.8057615655734,109.29664511379906,11021.691823228633,0.0
688523.2936376977,3697751.2368613081,-12500.0,3779.0451498731231,4565.9585588664622,5013.2097897718795,-1260.9861189635508,-1507.3142515623329,317.51729223086397,4826.5420317284852,666.53417942738724,5501.6433316833254,-5501.6433316833254,-666.53417942738724,9586.8457883153114,0.0
693523.2936376977,3697751.2368613081,-12500.0,3858.8569175711959,4005.8189204095738,3533.8113179412458,-1151.7874440250077,-1147.8212076834213,255.12411523708005,4180.6560562967343,1240.5398850947631,4215.2004009565508,-4215.2004009565508,-1240.5398850947631,8245.8017472660176,0.0
698523.2936376977,3697751.2368613081,-12500.0,3788.913926701026,3385.9774792300532,2319.2533891553508,-1021.8515468582759,-843.8467257342088,200.86964020826591,3598.475351956286,1623.2733334016802,3071.4020475456155,-3071.4020475456155,-1623.2733334016802,7030.2248124248499,0.0
703523.2936376977,3697751.2368613081,-12500.0,3601.4405242315524,2762.2299250599995,1357.4010229160622,-884.12367324715626,-594.75230618055207,155.02100139940521,3084.4137476967244,1840.0308443830509,2096.3851339802636,-2096.3851339802636,-1840.0308443830509,5956.1377306172953,0.0
708523.2936376977,3697751.2368613081,-12500.0,3330.6029407672781,2172.9944239945062,621.23290497503615,-748.16765662360842,-396.25843889603897,117.20669302619183,2639.2136956172062,1922.6859626532892,1294.8496249045079,-1294.8496249045079,-1922.6859626532892,5027.5603435129497,0.0
713523.2936376977,3697751.2368613081,-12500.0,3008.0247702635602,1641.5563325437356,76.946335831606561,-620.40308462293581,-242.13728448674476,86.668244918715544,2260.0209135144451,1903.8665380086322,657.2894864680103,-657.2894864680103,-1903.8665380086322,4239.9920472602034,0.0
563523.2936376977,3702751.2368613081,-12500.0,149.29817987533815,863.55166499834047,-1826.1750056256255,-61.408785888654194,299.37066075917875,-25.552384758472545,1335.4613189655233,772.78225553211439,-532.75363364013504,532.75363364013504,-772.78225553211439,2470.8298916699277,0.0
568523.2936376977,3702751.2368613081,-12500.0,415.79487850147763,742.44649839025976,-1951.4327897449914,-17.470844807718276,306.27010690923248,-22.404076086400661,1421.382200669048,1005.7607211433746,-748.55905085783627,748.55905085783627,-1005.7607211433746,2587.3671372547351,0.0
573523.2936376977,3702751.2368613081,-12500.0,723.23745654029312,559.83652703725113,-2045.9273778106881,40.331661103572522,302.49389558155008,-16.879796951879264,1518.4180993775913,1256.6467508086787,-997.90697645702107,997.90697645702107,-1256.6467508086787,2717.7525949441688,0.0
578523.2936376977,3702751.2368613081,-12500.0,1067.3247474587215,302.73346327740006,-2088.3258541251084,113.99626082810688,283.10807676824487,-8.1780979367936872,1632.741646689758,1514.858397813101,-1276.3928124605018,1276.3928124605018,-1514.858397813101,2876.6829039466907,0.0
583523.2936376977,3702751.2368613081,-12500.0,1438.4763351544975,-40.924294335759136,-2050.2264104427536,204.99234526834908,241.90921184204905,4.6494658666342543,1773.362209430813,1763.6145326163096,-1573.6686603277967,1573.6686603277967,-1763.6145326163096,3087.2902003881295,0.0
588523.2936376977,3702751.2368613081,-12500.0,1820.3131484578782,-479.87524897187177,-1895.5253701572015,313.73510399170493,171.45241898935029,22.666331133791136,1952.1620826773899,1978.6561394570306,-1871.0624674884145,1871.0624674884145,-1978.6561394570306,3381.3521549329453,0.0
593523.2936376977,3702751.2368613081,-12500.0,2188.5321107929299,-1016.0600841889739,-1580.8517210808861,438.89608810301223,63.333169489697362,46.976750649469587,2182.9678874704168,2127.6267344382909,-2139.1519762715875,2139.1519762715875,-2127.6267344382909,3795.9487044135622,0.0
598523.2936376977,3702751.2368613081,-12500.0,2510.8188686453605,-1640.137371271758,-1057.8822189447587,576.60207678534709,-91.141668357355968,78.595715603888948,2479.4259204968853,2170.8488159375711,-2335.958149023626,2335.958149023626,-2170.8488159375711,4366.2273844998108,0.0
603523.2936376977,3702751.2368613081,-12500.0,2748.6472010274247,-2326.502485267109,-278.4667160950774,719.65936288234502,-299.76511128309886,118.25561427334368,2851.9843378807263,2064.4126047885388,-2406.8471303098509,2406.8471303098509,-2064.4126047885388,5116.7402895398827,0.0
608523.2936376977,3702751.2368613081,-12500.0,2861.8217277481754,-3029.0037615759784,796.70245969809184,857.05199940205341,-567.66669945576928,166.1576354866524,3304.7240721679846,1766.4220790530994,-2287.5946968098951,2287.5946968098951,-1766.4220790530994,6054.7003913847257,0.0
613523.2936376977,3702751.2368613081,-12500.0,2816.1830329289892,-3679.3230354576508,2185.9153672660559,974.06104166692899,-895.08315014410937,221.70066364684953,3832.7458112595486,1246.6562351296204,-1912.0613633997716,1912.0613633997716,-1246.6562351296204,7166.2764405127618,0.0
618523.2936376977,3702751.2368613081,-12500.0,2593.8281024474873,-4190.477171374846,3872.3079392194877,1053.3734088828073,-1275.0357578343201,283.24977373523404,4420.5365513667075,498.62459953960933,-1225.1549307271994,1225.1549307271994,-498.62459953960933,8415.0782913186176,0.0
623523.2936376977,3702751.2368613081,-12500.0,2203.5507774539983,-4467.4736535450656,5791.367773509387,1077.4015322267869,-1691.5890890808621,348.02837927433387,5041.6336066355479,-448.86807405822907,-199.89564247975471,199.89564247975471,448.86807405822907,9742.4039447799969,0.0
628523.2936376977,3702751.2368613081,-12500.0,1687.5905310927108,-4425.2412274517028,7825.438703811501,1031.6668731771583,-2119.5514306875389,412.2153004350414,5660.0154740925364,-1525.242111597755,1145.3176058089998,-1145.3176058089998,1525.242111597755,11070.077049252304,0.0
633523.2936376977,3702751.2368613081,-12500.0,1120.3448012032857,-4010.6487782161462,9810.6292685969365,908.57816193128315,-2526.3610579952538,471.29114930804758,6233.7657998740651,-2621.6086997818497,2735.5783883310464,-2735.5783883310464,2621.6086997818497,12307.019538398892,0.0
638523.2936376977,3702751.2368613081,-12500.0,596.56264840294602,-3221.9751564655885,11558.580105459181,710.473819237773,-2876.3391921099387,520.60788936254664,6722.4060303699835,-3606.6681888495309,4441.1025230120986,-4441.1025230120986,3606.6681888495309,13359.711282924038,0.0
643523.2936376977,3702751.2368613081,-12500.0,210.69306513648408,-2117.8969003020893,12889.888814343272,450.72124505157376,-3136.6122694961318,556.07795634133231,7104.2866473680042,-4352.6651583597195,6094.9343288466334,-6094.9343288466334,4352.6651583597195,14145.070281761857,0.0
648523.2936376977,3702751.2368613081,-12500.0,33.653448621218459,-810.68618519110419,13670.054169424729,152.16058132751951,-3283.1736857227893,574.82697696076571,7351.9089508688403,-4763.8362053011324,7523.749095239652,-7523.749095239652,4763.8362053011324,14602.856483104722,0.0
653523.2936376977,3702751.2368613081,-12500.0,95.400493444591319,555.64089360152514,13836.293680164641,-156.87814810890802,-3305.2796524754681,575.64821055733307,7421.1097042061101,-4797.5558701093651,8582.6240867898196,-8582.6240867898196,4797.5558701093651,14704.367183453471,0.0
658523.2936376977,3702751.2368613081,-12500.0,379.58873515761212,1835.1698257191233,13406.536653157567,-447.82531759779852,-3206.8676068100967,559.14746473228479,7307.114294954411,-4470.9437093551242,9182.411462967646,-9182.411462967646,4470.9437093551242,14455.161643268357,0.0
663523.2936376977,3702751.2368613081,-12500.0,831.33791384310405,2907.9553413618642,12468.9939859761,-696.80372230580019,-3004.7612514532307,527.55196391050777,7027.1587365711393,-3851.7982929550858,9301.5826235948225,-9301.5826235948225,3851.7982929550858,13891.496347784831,0.0
668523.2936376977,3702751.2368613081,-12500.0,1373.8724498955141,3697.8456409419973,11157.832831825392,-887.92615463550021,-2724.5041658279579,484.25160244924666,6611.2555997382988,-3038.7485535712435,8981.0263941364938,-8981.0263941364938,3038.7485535712435,13072.012687552671,0.0
673523.2936376977,3702751.2368613081,-12500.0,1927.3294165408581,4177.2185565068467,9624.1138450490125,-1014.3908961995468,-2395.2631937594197,433.20403711082912,6096.1091099408168,-2138.3802216264708,8306.4339002907418,-8306.4339002907418,2138.3802216264708,12067.276027443277,0.0
678523.2936376977,3702751.2368613081,-12500.0,2423.9401746591152,4360.5978705308571,8010.3608796848048,-1077.6013209189789,-2045.1906254851253,378.35198067972527,5519.8268742935134,-1246.14488887273,7385.7553642967196,-7385.7553642967196,1246.14488887273,10949.72935114748,0.0
683523.2936376977,3702751.2368613081,-12500.0,2816.6511835347374,4291.8960393359584,6433.5953096658241,-1085.0349242620696,-1698.1320605554413,323.16795416467187,4918.4824495441881,-434.67096828092554,6328.4918785060981,-6328.4918785060981,434.67096828092554,9785.8319845605056,0.0
688523.2936376977,3702751.2368613081,-12500.0,3081.1693158424018,4030.2173026194873,4977.7520888380377,-1047.6915742871479,-1371.9456567561565,270.38173952217687,4331.2565091130018,250.23014822728283,5230.8220346721973,-5230.8220346721973,-250.23014822728283,8631.1109591171826,0.0
693523.2936376977,3702751.2368613081,-12500.0,3213.2173475450468,3637.7095261536888,3693.7216279962531,-977.76850097190948,-1078.2243679170626,221.88811959198466,3795.3674146680396,787.69374942572176,4167.6170827732494,-4167.6170827732494,-787.69374942572176,7528.0057312016725,0.0
698523.2936376977,3702751.2368613081,-12500.0,3223.3056702125236,3171.0888055210994,2604.1881179203838,-886.91666222433469,-822.97871248525621,178.79401078321305,3305.4143916393909,1176.6060032762368,3190.3576225703773,-3190.3576225703773,-1176.6060032762368,6505.8900390150538,0.0
703523.2936376977,3702751.2368613081,-12500.0,3130.9692268718263,2676.967688576377,1710.5705359840058,-785.168673492376,-607.81126278881015,141.5496949543743,2863.7171099524353,1429.3255806521656,2329.070224400899,-2329.070224400899,-1429.3255806521656,5582.4936307443595,0.0
708523.2936376977,3702751.2368613081,-12500.0,2959.7152582433409,2190.2729921415594,1000.1083883022569,-680.45704519424044,-431.21199165097221,110.1140272510174,2472.9943583213076,1565.8349617724891,1596.383005650616,-1596.383005650616,-1565.8349617724891,4766.0226780992762,0.0
568523.2936376977,3707751.2368613081,-12500.0,576.58556626995801,471.20703086430285,-1695.8357093364286,29.073416702851269,243.01175853962826,-13.809024048343851,1249.3525772513758,1024.253413275565,-817.99097627096,817.99097627096,-1024.253413275565,2239.7872959085212,0.0
573523.2936376977,3707751.2368613081,-12500.0,843.91999763803562,275.05571471294303,-1730.2998960353848,83.209098323947529,230.09291956993897,-8.003902938869647,1336.3474531360891,1224.5737686306306,-1032.1518657588517,1032.1518657588517,-1224.5737686306306,2359.2179628483436,0.0
578523.2936376977,3707751.2368613081,-12500.0,1132.7075966723485,16.157472461218362,-1707.4536330097496,149.58796138098731,202.37282140604947,0.48777818779544491,1441.9350478878068,1419.5817294751409,-1260.7742052503986,1260.7742052503986,-1419.5817294751409,2514.6625695850107,0.0
583523.2936376977,3707751.2368613081,-12500.0,1432.5330536248973,-312.02632485306691,-1602.9787950601624,228.67380115431283,154.98240256999586,12.350439052396176,1574.2529362865098,1593.3915534287448,-1491.8534307571099,1491.8534307571099,-1593.3915534287448,2727.8718312882947,0.0
588523.2936376977,3707751.2368613081,-12500.0,1727.9407496090341,-712.0963460214341,-1387.7004967276293,319.93764625288435,82.376189381165844,28.315042286448271,1742.917177993226,1724.9009715587317,-1706.6881400117786,1706.6881400117786,-1724.9009715587317,3024.7653436340033,0.0
593523.2936376977,3707751.2368613081,-12500.0,1998.1854866966623,-1180.0988441189204,-1028.7096945546796,421.38975345561158,-21.338183270668001,49.095750087551984,1957.8333389109418,1788.0279273682925,-1878.6537759289797,1878.6537759289797,-1788.0279273682925,3431.2284506994642,0.0
598523.2936376977,3707751.2368613081,-12500.0,2217.9272826855004,-1702.5150443341029,-491.9689729841507,529.09515574135321,-161.79691022681649,75.291664788315927,2227.413611204579,1753.1304336403387,-1972.7744494457579,1972.7744494457579,-1753.1304336403387,3967.6362068472981,0.0
603523.2936376977,3707751.2368613081,-12500.0,2359.3473411819941,-2253.3798252600618,253.14843692573606,636.78352522402065,-343.45438116384611,107.25312723925259,2556.5857238392432,1590.094734507129,-1946.8265845394999,1946.8265845394999,-1590.094734507129,4644.1541993732189,0.0
608523.2936376977,3707751.2368613081,-12500.0,2396.0352455627381,-2792.4453356599033,1227.2145605853852,735.72060823479831,-568.34959271688092,144.92225594682864,2945.0232876434188,1273.3859288432891,-1754.792133178893,1754.792133178893,-1273.3859288432891,5457.9002497186448,0.0
613523.2936376977,3707751.2368613081,-12500.0,2308.5908073973769,-3265.6436310944132,2432.4446925802417,815.04211877827788,-834.69310742962091,187.67188253140563,3385.8659340121349,788.85044585219748,-1353.2650837340329,1353.2650837340329,-788.85044585219748,6391.605792957972,0.0
618523.2936376977,3707751.2368613081,-12500.0,2091.1646221360788,-3609.140709341777,3844.1325809788041,862.72437957865645,-1135.552200061587,234.18175745460175,3865.0755152837332,141.22698596929172,-710.73042214448071,710.73042214448071,-141.22698596929172,7413.1990347213041,0.0
623523.2936376977,3707751.2368613081,-12500.0,1757.27844198956,-3757.72909877865,5404.2694164260229,867.2448235612552,-1458.0538275107958,282.40033864550253,4361.617108125919,-639.65057596676047,181.55397657675658,-181.55397657675658,639.65057596676047,8476.4593611835335,0.0
628523.2936376977,3707751.2368613081,-12500.0,1342.6056884867116,-3656.9985751406825,7020.4212998392477,819.7587373610221,-1783.5721789481422,329.63549724901122,4848.7420748132618,-1496.6330815765518,1299.7675787017802,-1299.7675787017802,1496.6330815765518,9523.4171777379652,0.0
633523.2936376977,3707751.2368613081,-12500.0,902.53115558633147,-3276.905275348252,8572.4675665562881,716.34608200303796,-2089.2369878700974,372.79320563260779,5296.7991300435579,-2349.4046551242936,2582.4898906050503,-2582.4898906050503,2349.4046551242936,10489.047453769997,0.0
638523.2936376977,3707751.2368613081,-12500.0,503.62879661039727,-2622.7923931093346,9927.8506187628682,559.68337899981998,-2350.7613607834573,408.74540234100681,5679.9918538382044,-3105.7688631678088,3933.7436687690674,-3933.7436687690674,3105.7688631678088,11308.149944123321,0.0
643523.2936376977,3707751.2368613081,-12500.0,210.47860800335658,-1739.6408754627344,10962.885072487705,359.5094896084417,-2546.1149724380753,434.76247107233928,5990.3532977851319,-3678.1830628323146,5235.3305035379653,-5235.3305035379653,3678.1830628323146,11923.416183053147,0.0
648523.2936376977,3707751.2368613081,-12500.0,71.490391273973401,-707.02235534307397,11584.809226715488,131.55338830994071,-2659.1744608731478,448.9181106970936,6193.6667496903401,-4001.1352721430771,6366.3275291084683,-6366.3275291084683,4001.1352721430771,12293.034766636818,0.0
653523.2936376977,3707751.2368613081,-12500.0,108.29573628539272,374.57517313591177,11748.209426605265,-104.91476436378808,-2682.3697294177614,450.37142873389047,6260.380453148895,-4044.0287001148326,7224.5722634193507,-7224.5722634193507,4044.0287001148326,12396.053326039973,0.0
658523.2936376977,3707751.2368613081,-12500.0,312.11574961165866,1402.1567548155138,11461.101398620109,-330.27249080045698,-2617.6217694529259,439.46079811795175,6188.3200665820395,-3815.6526851358885,7743.9260745016927,-7743.9260745016927,3815.6526851358885,12234.276900512392,0.0
663523.2936376977,3707751.2368613081,-12500.0,647.82970413265286,2287.9174630486273,10779.542231460073,-527.61154373093746,-2475.4084733847499,417.59396645347454,5988.517694903032,-3359.420228956164,7902.6909472279058,-7902.6909472279058,3359.420228956164,11830.429055858827,0.0
668523.2936376977,3707751.2368613081,-12500.0,1063.6862406252303,2971.5536061350681,9793.4590734130943,-684.93230526331433,-2272.3724976677922,386.97322127207758,5680.8830804059735,-2741.7607069184137,7721.9154233550616,-7721.9154233550616,2741.7607069184137,11223.334831940088,0.0
673523.2936376977,3707751.2368613081,-12500.0,1503.0633817510568,3424.9857004958744,8608.5992272412914,-796.085361351041,-2028.2356659185648,350.23142188559666,5290.6140377241763,-2037.8362143417457,7255.6744953013022,-7255.6744953013022,2037.8362143417457,10461.510722494771,0.0
678523.2936376977,3707751.2368613081,-12500.0,1914.8257968649946,3650.0197568585054,7329.5188155318328,-860.50267064528362,-1762.8124966594212,310.06439442431088,4844.7411202865624,-1318.6225449312924,6577.2931352466512,-6577.2931352466512,1318.6225449312924,9596.6296645049024,0.0
683523.2936376977,3707751.2368613081,-12500.0,2260.1513696399766,3671.2927746946093,6046.9542337308394,-882.06690752669545,-1493.6982811197965,268.92877942537598,4369.3193045300723,-641.93318164527909,5765.5588967788044,-5765.5588967788044,641.93318164527909,8678.013160201539,0.0
688523.2936376977,3707751.2368613081,-12500.0,2515.3064839704689,3527.3560645350535,4830.8053038247863,-867.57927898176672,-1234.8822727122474,228.84357103139931,3888.3849905321117,-48.139712597074777,4893.7520832017708,-4893.7520832017708,48.139712597074777,7748.7648131758961,0.0
693523.2936376977,3707751.2368613081,-12500.0,2671.0547750079841,3262.2377213164482,3728.2375034846887,-825.23213460135673,-996.25143586632146,191.30054835716919,3435.1543700631119,440.06224855373603,4022.7062242241818,-4022.7062242241818,-440.06224855373603,6843.6488465392058,0.0
698523.2936376977,3707751.2368613081,-12500.0,2729.9413852701136,2918.8718432542441,2765.4878818067386,-763.35224436884289,-783.77832570366763,157.26577650332263,3024.0700634264581,815.17905766597323,3197.788712178326,-3197.788712178326,-815.17905766597323,5988.4770014154001,0.0
703523.2936376977,3707751.2368613081,-12500.0,2702.6915303472374,2534.8526099364831,1951.7443266096111,-689.52756371121973,-600.12710600057221,127.24230331331246,2647.2613294762227,1081.1390106652138,2448.9145429280288,-2448.9145429280288,-1081.1390106652138,5200.5835926508771,0.0
573523.2936376977,3712751.2368613081,-12500.0,902.72677464342712,49.91537684102056,-1434.633153907617,110.86394767246182,169.32711702419411,-1.5421837866794261,1186.5815939927984,1156.0672985311815,-1023.1804254142395,1023.1804254142395,-1156.0672985311815,2073.0928232002952,0.0
578523.2936376977,3712751.2368613081,-12500.0,1140.4721409509257,-199.52611161334059,-1362.7027213609142,169.27533654817952,136.78135682302104,6.4320002698186265,1286.1773368272288,1296.9858154649498,-1204.6745920241235,1204.6745920241235,-1296.9858154649498,2230.4153209751207,0.0
583523.2936376977,3712751.2368613081,-12500.0,1378.375361363122,-502.6788505456696,-1212.3175273017312,236.72032930090481,87.008841685928786,17.120598915616132,1411.6254456523227,1410.1929590271438,-1377.1889783981233,1377.1889783981233,-1410.1929590271438,2446.832723705495,0.0
588523.2936376977,3712751.2368613081,-12500.0,1602.8446746385137,-858.15648784858865,-960.69764059607587,312.17350782074629,15.988246341167578,31.01470550545638,1570.1342100867887,1478.2006502748543,-1523.4007319114883,1523.4007319114883,-1478.2006502748543,2741.4170528332743,0.0
593523.2936376977,3712751.2368613081,-12500.0,1797.0009122931046,-1258.8050828910552,-583.6956512132565,393.44909481472126,-80.290498056487095,48.561808610831221,1768.2624753500415,1480.7859763820243,-1620.4459003176307,1620.4459003176307,-1480.7859763820243,3130.4583425023961,0.0
598523.2936376977,3712751.2368613081,-12500.0,1941.6695109156178,-1689.8158532647226,-58.240194276959926,476.92897780406042,-205.33092740195127,70.094120888807922,2010.6556903939586,1396.5534424723849,-1640.2494705475422,1640.2494705475422,-1396.5534424723849,3624.1896274406663,0.0
603523.2936376977,3712751.2368613081,-12500.0,2017.3618525470292,-2127.2333887222908,633.97681150188157,557.40015486859465,-361.44516166936609,95.738199823641182,2298.8528175405809,1205.6168022879801,-1551.0751589962651,1551.0751589962651,-1205.6168022879801,4224.621225826917,0.0
608523.2936376977,3712751.2368613081,-12500.0,2007.3262786338018,-2537.4949021914358,1501.6592383361176,628.10662423854501,-548.91933158613165,125.31445293052127,2630.3453941857829,893.41696939556459,-1320.7038335613788,1320.7038335613788,-893.41696939556459,4924.4419527463524,0.0
613523.2936376977,3712751.2368613081,-12500.0,1901.442289602782,-2878.7459241165825,2538.4353404831077,681.1253171948855,-765.14093422842905,158.24346774204133,2997.9745523538054,455.32646534794833,-921.40604239040374,921.40604239040374,-455.32646534794833,5706.5365277859592,0.0
618523.2936376977,3712751.2368613081,-12500.0,1700.2893860631643,-3104.5580758032334,3717.8333355898621,708.13976726589055,-1003.8803326945374,193.48337846313254,3389.7394790101071,-98.80783871695013,-336.37004462902797,336.37004462902797,98.80783871695013,6543.9705662329579,0.0
623523.2936376977,3712751.2368613081,-12500.0,1418.274640073955,-3170.2054280332636,4990.2769157268176,701.59727795103743,-1254.9778550358471,229.52544827568389,3789.1458933617059,-741.50784550279241,433.46800681603236,-433.46800681603236,741.50784550279241,7400.727772018432,0.0
628523.2936376977,3712751.2368613081,-12500.0,1084.4840853532353,-3040.8339927844345,6283.8248655909165,656.10356401892216,-1504.6857181277269,264.47044877085085,4176.2913663510753,-1427.408869424605,1363.9551864036951,-1363.9551864036951,1427.408869424605,8233.6361566713113,0.0
633523.2936376977,3712751.2368613081,-12500.0,740.18508764639125,-2699.8744386717422,7509.8667315934217,569.76738344053251,-1736.8084723647287,296.19303740174558,4530.1795037984093,-2097.0464602626439,2405.7087719652923,-2405.7087719652923,2097.0464602626439,8995.7092499804676,0.0
638523.2936376977,3712751.2368613081,-12500.0,432.77521582799636,-2155.3546336831669,8573.7481685033072,445.12588174732593,-1934.5854043611289,322.57910494300978,4837.1046851642013,-2684.7846936498158,3487.2257659826405,-3487.2257659826405,2684.7846936498158,9640.7272215416233,0.0
643523.2936376977,3712751.2368613081,-12500.0,207.23168720068838,-1441.8279813622735,9388.6004932884807,289.3167779775938,-2083.0059016235618,341.79718011990497,5092.689398600688,-3129.5283994212787,4523.4746554214298,-4523.4746554214298,3129.5283994212787,10128.405735474542,0.0
648523.2936376977,3712751.2368613081,-12500.0,97.24256048964105,-616.68744200331867,9889.2056466258455,113.34078943104338,-2171.0525810127629,352.5484904174715,5259.4852358917942,-3385.6020633792632,5428.5061544413802,-5428.5061544413802,3385.6020633792632,10429.172186332547,0.0
653523.2936376977,3712751.2368613081,-12500.0,118.58109166120742,248.61232414047419,10042.338366228656,-69.475503731391697,-2193.3339737829083,354.24289750301796,5321.1771140678466,-3430.8097797742003,6129.0867777694721,-6129.0867777694721,3430.8097797742003,10527.577638414907,0.0
658523.2936376977,3712751.2368613081,-12500.0,266.63211371949484,1080.2123149236495,9850.8822126354735,-245.45907979278223,-2150.7042210978479,347.05988507556486,5276.5591697815235,-3269.4607156346533,6575.8180114226598,-6575.8180114226598,3269.4607156346533,10423.597798497492,0.0
663523.2936376977,3712751.2368613081,-12500.0,518.55791135229754,1813.3020913578284,9351.0154329863071,-402.52917395568585,-2049.7736779854145,331.88734585446218,5132.7627512088111,-2929.8226864207691,6749.0681997105685,-6749.0681997105685,2929.8226864207691,10131.678569511641,0.0
668523.2936376977,3712751.2368613081,-12500.0,839.07792383804519,2400.6155375116323,8603.7903667104401,-531.66235068762489,-1901.5133580537388,310.1583745842687,4903.1865506628073,-2457.1968391702412,6658.7831997234989,-6658.7831997234989,2457.1968391702412,9677.889336537326,0.0
673523.2936376977,3712751.2368613081,-12500.0,1187.8934074598224,2816.457499588872,7683.782559193166,-627.6345518954314,-1719.3646419417137,283.62886408982069,4605.3290550047886,-1904.8993892880458,6339.0995623442868,-6339.0995623442868,1904.8993892880458,9095.9326472124631,0.0
678523.2936376977,3712751.2368613081,-12500.0,1526.7026436280858,3056.252993983233,6667.721756584634,-689.02003707283143,-1517.3116690627216,254.14488463320899,4258.536846600764,-1325.5557762641379,5839.891334853166,-5839.891334853166,1325.5557762641379,8422.8689624424278,0.0
683523.2936376977,3712751.2368613081,-12500.0,1824.3492321008953,3132.754302886186,5625.3312016421742,-717.61032074276932,-1308.2818731873783,223.44232972903845,3882.0047134183555,-764.45514066937358,5217.6547261714131,-5217.6547261714131,764.45514066937358,7695.2928324311897,0.0
688523.2936376977,3712751.2368613081,-12500.0,2059.5199238138657,3070.5300055712014,4613.4700145111219,-717.50604201100509,-1103.0711082523871,193.00474421142849,3493.325249927138,-255.72325438909684,4527.6318863116503,-4527.6318863116503,255.72325438909684,6946.4186822838337,0.0
693523.2936376977,3712751.2368613081,-12500.0,2221.1663206281987,2900.2433367154858,3673.6207135225372,-694.13003056942637,-909.824135230911,163.98647839220999,3108.9844924805602,178.80380088118159,3818.2192808021,-3818.2192808021,-178.80380088118159,6204.2401767837955,0.0
698523.2936376977,3712751.2368613081,-12500.0,2307.2761896315451,2653.7715975433412,2832.0795277601196,-653.34726196204326,-733.98461931715349,137.19451402412545,2758.7922245781047,528.65986535189745,3127.8929572802981,-3127.8929572802981,-528.65986535189745,5490.7047274456454,0.0
583523.2936376977,3717751.2368613081,-12500.0,1296.2956824279961,-629.83743509625981,-878.21387879623478,234.34697362822163,34.923217908410166,19.775180106507161,1276.7463460954712,1228.4757343804151,-1246.0734383743995,1246.0734383743995,-1228.4757343804151,2222.7663792772123,0.0
588523.2936376977,3717751.2368613081,-12500.0,1464.0087267946046,-939.90599239855737,-608.52414349191758,296.041730484347,-32.230281331126768,31.712875709357316,1424.5448790819028,1249.8145849443063,-1337.1753446181988,1337.1753446181988,-1249.8145849443063,2508.9224753693825,0.0
593523.2936376977,3717751.2368613081,-12500.0,1600.2756869861873,-1278.0766452152423,-231.70597034268491,360.59581981478414,-119.63959167743818,46.403727952888033,1605.3545477200237,1211.489290130552,-1377.6741716494553,1377.6741716494553,-1211.489290130552,2873.5828847800112,0.0
598523.2936376977,3717751.2368613081,-12500.0,1690.9843531090287,-1629.9216380610194,267.21447582155918,424.86538222146822,-229.3637954124026,64.013839423852332,1821.3189719900899,1098.5299189309085,-1345.6374396525057,1345.6374396525057,-1098.5299189309085,3320.694321505578,0.0
603523.2936376977,3717751.2368613081,-12500.0,1722.8488759005593,-1974.4948919326218,898.17933365851263,484.64383575655989,-362.38782120239483,84.545973673305994,2072.0514350566491,898.35265640782507,-1217.7215797319132,1217.7215797319132,-898.35265640782507,3848.0594752675502,0.0
608523.2936376977,3717751.2368613081,-12500.0,1685.6836859913915,-2284.5750756797606,1662.6932847409914,534.78724604147669,-518.07200925057464,107.77727642669471,2354.1490490067281,603.52373211145982,-971.83237319904561,971.83237319904561,-603.52373211145982,4446.9178471777232,0.0
613523.2936376977,3717751.2368613081,-12500.0,1575.0291108708689,-2528.1987971923695,2550.3143309026655,569.55777897711664,-693.62581205634967,133.20623620678947,2660.9263920496069,214.78737438334548,-590.82274062626652,590.82274062626652,-214.78737438334548,5101.7770402564693,0.0
618523.2936376977,3717751.2368613081,-12500.0,1394.6215406188405,-2671.7509768249643,3535.8110922479,583.21030174795396,-883.73306926660268,160.02344951731675,2982.4239058792041,-256.26543787155811,-66.853589880887256,66.853589880887256,256.26543787155811,5790.5568560822448,0.0
623523.2936376977,3717751.2368613081,-12500.0,1157.9893086205661,-2684.5313207283757,4577.9667809433613,570.78746007026723,-1080.4764395666746,187.12171171452715,3305.7834024469353,-785.72497316715658,594.36849607426916,-594.36849607426916,785.72497316715658,6485.2897646100364,0.0
628523.2936376977,3717751.2368613081,-12500.0,888.41873013430393,-2544.2156718623119,5620.974761178878,529.01326160510007,-1273.690646840214,213.15642338159154,3616.1479405092073,-1337.9298927891207,1370.599127064924,-1370.599127064924,1337.9298927891207,7153.622251105613,0.0
633523.2936376977,3717751.2368613081,-12500.0,616.7803647239565,-2242.1120337624807,6598.9645671149974,457.10406202397087,-1451.8014064206404,236.6582880510523,3898.9363594213737,-1868.5966500276504,2222.503377647954,-2222.503377647954,1868.5966500276504,7761.1979979899079,0.0
638523.2936376977,3717751.2368613081,-12500.0,377.2545642698181,-1786.8107680366609,7443.4140480653477,357.28329483702936,-1603.0847549248576,256.18733341512967,4151.9469350769923,-2330.3786942298575,3096.3690025852757,-3096.3690025852757,2330.3786942298575,8274.7460324376534,0.0
643523.2936376977,3717751.2368613081,-12500.0,201.69676566272358,-1204.9738078243995,8092.2772796324698,234.82153235436866,-1717.1500138097779,270.50381311730575,4361.9568474522976,-2679.9210007809343,3930.1176139922736,-3930.1176139922736,2679.9210007809343,8665.459555495634,0.0
648523.2936376977,3717751.2368613081,-12500.0,113.96291950407054,-538.65667896755497,8498.9086605568355,97.52749416318963,-1786.3474061377135,278.72434748283234,4499.1146360515077,-2884.8277200577872,4661.6299532544872,-4661.6299532544872,2884.8277200577872,8912.0729816757703,0.0
653523.2936376977,3717751.2368613081,-12500.0,125.67365862490713,160.45801650137398,8638.7165378526261,-45.236419217376209,-1806.7939853132038,280.43144962964857,4554.8679510611028,-2928.817376644919,5237.5940016881605,-5237.5940016881605,2928.817376644919,9003.0707077568877,0.0
658523.2936376977,3717751.2368613081,-12500.0,234.51877519194849,838.61551429377016,8511.980020761388,-183.80796582653963,-1778.7880187097553,275.71408474673012,4528.3018432195922,-2813.7867949988781,5620.8147600241136,-5620.8147600241136,2813.7867949988781,8937.5899235172492,0.0
663523.2936376977,3717751.2368613081,-12500.0,425.42393568233359,1447.5385395486937,8142.3792070615045,-309.47165306380322,-1706.5529112625645,265.13426679727701,4424.0629890886175,-2558.4328425197077,5794.399988809264,-5794.399988809264,2558.4328425197077,8724.9315036320422,0.0
668523.2936376977,3717751.2368613081,-12500.0,674.05481475712202,1950.3152241844189,7571.8855533745327,-415.44301594861139,-1597.4074733373188,249.62981010354153,4251.287444489416,-2194.0367942098364,5762.153342828421,-5762.153342828421,2194.0367942098364,8382.8346252152314,0.0
673523.2936376977,3717751.2368613081,-12500.0,951.55947516794402,2324.6123265926726,6853.5323481337828,-497.42959669623303,-1460.5940102589261,230.37756414256464,4022.2615951940656,-1758.7001848148282,5545.5890995762147,-5545.5890995762147,1758.7001848148282,7934.9583378629595,0.0
678523.2936376977,3717751.2368613081,-12500.0,1229.3166452443099,2563.0371040961186,6043.7912008049716,-553.73264117394467,-1306.0276902651372,208.64617640710898,3750.9444226308456,-1291.4704871855888,5178.7153980134844,-5178.7153980134844,1291.4704871855888,7408.0623338204214,0.0
683523.2936376977,3717751.2368613081,-12500.0,1482.7203637282191,2671.1825529762405,5196.0120484131803,-584.96355340856189,-1143.1974891609177,185.66313094902617,3451.5787070764973,-827.51350775688252,4702.0179545326118,-4702.0179545326118,827.51350775688252,6829.3588063440739,0.0
688523.2936376977,3717751.2368613081,-12500.0,1693.4998391538306,2664.2666088817864,4355.7832298295107,-593.5120372226819,-980.36148447301696,162.51414186217104,3137.5635945941654,-394.95828930681046,4156.8888827696774,-4156.8888827696774,394.95828930681046,6224.3580453045306,0.0
693523.2936376977,3717751.2368613081,-12500.0,1850.536885614327,2563.3154666705227,3558.4406788006545,-582.91587669337991,-824.08444902204155,140.08158553615993,2820.7249598295843,-13.508636797894269,3581.3086189008782,-3581.3086189008782,13.508636797894269,5615.3684327660449,0.0
588523.2936376977,3722751.2368613081,-12500.0,1323.3352633442087,-974.9423906626505,-322.82685017855852,275.38756035553178,-66.215449788878303,31.106294850410649,1299.4968456350939,1045.0354613639856,-1157.9829259218432,1157.9829259218432,-1045.0354613639856,2311.8592991317937,0.0
593523.2936376977,3722751.2368613081,-12500.0,1416.2698555157972,-1257.3954960941142,41.873174521829469,326.33339163752595,-144.35636568073295,43.335875364074099,1463.0466945921328,980.50213506346017,-1157.0744011388219,1157.0744011388219,-980.50213506346017,2648.0341905387108,0.0
598523.2936376977,3722751.2368613081,-12500.0,1468.8305859852389,-1542.3442149015568,505.90274081721884,375.55689459436906,-239.70424330314523,57.697521784719342,1654.1440273101175,853.09853320639604,-1090.3825728090201,1090.3825728090201,-853.09853320639604,3048.2269578969199,0.0
603523.2936376977,3722751.2368613081,-12500.0,1472.2109679696609,-1812.0762639782286,1073.7042651648678,419.72918997549988,-352.45482212266603,74.131134173201616,1871.4060346060578,655.30293459746167,-941.04633654282293,941.04633654282293,-655.30293459746167,3508.3247814461961,0.0
608523.2936376977,3722751.2368613081,-12500.0,1420.5805010218583,-2044.9030750798631,1742.6516471913749,454.97250679171202,-481.53662840205908,92.412375458689283,2111.2353394230358,384.15926899732665,-694.23346857087415,694.23346857087415,-384.15926899732665,4019.5824785869977,0.0
613523.2936376977,3722751.2368613081,-12500.0,1312.8152600031567,-2216.6142208874976,2500.855673813744,477.1466403052508,-624.30177607063968,112.12354702452592,2367.7210746305418,43.221678031367702,-339.8174039816912,339.8174039816912,-43.221678031367702,4568.5852929117536,0.0
618523.2936376977,3722751.2368613081,-12500.0,1153.9602367534042,-2302.917521358896,3325.6334313384364,482.28098259916266,-776.34440374777148,132.64209341079433,2632.7287404022268,-355.93096606037386,124.70594903024964,-124.70594903024964,355.93096606037386,5137.4535051723606,0.0
623523.2936376977,3722751.2368613081,-12500.0,955.97301524596423,-2282.7120102326335,4183.2409397113897,467.11695620430982,-931.532967465566,153.15518724136348,2896.2489753322811,-793.12775659673173,691.61631493855214,-691.61631493855214,793.12775659673173,5704.4597529021903,0.0
628523.2936376977,3722751.2368613081,-12500.0,737.32779612751506,-2141.7404344373263,5030.3757491428669,429.6824228508849,-1082.321601440656,172.70584024828048,3147.1692564322193,-1240.4451407544971,1341.3859760900164,-1341.3859760900164,1240.4451407544971,6245.1825575985049,0.0
633523.2936376977,3722751.2368613081,-12500.0,521.24998398867308,-1875.8990190369809,5817.6632384094901,369.78450537050884,-1220.3581526114974,190.27014078383669,3376.5638400713547,-1664.6742958855741,2042.7941193335221,-2042.7941193335221,1664.6742958855741,6734.2098451676375,0.0
638523.2936376977,3722751.2368613081,-12500.0,332.69344157756797,-1493.3628522769995,6494.8568001826779,289.29679372232363,-1337.3343366646081,204.85767705868736,3589.9031074428262,-2031.2323441098042,2755.14351643805,-2755.14351643805,2031.2323441098042,7147.2518648209361,0.0
643523.2936376977,3722751.2368613081,-12500.0,194.57027307488246,-1014.823863104507,7016.957032824007,192.14335707526118,-1425.9493794746436,215.6203971838045,3761.5953652877424,-2308.8800382243508,3432.4949545078844,-3432.4949545078844,2308.8800382243508,7463.3870759976735,0.0
648523.2936376977,3722751.2368613081,-12500.0,124.04453405316131,-471.54363148888149,7350.0767591870008,83.945460134100188,-1480.8111098694681,221.9508632421088,3874.9232359772741,-2474.2772994171701,4029.2658102744463,-4029.2658102744463,2474.2772994171701,7667.0893054383569,0.0
653523.2936376977,3722751.2368613081,-12500.0,129.7668834081897,98.51387840322721,7475.8083536741115,-28.621111844218436,-1499.0920174677005,223.55136581404975,3924.6622178729763,-2515.3483985511807,4506.0914892712499,-4506.0914892712499,2515.3483985511807,7749.6825226802548,0.0
658523.2936376977,3722751.2368613081,-12500.0,210.70191146259489,655.68256921575619,7393.1793157784468,-138.63554920849108,-1480.8110539631673,220.46117223450952,3910.0008658941028,-2432.7059211777087,4834.7252592275809,-4834.7252592275809,2432.7059211777087,7709.9807853556404,0.0
663523.2936376977,3722751.2368613081,-12500.0,356.76010219091773,1163.6581295420913,7117.8806684257024,-239.7469465364841,-1428.6979017405208,213.03817591695565,3833.9850931898818,-2238.8955470584642,5000.9995481948044,-5000.9995481948044,2238.8955470584642,7554.0319155128527,0.0
668523.2936376977,3722751.2368613081,-12500.0,550.96060296481187,1593.607995180515,6679.1165931151172,-326.84104686394465,-1347.6930901633432,201.90070363260241,3702.9209772226341,-1955.7843020493933,5005.3997140967385,-5005.3997140967385,1955.7843020493933,7294.059000202009,0.0
673523.2936376977,3722751.2368613081,-12500.0,772.4982753275674,1926.6549041186452,6114.9371097689964,-396.45556053158856,-1244.2117069207427,187.84314339029365,3525.5284319711818,-1610.8275905989176,4861.4180485821043,-4861.4180485821043,1610.8275905989176,6946.8464293306552,0.0
678523.2936376977,3722751.2368613081,-12500.0,999.96798974373257,2154.5305746240456,5467.091490773043,-446.90911101407346,-1125.3255396158229,171.74168946717612,3311.9599845618154,-1233.0857171419268,4592.3114183899224,-4592.3114183899224,1233.0857171419268,6531.860554993551,0.0
683523.2936376977,3722751.2368613081,-12500.0,1214.110481438978,2278.6396190059768,4776.3599923415204,-478.17539605891835,-998.00978912831283,154.46641902765995,3072.8400761293783,-849.75024274809766,4227.1259044581757,-4227.1259044581757,849.75024274809766,6069.4155357556219,0.0
688523.2936376977,3722751.2368613081,-12500.0,1399.690086609429,2308.037408829658,4078.9812646880982,-491.57589026222269,-868.55187729355396,136.81058330691053,2818.4346850589664,-483.65178853480688,3796.784555463476,-3796.784555463476,483.65178853480688,5579.0936063978816,0.0
598523.2936376977,3727751.2368613081,-12500.0,1274.8718605595957,-1440.3899425244717,676.19939339537359,330.32219266981122,-240.67306154422195,51.537167500648181,1505.4644314856459,653.12708827553956,-872.693690438771,872.693690438771,-653.12708827553956,2801.4028763224464,0.0
603523.2936376977,3727751.2368613081,-12500.0,1260.359158466561,-1650.4054584341957,1182.7510291636081,362.7873713522203,-335.95508876292683,64.70335854718418,1693.3041564617076,464.55043589873759,-713.86558453307839,713.86558453307839,-464.55043589873759,3201.2152740507813,0.0
608523.2936376977,3727751.2368613081,-12500.0,1202.2880808409991,-1823.9943151465318,1765.6200330927834,387.2738383311538,-442.98254406776533,79.130946458683567,1897.2727729584597,219.40780458941668,-475.06076815580781,475.06076815580781,-219.40780458941668,3637.4502888442184,0.0
613523.2936376977,3727751.2368613081,-12500.0,1101.4089702337917,-1942.9048171290442,2412.9220863910964,400.7983206424301,-559.38908550697602,94.480283333947227,2112.2989072142727,-77.47176628706967,-150.73449449462879,150.73449449462879,77.47176628706967,4098.7651711180997,0.0
618523.2936376977,3727751.2368613081,-12500.0,963.06908501468183,-1989.5870297939814,3104.9275117168222,400.61280523768704,-681.58547661358978,110.27519439815032,2331.7938480138996,-415.36472952259101,258.55983307106419,-258.55983307106419,415.36472952259101,4570.765418733632,0.0
623523.2936376977,3727751.2368613081,-12500.0,797.49523279962182,-1949.5202799912774,3814.2388526658747,384.57361663254255,-804.83350103327643,125.91759978325543,2547.957541438213,-777.55107240992913,744.59140475733795,-744.59140475733795,777.55107240992913,5036.525149753189,0.0
628523.2936376977,3727751.2368613081,-12500.0,619.28873658999248,-1813.6634572054354,4507.173214564682,351.51248669318221,-923.5020751851315,140.7220185601557,2752.522591198292,-1142.1752938849472,1290.6637644499774,-1290.6637644499774,1142.1752938849472,5477.4684548530595,0.0
633523.2936376977,3727751.2368613081,-12500.0,446.03984379843956,-1580.5550635962679,5146.404663076376,301.53829092436922,-1031.5050375355847,153.96839761188642,2944.2612970223745,-1484.1454926087113,1871.9996068980722,-1871.9996068980722,1484.1454926087113,5874.5914233755984,0.0
638523.2936376977,3727751.2368613081,-12500.0,296.18133350290918,-1257.554838213721,5694.6393758981258,236.19690050230591,-1122.880236855771,164.96832137640425,3123.5552527469567,-1777.9007544831079,2457.4938723222535,-2457.4938723222535,1777.9007544831079,6209.9270165085563,0.0
643523.2936376977,3727751.2368613081,-12500.0,186.42793642438198,-860.82556304719117,6118.7817304320497,158.43507666082871,-1192.4258152598534,173.13501015183445,3264.2374171888064,-2000.6141400234333,3012.7228809764488,-3012.7228809764488,2000.6141400234333,6468.0647434919028,0.0
648523.2936376977,3727751.2368613081,-12500.0,129.31003742427518,-413.91101276148663,6393.858255773981,72.353148670426307,-1236.2864448017892,178.04594236346321,3358.4321147447295,-2135.2259121775992,3503.7712570123253,-3503.7712570123253,2135.2259121775992,6637.5082355223813,0.0
653523.2936376977,3727751.2368613081,-12500.0,131.3333097572544,54.906120244893508,6505.943640548403,-17.221923850806885,-1252.3816936891901,179.48704371487378,3402.4900741771794,-2172.6839239469182,3901.1915574446011,-3901.1915574446011,2172.6839239469182,6711.6561228759856,0.0
658523.2936376977,3727751.2368613081,-12500.0,192.15948721366999,515.97753456134706,6453.5286673413711,-105.26873389869004,-1240.5984103353567,177.47109650671601,3395.6697882051894,-2112.9347000330463,4183.3427008343797,-4183.3427008343797,2112.9347000330463,6689.2544734266576,0.0
663523.2936376977,3727751.2368613081,-12500.0,304.94835691690076,941.74211871996613,6247.1251242323769,-187.11264268904145,-1202.7201562255061,172.22779822580964,3339.9786529367398,-1964.5092447167071,4338.502277272506,-4338.502277272506,1964.5092447167071,6574.2683168069343,0.0
668523.2936376977,3727751.2368613081,-12500.0,457.7148338778473,1309.6200933577229,5907.2886631861184,-258.88177901002763,-1142.120713299749,164.16849936230147,3239.819280905233,-1742.8761886688644,4365.4441614689913,-4365.4441614689913,1742.8761886688644,6375.2191851252046,0.0
673523.2936376977,3727751.2368613081,-12500.0,635.33782910550792,1603.9022118736234,5461.5662269517516,-317.81142724277089,-1063.2957895235502,153.83368122436593,3101.4446104530157,-1467.9925231635516,4272.5439111615669,-4272.5439111615669,1467.9925231635516,6104.1370248760049,0.0
678523.2936376977,3727751.2368613081,-12500.0,821.76286584164404,1816.4544665004707,4940.9954793020624,-362.36808983108773,-971.32350426392975,141.83236337917396,2932.2992852427396,-1161.5837423356793,4075.7510794996447,-4075.7510794996447,1161.5837423356793,5775.2952432411166,0.0
608523.2936376977,3732751.2368613081,-12500.0,1022.3583243625401,-1623.9305028918552,1749.315070476574,330.12334689652221,-404.68143341720679,67.75014170340738,1708.5565803892209,96.637939223379746,-303.15873271959197,303.15873271959197,-96.637939223379746,3295.9669364579886,0.0
613523.2936376977,3732751.2368613081,-12500.0,930.17042303317101,-1704.1809334063214,2302.2923012329506,337.74666385163897,-499.91149508282462,79.764281649666557,1889.4169903622173,-160.79823427750318,-9.5303273789367751,9.5303273789367751,160.79823427750318,3684.7551917079286,0.0
618523.2936376977,3732751.2368613081,-12500.0,810.47908835487704,-1723.6589918665256,2884.7102921654318,334.34426670747143,-598.63292445397065,92.001487234812828,2072.1221290325266,-446.97196676244005,349.84457902542988,-349.84457902542988,446.97196676244005,4078.2811540087823,0.0
623523.2936376977,3732751.2368613081,-12500.0,671.86680612514124,-1672.3672974457802,3474.413622091864,318.50663350162171,-697.18280121835687,104.02014852093792,2250.5803611005927,-748.16132893890131,767.00616169860882,-767.00616169860882,748.16132893890131,4463.3063371069902,0.0
628523.2936376977,3732751.2368613081,-12500.0,525.86785700643804,-1544.6482638347277,4045.1002047293327,289.56102200905406,-791.33295045412899,115.32565450625843,2418.92686093255,-1047.2295487378219,1227.8913488869771,-1227.8913488869771,1047.2295487378219,4825.5890485166647,0.0
633523.2936376977,3732751.2368613081,-12500.0,385.90018676134952,-1340.5268733431246,4568.3129497948694,247.75758888675585,-876.60537362987679,125.40682945575337,2584.7682666587702,-1325.0701873260723,1712.7982265675646,-1712.7982265675646,1325.0701873260723,5150.7692006257612,0.0
638523.2936376977,3732751.2368613081,-12500.0,265.73157465668629,-1066.4340308360188,5016.0556681435519,194.35744193188032,-948.67005365473074,133.7798835349557,2733.1149032785825,-1562.5783991954195,2197.7486475555306,-2197.7486475555306,1562.5783991954195,5425.393739042891,0.0
643523.2936376977,3732751.2368613081,-12500.0,177.71620250661454,-735.08041659338596,5363.6720051403108,131.59259839132059,-1003.7715338336369,140.03408430977839,2849.0867076310833,-1742.8569317245399,2656.6467596270722,-2656.6467596270722,1742.8569317245399,5637.9629918310047,0.0
648523.2936376977,3732751.2368613081,-12500.0,131.1248960882107,-364.41105594861409,5592.515485935267,62.491205291257927,-1039.1166778049308,143.87205650787561,2927.8715748233694,-1853.2704851671481,3063.9359906939808,-3063.9359906939808,1853.2704851671481,5779.8550638049401,0.0
653523.2936376977,3732751.2368613081,-12500.0,130.89872160057914,24.229657327184331,5691.9436283540181,-9.4106566045880058,-1053.1589430122121,145.13859873831368,2966.7552212307428,-1886.9632017528702,3397.319565919559,-3397.319565919559,1886.9632017528702,5845.998017515506,0.0
658523.2936376977,3732751.2368613081,-12500.0,177.07069240755382,408.41505099096747,5660.286433082505,-80.425042462129241,-1045.7314312873327,143.83303722532989,2965.0686795634065,-1843.5562551554835,3640.0727864890982,-3640.0727864890982,1843.5562551554835,5835.1936246988089,0.0
663523.2936376977,3732751.2368613081,-12500.0,264.94837036860997,767.02539732398907,5504.6520300633219,-147.07677383046189,-1018.0108440177692,140.1039505878652,2924.1396772266876,-1728.9218253884087,3782.5608149177419,-3782.5608149177419,1728.9218253884087,5750.0561025107127,0.0
668523.2936376977,3732751.2368613081,-12500.0,385.97933465402286,1082.3068463724285,5239.6680962154032,-206.41876345914358,-972.32707605905489,134.22767348257426,2847.0753322091041,-1554.1278948264221,3822.7556184285518,-3822.7556184285518,1554.1278948264221,5596.5925326838533,0.0
628523.2936376977,3737751.2368613081,-12500.0,451.02140742009033,-1322.7614368487964,3637.5450289642172,240.11688502508468,-680.97017410547755,95.060260533140664,2137.5650907079448,-957.79969792299937,1159.2634711832306,-1159.2634711832306,957.79969792299937,4269.4429001437675,0.0
633523.2936376977,3737751.2368613081,-12500.0,337.12008055252721,-1144.0222284199842,4069.0421320235091,205.03557347067488,-748.87562995593305,102.8013320376516,2281.0970203793477,-1185.2242123726492,1566.2224587565547,-1566.2224587565547,1185.2242123726492,4537.789135996165,0.0
638523.2936376977,3737751.2368613081,-12500.0,239.9544891719321,-910.28540394638753,4437.7005382849957,161.1112772791644,-806.22496421005712,109.23369292288757,2403.8601453055303,-1378.8485127965405,1970.7977125670996,-1970.7977125670996,1378.8485127965405,4764.5165216491032,0.0
643523.2936376977,3737751.2368613081,-12500.0,168.76705049397356,-631.61532219060052,4724.9307767239497,110.04904548014868,-850.27314938489121,114.0664463092558,2500.1325814523616,-1526.013748625423,2352.9917470610349,-2352.9917470610349,1526.013748625423,4940.9396245559437,0.0
648523.2936376977,3737751.2368613081,-12500.0,130.50211135324381,-321.84139764119641,4916.6422886583996,54.111269368807136,-878.97152321075862,117.0879565148343,2566.4414636898755,-1617.2467360501551,2693.3207082073932,-2693.3207082073932,1617.2467360501551,5060.5160133876379,0.0
633523.2936376977,3517751.2368613081,-17500.0,268.49431679870867,867.43828782007029,5021.0938641115281,227.02230123443533,1253.6847236629469,231.46344675482734,2780.6365264481192,-1246.202663005794,3698.6261622938305,-3698.6261622938305,1246.202663005794,5467.3309505645329,0.0
638523.2936376977,3517751.2368613081,-17500.0,166.57413463147847,534.45895629604524,5215.2407793099092,143.886808133069,1296.121910494644,237.91648678220832,2834.6045682424865,-1432.8668110629978,3630.0440247740307,-3630.0440247740307,1432.8668110629978,5576.0905889157566,0.0
643523.2936376977,3517751.2368613081,-17500.0,103.48610714205128,167.72713166582895,5295.0637912359643,53.247582793536324,1313.0257169753056,240.15088166202014,2851.3598083013071,-1561.9970609923012,3459.8995826623586,-3459.8995826623586,1561.9970609923012,5614.8609069684899,0.0
648523.2936376977,3517751.2368613081,-17500.0,85.977291318443918,-213.16832069811736,5249.7387978605884,-40.528710439122136,1302.148401244785,237.83719083617817,2828.7442935278391,-1622.4752119291265,3192.5577944968613,-3192.5577944968613,1622.4752119291265,5579.5472331150004,0.0
653523.2936376977,3517751.2368613081,-17500.0,116.35139745763955,-586.20206598742254,5076.5907557248183,-132.56802982068049,1262.952432867447,230.9127426387293,2766.5225793747177,-1608.4491215554076,2839.9568465657235,-2839.9568465657235,1608.4491215554076,5469.6997245700804,0.0
658523.2936376977,3517751.2368613081,-17500.0,191.89211795767989,-929.19072449850728,4781.8872259300515,-217.9628507334188,1196.7687361877872,219.60355593312926,2666.5530882914532,-1520.3230810586999,2420.7598784778875,-2420.7598784778875,1520.3230810586999,5288.771454165324,0.0
663523.2936376977,3517751.2368613081,-17500.0,305.04566104063309,-1222.2328674523621,4380.4920392220056,-292.27836189881594,1106.7271634539841,204.4121236098155,2533.071403750846,-1364.8888532070841,1958.5368715086875,-1958.5368715086875,1364.8888532070841,5043.99557773988,0.0
668523.2936376977,3517751.2368613081,-17500.0,444.36889828022908,-1449.8815730757831,3894.3771815600912,-352.00605435574829,997.45853181823782,186.0717494817641,2380.2883883727523,-1154.5295079400935,1479.2498988172515,-1479.2498988172515,1154.5295079400935,4745.8789446754517,0.0
673523.2936376977,3517751.2368613081,-17500.0,596.07094344507561,-1602.6602852753028,3350.2326254036684,-394.88746626558549,874.61437765340725,165.47376466448839,2224.3716010611765,-905.63341888949162,1008.4762047450636,-1008.4762047450636,905.63341888949162,4407.3772226496603,0.0
678523.2936376977,3517751.2368613081,-17500.0,745.8427787366611,-1677.6792919180521,2776.6012297997536,-420.0583080417569,744.28687130494689,143.58014308275548,2057.8343544944505,-636.52765994915967,568.85300496976743,-568.85300496976743,636.52765994915967,4042.8714192304042,0.0
683523.2936376977,3517751.2368613081,-17500.0,880.61835748382123,-1678.3111382075217,2201.0335362490068,-428.00227245415698,612.4254896880949,121.33505000309319,1886.0523255749313,-365.32585661305507,178.15131593776073,-178.15131593776073,365.32585661305507,3667.0852453064294,0.0
618523.2936376977,3522751.2368613081,-17500.0,844.97462482760955,1798.0233863416411,4309.9402849035323,488.84270229559576,1158.1323706765838,230.12952063259806,2728.9144980073706,-454.75897335805394,3728.1209128807636,-3728.1209128807636,454.75897335805394,5380.8750515361089,0.0
623523.2936376977,3522751.2368613081,-17500.0,661.89692060260427,1629.6621895897354,4823.0834096758472,439.85753944701355,1277.8360684546738,250.31823384690691,2901.4600510651744,-772.75701285175865,3983.6435705699482,-3983.6435705699482,772.75701285175865,5713.4876614767463,0.0
628523.2936376977,3522751.2368613081,-17500.0,480.93478504158941,1380.4877692598634,5279.2523059749456,371.77785787544877,1383.2710529460401,267.83388169342822,3047.697639079418,-1084.4176292879079,4151.0067363621147,-4151.0067363621147,1084.4176292879079,5996.9993340644105,0.0
633523.2936376977,3522751.2368613081,-17500.0,317.79702670855539,1054.8522821145457,5647.9773169818773,285.85641357067755,1467.7082678995514,281.58774015602921,3160.0230936702692,-1368.5435787168176,4210.6101131743035,-4210.6101131743035,1368.5435787168176,6216.9863617773281,0.0
638523.2936376977,3522751.2368613081,-17500.0,188.30738942510214,664.50292738661483,5900.4057480523697,184.97877421474101,1524.8432955150481,290.57631819952894,3231.6633739150543,-1603.2176404801435,4148.58884280038,-4148.58884280038,1603.2176404801435,6360.5928577540417,0.0
643523.2936376977,3522751.2368613081,-17500.0,106.26882854660322,228.50049124406505,6012.7061245607329,73.623552072464449,1549.5157382627167,293.99366955666284,3257.3525320865738,-1768.3674582313588,3959.3297941190531,-3959.3297941190531,1768.3674582313588,6417.815276281799,0.0
648523.2936376977,3522751.2368613081,-17500.0,81.275878684104867,-228.02005425744667,5969.3989680258301,-42.420209021112377,1538.4044897530769,291.33776185708547,3233.9568515011624,-1848.5181949384396,3647.2085282520984,-3647.2085282520984,1848.5181949384396,6382.6869158378749,0.0
653523.2936376977,3522751.2368613081,-17500.0,116.93021140308785,-676.23369448652568,5765.9752339952256,-156.57216061856235,1490.5696196461934,282.4913644717023,3160.9624081550792,-1835.2145772594527,3227.0636786037908,-3227.0636786037908,1835.2145772594527,6254.1723418176698,0.0
658523.2936376977,3522751.2368613081,-17500.0,209.90292133720803,-1086.8588206218164,5410.195218216857,-262.15396937349942,1407.719288426938,267.7598000040573,3040.8166042586863,-1728.5703653771884,2723.1291638243733,-2723.1291638243733,1728.5703653771884,6036.5963832970547,0.0
663523.2936376977,3522751.2368613081,-17500.0,350.13710125726573,-1433.6887481834754,4921.6808273933339,-353.14353405039822,1294.1246264244846,247.85476803169755,2880.160851039564,-1537.5384595893001,2166.4768690272958,-2166.4768690272958,1537.5384595893001,5739.499879562637,0.0
668523.2936376977,3522751.2368613081,-17500.0,522.2187074598238,-1696.740970900448,4329.775935305508,-424.8519415663078,1156.1778722767974,223.82394436410286,2702.2267000354404,-1278.7733623750764,1591.3850836321835,-1591.3850836321835,1278.7733623750764,5376.9150742522752,0.0
673523.2936376977,3522751.2368613081,-17500.0,707.64701420825463,-1864.4035648830907,3670.0480200803936,-474.39622321331331,1001.6673805459175,196.93789081377221,2513.8445471603563,-974.29649475067595,1031.3180770090764,-1031.3180770090764,974.29649475067595,4966.1593471167616,0.0
678523.2936376977,3522751.2368613081,-17500.0,887.5113414527076,-1934.2005710960077,2980.1137955385602,-500.88854315768617,838.90536294968535,168.55449500527283,2312.9288705855961,-648.46267148748075,515.28508986428983,-515.28508986428983,648.46267148748075,4526.3368200785699,0.0
683523.2936376977,3522751.2368613081,-17500.0,1045.0059559750225,-1912.1393252791124,2295.5825533706093,-505.32960901052792,675.86794674748614,139.98469983875825,2107.4022046852529,-324.8623464502391,65.21239631765647,-65.21239631765647,324.8623464502391,4076.7757586686462,0.0
688523.2936376977,3522751.2368613081,-17500.0,1167.3108729998048,-1810.9263174090322,1646.7990192779373,-490.25915119716802,519.48742395783574,112.38053922032483,1905.3556717862775,-23.740528374154565,-305.33453143276307,305.33453143276307,23.740528374154565,3635.6071734922757,0.0
693523.2936376977,3522751.2368613081,-17500.0,1246.5798275139007,-1647.5441786968429,1056.8025085921245,-459.25964655644742,375.18669298360817,86.659408299319026,1713.7808763355033,239.68652923495333,-591.08181970634678,591.08181970634678,-239.68652923495333,3218.6275207426306,0.0
698523.2936376977,3522751.2368613081,-17500.0,1280.0214172134081,-1440.7223338695756,540.59089703692666,-416.42105670652057,246.68123137901904,63.469066303881185,1538.0905334659178,455.90079709267877,-793.91338460195868,793.91338460195868,-455.90079709267877,2838.4886978986783,0.0
613523.2936376977,3527751.2368613081,-17500.0,1228.7426099271074,2183.6262729133196,4048.0920128093967,625.85093358370796,1164.4236303720941,246.7048358435502,2824.1474917047108,-23.619781591997935,3732.2805136796833,-3732.2805136796833,23.619781591997935,5588.3113104596778,0.0
618523.2936376977,3527751.2368613081,-17500.0,1029.3838935496765,2108.5197052936865,4701.0804401251435,596.5924015398075,1324.6166753260418,275.19283701344017,3059.8660561155953,-382.07545509575584,4140.2308509891027,-4140.2308509891027,382.07545509575584,6040.5696677425649,0.0
623523.2936376977,3527751.2368613081,-17500.0,809.96427413310971,1936.6713613196323,5331.0751114387676,543.17098619875435,1477.4368289813151,301.95943325941153,3275.6708450673614,-763.26151461382597,4475.8349326538219,-4475.8349326538219,763.26151461382597,6456.075364331954,0.0
628523.2936376977,3527751.2368613081,-17500.0,587.73359940315174,1662.6953861225786,5900.9001003468265,464.7058960040448,1614.2233047253753,325.52024401988189,3461.3278099085096,-1144.3456171764847,4708.6787887189857,-4708.6787887189857,1144.3456171764847,6815.4493989327038,0.0
633523.2936376977,3527751.2368613081,-17500.0,383.11523578096069,1289.7064330025662,6370.4262551433731,362.30784668962679,1725.7716131739178,344.32884982898162,3606.6168784585134,-1498.0143159152574,4811.291954232247,-4811.291954232247,1498.0143159152574,7099.3179772524054,0.0
638523.2936376977,3527751.2368613081,-17500.0,217.4164074451063,830.89512016118999,6700.5586908052455,239.39410881983645,1803.2260870653315,356.92580370734561,3702.2210441844472,-1795.0711921021709,4763.127453140718,-4763.127453140718,1795.0711921021709,7289.9999420753456,0.0
643523.2936376977,3527751.2368613081,-17500.0,109.81025402171178,309.80184715226454,6858.0875191179211,101.71302170223177,1839.1428594611555,362.11069073441109,3740.71054634748,-2008.0122080584522,4554.3955223671628,-4554.3955223671628,2008.0122080584522,7373.3720778424513,0.0
648523.2936376977,3527751.2368613081,-17500.0,74.089333543503997,-241.13039696418252,6820.6446972500744,-43.004983863622464,1828.56020090375,359.11100336955587,3717.491613159993,-2115.0572719705033,4188.9062192272741,-4188.9062192272741,2115.0572719705033,7340.6545531314823,0.0
653523.2936376977,3527751.2368613081,-17500.0,115.90102774310358,-783.79937859936001,6580.7616687943955,-185.77934264031168,1769.8652450869874,347.71518697270187,3631.5915333275498,-2103.840982204958,3685.099312780022,-3685.099312780022,2103.840982204958,7189.8087544819955,0.0
658523.2936376977,3527751.2368613081,-17500.0,231.20232227922727,-1279.0860935200258,6148.0205238952276,-317.40633585499222,1665.2491403143783,328.33844126964573,3486.3670527239083,-1973.8754006210352,3074.7365355889847,-3074.7365355889847,1973.8754006210352,6926.2561638806783,0.0
663523.2936376977,3527751.2368613081,-17500.0,406.45198126018818,-1692.0481968912757,5548.6137448605969,-429.60156140459657,1520.6108567782615,302.00146442611589,3293.3210524822357,-1737.0833639528505,2399.2669080860073,-2399.2669080860073,1737.0833639528505,6562.725417622014,0.0
668523.2936376977,3527751.2368613081,-17500.0,620.62141119479668,-1996.5659344307933,4822.2219147453752,-516.02807446079987,1344.8913772822175,270.22068335512182,3081.8553861350979,-1416.152106790322,1704.4961004915056,-1704.4961004915056,1416.152106790322,6118.1983703203496,0.0
673523.2936376977,3527751.2368613081,-17500.0,848.59617293048268,-2178.4280109309448,4016.8069386646712,-572.99780161718604,1148.9604867102937,234.82934947380048,2852.0592484402155,-1041.0375634641173,1034.6684878578012,-1034.6684878578012,1041.0375634641173,5616.1167781555923,0.0
678523.2936376977,3527751.2368613081,-17500.0,1065.1550809738173,-2236.2565864654625,3182.4336785047312,-599.71633681587969,944.28365431955933,197.76437590136493,2608.2087624467481,-644.43813100825446,427.20583842646101,-427.20583842646101,644.43813100825446,5082.1518616884186,0.0
683523.2936376977,3527751.2368613081,-17500.0,1248.6020493340159,-2180.2592543119622,2365.4118674210972,-598.06023856379727,741.63671313306156,160.85969795008134,2361.2185358207989,-257.27709355941352,-90.896312313341497,90.896312313341497,257.27709355941352,4541.9096609286398,0.0
688523.2936376977,3527751.2368613081,-17500.0,1383.3158162270997,-2029.3361214969248,1603.8216608362686,-571.98826410453751,550.09418644995264,125.68089987304415,2121.5376677595441,94.889122204005247,-504.54030475713705,504.54030475713705,-94.889122204005247,4018.8956326999742,0.0
693523.2936376977,3527751.2368613081,-17500.0,1460.8698216973621,-1807.3789393495497,924.99850260715186,-526.75500828672159,376.42156982845279,93.421995389123509,1897.8333203314251,393.9928961969934,-809.97142452977869,809.97142452977869,-393.9928961969934,3532.9369595284966,0.0
698523.2936376977,3527751.2368613081,-17500.0,1479.7886564381388,-1539.6141559564876,345.00246715258612,-468.1059504911849,224.89054626478497,64.868536651431185,1696.3988354052431,630.01747107556321,-1012.7375956397877,1012.7375956397877,-630.01747107556321,3099.1029175573781,0.0
703523.2936376977,3527751.2368613081,-17500.0,1444.3060359251144,-1249.6237387212084,-130.32691409467327,-401.59342549939117,97.445565677025201,40.41754415211247,1520.9042206039194,800.27870017880139,-1124.890036215698,1124.890036215698,-800.27870017880139,2727.0423475757411,0.0
708523.2936376977,3527751.2368613081,-17500.0,1362.6100759538017,-957.36142909518026,-503.3349127782439,-332.09174500529065,-5.8976039110569252,20.136562341316871,1372.4336789808767,907.89956686934318,-1162.1015501836034,1162.1015501836034,-907.89956686934318,2420.6581656131693,0.0
603523.2936376977,3532751.2368613081,-17500.0,1806.706013128417,2342.0673148869282,2848.8715927341373,731.81945599731819,927.48936983630858,219.05638861597737,2549.3567212494104,806.34494955886612,2952.9839231866472,-2952.9839231866472,-806.34494955886612,5089.6523340069025,0.0
608523.2936376977,3532751.2368613081,-17500.0,1677.8389560179626,2472.9998326787695,3559.3372804479459,755.08478227855426,1114.9108328778429,254.97753102421311,2844.7467370387103,513.89291338429575,3515.7749862034971,-3515.7749862034971,-513.89291338429575,5659.3642809920448,0.0
613523.2936376977,3532751.2368613081,-17500.0,1494.5846005090973,2524.7854533656132,4322.9795323145554,756.32322512690178,1313.1909321850119,292.31926451902717,3144.9559250213188,153.26146486772359,4072.7535363445159,-4072.7535363445159,-153.26146486772359,6233.6868307353634,0.0
618523.2936376977,3532751.2368613081,-17500.0,1264.5733542668834,2475.7841619605724,5111.7010137932821,730.55697016691613,1515.08193082504,329.69809201765349,3436.8556472315713,-264.94875989655657,4590.74525116718,-4590.74525116718,264.94875989655657,6793.1619548944263,0.0
623523.2936376977,3532751.2368613081,-17500.0,1002.3003678902649,2308.1106440291865,5887.1471410274617,673.87251788395997,1711.0254617362968,365.35450921095651,3708.1297799330127,-721.51858626397143,5031.1154007724836,-5031.1154007724836,721.51858626397143,7314.7844865587331,0.0
628523.2936376977,3532751.2368613081,-17500.0,728.99569974748329,2011.2316994477646,6602.0195098138456,584.24181088565729,1889.5192392403019,397.23035850637496,3945.2960917521104,-1188.5400182099547,5352.928107577558,-5352.928107577558,1188.5400182099547,7773.0924256339822,0.0
633523.2936376977,3532751.2368613081,-17500.0,471.16141056431985,1585.5665488241459,7203.3559138857145,462.31734174635409,2037.9218458370885,423.11815397650355,4134.5344443132171,-1630.891190140153,5517.614117472318,-5517.614117472318,1630.891190140153,8141.9186742367501,0.0
638523.2936376977,3532751.2368613081,-17500.0,257.60584214068251,1045.2668963929791,7637.8567852237447,312.01786920228352,2143.6991500425565,440.8790571494892,4262.9157084299013,-2009.5277417458792,5494.7032254274482,-5494.7032254274482,2009.5277417458792,8396.7400209948573,0.0
643523.2936376977,3532751.2368613081,-17500.0,115.18713793965946,419.22891801495314,7858.8080440800204,140.70065910660955,2196.0012428439786,448.70812396775392,4319.8426373573047,-2286.449030332743,5267.6879327206543,-5267.6879327206543,2286.449030332743,8517.4030059242468,0.0
648523.2936376977,3532751.2368613081,-17500.0,63.959235028904736,-250.45571267569835,7833.5243339681483,-41.24269973305428,2187.3270730269101,445.40522582457498,4298.5073161312566,-2430.6425115283309,4838.6944055710865,-4838.6944055710865,2430.6425115283309,8490.8456386511607,0.0
653523.2936376977,3532751.2368613081,-17500.0,112.83001671038969,-912.89719296625321,7549.7277243240869,-221.41801945894963,2114.931725677237,430.59633003463563,4197.181682340025,-2423.7837246324739,4230.5582509738415,-4230.5582509738415,2423.7837246324739,8313.3180897824623,0.0
658523.2936376977,3532751.2368613081,-17500.0,256.97585804909869,-1515.1502803169258,7019.1599930978173,-386.96886957887318,1981.6134669258468,404.84945505267626,4020.6957179982178,-2264.218409500756,3485.309214036969,-3485.309214036969,2264.218409500756,7991.6020932071842,0.0
663523.2936376977,3532751.2368613081,-17500.0,477.94431550657538,-2009.9835734181304,6277.2003198205221,-526.3374034512085,1795.6235153524897,369.64787814097815,3788.4970488540976,-1967.9947442065595,2658.952031160371,-2658.952031160371,1967.9947442065595,7542.8856279452875,0.0
668523.2936376977,3532751.2368613081,-17500.0,746.64842373719148,-2362.8681757064851,5378.2423485714326,-630.85652180821342,1569.6475950340416,327.21633128506448,3531.4608778292954,-1566.4512826279445,1813.5049621840615,-1813.5049621840615,1566.4512826279445,6993.2098005446551,0.0
673523.2936376977,3532751.2368613081,-17500.0,1028.5592956818807,-2556.4891537917383,4387.7947313391214,-695.80819725663753,1319.0629132355,280.23291728003068,3248.8031455535147,-1100.8819079720172,1008.1246172109784,-1008.1246172109784,1100.8819079720172,6374.7468967987134,0.0
678523.2936376977,3532751.2368613081,-17500.0,1289.7241871573121,-2591.8043840353835,3373.1796603435355,-720.73090692756591,1059.865065077297,231.48905786748418,2951.0329474461405,-615.66149100745065,291.38951731696432,-291.38951731696432,615.66149100745065,5722.4195017562652,0.0
683523.2936376977,3532751.2368613081,-17500.0,1502.071147536449,-2485.7164770821519,2394.9661362089842,-708.97584037315391,806.72081442964588,183.56784180740362,2652.9803506679391,-151.56910714169246,-303.65399952123892,303.65399952123892,151.56910714169246,5070.4725893709592,0.0
688523.2936376977,3532751.2368613081,-17500.0,1646.8443749660892,-2266.3424178741952,1500.8218886196958,-666.70681956572275,571.51693372616819,138.59915950255288,2368.1593791368855,259.22162154782569,-761.02737231493325,761.02737231493325,-259.22162154782569,4449.5169526193013,0.0
693523.2936376977,3532751.2368613081,-17500.0,1715.7276776685103,-1967.325818034916,722.55538725111728,-601.64562962480068,362.59121894549162,98.122273252732285,2107.2168609860341,595.72120309252296,-1080.2874773112369,1080.2874773112369,-595.72120309252296,3884.3197304524424,0.0
698523.2936376977,3532751.2368613081,-17500.0,1709.9196721468268,-1622.5564431452954,76.18084573175247,-521.85958727467846,184.63416225159409,63.0569972774177,1877.2098541374166,848.29759379722225,-1272.9529947177525,1272.9529947177525,-848.29759379722225,3392.3539866567085,0.0
703523.2936376977,3532751.2368613081,-17500.0,1637.8715696226664,-1262.2043649704242,-435.81185265029956,-434.80268696038621,39.105118748116858,33.761316456370601,1681.4028711647552,1017.0473227779853,-1358.1199056474579,1358.1199056474579,-1017.0473227779853,2982.9755510540008,0.0
708523.2936376977,3532751.2368613081,-17500.0,1512.5054912452733,-910.40351134630737,-821.03167812265542,-346.70384420587158,-75.054974917742683,10.142254054830437,1519.5269731342651,1109.1988841359682,-1358.297493673115,1358.297493673115,-1109.1988841359682,2657.1948811412676,0.0
713523.2936376977,3532751.2368613081,-17500.0,1348.5840252355201,-584.456967856304,-1093.5403614637332,-262.29495923666957,-160.61946577191205,-8.2129023360321565,1388.4675070138228,1136.3159451591544,-1296.100989921161,1296.100989921161,-1136.3159451591544,2408.311478040685,0.0
598523.2936376977,3537751.2368613081,-17500.0,2201.7700907170383,2346.9362031171536,2134.0186654916979,799.25653397025997,798.69489883524193,210.29141405724565,2486.7082429724078,1332.170905553548,2418.731459116198,-2418.731459116198,-1332.170905553548,4918.3487398339075,0.0
603523.2936376977,3537751.2368613081,-17500.0,2148.1914487201639,2604.0758705584917,2855.9934276502277,858.87984701760161,1003.0406234346458,252.20066201756384,2796.9245662928547,1111.7383719364229,3054.9992219197215,-3054.9992219197215,-1111.7383719364229,5568.9028906952608,0.0
608523.2936376977,3537751.2368613081,-17500.0,2023.9725768392341,2803.0970629797566,3677.1035619013587,899.97392613525142,1230.6803548344221,297.90008739682821,3137.0907573650811,800.46628181438564,3731.538935795103,-3731.538935795103,-800.46628181438564,6253.8974448975559,0.0
613523.2936376977,3537751.2368613081,-17500.0,1827.7513218387742,2914.5387612087088,4579.4661594461004,915.15600791405916,1476.2712130153575,346.21466190432699,3502.7431790294713,398.05798829225955,4418.4538578972852,-4418.4538578972852,-398.05798829225955,6955.4239297975128,0.0
618523.2936376977,3537751.2368613081,-17500.0,1565.8672684886938,2908.2004117998799,5531.7523319197953,897.11859397518026,1731.1977811380202,395.38823681437259,3865.2825879437532,-86.300413276495419,5075.309415300494,-5075.309415300494,86.300413276495419,7649.7543948489092,0.0
623523.2936376977,3537751.2368613081,-17500.0,1254.0602213020368,2757.1189176554262,6487.9769015340962,839.62006900488007,1983.3822372031289,443.07491944217151,4207.9179373685465,-631.72663771230782,5652.5712953364082,-5652.5712953364082,631.72663771230782,8307.6847274037555,0.0
628523.2936376977,3537751.2368613081,-17500.0,917.98492603255204,2442.6733828400693,7388.3369861672199,738.70674116088037,2217.5933887139604,486.42145715633285,4512.7843579457012,-1204.715976615706,6095.2967210714214,-6095.2967210714214,1204.715976615706,8895.7436123518492,0.0
633523.2936376977,3537751.2368613081,-17500.0,591.84545293837061,1960.1257886744397,8162.9163072129313,593.99272484178209,2416.4250680287114,522.2647281530601,4761.0828427567603,-1760.3542707060792,6349.290467371351,-6349.290467371351,1760.3542707060792,9378.4245839648411,0.0
638523.2936376977,3537751.2368613081,-17500.0,314.68540375022491,1323.3978354618275,8738.664004648439,409.71621720126808,2562.0134585185156,547.44910228183153,4934.7132411532466,-2246.3116276814371,6369.3077485536696,-6369.3077485536696,2246.3116276814371,9721.4342823354727,0.0
643523.2936376977,3537751.2368613081,-17500.0,124.42749105188652,567.52845925149757,9049.255797167807,195.22300791526021,2638.3787725634447,559.23651257466747,5018.3857696851956,-2609.6747559583987,6128.042003333001,-6128.042003333001,2609.6747559583987,9895.6936433472965,0.0
648523.2936376977,3537751.2368613081,-17500.0,50.573950492837938,-252.66682092371505,9046.3567544201396,-35.440578811630225,2634.0379153751664,555.74500270678016,5001.8826364177894,-2805.7532338826732,5623.8357160754731,-5623.8357160754731,2805.7532338826732,9881.530947826328,0.0
653523.2936376977,3537751.2368613081,-17500.0,107.29609059701937,-1068.4933510066392,8709.792586565698,-264.9724147033146,2544.3236542523141,536.32116088087014,4882.2103258491379,-2806.9975636668551,4884.7136510398695,-4884.7136510398695,2806.9975636668551,9672.2663139590422,0.0
658523.2936376977,3537751.2368613081,-17500.0,289.03345109285254,-1807.2763232693353,8053.7226330790572,-475.15291753995456,2372.7702117144768,501.74652058285903,4666.5605419603844,-2609.5613532657112,3966.8411522242864,-3966.8411522242864,2609.5613532657112,9276.3227367927411,0.0
663523.2936376977,3537751.2368613081,-17500.0,570.31959494387343,-2404.2024013235086,7126.5419705013783,-649.60991520824621,2131.07507929647,454.20655573583264,4384.5483439352438,-2235.2862702764542,2946.9524346264252,-2946.9524346264252,2235.2862702764542,8717.2120914647858,0.0
668523.2936376977,3537751.2368613081,-17500.0,910.31122081725209,-2813.0609030730043,6003.9302994200043,-776.33684467570754,1837.5163239191952,397.01027138915305,4066.6168179248275,-1728.1251790236129,1910.2330636462711,-1910.2330636462711,1728.1251790236129,8031.215539136464,0.0
673523.2936376977,3537751.2368613081,-17500.0,1260.8800971242124,-3012.9637246552684,4776.6190214380485,-849.31910241601634,1514.1668064030978,334.11899734282264,3716.052564030304,-1145.8293352234296,936.73670447517907,-936.73670447517907,1145.8293352234296,7263.1632073316059,0.0
678523.2936376977,3537751.2368613081,-17500.0,1575.8881171536461,-3009.4193446062745,3536.1157617562853,-868.89758303429494,1183.6072763769332,269.59525793122617,3350.212291218882,-549.30005854561682,89.880212498197977,-89.880212498197977,549.30005854561682,6461.1970087493746,0.0
683523.2936376977,3537751.2368613081,-17500.0,1819.021531961293,-2830.0309318412201,2362.0187554511594,-840.90210456799662,865.93619588708589,207.09746149156632,2989.221052556009,7.4151403282330648,-590.35484920526665,590.35484920526665,-7.4151403282330648,5671.5541299009092,0.0
688523.2936376977,3537751.2368613081,-17500.0,1968.3484513942221,-2516.6847124418218,1313.607436432839,-774.93715207519313,576.6887316184135,149.51737123386857,2650.5388337250547,484.0967079783876,-1088.654845343789,1088.654845343789,-484.0967079783876,4934.2038123089069,0.0
693523.2936376977,3537751.2368613081,-17500.0,2017.1069454030064,-2116.7615986898786,426.68466249425774,-682.36613475597062,325.92097587217387,98.805575109601136,2347.0099316440569,857.26642864897258,-1410.944780849175,1410.944780849175,-857.26642864897258,4279.719267753836,0.0
698523.2936376977,3537751.2368613081,-17500.0,1971.4370103539852,-1675.5566083351487,-284.98958489852305,-574.48963085200921,118.35865006340275,55.974053016316127,2086.0263926972098,1119.3976161274272,-1578.2415977438977,1578.2415977438977,-1119.3976161274272,3727.327316288246,0.0
703523.2936376977,3537751.2368613081,-17500.0,1846.4101508971785,-1231.1504029775367,-825.28732207623955,-461.22688881700248,-45.716290376783427,21.228593601092442,1869.5283769036764,1275.6571894150729,-1619.8593744505624,1619.8593744505624,-1275.6571894150729,3283.9879355163312,0.0
708523.2936376977,3537751.2368613081,-17500.0,1661.7141499751444,-811.96417654040545,-1210.1159112711143,-350.39275171880666,-169.23131781314595,-5.8307484843378479,1694.7678568658264,1339.6259563399608,-1567.5026665640225,1567.5026665640225,-1339.6259563399608,2944.7086021021701,0.0
713523.2936376977,3537751.2368613081,-17500.0,1437.9593744201202,-436.52614841011888,-1462.0398946950729,-247.49796857758275,-257.06850235476185,-25.995502739862907,1555.7103123523079,1329.1633778426585,-1451.0182726299727,1451.0182726299727,-1329.1633778426585,2694.6938939782663,0.0
718523.2936376977,3537751.2368613081,-17500.0,1194.0666617381139,-114.67761124185105,-1605.9362485965739,-155.9187763823945,-314.99705717749413,-40.258796012865034,1444.760045135311,1263.101205126512,-1295.9168114775953,1295.9168114775953,-1263.101205126512,2513.4667405138971,0.0
593523.2936376977,3542751.2368613081,-17500.0,2517.7212016242161,2159.2897857192088,1317.0096345243928,821.36566252561909,623.71075530640826,190.67403192370469,2367.2235947001968,1803.1851996819269,1710.0787589511247,-1710.0787589511247,-1803.1851996819269,4608.8297270835692,0.0
598523.2936376977,3542751.2368613081,-17500.0,2573.3050914455962,2526.6310551356096,1986.8365207376428,918.38138682466638,830.1849008889601,236.49207811674756,2700.1842080184429,1697.3377777677019,2361.9349699143472,-2361.9349699143472,-1697.3377777677019,5308.8285474358345,0.0
603523.2936376977,3542751.2368613081,-17500.0,2553.661710509663,2870.4581584618368,2793.678834452624,1004.487002252625,1072.0200312331631,288.7324285448488,3065.5216334891643,1491.2002085952531,3101.4124074740007,-3101.4124074740007,-1491.2002085952531,6076.5440883694846,0.0
608523.2936376977,3542751.2368613081,-17500.0,2446.3823704542588,3158.8390633252516,3735.5618901719904,1070.9022780174089,1347.4880269721491,346.7702534044609,3461.5368305649586,1171.1721050636918,3909.3820178365986,-3909.3820178365986,-1171.1721050636918,6899.2457208328915,0.0
613523.2936376977,3542751.2368613081,-17500.0,2245.1189375732197,3353.6401348365366,4796.9285452862905,1107.5389510644427,1651.2381914414723,409.27022128338041,3899.4046210333618,731.1113626580518,4752.9140919283391,-4752.9140919283391,-731.1113626580518,7756.7522789254226,0.0
618523.2936376977,3542751.2368613081,-17500.0,1953.0097068872979,3413.3956454939548,5944.552269555491,1103.8248283022922,1973.3808884998277,474.04692176886113,4350.1814460915703,176.49155688306109,5583.8337274045161,-5583.8337274045161,-176.49155688306109,8620.6078382449268,0.0
623523.2936376977,3542751.2368613081,-17500.0,1585.7833500907436,3298.3007650728255,7124.6114950558094,1050.0277978399251,2298.9095323551401,538.00098435466759,4784.784368536456,-471.68021335730054,6339.4333796028295,-6339.4333796028295,471.68021335730054,9454.0438763394413,0.0
628523.2936376977,3542751.2368613081,-17500.0,1173.5289777237049,2977.2811686997188,8262.3185180491491,939.03933533894008,2607.7887474261702,597.18684259674103,5179.1010712342058,-1174.3363158341149,6946.3960626744683,-6946.3960626744683,1174.3363158341149,10213.146236538369,0.0
633523.2936376977,3542751.2368613081,-17500.0,759.9204960369608,2436.3808263045339,9265.6062565749289,768.40644986792984,2876.0432124111485,647.0628262497321,5507.4000981301278,-1874.6526618729772,7328.636731170016,-7328.636731170016,1874.6526618729772,10849.582142803602,0.0
638523.2936376977,3542751.2368613081,-17500.0,397.86076031651191,1686.7950444286175,10033.966338286406,542.19457483711119,3078.0658328347477,682.94778076360149,5744.1219661906407,-2502.5188738345832,7418.8898311839885,-7418.8898311839885,2502.5188738345832,11315.029913417909,0.0
643523.2936376977,3542751.2368613081,-17500.0,141.26535804671929,770.05300507604443,10472.381807421365,272.09356729491276,3190.0803077008109,700.6555885711108,5866.9366884032634,-2983.754683525463,7172.4673560715819,-7172.4673560715819,2983.754683525463,11567.049997171571,0.0
648523.2936376977,3542751.2368613081,-17500.0,34.058345444653227,-242.35770914920724,10508.465824585584,-22.840040236352884,3194.2738499518509,697.20978431689491,5860.28054592232,-3253.1697477937905,6580.0505076941063,-6580.0505076941063,3253.1697477937905,11575.612145548077,0.0
653523.2936376977,3542751.2368613081,-17500.0,99.028764733282856,-1256.7130765850684,10108.916671401716,-318.17412127231097,3082.6774160046575,671.47748580474808,5718.9709507701436,-3268.694235231932,5675.3896560554358,-5675.3896560554358,3268.694235231932,11328.98025642378,0.0
658523.2936376977,3542751.2368613081,-17500.0,330.20170749309875,-2171.7214998336963,9290.2612957745023,-587.68883697744468,2859.6492362536715,624.54032394040439,5453.6720263923262,-3022.4074860512178,4534.2702347017912,-4534.2702347017912,3022.4074860512178,10837.437432033817,0.0
663523.2936376977,3542751.2368613081,-17500.0,691.95502482347558,-2896.936414535809,8119.5973824716093,-807.80495366420496,2542.0095790824876,559.66418794694027,5105.6850286264198,-2544.3769199855024,3263.4443429928524,-3263.4443429928524,2544.3769199855024,10133.596956741889,0.0
668523.2936376977,3542751.2368613081,-17500.0,1125.9839599841398,-3369.6682744913978,6703.9636232088915,-961.65990442231066,2156.5377173126512,481.83962511040244,4706.9792429885101,-1897.2893338051858,1981.7943194757231,-1981.7943194757231,1897.2893338051858,9268.8796508447685,0.0
673523.2936376977,3542751.2368613081,-17500.0,1564.2015877090478,-3565.2065610158274,5170.9599330040683,-1041.6579965289625,1735.4189106403655,396.99699119662512,4268.4857328010567,-1163.1978087281609,799.0680778822508,-799.0680778822508,1163.1978087281609,8306.8153494685648,0.0
678523.2936376977,3542751.2368613081,-17500.0,1943.3329985618104,-3497.5676218963476,3646.3676477919507,-1049.8433417093986,1310.9218040953124,311.10126471500541,3816.3130370771619,-426.66437292788021,-201.58246548128474,201.58246548128474,426.66437292788021,7314.7285330854447,0.0
683523.2936376977,3542751.2368613081,-17500.0,2216.6019293489844,-3211.5412830670912,2235.1262948466438,-996.21921721906313,910.7436728414815,229.35110575416471,3377.8352774244363,240.43678764782305,-972.84726105765651,972.84726105765651,-240.43678764782305,6355.6301093008778,0.0
688523.2936376977,3542751.2368613081,-17500.0,2359.5836212785284,-2769.6496353049715,1009.9910122009729,-895.77851548544243,555.04669898520172,155.64686308691324,2975.4845507759555,788.53903993616041,-1503.2943417114634,1503.2943417114634,-788.53903993616041,5481.6681724151322,0.0
693523.2936376977,3542751.2368613081,-17500.0,2369.8655361738838,-2238.5170847776185,8.9078393094676294,-765.24781718877944,255.50395112282035,92.38759916312128,2624.229293163748,1193.1580047090326,-1810.3349961437568,1810.3349961437568,-1193.1580047090326,4729.6441329034715,0.0
698523.2936376977,3542751.2368613081,-17500.0,2262.2275606069302,-1678.1299134131289,-760.69184588499979,-620.3708794877092,16.029648351210589,40.55645910231371,2330.749852625419,1452.0081045459367,-1929.7923475422738,1929.7923475422738,-1452.0081045459367,4118.4514669872415,0.0
703523.2936376977,3542751.2368613081,-17500.0,2061.8706453076684,-1135.5438442224538,-1313.8037667961573,-474.15861535144671,-165.47255484229228,-0.0049618484217890738,2094.027237250858,1578.9123798809699,-1905.5194896212258,1905.5194896212258,-1578.9123798809699,3648.4640838452237,0.0
708523.2936376977,3542751.2368613081,-17500.0,1797.8915711978498,-642.85244084903263,-1678.9542141867323,-336.13855264374064,-295.02929101484443,-30.244571590726871,1907.173585040518,1596.9547753011893,-1781.2506474114912,1781.2506474114912,-1596.9547753011893,3303.6741573980721,0.0
713523.2936376977,3542751.2368613081,-17500.0,1498.3004525224903,-218.23240704618522,-1890.5044477394542,-212.38464284871108,-380.68753371405973,-51.558436398329981,1760.0632624235109,1532.5622689196205,-1595.4498451750612,1595.4498451750612,-1532.5622689196205,3057.2632672215445,0.0
718523.2936376977,3542751.2368613081,-17500.0,1186.9743311790951,131.34714327759522,-1983.0536624022006,-106.02165941858607,-431.03654653044015,-65.512385079677813,1641.9876048138899,1411.2818983127142,-1378.9034416642942,1378.9034416642942,-1411.2818983127142,2879.2773413894242,0.0
723523.2936376977,3542751.2368613081,-17500.0,882.33211229422602,406.91329859208935,-1988.0024059920754,-17.928614197592058,-454.2243338026401,-73.645204093966086,1543.5793294829405,1255.3083374980852,-1154.3198576503332,1154.3198576503332,-1255.3083374980852,2743.2457100990177,0.0
588523.2936376977,3547751.2368613081,-17500.0,2688.69401008668,1778.3470870474821,477.28161113717169,787.99975397770424,415.73511516162347,160.67947279673788,2200.8356091943524,2144.7912334840303,890.73514801609531,-890.73514801609531,-2144.7912334840303,4190.419142193562,0.0
593523.2936376977,3547751.2368613081,-17500.0,2873.5382700814994,2217.9336259113129,1034.1690225341183,917.46150349963443,607.28301827160726,207.43313028425945,2537.9738254838935,2181.6591797673282,1490.6428511959466,-1490.6428511959466,-2181.6591797673282,4896.6026560569708,0.0
598523.2936376977,3547751.2368613081,-17500.0,2994.5342457480938,2676.1947483269419,1748.9308974859268,1047.0132307188499,843.40909299260466,263.07310176711917,2921.525482655527,2127.0220895771663,2216.325519779346,-2216.325519779346,-2127.0220895771663,5702.532098895711,0.0
603523.2936376977,3547751.2368613081,-17500.0,3029.5033623144641,3125.9523103519541,2637.7146852223741,1168.2020795320173,1127.1565816780726,327.83440875069732,3350.1883474495789,1955.3784684614427,3065.2363742864954,-3065.2363742864954,-1955.3784684614427,6604.1121970635813,0.0
608523.2936376977,3547751.2368613081,-17500.0,2958.1961002908865,3529.3201981219404,3706.7513173693615,1269.9008497085676,1458.5311832798186,401.26457273573408,3820.505565101234,1643.8332603440278,4021.3028141416635,-4021.3028141416635,-1643.8332603440278,7589.4944172171126,0.0
613523.2936376977,3547751.2368613081,-17500.0,2766.3899737520906,3838.0807672078463,4946.2895678278164,1338.5791038838227,1832.9663253776396,481.94725713198363,4337.4592172012763,1176.9382076731017,5050.4901389392262,-5050.4901389392262,-1176.9382076731017,8636.9998926259268,0.0
618523.2936376977,3547751.2368613081,-17500.0,2450.9524606070231,3996.397450642954,6324.014978339439,1359.1934495190571,2239.7402462767086,567.24165239452884,4895.5911439607735,552.76427614036766,6097.3359983238834,-6097.3359983238834,-552.76427614036766,9713.3833839354593,0.0
623523.2936376977,3547751.2368613081,-17500.0,2025.0915384430841,3946.6997554899576,7779.2834949283233,1316.8737711489546,2660.698534238923,653.10985315766652,5448.5727350129937,-210.61525873919436,7083.9883460359824,-7083.9883460359824,210.61525873919436,10772.995931143279,0.0
628523.2936376977,3547751.2368613081,-17500.0,1522.370980830905,3639.1340746051287,9220.2472438718651,1199.4545864840761,3069.8041266137889,734.12685385170573,5961.5875402439051,-1069.8112063952794,7913.5991041389789,-7913.5991041389789,1069.8112063952794,11758.549655491359,0.0
633523.2936376977,3547751.2368613081,-17500.0,997.50600295697916,3043.9756491235376,10526.471422101493,1000.6408525833602,3434.1305077826246,803.77372950446886,6399.1123804564595,-1954.2762379306878,8479.7305576061663,-8479.7305576061663,1954.2762379306878,12604.195687378384,0.0
638523.2936376977,3547751.2368613081,-17500.0,521.86844115357303,2164.8592438178157,11559.444482400955,723.22899573840357,3716.8242122699207,855.08149594041197,6724.7483268475962,-2770.4869687057526,8682.3414663483818,-8682.3414663483818,2770.4869687057526,13241.39815987196,0.0
643523.2936376977,3547751.2368613081,-17500.0,172.50120684416811,1048.9619982581105,12181.923403925393,381.41912512221637,3882.1680196956249,881.61023318122693,6905.4684303250951,-3413.9202644306524,8448.7203495043577,-8448.7203495043577,3413.9202644306524,13607.503757330909,0.0
648523.2936376977,3547751.2368613081,-17500.0,15.576188886116471,-210.72576427359274,12284.059329093681,1.0782142628492357,3902.1468043137247,878.61936185510342,6917.1575518678637,-3788.3267781112136,7754.7749023165015,-7754.7749023165015,3788.3267781112136,13655.978911861126,0.0
653523.2936376977,3547751.2368613081,-17500.0,88.213350398376818,-1485.0010398055053,11810.393539452562,-382.90683588525286,3763.0384192401752,844.15678232233404,6750.6881319449958,-3828.3713035841029,6639.6341830705696,-6639.6341830705696,3828.3713035841029,13366.247243291022,0.0
658523.2936376977,3547751.2368613081,-17500.0,384.99334271524651,-2630.3256174853623,10778.935931822789,-732.1812944436947,3469.953862376537,779.72963489502627,6421.1664139071099,-3518.5575286215744,5206.4939606694597,-5206.4939606694597,3518.5575286215744,12750.405454499807,0.0
663523.2936376977,3547751.2368613081,-17500.0,855.38070557589765,-3518.0767265491954,9284.0550175057324,-1012.1653794410457,3047.4426434145735,690.28931248742754,5983.8572357722423,-2900.7513966381021,3606.3779015099171,-3606.3779015099171,2900.7513966381021,11854.368613767941,0.0
668523.2936376977,3547751.2368613081,-17500.0,1414.6135632390531,-4061.9109072813935,7479.9394960398067,-1198.8230331783684,2535.4620176927779,583.46396015006121,5477.4730531934083,-2066.0406640029655,2008.1687635509143,-2008.1687635509143,2066.0406640029655,10752.431127687953,0.0
673523.2936376977,3547751.2368613081,-17500.0,1964.8061361885236,-4233.693433101038,5549.0912243606899,-1282.7517290687679,1981.7470910018226,468.23071751018028,4924.1285712674262,-1133.0483307720965,564.44845559463988,-564.44845559463988,1133.0483307720965,9536.3405656151499,0.0
678523.2936376977,3547751.2368613081,-17500.0,2418.4361598279193,-4063.0539599786607,3666.4079950094865,-1269.4127014067631,1432.9935714270023,353.40948960369542,4362.0619096352584,-220.59925390876617,-615.51233200086733,615.51233200086733,220.59925390876617,8301.7301790234596,0.0
683523.2936376977,3547751.2368613081,-17500.0,2715.9228298938319,-3622.5682717248042,1970.3045990311718,-1175.8641198249902,927.51153228195676,246.38793506079469,3828.5943249415759,575.68191371607463,-1478.0474332271128,1478.0474332271128,-575.68191371607463,7135.1961266666658,0.0
688523.2936376977,3547751.2368613081,-17500.0,2832.6305406722272,-3005.7305754562358,547.89004582586608,-1025.5583305429504,491.08298215397519,152.35476210396857,3352.1422148186598,1196.3343876340884,-2021.8932482082753,2021.8932482082753,-1196.3343876340884,6104.2795480006507,0.0
693523.2936376977,3547751.2368613081,-17500.0,2775.6657257207999,-2305.8123565652336,-565.28538435167548,-843.06923715483185,136.31534848913458,74.109147662892298,2948.9921831295223,1619.4048797511498,-2284.3799742444294,2284.3799742444294,-1619.4048797511498,5250.9950033907553,0.0
698523.2936376977,3547751.2368613081,-17500.0,2574.3351655611818,-1601.030357052801,-1375.2729061484822,-650.10812948133719,-135.37370245782543,12.333784126666563,2622.9184101122673,1853.3085514720101,-2323.9503107770183,2323.9503107770183,-1853.3085514720101,4588.8068311228653,0.0
703523.2936376977,3547751.2368613081,-17500.0,2268.909616225289,-947.5902408656367,-1915.4825895162494,-463.34867097199742,-330.46941467511488,-33.869704001169787,2367.2486250988627,1925.9543927914108,-2204.6254589666414,2204.6254589666414,-1925.9543927914108,4103.8624195467228,0.0
708523.2936376977,3547751.2368613081,-17500.0,1901.0931881663985,-379.26335110028742,-2232.9671416136607,-293.88359764576421,-459.94757374801611,-66.379993021192419,2168.7714727113944,1874.1419897590013,-1985.2531478866963,1985.2531478866963,-1874.1419897590013,3762.0516726713099,0.0
713523.2936376977,3547751.2368613081,-17500.0,1507.7133288875145,89.054748417046454,-2377.8617609019534,-147.78555121985784,-536.46081355129263,-87.526830852795001,2012.2056171267113,1735.470005992983,-1713.8717605288205,1713.8717605288205,-1735.470005992983,3520.9010330092065,0.0
718523.2936376977,3547751.2368613081,-17500.0,1117.635017091148,456.21912788229929,-2396.6545713168998,-27.207167937804272,-572.39241245807284,-99.69841738656018,1883.7256818424071,1543.3485117044186,-1426.0915550658772,1426.0915550658772,-1543.3485117044186,3341.196997619541,0.0
723523.2936376977,3547751.2368613081,-17500.0,751.12090885843736,729.79633233358936,-2328.7813943764427,68.408900808721853,-578.7356884196256,-105.09387140176759,1772.7490698241957,1324.6962026223011,-1145.9838568857788,1145.9838568857788,-1324.6962026223011,3193.5084872228335,0.0
728523.2936376977,3547751.2368613081,-17500.0,420.67569758408945,921.95046666546511,-2205.5871903873708,141.26102372788475,-564.61062102734468,-105.59725078319904,1672.1818627797986,1099.5133395076091,-888.16350550603488,888.16350550603488,-1099.5133395076091,3059.1316315643667,0.0
583523.2936376977,3552751.2368613081,-17500.0,2660.6789922032494,1236.3064378493495,-298.51673917008225,696.02239190986836,193.811505620682,122.20714159703003,2012.535576126927,2293.6071601027998,48.214289821321245,-48.214289821321245,-2293.6071601027998,3720.2465889278001,0.0
588523.2936376977,3552751.2368613081,-17500.0,2972.8071781257222,1694.0597500630322,100.49980241067621,846.95442908722237,354.21676485702454,166.43020267601167,2332.1961585627519,2477.4987086316132,532.77588620118036,-532.77588620118036,-2477.4987086316132,4382.1277226958837,0.0
593523.2936376977,3552751.2368613081,-17500.0,3248.3799190803697,2210.9800286986606,655.966720448665,1010.4678508199131,563.41534476125264,221.3507930935848,2709.0087421520248,2597.0712712869536,1162.7000602063113,-1162.7000602063113,-2597.0712712869536,5168.8437497987516,0.0
598523.2936376977,3552751.2368613081,-17500.0,3460.3325683201224,2771.3081490050718,1399.5466189418923,1180.4165673131288,829.30158908356634,288.22972561294364,3146.659743838768,2620.3790374925898,1953.6704434015815,-1953.6704434015815,-2620.3790374925898,6087.353281187914,0.0
603523.2936376977,3552751.2368613081,-17500.0,3578.1655824985173,3346.9181114120079,2359.6441376935891,1347.1542412104006,1158.249553390679,367.85244907735182,3646.0849075711112,2511.8708626725474,2912.1105099193173,-2912.1105099193173,-2511.8708626725474,7138.1896720785653,0.0
608523.2936376977,3552751.2368613081,-17500.0,3571.0839213121162,3894.7500011965876,3555.3062231701283,1497.023598907771,1553.3741873997208,460.16710140818253,4204.8012957313849,2236.0600235571446,4029.0321349217174,-4029.0321349217174,-2236.0600235571446,8312.5420342006437,0.0
613523.2936376977,3552751.2368613081,-17500.0,3413.1191635138543,4355.7102777126329,4987.9144848797869,1612.3164404952918,2012.2800045001616,563.84901852050052,4821.1448519149162,1763.5327983917618,5273.0171249618797,-5273.0171249618797,-1763.5327983917618,9588.976973041068,0.0
618523.2936376977,3552751.2368613081,-17500.0,3090.2187269202072,4656.4360746985221,6631.1746497114855,1672.0589820356797,2524.4810056441156,675.84501277318975,5503.8495620391841,1079.3663490146128,6583.5461448073138,-6583.5461448073138,-1079.3663490146128,10930.247375824076,0.0
623523.2936376977,3552751.2368613081,-17500.0,2608.5708701578828,4715.5201474205951,8420.9256994248426,1653.9989188983036,3068.9410556442863,791.00124959766094,6208.1306837720995,193.24009680944619,7866.8063240019601,-7866.8063240019601,-193.24009680944619,12280.965483661072,0.0
628523.2936376977,3552751.2368613081,-17500.0,2002.3608167047948,4455.4758152066588,10247.631762724319,1538.0481850678066,3612.5091890628232,901.9306303235187,6879.0877156864508,-850.7016104969689,8996.9721774921818,-8996.9721774921818,850.7016104969689,13567.240818010887,0.0
633523.2936376977,3552751.2368613081,-17500.0,1337.9322015192304,3820.5117723801332,11955.758389478729,1311.087227227127,4110.3182244894724,999.30661068406107,7466.8867482289497,-1967.6573258262129,9826.2769101328213,-9826.2769101328213,1967.6573258262129,14699.601878804753,0.0
638523.2936376977,3552751.2368613081,-17500.0,710.53667766626302,2797.7967462250595,13354.785562296458,972.41436509985635,4509.2690782269337,1072.743941613749,7919.2792997631677,-3034.1987568398126,10206.174311443761,-10206.174311443761,3034.1987568398126,15580.39399427486,0.0
643523.2936376977,3552751.2368613081,-17500.0,230.48259274699376,1436.5807886625348,14245.151800179608,538.33390717260647,4755.2543329709642,1112.2976595866442,8186.786482592971,-3902.7339611003345,10018.72715710782,-10018.72715710782,3902.7339611003345,16116.086340349291,0.0
648523.2936376977,3552751.2368613081,-17500.0,-1.4349854578629531,-143.32670638324319,14457.895601915341,43.785136268846394,4803.5848331204161,1110.3846909288038,8231.3199054367633,-4429.5222799700823,9212.0451081525207,-9212.0451081525207,4429.5222799700823,16233.387710796564,0.0
653523.2936376977,3552751.2368613081,-17500.0,76.137964194050383,-1762.1439966847418,13899.487478832532,-460.90648937454557,4630.3388192143111,1063.6650078003051,8036.3738302194679,-4511.2408858008957,7827.9473773911786,-7827.9473773911786,4511.2408858008957,15895.978783955103,0.0
658523.2936376977,3552751.2368613081,-17500.0,460.76865450485957,-3212.7668100908768,12586.479300095558,-918.65526042615875,4240.8502968708635,974.26071235141694,7621.7867932927184,-4118.1762105357348,6008.0342541968939,-6008.0342541968939,4118.1762105357348,15116.940978710149,0.0
663523.2936376977,3552751.2368613081,-17500.0,1079.7118707305267,-4308.3077265976608,10653.605131094353,-1277.7239636123691,3671.505119276138,849.78687981010069,7061.5759948337763,-3309.2569995202866,3969.9618705278954,-3969.9618705278954,3309.2569995202866,13961.937776992707,0.0
668523.2936376977,3552751.2368613081,-17500.0,1807.2138629858227,-4927.7769845826224,8327.6183648481492,-1503.292275538771,2983.1391575525172,702.04698441674748,6409.9743933812915,-2219.6415909601546,1958.524469604987,-1958.524469604987,2219.6415909601546,12540.701037586508,0.0
673523.2936376977,3552751.2368613081,-17500.0,2500.0509727665853,-5041.6155300376913,5874.5174612381807,-1584.1851204404431,2247.8836258823508,544.75386407623944,5705.2044784912778,-1024.1630003196931,189.12198400228726,-189.12198400228726,1024.1630003196931,10988.622605472812,0.0
678523.2936376977,3552751.2368613081,-17500.0,3036.2952138708429,-4707.9598209157994,3540.3467453791827,-1532.5428975665336,1534.1784808488776,391.00053058615765,5002.9549131231288,108.20684053364482,-1194.8982562094939,1194.8982562094939,-108.20684053364482,9443.8788536409829,0.0
683523.2936376977,3552751.2368613081,-17500.0,3341.8577252149662,-4044.6518218161932,1506.9059351049689,-1377.4130492833849,895.03631466424474,251.23246422176265,4354.0847338517378,1050.8317743384282,-2137.7322279025852,2137.7322279025852,-1050.8317743384282,8026.2419249966197,0.0
688523.2936376977,3552751.2368613081,-17500.0,3397.5040362725272,-3191.5902473976189,-126.30465022058259,-1155.5293488376631,362.49028256908781,132.18066989940135,3793.5086405016809,1735.9860294308419,-2660.1415754394293,2660.1415754394293,-1735.9860294308419,6821.4277294529356,0.0
693523.2936376977,3552751.2368613081,-17500.0,3229.1046992519978,-2278.1464533548842,-1335.7214843669167,-902.79259238362363,-51.83955261200682,36.798706821991651,3336.3868916934807,2151.6432652176868,-2833.0240874660435,2833.0240874660435,-2151.6432652176868,5871.8951673733809,0.0
698523.2936376977,3552751.2368613081,-17500.0,2889.5758243244354,-1403.6855300287586,-2152.9485013168605,-648.61661341971626,-352.18483328866307,-35.072266853527886,2979.4190333390602,2326.0573286402073,-2748.5647368757805,2748.5647368757805,-2326.0573286402073,5174.7677333242809,0.0
703523.2936376977,3552751.2368613081,-17500.0,2440.8194243099497,-631.63824245221861,-2640.5461659787302,-413.57288475211408,-552.67048824522021,-85.705118609044106,2706.2663120330481,2309.0907219338087,-2497.7566348638766,2497.7566348638766,-2309.0907219338087,4689.5383418259862,0.0
708523.2936376977,3552751.2368613081,-17500.0,1940.521935254216,6.9465613921513514,-2871.706912597725,-209.59123445763609,-671.89397519712679,-118.4925079321773,2495.0440104824306,2156.4852572451769,-2157.2700396098166,2157.2700396098166,-2156.4852572451769,4356.0180236371571,0.0
713523.2936376977,3552751.2368613081,-17500.0,1435.0014935345032,505.36570241433179,-2916.6546751111396,-41.587613064020637,-728.96948563085834,-137.15552754666385,2324.9130133220719,1919.5476516028111,-1784.5345926703812,1784.5345926703812,-1919.5476516028111,4114.9318234125212,0.0
718523.2936376977,3552751.2368613081,-17500.0,957.02848345877953,872.54305329127283,-2835.4656372977583,90.452217794770888,-741.16240017629048,-145.21938390589108,2179.7457392955703,1640.0395852029264,-1418.2461723901301,1418.2461723901301,-1640.0395852029264,3920.994455676228,0.0
723523.2936376977,3552751.2368613081,-17500.0,526.78541589724136,1125.6965671105165,-2675.6093383650027,189.54166444271397,-722.81031263770615,-145.73173265035558,2048.8804743176906,1348.848759517967,-1081.57855199353,1081.57855199353,-1348.848759517967,3745.7531611166432,0.0
728523.2936376977,3552751.2368613081,-17500.0,154.30966323046039,1285.0779639079815,-2472.3393085671405,260.18595099256333,-685.10463394025044,-141.1605523778745,1926.1987456783822,1066.8663261557349,-786.17597782884093,786.17597782884093,-1066.8663261557349,3574.3478170037092,0.0
733523.2936376977,3552751.2368613081,-17500.0,-157.71495931431812,1370.6725986755553,-2250.4601544258153,307.34505277180762,-636.35374816696788,-133.40472883971825,1808.7175285155188,806.84157217599648,-535.8544683045078,535.8544683045078,-806.84157217599648,3400.8087123615355,0.0
578523.2936376977,3557751.2368613081,-17500.0,2406.0139987135708,594.59121842923423,-934.11675019442259,550.80142076434186,-20.451413793567973,78.363320059023636,1836.1774355162956,2213.322773541071,-722.81365818901656,722.81365818901656,-2213.322773541071,3282.0406829558106,0.0
583523.2936376977,3557751.2368613081,-17500.0,2818.3641692602896,1011.5534267815474,-712.43292117592523,707.78324362885633,96.647088202121836,116.66916332282642,2118.9367038395735,2521.1132183827995,-398.76092406772705,398.76092406772705,-2521.1132183827995,3850.6053390720126,0.0
588523.2936376977,3557751.2368613081,-17500.0,3232.1377072310552,1516.8930733804093,-357.39699897359043,888.7438435140466,260.68967749457875,166.43428764893156,2463.1135127166508,2804.6266791729927,66.906313856515681,-66.906313856515681,-2804.6266791729927,4555.7892851384549,0.0
593523.2936376977,3557751.2368613081,-17500.0,3622.4597324229667,2109.8123823958899,171.31139811599525,1091.4046694600447,483.25832863661071,229.88806301128545,2877.8002835557941,3033.3697639202878,704.57003447094166,-704.57003447094166,-3033.3697639202878,5416.616328710943,0.0
598523.2936376977,3557751.2368613081,-17500.0,3956.4937821343806,2779.144847227461,918.21776715487056,1310.080785800563,776.46675121603471,309.15427542449351,3370.6051012450112,3167.9925888551115,1542.3178750915365,-1542.3178750915365,-3167.9925888551115,6448.3453356267191,0.0
603523.2936376977,3557751.2368613081,-17500.0,4194.2754752950796,3498.711527699028,1928.0154483023939,1534.4756876451759,1151.5819610973176,405.90100830155097,3946.3050758643876,3161.3048005936071,2600.2430036554324,-2600.2430036554324,-3161.3048005936071,7659.4706736004409,0.0
608523.2936376977,3557751.2368613081,-17500.0,4291.6471999436662,4222.5618876262479,3238.4994289370834,1748.5628566390737,1616.8207066790894,520.83409672878054,4605.4877024671014,2961.70075813516,3882.3166050369755,-3882.3166050369755,-2961.70075813516,9047.7488216911461,0.0
613523.2936376977,3557751.2368613081,-17500.0,4206.1107200112747,4881.3325259745361,4869.8391898056425,1929.9204381408638,2174.2107905458188,653.03750833832157,5345.5778050418339,2519.983859449897,5366.0515425827361,-5366.0515425827361,-2519.983859449897,10595.315882040728,0.0
618523.2936376977,3557751.2368613081,-17500.0,3906.1065862990049,5381.7112586149879,6810.213257613007,2050.0679216929429,2815.6128935976481,799.21628326278744,6174.8084006473036,1800.2905603323793,6991.1341610152267,-6991.1341610152267,-1800.2905603323793,12263.325622901491,0.0
623523.2936376977,3557751.2368613081,-17500.0,3383.3811693017842,5611.6789336124111,8999.1710658746597,2076.4942946398241,3518.3802473378846,952.98083865863748,7069.3840495670929,794.91859024136011,8649.6613532651136,-8649.6613532651136,-794.91859024136011,13987.060637408027,0.0
628523.2936376977,3557751.2368613081,-17500.0,2666.5250559868628,5454.3691363402831,11312.240955304962,1977.0391835083021,4241.7073967120505,1104.4166310135231,7950.5786158051496,-458.88827607023359,10182.41284817913,-10182.41284817913,458.88827607023359,15673.125295647847,0.0
633523.2936376977,3557751.2368613081,-17500.0,1831.5079729706977,4812.2861868570453,13553.04105934548,1726.8996455302986,4925.3887140375418,1240.2726825565426,8746.6175304272347,-1864.7821552381074,11387.083173202904,-11387.083173202904,1864.7821552381074,17200.967566534753,0.0
638523.2936376977,3557751.2368613081,-17500.0,1002.7551521299115,3640.3670172658931,15461.464590230706,1317.5950895294529,5493.1723796382421,1345.1087229146033,9381.9880173397978,-3263.2537147380717,12044.254315098922,-12044.254315098922,3263.2537147380717,18431.259009522164,0.0
643523.2936376977,3557751.2368613081,-17500.0,337.68831989189061,1980.5714491740105,16746.19491098632,765.72466255427435,5862.5774635847238,1403.5626432863774,9781.6493500523775,-4446.4836935747608,11963.117110143901,-11963.117110143901,4446.4836935747608,19222.960408962517,0.0
648523.2936376977,3557751.2368613081,-17500.0,-8.7359022445503989,-16.158778929994227,17143.882209434305,117.79859946181986,5961.29322113953,1403.5003657107045,9884.1852383139285,-5197.6818564925816,11040.100126591618,-11040.100126591618,5197.6818564925816,19458.587652438982,0.0
653523.2936376977,3557751.2368613081,-17500.0,66.540906836604492,-2097.9027427831029,16494.24050709224,-552.99627595245693,5746.9387383522017,1339.2718311301842,9658.9233054546185,-5350.2687969272656,9311.3483271138102,-9311.3483271138102,5350.2687969272656,19073.123337590594,0.0
658523.2936376977,3557751.2368613081,-17500.0,569.78828717969952,-3959.9390281927135,14804.508435864765,-1160.1300271467892,5223.3285054418056,1213.9225266979934,9129.1812241376629,-4847.3912573751031,6972.0228311518777,-6972.0228311518777,4847.3912573751031,18077.710982868608,0.0
663523.2936376977,3557751.2368613081,-17500.0,1394.7435004723925,-5323.8736101363338,12270.069422036846,-1624.4375708122916,4445.2374873583549,1039.3252541349364,8396.5373173874141,-3772.7516061856645,4342.3814195250288,-4342.3814195250288,3772.7516061856645,16567.800613510477,0.0
668523.2936376977,3557751.2368613081,-17500.0,2350.499953974866,-6016.7240378241077,9232.4285783727664,-1894.5532812137751,3507.4181176390293,833.92360101378108,7545.8296424380233,-2331.7511303271849,1785.6031407414475,-1785.6031407414475,2331.7511303271849,14709.682594947049,0.0
673523.2936376977,3557751.2368613081,-17500.0,3223.4005351353653,-6013.2468294660621,6087.6927900359278,-1958.3164121330142,2521.1667557220362,618.77856891601562,6639.3477352556647,-787.72320684979854,-389.08232105980483,389.08232105980483,787.72320684979854,12708.260757082193,0.0
678523.2936376977,3557751.2368613081,-17500.0,3842.8566436481228,-5423.8540322160152,3185.9593011098846,-1840.7986968998921,1588.0897126196451,413.30802796012381,5758.3107209728541,616.30353800180421,-1995.3118646538069,1995.3118646538069,-616.30353800180421,10766.928089112416,0.0
683523.2936376977,3557751.2368613081,-17500.0,4121.2424531514598,-4440.7146470892003,762.97636742618124,-1591.5435294414485,781.16673689111326,232.09288605610601,4971.5094836619501,1714.948227451433,-2986.6015359566682,2986.6015359566682,-1714.948227451433,9051.6392397009986,0.0
688523.2936376977,3557751.2368613081,-17500.0,4057.0352488336271,-3272.7206645987312,-1078.1586386018525,-1268.0473392697284,138.01148616311269,83.487664458760904,4319.1058915657122,2439.1012626262082,-3427.5889420162885,3427.5889420162885,-2439.1012626262082,7665.9920897709444,0.0
693523.2936376977,3557751.2368613081,-17500.0,3710.8909248362406,-2096.1899263383607,-2344.6324603408102,-922.1455204712538,-335.15955685624613,-30.044051021924158,3809.3218506007001,2801.0415520140818,-3444.3013126885048,3444.3013126885048,-2801.0415520140818,6639.3319109356398,0.0
698523.2936376977,3557751.2368613081,-17500.0,3172.70531280249,-1031.8549454444592,-3113.1629044339397,-592.49906135953404,-653.85900347175209,-110.4957249866748,3424.6005622797138,2863.5057567325389,-3177.6424950650285,3177.6424950650285,-2863.5057567325389,5931.586072247449,0.0
703523.2936376977,3557751.2368613081,-17500.0,2533.8680886891848,-144.21438704241129,-3490.4304044128135,-302.89431017482093,-844.8987322496273,-162.53152573574766,3133.851825510219,2708.9819256746555,-2752.6824657177717,2752.6824657177717,-2708.9819256746555,5458.7559884694356,0.0
708523.2936376977,3557751.2368613081,-17500.0,1870.5476476136591,546.65631160607757,-3584.6709037053706,-64.281665714055961,-938.14867909926568,-191.9005853956582,2904.9767112020968,2417.8166279054508,-2264.9124249097799,2264.9124249097799,-2417.8166279054508,5129.4503500507026,0.0
713523.2936376977,3557751.2368613081,-17500.0,1237.3437796526155,1049.7773563676431,-3489.9509493529349,121.65482385512739,-961.3681008958747,-204.31035740103363,2712.6189492672693,2056.5891263303147,-1778.6746015992644,1778.6746015992644,-2056.5891263303147,4871.7287651524302,0.0
718523.2936376977,3557751.2368613081,-17500.0,667.85940939864099,1389.7263363599209,-3280.2783979737937,258.91920833600403,-937.72252329001947,-204.78233306027244,2540.2346651795156,1674.4211100926841,-1331.9887280890434,1331.9887280890434,-1674.4211100926841,4640.8072392959057,0.0
723523.2936376977,3557751.2368613081,-17500.0,178.65418494250707,1596.8702019467153,-3009.7057940599852,354.35019874701283,-885.14099210698419,-197.38795748969613,2378.6960177784149,1303.9994593465326,-943.44386384850498,943.44386384850498,-1303.9994593465326,4414.2030509047891,0.0
728523.2936376977,3557751.2368613081,-17500.0,-225.90532838954476,1701.3429090717386,-2715.2905002313555,415.66745434997745,-816.70284858364278,-185.23017252148858,2223.8695685321504,964.69067626025378,-618.72620412893855,618.72620412893855,-964.69067626025378,4183.6588222736809,0.0
733523.2936376977,3557751.2368613081,-17500.0,-549.24604662921456,1729.9196248322937,-2420.9038299788535,450.30438519779113,-741.46745308756215,-170.55501024954475,2074.4864745064119,666.09722759551471,-355.79425191296605,355.79425191296605,-666.09722759551471,3948.5186563851521,0.0
738523.2936376977,3557751.2368613081,-17500.0,-799.15663495947842,1704.8084339146053,-2140.8337180206977,464.81785133452183,-665.39290970270133,-154.91250852015108,1930.6721056196081,411.22865424913886,-148.54937739376288,148.54937739376288,-411.22865424913886,3711.4742268603163,0.0
578523.2936376977,3562751.2368613081,-17500.0,2396.8232421149132,257.29434560562902,-1325.8267737681242,511.71574806907824,-138.96604588710409,62.621880096789404,1941.3970081658649,2289.7847929677596,-1193.8967468648066,1193.8967468648066,-2289.7847929677596,3414.5716054647819,0.0
583523.2936376977,3562751.2368613081,-17500.0,2902.4301744397012,682.67106066760141,-1177.6417749689538,689.56987809352927,-31.497425400937541,103.28414150469972,2233.6516409606929,2693.9406339826455,-931.40546360888436,931.40546360888436,-2693.9406339826455,3986.1138794234166,0.0
588523.2936376977,3562751.2368613081,-17500.0,3433.1009684283363,1221.1020833428565,-894.24295845964491,901.38113044809199,128.61748326046225,157.84874862116786,2596.3568319729343,3095.4606579093579,-515.13585668449241,515.13585668449241,-3095.4606579093579,4715.9730548778925,0.0
593523.2936376977,3562751.2368613081,-17500.0,3963.0021832726043,1880.3042263923073,-425.4658469885531,1146.9321892638816,357.03725269127062,229.55493631285856,3043.5034361666035,3461.6365113455677,97.2973410892007,-97.2973410892007,-3461.6365113455677,5634.5882905150575,0.0
598523.2936376977,3562751.2368613081,-17500.0,4454.7134081839022,2657.5554932793307,288.00499094151451,1422.1258023627497,671.33111851908473,321.73440874688242,3588.3890940046267,3746.6916525228153,949.86857592657066,-949.86857592657066,-3746.6916525228153,6769.7297925217899,0.0
603523.2936376977,3562751.2368613081,-17500.0,4858.6944115801007,3533.1705323197257,1311.287338557124,1717.1240855925525,1089.5889750782144,437.38336520638353,4241.8904173783267,3891.2438359025346,2081.9623607161257,-2081.9623607161257,-3891.2438359025346,8142.7844158947519,0.0
608523.2936376977,3562751.2368613081,-17500.0,5115.1733188255876,4462.8319675119628,2707.9597526639018,2014.3275983727126,1627.8438904994189,578.48415564937557,5010.4366235482448,3824.5204190280706,3518.4274713992386,-3518.4274713992386,-3824.5204190280706,9763.617554179591,0.0
613523.2936376977,3562751.2368613081,-17500.0,5159.9213449714362,5370.0590667585475,4527.2414075388997,2286.627619152282,2295.9666258000311,745.04639457052451,5895.2333444618034,3471.0566666810987,5255.4357076356,-5255.4357076356,-3471.0566666810987,11623.733948749645,0.0
618523.2936376977,3562751.2368613081,-17500.0,4935.3302546300702,6141.3262004968774,6784.6960038831967,2496.6965954445918,3091.8853302902426,933.90678322619647,6902.6438460556546,2763.6411338234225,7242.81946142995,-7242.81946142995,-2763.6411338234225,13687.916125076092,0.0
623523.2936376977,3562751.2368613081,-17500.0,4407.4413011028282,6627.8195307341584,9436.9657790584388,2598.4432785429021,3994.4659421956812,1137.4554950261083,8032.0266393103511,1663.5274956587837,9365.6120987144441,-9365.6120987144441,-1663.5274956587837,15885.287828741708,0.0
628523.2936376977,3562751.2368613081,-17500.0,3587.603696136508,6659.0282494133362,12354.046194520517,2541.9844759993139,4956.2707884006477,1342.6469099508345,9192.2580645258422,186.82255184812948,11430.593794206867,-11430.593794206867,-186.82255184812948,18101.865012167898,0.0
633523.2936376977,3562751.2368613081,-17500.0,2553.8868222803621,6073.2015525416,15297.353353280914,2283.2474736471204,5898.7008351717932,1530.8627586248933,10278.702115961794,-1568.0579335648927,13167.27924934212,-13167.27924934212,1568.0579335648927,20178.067136791098,0.0
638523.2936376977,3562751.2368613081,-17500.0,1462.4894354278363,4766.2667509140756,17917.563482951791,1798.1285010764836,6713.402362103453,1679.2973597137282,11181.830605225263,-3402.8236038620016,14255.234098234265,-14255.234098234265,3402.8236038620016,21915.973295876283,0.0
643523.2936376977,3562751.2368613081,-17500.0,535.32888398232012,2751.9264298353855,19789.801178055524,1098.5859601229454,7274.3280004804728,1764.3286822334137,11786.669731673292,-5028.148742797066,14387.06638380822,-14387.06638380822,5028.148742797066,23101.275189894299,0.0
648523.2936376977,3562751.2368613081,-17500.0,11.940065094317452,211.36358906393153,20498.637794731767,244.50837055251594,7462.8422065782233,1766.6514589370563,11992.051354099143,-6114.9277358480831,13363.685914136553,-13363.685914136553,6114.9277358480831,23542.110613617864,0.0
653523.2936376977,3562751.2368613081,-17500.0,68.4112908052482,-2501.6487314742976,19764.060979540522,-657.26102094717066,7202.3222133040854,1676.8933612301403,11739.564481998112,-6389.1525589243174,11193.894914563549,-11193.894914563549,6389.1525589243174,23119.619004459099,0.0
658523.2936376977,3562751.2368613081,-17500.0,732.90653205527087,-4929.2130686600258,17564.392095663934,-1473.0278525162769,6490.1655748070061,1499.5818294288783,11051.218661499275,-5740.882379370285,8146.0031543487567,-8146.0031543487567,5740.882379370285,21834.605978736912,0.0
663523.2936376977,3562751.2368613081,-17500.0,1848.0375617331947,-6644.208198752478,14187.394257698086,-2078.4758636469564,5410.0719479257014,1253.4504527471063,10069.988447630451,-4289.573160347767,4702.39973384925,-4702.39973384925,4289.573160347767,19828.09645131433,0.0
668523.2936376977,3562751.2368613081,-17500.0,3116.1972028195846,-7393.2251402809443,10162.052061441012,-2396.2006597684417,4113.5713979769644,967.47046636492757,8939.9902304953721,-2356.1784315253622,1416.9734999908578,-1416.9734999908578,2356.1784315253622,17360.005462604138,0.0
673523.2936376977,3562751.2368613081,-17500.0,4211.7149411490882,-7169.7134656514108,6093.1198130289486,-2415.7776948184469,2776.6036471856692,673.96957635488468,7761.5704421841074,-347.30318109346695,-1257.9792619180421,1257.9792619180421,347.30318109346695,14749.988492013168,0.0
678523.2936376977,3562751.2368613081,-17500.0,4896.259740467257,-6181.1141900967614,2483.8828470784392,-2187.3591663530592,1551.953967025576,401.49835395155532,6653.3339692755353,1384.1038544304106,-3085.850903085116,3085.850903085116,-1384.1038544304106,12303.544420026865,0.0
683523.2936376977,3562751.2368613081,-17500.0,5077.3819928588664,-4742.4727235136725,-368.90391420790127,-1795.7246378193702,538.55481343957547,169.91757965284933,5706.2072890695617,2628.9608526321149,-4056.6429730742389,4056.6429730742389,-2628.9608526321149,10248.655046443258,0.0
688523.2936376977,3562751.2368613081,-17500.0,4796.6857357779718,-3163.3342347308862,-2382.5029049829836,-1330.4421580515907,-224.56587064809995,-11.188234376230373,4959.5337526583289,3335.328799232766,-4318.3578106293389,4318.3578106293389,-3335.328799232766,8696.0529207324853,0.0
693523.2936376977,3562751.2368613081,-17500.0,4176.3136049054547,-1676.341287004233,-3629.6526257397877,-864.70962487769452,-745.83085672428808,-141.21295146585248,4402.4716404093015,3566.2602533656855,-4084.9206786977675,4084.9206786977675,-3566.2602533656855,7629.8097878083881,0.0
698523.2936376977,3562751.2368613081,-17500.0,3361.3101123461142,-416.76135313156522,-4262.3172566098738,-446.73610873113404,-1061.6612980133004,-225.67534419309015,3992.3890136211203,3441.0933198972593,-3564.1452407649244,3564.1452407649244,-3441.0933198972593,6938.4063077641867,0.0
703523.2936376977,3562751.2368613081,-17500.0,2480.0256031345507,563.635359782661,-4450.4218681392531,-100.83609971344762,-1218.9794337204057,-273.1605061985714,3678.8109315611928,3087.8486168890372,-2920.1439601487759,2920.1439601487759,-3087.8486168890372,6478.5503770708319,0.0
708523.2936376977,3562751.2368613081,-17500.0,1626.4621893627848,1269.5389942502629,-4345.8486104805279,166.67759778034173,-1263.4989505393769,-292.90553032990897,3420.3815621001945,2615.8957782986317,-2264.0796713270447,2264.0796713270447,-2615.8957782986317,6131.6579327899381,0.0
713523.2936376977,3562751.2368613081,-17500.0,858.55122082411424,1736.140742842837,-4067.9112711924608,360.71606246323279,-1233.7974310434417,-293.30296066246945,3190.4042031303898,2105.994624910913,-1660.8073101176719,1660.8073101176719,-2105.994624910913,5824.2514447669528,0.0
718523.2936376977,3562751.2368613081,-17500.0,204.54326872102979,2010.1391899718624,-3702.1825462769066,491.80773682284274,-1159.5139867225923,-281.21370847634546,2974.8023846960555,1610.9624588597976,-1141.1270952469558,1141.1270952469558,-1610.9624588597976,5521.0296510007511,0.0
723523.2936376977,3562751.2368613081,-17500.0,-328.25940621322093,2138.2409532241445,-3305.6007463165638,572.26293063489459,-1061.8652108328679,-261.8325596372166,2767.7694180520357,1161.0577676248552,-713.77814037204814,713.77814037204814,-1161.0577676248552,5210.3838882792943,0.0
728523.2936376977,3562751.2368613081,-17500.0,-745.51987442797474,2161.4425398368321,-2913.3668765105026,613.93382045092892,-955.14347505535397,-238.85485969942991,2567.9749092648844,770.3811007244783,-374.83187334186209,374.83187334186209,-770.3811007244783,4892.6255973024563,0.0
733523.2936376977,3562751.2368613081,-17500.0,-1059.7739953108464,2113.0219503059543,-2545.3857130318729,627.13314781666236,-848.41006624397323,-214.76337075633847,2376.0639151057972,442.51264464546068,-114.14450865494305,114.14450865494305,-442.51264464546068,4572.7797870753548,0.0
738523.2936376977,3562751.2368613081,-17500.0,-1286.3012191401788,2018.574224509586,-2211.4220832583787,620.28001608582451,-747.00594197570479,-191.12808658528715,2193.2591413406126,174.8093732712112,80.633364585733119,-80.633364585733119,-174.8093732712112,4256.8346861154787,0.0
743523.2936376977,3562751.2368613081,-17500.0,-1440.5966749756121,1896.9865652372375,-1914.8782082967809,599.94573513458658,-653.75212527667748,-168.86812911566489,2020.6887788587185,-38.612775817884227,221.79743046188347,-221.79743046188347,38.612775817884227,3950.0693787837267,0.0
573523.2936376977,3567751.2368613081,-17500.0,1740.1808690034547,-470.78373137654535,-1699.655619764733,279.28873718325224,-330.64973581172035,9.2278648776617764,1834.9175222465908,1808.6530138370022,-1769.4233459667566,1769.4233459667566,-1808.6530138370022,3178.267511197595,0.0
578523.2936376977,3567751.2368613081,-17500.0,2270.8435771727732,-175.83799819647999,-1731.3261914399636,433.68338721071859,-282.30098416178606,38.041205255030363,2071.3611801721581,2267.058136091764,-1711.7482919003835,1711.7482919003835,-2267.058136091764,3600.3885234091467,0.0
583523.2936376977,3567751.2368613081,-17500.0,2870.8379804810234,233.85764065488266,-1679.3096833862651,628.52175194990173,-193.37206291971364,79.391819257266462,2367.1229511404317,2772.0132009079116,-1541.3910884206334,1541.3910884206334,-2772.0132009079116,4154.0207552632928,0.0
588523.2936376977,3567751.2368613081,-17500.0,3528.3828298493409,780.90066274282628,-1498.8073349223805,869.00296457894785,-47.699244092800093,137.13865578535544,2739.8277878845925,3305.4094700086107,-1212.7398594000581,1212.7398594000581,-3305.4094700086107,4881.2386019252544,0.0
593523.2936376977,3567751.2368613081,-17500.0,4219.8397367049547,1484.680584052026,-1130.5129729862697,1158.2657898072539,174.9835534176886,215.78949249061242,3209.5127230646267,3835.4854303316761,-670.47260631639165,670.47260631639165,-3835.4854303316761,5827.9531024037842,0.0
598523.2936376977,3567751.2368613081,-17500.0,4906.1446296627782,2355.6845781961488,-499.52053877445184,1495.4515122362138,498.90222212958389,320.27974293362132,3797.2559272200751,4312.8558307425828,148.25569544598238,-148.25569544598238,-4312.8558307425828,7040.2633502717472,0.0
603523.2936376977,3567751.2368613081,-17500.0,5530.037572511611,3387.110031954765,483.14782479214853,1873.06819987681,951.14191624770035,455.48484859354647,4523.0673076536386,4667.424419515758,1308.0755999999922,-1308.0755999999922,-4667.424419515758,8559.6835654865936,0.0
608523.2936376977,3567751.2368613081,-17500.0,6015.6389218764061,4543.7575934462966,1914.2680303526731,2273.7576094171068,1558.9837103649731,625.35565604451961,5403.1651161767813,4807.9385087232422,2864.426196356681,-2864.426196356681,-4807.9385087232422,10416.681660821463,0.0
613523.2936376977,3567751.2368613081,-17500.0,6272.6146788173273,5749.1746654350682,3884.7106406253929,2666.8843921324369,2344.9745741945908,831.58416840679581,6447.8230775867378,4626.7918436780019,4845.7848014880346,-4845.7848014880346,-4626.7918436780019,12621.679853648404,0.0
618523.2936376977,3567751.2368613081,-17500.0,6207.6525297134567,6873.7527678554452,6455.5921722689291,3005.8814354699884,3319.1117717858792,1071.78709745418,7668.0310192964389,4013.3493858934244,7228.5315197560785,-7228.5315197560785,-4013.3493858934244,15152.982619208899,0.0
623523.2936376977,3567751.2368613081,-17500.0,5745.6843017074634,7728.9906850876077,9622.7832305663596,3227.9745886810269,4467.9976868583008,1337.3774236134834,9083.8559703247156,2878.9484351901001,9906.3009527801587,-9906.3009527801587,-2878.9484351901001,17942.0419229832,0.0
628523.2936376977,3567751.2368613081,-17500.0,4861.4429147537758,8076.0760146103557,13271.716204115955,3258.6357045396699,5741.9605418501387,1611.6141584639472,10611.858991678284,1194.8977239966562,12660.105797197728,-12660.105797197728,-1194.8977239966562,20858.127808350411,0.0
633523.2936376977,3567751.2368613081,-17500.0,3617.3499341602751,7659.1315636790514,17131.331722516894,3023.4362027601587,7043.234109796228,1868.7425834187459,12105.281977730858,-960.2034108851185,15142.244570852974,-15142.244570852974,960.2034108851185,23696.999975902381,0.0
638523.2936376977,3567751.2368613081,-17500.0,2195.4140367819537,6272.0319613547281,20746.970860580448,2469.0009891623808,8221.2970601704747,2075.4740619641661,13406.027823162856,-3357.1041750404402,16894.789115927433,-16894.789115927433,3357.1041750404402,26181.519205794444,0.0
643523.2936376977,3567751.2368613081,-17500.0,899.73182971545236,3857.2124946725658,23504.737134716073,1591.1780725654214,9084.3375559984634,2195.890514763812,14337.003504199431,-5603.5340546494235,17427.155283433742,-17427.155283433742,5603.5340546494235,27985.21024364973,0.0
648523.2936376977,3567751.2368613081,-17500.0,99.897200585806189,609.3958565335189,24743.506042483616,461.53132447054747,9435.3111325253176,2199.7239308281478,14728.077776257664,-7199.957888482315,16364.6166547066,-16364.6166547066,7199.957888482315,28788.849098159535,0.0
653523.2936376977,3567751.2368613081,-17500.0,101.86826608529817,-2978.5676891102053,23963.322543117978,-764.74647155693833,9132.1491881598849,2071.9269383160081,14465.351831682123,-7686.618407854372,13636.067437172411,-13636.067437172411,7686.618407854372,28369.001053508833,0.0
658523.2936376977,3567751.2368613081,-17500.0,986.34038690271598,-6203.1325875066086,21065.379049866726,-1876.9650825843557,8152.5583868727426,1819.6195207566382,13556.199245065516,-6846.3758531493213,9603.7954517053931,-9603.7954517053931,6846.3758531493213,26693.236671681738,0.0
663523.2936376977,3567751.2368613081,-17500.0,2517.6218676789867,-8385.051602638192,16479.481064043379,-2673.6567331511906,6626.032791970676,1472.5934243005593,12203.547332486785,-4848.7276173358732,5014.1038617370123,-5014.1038617370123,4848.7276173358732,23972.935999725247,0.0
668523.2936376977,3567751.2368613081,-17500.0,4216.8954851897943,-9141.4973387359732,11053.536592550225,-3034.9537720394201,4802.8838182015179,1076.2566264334826,10668.612025988003,-2212.1258327025807,740.78946023472361,-740.78946023472361,2212.1258327025807,20630.354521630339,0.0
673523.2936376977,3567751.2368613081,-17500.0,5575.5037624854176,-8519.3067822485882,5738.7092052921589,-2959.7127316978817,2969.6413474276492,679.74248351395579,9117.9080269876376,417.12113608045297,-2540.5884805888645,2540.5884805888645,-417.12113608045297,17183.302974528175,0.0
678523.2936376977,3567751.2368613081,-17500.0,6264.9142300732274,-6909.5064113517092,1263.6393380830893,-2547.3064566161811,1358.9210253447986,324.20420209072103,7723.4651502493971,2523.5363280204629,-4546.4335054145095,4546.4335054145095,-2523.5363280204629,14100.489652311328,0.0
683523.2936376977,3567751.2368613081,-17500.0,6216.5387009156939,-4830.8950868971924,-2022.6984952233552,-1943.3473572425896,100.0531750001805,35.581547229272495,6598.4515897078654,3861.8094643056793,-5364.1408994359081,5364.1408994359081,-3861.8094643056793,11684.834599153042,0.0
688523.2936376977,3567751.2368613081,-17500.0,5565.3196381035923,-2733.8281247447585,-4113.9951302426907,-1285.6470560675621,-779.14698087152124,-176.7007721671215,5763.6784828116306,4440.3419766105044,-5294.7516959761533,5294.7516959761533,-4440.3419766105044,10014.111721869216,0.0
693523.2936376977,3567751.2368613081,-17500.0,4536.7453191995719,-907.03288743641758,-5209.8705985383995,-673.40292567095275,-1319.9362544728535,-316.4260529121168,5166.8805025559486,4418.9659838443276,-4686.506077795324,4686.506077795324,-4418.9659838443276,8961.1959298549846,0.0
698523.2936376977,3567751.2368613081,-17500.0,3351.9829426491324,521.76494900173691,-5580.4789786298807,-161.08533700326797,-1595.2677820528313,-395.28795002362955,4727.4726441011171,4003.9137318619801,-3831.5613584449161,3831.5613584449161,-4003.9137318619801,8299.8650527243808,0.0
703523.2936376977,3567751.2368613081,-17500.0,2178.8447158331892,1539.6050041808951,-5479.6854873691591,232.96099353872361,-1682.228143013426,-427.91110698181296,4374.9759853258256,3380.8674934362502,-2930.6141260137824,2930.6141260137824,-3380.8674934362502,7826.1088893145152,0.0
708523.2936376977,3567751.2368613081,-17500.0,1121.2212824984972,2196.4616573653557,-5107.5773404750762,513.4892150186123,-1647.2657642743911,-428.38786458968741,4064.1161417069861,2687.782525344302,-2099.4047076609418,2099.4047076609418,-2687.782525344302,7412.9492056716481,0.0
713523.2936376977,3567751.2368613081,-17500.0,229.13248416574601,2566.2721166397041,-4604.8172248824658,696.89256010463532,-1541.163084704604,-408.48473316077599,3772.2232049621416,2013.2093342697731,-1391.1775552223762,1391.1775552223762,-2013.2093342697731,7002.2283849602027,0.0
718523.2936376977,3567751.2368613081,-17500.0,-484.87453542149223,2723.7839914183337,-4061.7624894886717,803.32732594658728,-1399.5329766683969,-377.10787157118602,3490.9937949937303,1405.9276974436377,-819.8206178531243,819.8206178531243,-1405.9276974436377,6577.2555145341021,0.0
723523.2936376977,3567751.2368613081,-17500.0,-1030.5764778861983,2733.6192132951678,-3531.5884352781432,852.2207520230063,-1245.6208983325703,-340.49770264888292,3219.3729806955025,887.01675179024153,-377.7305749239091,377.7305749239091,-887.01675179024153,6140.7443932291626,0.0
728523.2936376977,3567751.2368613081,-17500.0,-1428.8202020242579,2646.8672034530987,-3042.31673174049,860.20998361332875,-1093.5516704317529,-302.73248644464906,2959.1148006443796,460.30240955873501,-47.609281027875937,47.609281027875937,-460.30240955873501,5702.065468706287,0.0
733523.2936376977,3567751.2368613081,-17500.0,-1704.2369936126597,2501.5544023490606,-2606.0874658083594,840.5508890401926,-951.17631726857348,-266.28554449268705,2712.4947294866033,120.02505928245273,190.6072720224015,-190.6072720224015,-120.02505928245273,5271.1446263730704,0.0
738523.2936376977,3567751.2368613081,-17500.0,-1881.054230297296,2324.7054594017463,-2225.64889224322,803.28853919839969,-822.26597323696035,-232.51440264884431,2481.3382935291966,-144.09203053961278,356.13102469552649,-356.13102469552649,144.09203053961278,4856.074022476083,0.0
743523.2936376977,3567751.2368613081,-17500.0,-1981.0101423466454,2134.763750416002,-1898.6088195610096,755.74524837478987,-708.07496381966155,-202.04238056864435,2266.7398889954011,-343.76655768269728,465.72826887690957,-465.72826887690957,343.76655768269728,4462.5260664154321,0.0
568523.2936376977,3572751.2368613081,-17500.0,919.28121547542435,-1085.6331814798209,-1837.1299751213407,35.512725676183933,-464.85469149707336,-39.006601981620214,1808.3186756023124,1144.2054992287481,-2084.9449108858576,2084.9449108858576,-1144.2054992287481,3172.1497847276842,0.0
573523.2936376977,3572751.2368613081,-17500.0,1403.4668663888162,-943.50318257927074,-1998.4921028560723,150.41174066560473,-469.59708212770448,-23.174914795629373,2004.0543011076393,1583.8051401063572,-2199.5680237756951,2199.5680237756951,-1583.8051401063572,3486.4430150623862,0.0
578523.2936376977,3572751.2368613081,-17500.0,1985.9242617457758,-706.36590449998141,-2127.6619762341734,305.33479790796378,-449.04269772378012,2.548361712081098,2241.4517701562872,2104.1892844464164,-2253.2891368846349,2253.2891368846349,-2104.1892844464164,3883.0462672637145,0.0
583523.2936376977,3572751.2368613081,-17500.0,2671.0234819844577,-344.70883539304089,-2192.9153781576338,509.34863650705933,-389.38194198445757,42.022139597783031,2536.2726920776922,2704.4710205410179,-2207.7845865723698,2207.7845865723698,-2704.4710205410179,4401.3501377680313,0.0
588523.2936376977,3572751.2368613081,-17500.0,3454.9892170399221,174.66829903102158,-2147.5316342443953,771.6772492674711,-271.71137822829206,100.15998576265012,2909.5249285305781,3373.9134264880117,-2011.0484736895492,2011.0484736895492,-3373.9134264880117,5093.8280235717893,0.0
593523.2936376977,3572751.2368613081,-17500.0,4321.1093146177873,885.69588783164124,-1925.4597444433582,1100.3428205667742,-71.010174599659663,182.96835079748939,3387.5526502086059,4086.548748218549,-1595.4985193626544,1595.4985193626544,-4086.548748218549,6024.5675578923019,0.0
598523.2936376977,3572751.2368613081,-17500.0,5233.9776657009743,1817.2459563077907,-1437.4174321412099,1499.9004293309176,244.49336501122605,297.38637406307475,4001.053353991892,4794.6975090601209,-877.95972546883036,877.95972546883036,-4794.6975090601209,7264.9211073885854,0.0
603523.2936376977,3572751.2368613081,-17500.0,6133.5805903805858,2983.3982502453787,-569.07598212761218,1968.0224176577794,712.99306648927222,450.77850521497527,4782.8103649386749,5422.2736411588776,236.5415948807663,-236.5415948807663,-5422.2736411588776,8886.8657764280997,0.0
608523.2936376977,3572751.2368613081,-17500.0,6930.9620730308698,4368.8949881437829,815.86852063051526,2490.8285103638609,1376.9357072815264,649.89061153105649,5764.2705614818469,5859.8266130291004,1844.4765243523434,-1844.4765243523434,-5859.8266130291004,10954.412551344822,0.0
613523.2936376977,3572751.2368613081,-17500.0,7508.4459285823423,5909.878375136459,2863.6164502391189,3037.2157709500593,2277.8200060318409,899.07465276178482,6972.1340392235497,5964.7455439736323,4023.8205081871847,-4023.8205081871847,-5964.7455439736323,13512.151756606296,0.0
618523.2936376977,3572751.2368613081,-17500.0,7728.6756790007012,7472.0872313772061,5704.024305047963,3553.1178686454132,3446.5936999191799,1197.6642636105803,8432.4525965051671,5571.6697922196536,6801.5821122996103,-6801.5821122996103,-5571.6697922196536,16569.174059104298,0.0
623523.2936376977,3572751.2368613081,-17500.0,7457.489537451831,8832.2517815065057,9405.1942456909564,3957.7030978640273,4888.5072257164838,1536.6211573287721,10191.562848008736,4519.3119859813887,10108.257450349574,-10108.257450349574,-4519.3119859813887,20077.128876958897,0.0
628523.2936376977,3572751.2368613081,-17500.0,6604.814383481661,9673.563379657191,13906.709089179682,4144.9791835108235,6562.3912119373044,1895.0668550691369,12198.163347994036,2699.408456194571,13723.831338182539,-13723.831338182539,-2699.408456194571,23903.147210124083,0.0
633523.2936376977,3572751.2368613081,-17500.0,5183.5348819651663,9612.2212854867321,18937.158259393804,3995.7602258471229,8357.0317587133122,2238.0860709396284,14263.091728375244,129.23310400543778,17229.691006343735,-17229.691006343735,-129.23310400543778,27801.9972528984,0.0
638523.2936376977,3572751.2368613081,-17500.0,3375.6399005406483,8276.7130533159634,23937.939740296144,3405.3766923829526,10072.468109755004,2517.9959019359808,16163.206977455851,-2962.7440353959264,19996.424183895477,-19996.424183895477,2962.7440353959264,31398.159350531852,0.0
643523.2936376977,3572751.2368613081,-17500.0,1573.9292411668291,5456.4400829834158,28043.493882484854,2329.3028697073273,11421.715509943044,2681.3240165264829,17627.062682838925,-6073.3069142755794,21256.624682528076,-21256.624682528076,6073.3069142755794,34198.155566986803,0.0
648523.2936376977,3572751.2368613081,-17500.0,339.3184748328157,1302.2598605805981,30199.973249188086,837.87550932391628,12074.855846336817,2681.9127440144648,18363.481486498207,-8454.5279656212679,20316.247615410612,-20316.247615410612,8454.5279656212679,35662.238182495923,0.0
653523.2936376977,3572751.2368613081,-17500.0,210.7855367556015,-3519.9127819092178,29494.047572477106,-849.10655346632996,11760.216138036216,2496.7674712767393,18144.407095647206,-9321.7217485836009,16900.071126314524,-16900.071126314524,9321.7217485836009,35355.826895920829,0.0
658523.2936376977,3572751.2368613081,-17500.0,1394.3091504625918,-7904.9624912357467,25629.67158392851,-2393.0490895048238,10399.185830886161,2137.7193663816597,16927.355658350178,-8232.6672306745277,11470.163965764987,-11470.163965764987,8232.6672306745277,33150.613578708093,0.0
663523.2936376977,3572751.2368613081,-17500.0,3535.7817938235867,-10723.041449736489,19254.615358635401,-3453.6722252721979,8193.100814360474,1652.0347166114643,14996.268065250144,-5420.0317985237498,5217.3007577634426,-5217.3007577634426,5420.0317985237498,29365.892641873346,0.0
668523.2936376977,3572751.2368613081,-17500.0,5834.1107470616789,-11371.747432706828,11787.994056234505,-3837.9044272389547,5573.564332254673,1109.998892840993,12844.463225251075,-1756.2994300336791,-419.44734973994139,419.44734973994139,1756.2994300336791,24722.966615780038,0.0
673523.2936376977,3572751.2368613081,-17500.0,7472.2379991092666,-10035.956070266398,4781.0237085450126,-3573.7450096879593,3025.9547130649789,584.7122456845492,10772.875861365363,1694.9413639087213,-4407.2376966490256,4407.2376966490256,-1694.9413639087213,20101.996077999327,0.0
678523.2936376977,3572751.2368613081,-17500.0,8015.7817248870688,-7463.1402104061945,-712.81289247515451,-2859.4722735909977,908.2960162332962,133.48785917615965,9023.8342301399207,4183.9882132936782,-6455.7641734667159,6455.7641734667159,-4183.9882132936782,16236.308329824387,0.0
683523.2936376977,3572751.2368613081,-17500.0,7497.6901538671082,-4507.6139604276786,-4350.9211311090548,-1945.745574944056,-624.64837216822082,-212.02908637549714,7716.0454836746558,5475.5652076250917,-6882.8655152498777,6882.8655152498777,-5475.5652076250917,13489.402466174071,0.0
688523.2936376977,3572751.2368613081,-17500.0,6240.7686204999973,-1798.6873164189535,-6324.6306650434954,-1038.8888877073089,-1588.4400052310402,-445.68646440390552,6808.7277055486611,5730.8203543416594,-6260.5610316588491,6260.5610316588491,-5730.8203543416594,11793.773202894123,0.0
693523.2936376977,3572751.2368613081,-17500.0,4632.1582397963621,348.21879150154814,-7061.3483787509931,-263.01891798792826,-2091.2143066801118,-579.80297582126059,6173.5863899938868,5279.8988756046356,-5127.9895526071386,5127.9895526071386,-5279.8988756046356,10800.341265163337,0.0
698523.2936376977,3572751.2368613081,-17500.0,2983.9051137024826,1863.6197479511768,-7002.4122746127023,332.59759509228809,-2265.9613466557134,-636.00436566693861,5683.9933570991116,4449.8413982112324,-3866.7988696849752,3866.7988696849752,-4449.8413982112324,10140.786768801461,0.0
703523.2936376977,3572751.2368613081,-17500.0,1490.9987545779113,2816.1002560668362,-6499.7946793465744,748.41818053136228,-2231.6861108146991,-637.58074371097314,5257.9883530672896,3487.2507213511899,-2694.9106953520604,2694.9106953520604,-3487.2507213511899,9580.5799027403227,0.0
708523.2936376977,3572751.2368613081,-17500.0,245.73320673592289,3326.9247220403849,-5795.398350190736,1010.1641466275164,-2079.1031014339542,-604.88067698296129,4856.7945794247717,2547.0978975575795,-1708.9656370775845,1708.9656370775845,-2547.0978975575795,9017.4681778489703,0.0
713523.2936376977,3572751.2368613081,-17500.0,-729.83916971962788,3520.3824065305862,-5038.1142203513646,1151.8294952727042,-1870.3986395058132,-553.49865316180524,4468.1919364501782,1710.7796028607404,-931.77720896739322,931.77720896739322,-1710.7796028607404,8426.5435958490016,0.0
718523.2936376977,3572751.2368613081,-17500.0,-1453.5654252169309,3501.8013465693234,-4310.4001277663301,1206.2458259109524,-1644.7190172243252,-494.2652115155351,4092.2535231605139,1010.2499089307114,-348.27990198759693,348.27990198759693,-1010.2499089307114,7816.0444270300977,0.0
723523.2936376977,3572751.2368613081,-17500.0,-1961.4573532532427,3351.7314667364431,-3651.9533456127356,1200.9978070247762,-1424.7018873358468,-434.0773652286706,3733.0414381506271,448.34916389911422,71.919132632515186,-71.919132632515186,-448.34916389911422,7203.5769693028733,0.0
728523.2936376977,3572751.2368613081,-17500.0,-2294.4250515283375,3127.7490471387027,-3077.0790058613507,1157.4352621403252,-1222.0721113273626,-376.93603884410197,3394.7528314513092,12.998800753203312,362.21321143873274,-362.21321143873274,-12.998800753203312,6605.8938746990416,0.0
733523.2936376977,3572751.2368613081,-17500.0,-2491.245751400269,2868.92360825581,-2586.1575507231541,1091.1754253942181,-1041.7922977581343,-324.87692681148002,3080.3405779446416,-313.98399347758829,553.17384928501656,-553.17384928501656,313.98399347758829,6035.5554101440866,0.0
738523.2936376977,3572751.2368613081,-17500.0,-2585.4824846675519,2600.5418169228524,-2172.6937216090528,1013.1488626798995,-884.89070991654751,-278.68957719829035,2791.3005331192562,-551.92447693538827,670.40172540577885,-670.40172540577885,551.92447693538827,5500.5844847600792,0.0
743523.2936376977,3572751.2368613081,-17500.0,-2604.6409005218479,2338.141732228969,-1827.4001070282513,930.70895346824079,-750.27704335423914,-238.42513959395271,2527.942022406779,-718.7949500272648,734.24105780421564,-734.24105780421564,718.7949500272648,5005.2058435449489,0.0
748523.2936376977,3572751.2368613081,-17500.0,-2570.4537960336706,2090.6260858022861,-1540.4212203554941,848.60069300660871,-635.85240316641682,-203.73280654731366,2289.9000698811387,-830.17326003480753,760.3150784273721,-760.3150784273721,830.17326003480753,4550.8221420512182,0.0
563523.2936376977,3577751.2368613081,-17500.0,27.158204511239752,-1528.3549778809129,-1777.3987953658473,-195.22608808127299,-537.96113682684836,-78.733108408795928,1839.2527379474557,387.11864339025306,-2146.1656056820557,2146.1656056820557,-387.11864339025306,3326.6657589622741,0.0
568523.2936376977,3577751.2368613081,-17500.0,404.7019302967152,-1532.0069870006228,-2009.904450090113,-128.82093660027869,-583.5368947124424,-75.383463688619983,2019.355513707955,745.13951195134143,-2378.3247345817504,2378.3247345817504,-745.13951195134143,3607.4998753323803,0.0
573523.2936376977,3577751.2368613081,-17500.0,888.41272153346097,-1473.7057852997214,-2251.0798118175721,-28.987439984460455,-618.98012518232429,-65.521711871031243,2226.3757872300448,1196.8940453500727,-2598.7786884444231,2598.7786884444231,-1196.8940453500727,3929.2353537605904,0.0
578523.2936376977,3577751.2368613081,-17500.0,1495.6460025456984,-1325.5479787294232,-2484.7465722946913,114.80211822961579,-634.66610066962517,-45.852883853118136,2469.8738827480852,1755.6944822683195,-2782.9290113256734,2782.9290113256734,-1755.6944822683195,4313.13658882666,0.0
583523.2936376977,3577751.2368613081,-17500.0,2241.3438456651929,-1051.7826986024274,-2683.1759139612427,315.06833912891085,-616.19046087046706,-11.866935858249205,2764.5052892285362,2431.0585126974484,-2893.226553519482,2893.226553519482,-2431.0585126974484,4794.527029344501,0.0
588523.2936376977,3577751.2368613081,-17500.0,3134.112587475096,-608.65285259446023,-2801.7421615603043,585.88338444538329,-542.6725987934816,42.423017289827328,3132.0078037719813,3224.2150471826849,-2874.8082887155238,2874.8082887155238,-3224.2150471826849,5428.2344584751072,0.0
593523.2936376977,3577751.2368613081,-17500.0,4170.3688879252759,54.008899390816218,-2772.1944293492152,941.69463127293795,-384.84032814853106,124.6615795739481,3602.9938513001553,4121.4330682801301,-2650.9599890094491,2650.9599890094491,-4121.4330682801301,6292.279184975584,0.0
598523.2936376977,3577751.2368613081,-17500.0,5326.3609612421915,988.01109654399943,-2495.066444804273,1394.9901484459133,-103.19914333850018,244.11498220215128,4217.6834947490206,5084.924854185414,-2119.6013960408136,2119.6013960408136,-5084.924854185414,7486.7865862339968,0.0
603523.2936376977,3577751.2368613081,-17500.0,6548.4712453677967,2236.9586439295463,-1832.7613265871646,1952.3114301352834,353.07803117504079,411.20332451571858,5024.6507306734693,6041.7358253154962,-1153.0739814662529,1153.0739814662529,-6041.7358253154962,9126.5410276521652,0.0
608523.2936376977,3577751.2368613081,-17500.0,7743.3631355910538,3819.2325176132676,-606.50586132544493,2608.1719652264269,1045.4226064323689,636.30495148782052,6077.2349365334467,6872.3467743250367,395.06486083887285,-395.06486083887285,-6872.3467743250367,11328.442207852468,0.0
613523.2936376977,3577751.2368613081,-17500.0,8771.3523943291875,5702.2703187914467,1397.3062602383989,3336.7492204959717,2041.5707630061345,927.48849961083829,7428.9232103125314,7402.8482268127118,2671.0444025710526,-2671.0444025710526,-7402.8482268127118,14195.602239624017,0.0
618523.2936376977,3577751.2368613081,-17500.0,9448.7138795027549,7768.6929875926944,4403.2529816038814,4081.9692602420673,3405.3378561364098,1286.8865445999118,9135.7276975278892,7407.4058146226444,5783.6500721243656,-5783.6500721243656,-7407.4058146226444,17796.799979708321,0.0
623523.2936376977,3577751.2368613081,-17500.0,9566.8597291305759,9779.141577594828,8595.5098809984502,4747.989535052724,5177.7646152838488,1705.7144912797371,11287.704596515216,6630.7065060249452,9743.8098462613525,-9743.8098462613525,-6630.7065060249452,22137.25334900017,0.0
628523.2936376977,3577751.2368613081,-17500.0,8937.3818767028879,11343.793808496479,14029.587987271749,5194.2781160095574,7347.3933683666091,2158.6491132308743,13902.659381209594,4841.999308756659,14380.692347098211,-14380.692347098211,-4841.999308756659,27117.145915972022,0.0
633523.2936376977,3577751.2368613081,-17500.0,7470.2692676026909,11924.835756616363,20503.586635420877,5242.4917067331307,9809.7040323895599,2599.5713870138429,16766.933006705789,1931.3617117424037,19244.53286421108,-19244.53286421108,-1931.3617117424037,32477.985955047803,0.0
638523.2936376977,3577751.2368613081,-17500.0,5284.8854552552557,10906.492803109786,27401.924853155389,4705.7446487089264,12321.848689121724,2962.2972804259716,19582.089029744708,-1949.1754498396149,23527.705422658411,-23527.705422658411,1949.1754498396149,37745.163146662468,0.0
643523.2936376977,3577751.2368613081,-17500.0,2828.45829037468,7784.72659588653,33566.627235795109,3452.3954982459222,14472.503962425264,3170.3727473558879,21942.529946794912,-6225.4036216385684,26077.656104960359,-26077.656104960359,6225.4036216385684,42194.374419391628,0.0
648523.2936376977,3577751.2368613081,-17500.0,912.68025858723445,2515.0395762095195,37340.692767458764,1507.8124641822519,15710.989359317779,3156.8676429797688,23345.551922938474,-9823.8839205861368,25637.059717307158,-25637.059717307158,9823.8839205861368,44906.43064961613,0.0
653523.2936376977,3577751.2368613081,-17500.0,491.03016818988038,-4078.6563230086131,37022.012302147174,-840.51759333882273,15498.908636656581,2888.5072920861789,23320.574553691349,-11395.082459234218,21437.776603105543,-21437.776603105543,11395.082459234218,45003.917459611861,0.0
658523.2936376977,3577751.2368613081,-17500.0,2073.147226981655,-10229.207316157468,31809.90470574941,-3039.5275209642346,13595.21766162725,2383.8431645084866,21678.962259543165,-10002.883716578443,13970.489738248893,-13970.489738248893,10002.883716578443,42086.200196462472,0.0
663523.2936376977,3577751.2368613081,-17500.0,5136.4064555341947,-13945.96265094533,22675.358332318403,-4479.309570329402,10307.674963895408,1715.4717978922977,18807.686138752204,-5930.9010557193069,5203.411688419581,-5203.411688419581,5930.9010557193069,36629.550777359815,0.0
668523.2936376977,3577751.2368613081,-17500.0,8270.3186271057093,-14226.561789872721,12131.300017816426,-4828.4276652351546,6427.9883901952235,990.33114026668545,15649.714205216622,-726.02824960884016,-2355.4640655685275,2355.4640655685275,726.02824960884016,29951.572876747523,0.0
673523.2936376977,3577751.2368613081,-17500.0,10119.251944949636,-11610.117054664495,2822.3850921886169,-4198.0221317088444,2825.6498990211567,314.90419136378733,12825.431112265887,3786.1404361095792,-7088.8563354418911,7088.8563354418911,-3786.1404361095792,23643.942060992817,0.0
678523.2936376977,3577751.2368613081,-17500.0,10175.952482211163,-7557.694717964303,-3765.4196243869906,-2993.229059972196,53.720211967401532,-234.59998770784495,10649.842360847117,6547.0169314402765,-8856.9474602596238,8856.9474602596238,-6547.0169314402765,18863.913689235011,0.0
683523.2936376977,3577751.2368613081,-17500.0,8768.786078165971,-3458.0611879990602,-7494.5287284454216,-1643.990034286682,-1747.5679797313055,-623.81360901803987,9175.8540973670461,7485.22563073732,-8493.0021634209425,8493.0021634209425,-7485.22563073732,15909.311254330469,0.0
688523.2936376977,3577751.2368613081,-17500.0,6572.3865072525832,-114.13387058631342,-8998.5456231536173,-441.10575889027797,-2713.142541879447,-855.58809184404618,8210.894535430285,7097.3572422104044,-7022.4686986663673,7022.4686986663673,-7097.3572422104044,14306.448740205165,0.0
693523.2936376977,3577751.2368613081,-17500.0,4195.5141436515969,2230.8940997020054,-9079.4033431325806,485.63234794756244,-3077.6860975394193,-956.80643334200147,7512.8490961482212,5983.7753469298914,-5218.8371201474183,5218.8371201474183,-5983.7753469298914,13357.688722729195,0.0
698523.2936376977,3577751.2368613081,-17500.0,2024.9676571488178,3661.4907530771256,-8395.0130325914561,1119.4321361377768,-3065.0943340567574,-963.77205293588213,6919.6690069766746,4611.1680830237601,-3520.6745633803757,3520.6745633803757,-4611.1680830237601,12590.841549329307,0.0
703523.2936376977,3577751.2368613081,-17500.0,239.10265312928962,4385.9854139177487,-7385.4918954068335,1501.0254068572103,-2845.9180272755852,-911.257188281867,6358.9584755551732,3265.172917531133,-2113.678106267811,2113.678106267811,-3265.172917531133,11809.078145305266,0.0
708523.2936376977,3577751.2368613081,-17500.0,-1122.9905204259483,4621.1763881315856,-6307.3218814724551,1689.8589052830896,-2533.9226424536823,-826.93309503859439,5811.6449885830798,2086.7652803758792,-1036.2699756422032,1036.2699756422032,-2086.7652803758792,10972.455345962933,0.0
713523.2936376977,3577751.2368613081,-17500.0,-2096.385587054875,4545.6104997046559,-5291.8655421495687,1743.3635874729923,-2197.7043945504279,-730.12417689554707,5280.8748502379003,1124.4545964563292,-257.27834996411048,257.27834996411048,-1124.4545964563292,10101.436105367418,0.0
718523.2936376977,3577751.2368613081,-17500.0,-2746.1693415970976,4290.01514217359,-4395.0967737858073,1708.6300966514877,-1874.6813847819703,-632.91384785528157,4775.4336950579218,376.25706488865228,278.67847949072109,-278.67847949072109,-376.25706488865228,9229.4987121966024,0.0
723523.2936376977,3577751.2368613081,-17500.0,-3142.5743597290098,3943.1553133511056,-3631.6646686406484,1620.8353818596534,-1582.6410366561809,-542.02202693753429,4303.0137968587369,-182.98312932415098,628.68244449929512,-628.68244449929512,182.98312932415098,8385.4032785108393,0.0
728523.2936376977,3577751.2368613081,-17500.0,-3349.1833030681755,3561.8594000643502,-2995.7322488343907,1504.6337699508258,-1327.894264893438,-460.59575612564748,3868.3517283812539,-585.97951686414319,842.27837347357797,-842.27837347357797,585.97951686414319,7588.8138986996682,0.0
733523.2936376977,3577751.2368613081,-17500.0,-3418.6894511388437,3180.4954287662372,-2472.7733540920076,1376.4438979135903,-1110.5357993179409,-389.59839307554762,3473.3555072343038,-865.059879929712,958.98110177474859,-958.98110177474859,865.059879929712,6850.9269536076863,0.0
738523.2936376977,3577751.2368613081,-17500.0,-3392.4995209881945,2818.4409374008906,-2045.8015722402474,1246.678581938791,-927.62535009075145,-328.76990554709892,3117.8901270617976,-1048.7102512142724,1008.7771031382794,-1008.7771031382794,1048.7102512142724,6176.490339691245,0.0
743523.2936376977,3577751.2368613081,-17500.0,-3302.0080395785803,2485.4701115537209,-1698.3958364555849,1121.576233365794,-775.00816943226573,-277.24070184210194,2800.7785941154461,-1160.519381398648,1013.6915386748861,-1013.6915386748861,1160.519381398648,5565.8452625934706,0.0
748523.2936376977,3577751.2368613081,-17500.0,-3170.3979055317236,2185.4361777150552,-1415.9761672428765,1004.5797265999342,-648.29622989416021,-233.89894426772071,2520.7530637920486,-1219.2891355599174,989.52640512497112,-989.52640512497112,1219.2891355599174,5016.5688792390692,0.0
558523.2936376977,3582751.2368613081,-17500.0,-841.64386433183245,-1775.904857674401,-1580.5182896512647,-393.49374064012318,-555.24441997732367,-108.13684050996503,1890.8342327358712,-369.06508923442846,-1996.1084494250213,1996.1084494250213,369.06508923442846,3532.2588822356483,0.0
563523.2936376977,3582751.2368613081,-17500.0,-608.25413338919861,-1895.5691480669193,-1831.0879540178491,-376.85541425581215,-626.56497541930514,-115.46410314845757,2075.8644946170848,-133.23399987619541,-2284.3875238252581,2284.3875238252581,133.23399987619541,3837.2025073694904,0.0
568523.2936376977,3582751.2368613081,-17500.0,-280.92676668457659,-1989.4274424321081,-2115.3226589887854,-337.43440217538182,-700.13628577557347,-119.7753252390456,2281.6215711301152,188.63323896198949,-2597.7488420571226,2597.7488420571226,-188.63323896198949,4167.9991180911029,0.0
573523.2936376977,3582751.2368613081,-17500.0,164.1678340867139,-2037.233216438467,-2430.3239772674647,-265.63459910826896,-770.98570901575488,-118.70985752986809,2512.2129476499504,617.44082480500356,-2926.4166037780624,2926.4166037780624,-617.44082480500356,4530.2740909148861,0.0
578523.2936376977,3582751.2368613081,-17500.0,753.69343739088686,-2010.231595605818,-2766.7808238091188,-148.92600509694836,-830.59963873521531,-108.78111832292957,2774.2467979060466,1175.9197335668573,-3251.6401783281249,3251.6401783281249,-1175.9197335668573,4935.6457791452594,0.0
583523.2936376977,3582751.2368613081,-17500.0,1515.3666935912186,-1868.8968936328779,-3104.6069743264161,28.558340184910879,-865.17317921447818,-84.988638982265627,3078.7118193845636,1886.4090459295667,-3541.0579952364569,3541.0579952364569,-1886.4090459295667,5407.2212651710597,0.0
588523.2936376977,3582751.2368613081,-17500.0,2474.3917216027448,-1560.9552634186027,-3406.4825588521808,286.08771796605339,-853.2493819800942,-40.392133775489818,3443.8594400081956,2766.6122735057279,-3742.5153457906617,3742.5153457906617,-2766.6122735057279,5988.245028356313,0.0
593523.2936376977,3582751.2368613081,-17500.0,3647.2879682816697,-1020.648015066814,-3608.7927223577258,645.68030631925808,-762.7253258299603,34.266821119999449,3899.0884500986695,3822.3806206496033,-3776.4469638726518,3776.4469638726518,-3822.3806206496033,6753.4718383945292,0.0
598523.2936376977,3582751.2368613081,-17500.0,5032.2977504327091,-170.94646831114963,-3609.8296167615686,1130.1488501423817,-547.4006973121958,150.72154254151877,4489.151431965226,5036.5571433501082,-3527.659685707793,3527.659685707793,-5036.5571433501082,7819.6718785872854,0.0
603523.2936376977,3582751.2368613081,-17500.0,6595.9892793269037,1068.5924525812998,-3256.1327498480077,1759.0612710336832,-143.63150514025426,322.81722464478173,5276.9717866809951,6353.3666055323747,-2838.7128677414594,2838.7128677414594,-6353.3666055323747,9347.9082524038404,0.0
608523.2936376977,3582751.2368613081,-17500.0,8256.864028339689,2764.6746620159643,-2329.9016253794371,2541.7180033408818,531.6948893427267,565.18778149681259,6342.8994705073892,7659.1749053709163,-1509.2779183103694,1509.2779183103694,-7659.1749053709163,11531.300192752364,0.0
613523.2936376977,3582751.2368613081,-17500.0,9869.1050518185202,4939.8566466428429,-543.88542044456324,3466.4080256204279,1579.6934781573693,890.42688660266651,7780.2765583212486,8763.1613023496611,691.24350389010078,-691.24350389010078,-8763.1613023496611,14570.275951582269,0.0
618523.2936376977,3582751.2368613081,-17500.0,11213.106011357899,7526.3834140376721,2445.08523075322,4485.8867569709528,3111.1713845109898,1304.2548765934764,9696.420274844113,9385.7184106968816,3987.7430768526019,-3987.7430768526019,-9385.7184106968816,18642.144473861114,0.0
623523.2936376977,3582751.2368613081,-17500.0,12003.381956879351,10306.377820695425,6987.780026972654,5500.4952167977808,5226.9157620446076,1798.563245592213,12255.92724138318,9167.5924652324211,8528.8919889411845,-8528.8919889411845,-9167.5924652324211,23864.279553679909,0.0
628523.2936376977,3582751.2368613081,-17500.0,11927.346607368274,12848.978667568865,13340.3848723599,6342.824436177988,7981.1825860907566,2343.2382271159026,15609.441618534316,7717.2716468885756,14273.783455590767,-14273.783455590767,-7717.2716468885756,30240.293860359267,0.0
633523.2936376977,3582751.2368613081,-17500.0,10729.262899199641,14467.168002916873,21490.500962181843,6771.4554763261012,11323.002258600478,2879.6915765624672,19573.42773037358,4716.6589565033537,20835.520606953563,-20835.520606953563,-4716.6589565033537,37576.281596439032,0.0
638523.2936376977,3582751.2368613081,-17500.0,8355.0756270062702,14235.953300838826,30899.490220662214,6486.8394177027585,15012.01151814432,3321.815130013214,23791.364818819162,107.7198861288216,27297.033060368922,-27297.033060368922,-107.7198861288216,45358.153374119989,0.0
643523.2936376977,3582751.2368613081,-17500.0,5173.5407198767161,11158.658475684379,40175.772658690374,5193.4647501018189,18516.292879328645,3570.4228337448435,27697.457111617092,-5618.0350782511232,32060.352385841645,-32060.352385841645,5618.0350782511232,52600.964277974621,0.0
648523.2936376977,3582751.2368613081,-17500.0,2224.5039730991757,4655.4644042651626,46831.669556926019,2751.7929546959526,20946.167690687027,3539.1158573634093,30435.964973671173,-11079.223996676879,32948.108520334645,-32948.108520334645,11079.223996676879,57765.46787193176,0.0
653523.2936376977,3582751.2368613081,-17500.0,1158.0700701414517,-4509.6837195681419,47672.58325381449,-555.6978152182121,21198.081344159695,3178.7238918408925,31009.34097809967,-13997.819288058337,28049.740174528873,-28049.740174528873,13997.819288058337,59022.939182237664,0.0
658523.2936376977,3582751.2368613081,-17500.0,3238.873435463257,-13507.009353348021,40583.969638037299,-3825.377670551039,18540.931097421089,2499.1847796980396,28804.137859292994,-12308.334036849317,17519.203462853111,-17519.203462853111,12308.334036849317,55184.63481401121,0.0
663523.2936376977,3582751.2368613081,-17500.0,7757.2486824326606,-18561.356627734262,26952.061153076902,-5859.8799929177576,13403.743998739343,1596.1707693400776,24325.929824487157,-6201.4958801594739,4735.7696593123137,-4735.7696593123137,6201.4958801594739,46906.58761543475,0.0
668523.2936376977,3582751.2368613081,-17500.0,12049.500662792892,-17873.002697719159,11572.022145287665,-6025.5571419546077,7383.3069340051725,638.96353209832091,19402.243326370135,1386.8187076676863,-5587.6283689716529,5587.6283689716529,-1386.8187076676863,36820.84211080231,0.0
673523.2936376977,3582751.2368613081,-17500.0,13786.474409514853,-12929.839472146454,-807.7147358042015,-4680.0113618199721,2167.9668847301405,-207.3736491096457,15443.913854550519,7161.514221375317,-10880.021316023929,10880.021316023929,-7161.514221375317,28034.608637635287,0.0
678523.2936376977,3582751.2368613081,-17500.0,12624.010612598653,-6661.404814715529,-8288.4855655855899,-2687.4627125438042,-1412.1697595692722,-845.42927178761408,12781.525942240893,9779.9358205933459,-11670.247099096705,11670.247099096705,-9779.9358205933459,22312.590105076706,0.0
683523.2936376977,3582751.2368613081,-17500.0,9640.4519793639647,-1219.6378823772259,-11503.692755125516,-767.96382503769655,-3389.0677915089541,-1248.4642237358264,11175.589070112845,9765.0370712550321,-9892.5375417139039,9892.5375417139039,-9765.0370712550321,19393.187693608212,0.0
688523.2936376977,3582751.2368613081,-17500.0,6096.5552270466396,2590.9600902825682,-11973.006304657245,726.18066877731701,-4186.4376202737531,-1439.0871159623364,10130.059482180121,8265.9908125196653,-7246.5114000512967,7246.5114000512967,-8265.9908125196653,17928.447338702477,0.0
693523.2936376977,3582751.2368613081,-17500.0,2819.5630706533734,4833.5575122895589,-11030.860081812853,1723.7097960793005,-4258.0098986685898,-1466.9826079307334,9283.7686048377436,6238.0267008887922,-4697.3807660492994,4697.3807660492994,-6238.0267008887922,16859.226844514735,0.0
698523.2936376977,3582751.2368613081,-17500.0,173.62236150431008,5891.369407628833,-9539.7221708169509,2292.1924054713936,-3947.5663977072509,-1388.5700448973057,8483.1155823299941,4244.3761953844614,-2627.9281253067602,2627.9281253067602,-4244.3761953844614,15756.026593164232,0.0
703523.2936376977,3582751.2368613081,-17500.0,-1774.1920060753966,6167.5335320106096,-7965.5984252399794,2541.4121601218694,-3475.4224084882362,-1252.7023707936683,7694.3029167871091,2538.8892443594273,-1102.5601469592716,1102.5601469592716,-2538.8892443594273,14545.158604254822,0.0
708523.2936376977,3582751.2368613081,-17500.0,-3100.030075418098,5979.3703378215559,-6522.7852066835349,2576.0652423735623,-2967.2273849453563,-1094.7254698599254,6927.5054974103841,1192.5739084755505,-52.188700074135681,52.188700074135681,-1192.5739084755505,13273.297489673261,0.0
713523.2936376977,3582751.2368613081,-17500.0,-3928.1955522595654,5545.5891273315065,-5287.4504725529341,2479.0066202420549,-2486.8168718027027,-936.76706733272601,6200.8714840022149,187.06075214103794,628.81584498960262,-628.81584498960262,-187.06075214103794,12004.67427481511,0.0
718523.2936376977,3582751.2368613081,-17500.0,-4383.7124927493642,5004.9766381251839,-4268.0025027301062,2309.3956916878633,-2061.4917036511879,-790.78784573419159,5528.2544816288873,-530.71529722516061,1040.9387300855433,-1040.9387300855433,530.71529722516061,10789.128880750168,0.0
723523.2936376977,3582751.2368613081,-17500.0,-4573.3204676655232,4439.9084723474689,-3443.8276100045896,2106.5651626063373,-1698.6736747795628,-661.99537963016076,4916.9971544520822,-1020.7689667604984,1265.8498741655892,-1265.8498741655892,1020.7689667604984,9657.3336460138817,0.0
728523.2936376977,3582751.2368613081,-17500.0,-4580.8744694919897,3895.8719458477754,-2784.8978923834807,1895.1326833982168,-1395.9293671856096,-551.58981665802651,4369.0817904378209,-1337.8860058933437,1364.9524658062132,-1364.9524658062132,1337.8860058933437,8624.2715943429303,0.0
733523.2936376977,3582751.2368613081,-17500.0,-4469.0113157426613,3395.4645268920303,-2260.8679281899617,1689.5511842453272,-1146.6094353942544,-458.6466131227337,3883.013808987298,-1527.5000261379214,1382.3395541151926,-1382.3395541151926,1527.5000261379214,7694.0814417936717,0.0
738523.2936376977,3582751.2368613081,-17500.0,-4282.9286727233848,2947.7030870490589,-1844.7594592310061,1497.6003255556759,-942.8247590093971,-381.28139309102011,3455.5572304888801,-1625.3343306126069,1348.7181430120315,-1348.7181430120315,1625.3343306126069,6864.1591314079524,0.0
743523.2936376977,3582751.2368613081,-17500.0,-4054.3772650502847,2553.9290564141415,-1514.0261381704345,1322.8589762757179,-776.89653688916837,-317.31294584873558,3082.4762063945054,-1658.5598070951155,1284.9819592047993,-1284.9819592047993,1658.5598070951155,6128.1164475883661,0.0
748523.2936376977,3582751.2368613081,-17500.0,-3805.1370927101393,2211.4273388180836,-1250.4499833294008,1166.3712585548722,-641.97500471497847,-264.60885457195309,2757.275303413538,-1647.3829532291702,1205.0612091902203,-1205.0612091902203,1647.3829532291702,5477.747590435416,0.0
558523.2936376977,3587751.2368613081,-17500.0,-1530.9007816433279,-2032.7934897066605,-1540.6924962224959,-575.14708847968154,-610.49274755499482,-142.34792253104246,2130.4953378298483,-947.13314348251117,-1989.1513394107483,1989.1513394107483,947.13314348251117,4055.7374241302764,0.0
563523.2936376977,3587751.2368613081,-17500.0,-1385.1572959441646,-2231.887238928919,-1813.7597736163327,-592.27283202585579,-703.38562143395779,-157.84431854047088,2351.3772835457166,-784.21658562474431,-2324.5788500030108,2324.5788500030108,784.21658562474431,4438.0856090474226,0.0
568523.2936376977,3587751.2368613081,-17500.0,-1148.4339559838459,-2425.4729468665455,-2135.4845596400569,-591.67818072681007,-805.73414864298036,-172.11481585802949,2595.9570102217854,-536.25283946523655,-2707.2507988250463,2707.2507988250463,536.25283946523655,4851.5742976516103,0.0
573523.2936376977,3587751.2368613081,-17500.0,-791.54686684439037,-2596.6568108049614,-2509.6151632407209,-563.47859927708373,-914.55221991324436,-182.99896195786513,2866.6801141983024,-176.73260041185745,-3134.9840516203949,3134.9840516203949,176.73260041185745,5296.9083010301219,0.0
578523.2936376977,3587751.2368613081,-17500.0,-279.08482475728704,-2719.2106811610365,-2935.6664843676258,-494.00628567096504,-1023.5323742535456,-187.07735377504068,3167.0521267285517,326.10390644186782,-3598.2088677495908,3598.2088677495908,-326.10390644186782,5776.4711744071319,0.0
583523.2936376977,3587751.2368613081,-17500.0,430.06321870743807,-2754.0025468184331,-3404.7171755306372,-364.86822778472123,-1121.0135579476898,-179.15050032365573,3502.9749153137991,1008.2847457529135,-4074.8514486776621,4074.8514486776621,-1008.2847457529135,6297.8942471069067,0.0
588523.2936376977,3587751.2368613081,-17500.0,1380.4529659408358,-2644.8808973619766,-3892.5255524912704,-152.14364000106389,-1187.0155277549929,-151.61924021709279,3885.3629067205916,1907.1028825250849,-4522.7639025068684,4522.7639025068684,-1907.1028825250849,6881.5412084527979,0.0
593523.2936376977,3587751.2368613081,-17500.0,2614.8926727421331,-2314.7396217781848,-4348.8019781510538,173.88298004305909,-1189.112510891762,-93.858943948835105,4334.8352033362235,3054.6846511511976,-4869.1597958973225,4869.1597958973225,-3054.6846511511976,7574.5752013475076,0.0
598523.2936376977,3587751.2368613081,-17500.0,4164.7586732747277,-1663.4353465846955,-4681.4510755010979,647.76633399878096,-1077.0525230367239,8.1932015940635843,4889.1901711437204,4466.284190522375,-4997.0326011127008,4997.0326011127008,-4466.284190522375,8473.6411879442858,0.0
603523.2936376977,3587751.2368613081,-17500.0,6034.2481678803297,-570.76342834647858,-4735.2384504185038,1305.6711944833967,-776.39726858396034,171.82351544830712,5613.3220500837397,6121.3781545080546,-4729.931456025548,4729.931456025548,-6121.3781545080546,9752.670588906758,0.0
608523.2936376977,3587751.2368613081,-17500.0,8177.8735051207614,1090.2563282034798,-4266.3761298297441,2178.4838147955106,-182.19922490364786,416.05178018424306,6608.692029614489,7936.5777892112965,-3819.2777518628936,3819.2777518628936,-7936.5777892112965,11679.81676867311,0.0
613523.2936376977,3587751.2368613081,-17500.0,10473.0541935481,3422.6088427157747,-2918.9604811054123,3279.7993785337203,845.03839448514816,758.05147966478467,8017.5970907559959,9732.3435131428269,-1943.0175357982894,1943.0175357982894,-9732.3435131428269,14600.690096489705,0.0
618523.2936376977,3587751.2368613081,-17500.0,12694.474110790577,6449.6746261217659,-216.77791315824143,4587.8314156928291,2477.1357410480505,1206.781983600901,10026.648637117001,11201.378895913667,1269.6496161213581,-1269.6496161213581,-11201.378895913667,18886.373794115236,0.0
623523.2936376977,3587751.2368613081,-17500.0,14503.285257616437,10031.731334701944,4406.1588649492223,6021.7289838359457,4903.7179805308424,1753.864281042954,12921.748777856514,11895.009566176988,6167.907195667477,-6167.907195667477,-11895.009566176988,24871.6121767484,0.0
628523.2936376977,3587751.2368613081,-17500.0,15468.675367148779,13762.292162617177,11504.814423366885,7415.0899749058171,8297.2596526514517,2363.4961004767752,17091.024654457768,11251.201049350773,12944.552300121035,-12944.552300121035,-11251.201049350773,32790.198183038345,0.0
633523.2936376977,3587751.2368613081,-17500.0,15136.510702348414,16865.796104199748,21419.208210482724,8491.4293672028471,12746.770143975082,2966.6083698563634,22506.478163794858,8688.0976347543692,21426.395950949893,-21426.395950949893,-8688.0976347543692,42675.021100283084,0.0
638523.2936376977,3587751.2368613081,-17500.0,13156.721964379931,18123.987415871386,33931.900034005455,8845.3948489852446,18141.167573921513,3469.1439863022542,28838.644104109502,3785.4533281540425,30781.604912892042,-30781.604912892042,-3785.4533281540425,54168.108892175602,0.0
643523.2936376977,3587751.2368613081,-17500.0,9532.4437104259268,15880.226807782734,47707.962240109577,7937.7617987770227,23959.493687375347,3781.3824898275275,35421.861852406699,-3372.6862070221141,39111.223244575522,-39111.223244575522,3372.6862070221141,66164.459305233919,0.0
648523.2936376977,3587751.2368613081,-17500.0,5190.8576847906879,8411.7066220715042,59422.315400273619,5190.9264079864524,28920.031554058267,3839.3713654031139,40898.578171230329,-11476.670161232643,43006.337068350011,-43006.337068350011,11476.670161232643,76278.324873259975,0.0
653523.2936376977,3587751.2368613081,-17500.0,2726.6307353668349,-4431.639809372572,63251.797010043403,501.76979610930937,30742.246875255511,3550.7893940010695,43145.95682500468,-17020.855498447127,38096.756413313095,-38096.756413313095,17020.855498447127,80678.519396575954,0.0
658523.2936376977,3587751.2368613081,-17500.0,5308.1891667036634,-18354.403628106182,53622.283723309949,-4753.7984595597354,27135.716513110838,2758.3689629249438,40287.344100349248,-15316.340823669609,22818.480755419176,-22818.480755419176,15316.340823669609,75838.216615215817,0.0
663523.2936376977,3587751.2368613081,-17500.0,12285.20253769868,-25527.331768106629,32131.102511792644,-7882.536653568648,18455.120509129527,1485.0149721468558,32857.668140138121,-5736.9073285697868,3159.0277324173094,-3159.0277324173094,5736.9073285697868,62353.466722077559,0.0
668523.2936376977,3587751.2368613081,-17500.0,18108.452956402569,-22393.90150311809,8855.0993332193211,-7453.6577838992052,8415.3438656108883,107.78283619132853,24659.306965218359,5629.4978305789273,-11122.118735750537,11122.118735750537,-5629.4978305789273,46115.807114022122,0.0
673523.2936376977,3587751.2368613081,-17500.0,18679.059623267076,-13179.332650607563,-7249.6367187484057,-4654.0603826930965,658.90166173919806,-1000.5027080905658,18947.754686403416,12510.373541274173,-16065.956455832591,16065.956455832591,-12510.373541274173,33714.756226311358,0.0
678523.2936376977,3587751.2368613081,-17500.0,14804.280699963894,-3831.0190483275446,-14645.288772074853,-1434.0094504851488,-3779.934924043524,-1727.5429223325839,15776.629763804649,13860.991917889625,-14484.974489612929,14484.974489612929,-13860.991917889625,27327.389929355566,0.0
683523.2936376977,3587751.2368613081,-17500.0,9261.7696791054004,2790.0214804799616,-16160.525995275659,1114.1335755339037,-5637.8820526765703,-2105.8197878563115,14027.900782554199,11856.923780084238,-10469.653617047199,10469.653617047199,-11856.923780084238,24677.087949911049,0.0
688523.2936376977,3587751.2368613081,-17500.0,4045.2341909193128,6502.1246617503803,-14825.155868730137,2750.0212985709882,-5965.1251013628307,-2205.7567145442931,12754.884777244191,8693.7292143784889,-6442.9693099484357,6442.9693099484357,-8693.7292143784889,23097.115639434778,0.0
693523.2936376977,3587751.2368613081,-17500.0,-40.318019019955941,8091.2137940477533,-12516.711600264449,3612.3114995009787,-5536.9927462093501,-2111.8234326615288,11568.248140269474,5599.2431389110307,-3275.2360984758589,3275.2360984758589,-5599.2431389110307,21485.601823839294,0.0
698523.2936376977,3587751.2368613081,-17500.0,-2898.283464913774,8379.5526803123757,-10139.646729303697,3926.9647358863667,-4813.3996427684224,-1906.6673616962105,10392.877602227896,3049.1454589306163,-1063.5744899389906,1063.5744899389906,-3049.1454589306163,19672.864831674095,0.0
703523.2936376977,3587751.2368613081,-17500.0,-4717.4295243972383,7965.3766345880767,-8046.3870576925156,3895.9388013549183,-4035.1216529669987,-1655.5923372255845,9252.1001143450012,1130.6004673942612,361.48672097587189,-361.48672097587189,-1130.6004673942612,17758.739923658763,0.0
708523.2936376977,3587751.2368613081,-17500.0,-5752.0568948189248,7225.3076164712438,-6327.084050451519,3669.2323844359694,-3313.4728675696506,-1401.2536528441933,8180.9260767465448,-226.87292484316367,1213.5613447357628,-1213.5613447357628,226.87292484316367,15865.191198226901,0.0
713523.2936376977,3587751.2368613081,-17500.0,-6233.4450432434551,6376.8121409481182,-4963.3565832611266,3347.4799122976783,-2689.9614437575956,-1166.8601855453451,7202.764602781901,-1138.3419485351053,1675.2156466732069,-1675.2156466732069,1138.3419485351053,14077.078464525204,0.0
718523.2936376977,3587751.2368613081,-17500.0,-6344.2806818436147,5536.2285544163642,-3900.6394980177492,2993.2602038241466,-2171.4713321946865,-962.25787814335411,6327.6793246048019,-1716.1608650006137,1882.8023721918989,-1882.8023721918989,1716.1608650006137,12440.256513539221,0.0
723523.2936376977,3587751.2368613081,-17500.0,-6218.7514435874373,4759.8354861906637,-3079.2018580106369,2642.748229529625,-1749.5543043964617,-789.42500348272608,5556.075646952987,-2053.9816563208219,1931.5752341833518,-1931.5752341833518,2053.9816563208219,10972.328585649704,0.0
728523.2936376977,3587751.2368613081,-17500.0,-5951.0608187825346,4070.0127137987283,-2445.8027968374331,2315.0228987139558,-1410.3550599240189,-646.32754823185792,4882.6943196352931,-2224.2038548780943,1885.4674960638899,-1885.4674960638899,2224.2038548780943,9673.3074872321049,0.0
733523.2936376977,3587751.2368613081,-17500.0,-5605.1978894679369,3470.9866996037958,-1956.8397160711797,2018.677160194444,-1139.3485854544379,-529.26142626987439,4299.4447264598957,-2280.444778012698,1786.1940015661005,-1786.1940015661005,2280.444778012698,8533.4388198396246,0.0
738523.2936376977,3587751.2368613081,-17500.0,-5223.4141654827763,2957.9507920995748,-1578.0779302694652,1756.1972164116032,-923.35554683961243,-434.13001339968002,3796.4510818750173,-2261.3357663737038,1660.32475819811,-1660.32475819811,2261.3357663737038,7538.3041162262498,0.0
743523.2936376977,3587751.2368613081,-17500.0,-4832.803684388803,2522.1672863266135,-1283.230636487614,1526.7253959197214,-751.20397263803216,-357.06512096802544,3362.3438338241317,-2194.1722095999557,1524.3627446455062,-1524.3627446455062,2194.1722095999557,6671.9053145347234,0.0
748523.2936376977,3587751.2368613081,-17500.0,-4450.1251904839128,2153.7123013859418,-1052.3472640282439,1327.736963130586,-613.76546795209867,-294.67977774206821,2986.261952901119,-2097.9395966160291,1388.2380433107751,-1388.2380433107751,2097.9395966160291,5918.4078287952889,0.0
753523.2936376977,3587751.2368613081,-17500.0,-4085.2175183732343,1842.8716371699936,-870.36654280233711,1156.0206818509967,-503.73644669109331,-244.12932942978108,2659.3655752769623,-1985.6528974615526,1257.6535359171903,-1257.6535359171903,1985.6528974615526,5263.043743493382,0.0
553523.2936376977,3592751.2368613081,-17500.0,-2289.0833163205325,-1976.9359314092737,-1211.1819370656874,-715.25912045140251,-552.1093151851079,-156.73812022964734,2155.0320574538018,-1621.98010844328,-1576.6009848860356,1576.6009848860356,1621.98010844328,4193.3754348231187,0.0
558523.2936376977,3592751.2368613081,-17500.0,-2318.9251666860609,-2228.98549067352,-1440.0380838643346,-778.51972779271705,-648.19505947515938,-179.88298388944156,2393.6826714798181,-1615.9339831478553,-1879.9132716183128,1879.9132716183128,1615.9339831478553,4631.613733682254,0.0
563523.2936376977,3592751.2368613081,-17500.0,-2295.5564667922408,-2504.7265865461727,-1718.9183962015925,-838.47521438719218,-760.34178869903724,-205.13519909724019,2660.5589264981236,-1558.4328713827776,-2242.0484469316666,2242.0484469316666,1558.4328713827776,5114.821877325312,0.0
568523.2936376977,3592751.2368613081,-17500.0,-2194.966291769415,-2799.0289411561535,-2057.8781306942328,-889.26560121659384,-889.58217008048803,-231.64329487283368,2957.9282277381699,-1427.1205545401117,-2671.3487965534814,2671.3487965534814,1427.1205545401117,5643.9720317870688,0.0
573523.2936376977,3592751.2368613081,-17500.0,-1985.2330914327952,-3101.1078789520066,-2467.4018103230119,-921.92509976317126,-1035.5710683266464,-257.7145431350026,3287.7494725526703,-1192.3591611631,-3174.501144976085,3174.501144976085,1192.3591611631,6218.3142913140991,0.0
578523.2936376977,3592751.2368613081,-17500.0,-1624.8468937276168,-3391.3058990911563,-2956.7694179327837,-923.15331838980251,-1195.2886832301713,-280.33933027002297,3651.6295145881277,-815.81396749510168,-3753.7687435955349,3753.7687435955349,815.81396749510168,6835.0674076106397,0.0
583523.2936376977,3592751.2368613081,-17500.0,-1061.4106304097561,-3636.5316938183232,-3530.7348205373733,-873.80222068152943,-1360.9155176688178,-294.53463454360065,4051.1075459966178,-249.58976234896727,-4402.1807794904571,4402.1807794904571,249.58976234896727,7489.9451652292028,0.0
588523.2936376977,3592751.2368613081,-17500.0,-231.52214648441594,-3784.1422697060184,-4183.2997409433101,-747.19139051939055,-1516.4747528811038,-292.5089013364763,4488.7867382444028,563.12725069644739,-5095.5784959467401,5095.5784959467401,-563.12725069644739,8180.0018063357056,0.0
593523.2936376977,3592751.2368613081,-17500.0,936.75825236412402,-3754.4305383318856,-4886.7460670900964,-507.5759088820879,-1632.7431906493407,-262.74282288599085,4971.3815251275792,1684.2424582293047,-5780.1294178494645,5780.1294178494645,-1684.2424582293047,8912.0369493435173,0.0
598523.2936376977,3592751.2368613081,-17500.0,2516.6602492736401,-3432.8005088534755,-5573.3993038238141,-109.44471003723662,-1659.9161872124062,-189.26517783026344,5516.6318802976666,3171.0818971129825,-6353.9038451036431,6353.9038451036431,-3171.0818971129825,9722.8728171424918,0.0
603523.2936376977,3592751.2368613081,-17500.0,4567.7277248072569,-2664.6231873894617,-6107.2959206080559,501.16452938561844,-1517.7276261598199,-51.717223599348856,6167.0843471028684,5057.2414468117877,-6641.9987882731293,6641.9987882731293,-5057.2414468117877,10721.350507239751,0.0
608523.2936376977,3592751.2368613081,-17500.0,7110.1050949715009,-1259.0157085357355,-6243.9767915268021,1381.5840056242869,-1083.3544552179358,172.805687194635,7013.511862557004,7320.1178472279953,-6367.4771525941251,6367.4771525941251,-7320.1178472279953,12158.084434875693,0.0
613523.2936376977,3592751.2368613081,-17500.0,10087.059762680747,987.68547721622042,-5581.0765564036128,2581.578125427468,-178.72641713336691,504.88501252721892,8226.2982267702537,9833.5700675155804,-5126.6154694214838,5126.6154694214838,-9833.5700675155804,14497.923385523494,0.0
618523.2936376977,3592751.2368613081,-17500.0,13320.657697027671,4233.9711448781882,-3512.9551650134267,4124.8375124456597,1439.092928912838,954.05269503589352,10088.429484534739,12311.496251427568,-2387.5601152084319,2387.5601152084319,-12311.496251427568,18416.409913346692,0.0
623523.2936376977,3592751.2368613081,-17500.0,16476.385811810465,8487.4747507318025,779.07208919711547,5982.8467300367729,4078.1978677316079,1507.3064687196761,13071.765313700042,14262.331420063003,2455.6519705221053,-2455.6519705221053,-14262.331420063003,24675.793834486496,0.0
628523.2936376977,3592751.2368613081,-17500.0,19063.492120272123,13453.411544951012,8248.2983623697037,8043.9197885370168,8094.001183486178,2120.2431244762111,17959.358437582159,14991.224277901836,9936.0885429628561,-9936.0885429628561,-14991.224277901836,33976.947045579829,0.0
633523.2936376977,3592751.2368613081,-17500.0,20489.549375136572,18369.493391771452,19758.53352408357,10081.194334123704,13842.359235204789,2723.6979035420791,25124.993770881192,13685.400209549469,20254.912863834939,-20254.912863834939,-13685.400209549469,46853.087104902108,0.0
638523.2936376977,3592751.2368613081,-17500.0,20128.513975607282,21865.703735539711,35687.658931496815,11705.736736009334,21583.868942037076,3270.1398276398772,34459.42855952611,9561.055128193042,32927.295655903712,-32927.295655903712,-9561.055128193042,63494.753093705614,0.0
643523.2936376977,3592751.2368613081,-17500.0,17328.621066324184,21753.592048091858,55290.273328264557,12211.028862597273,31241.915219053786,3838.2086903882532,45493.721769630043,1995.8707487166575,46246.254184631456,-46246.254184631456,-1995.8707487166575,83248.738070389692,0.0
648523.2936376977,3592751.2368613081,-17500.0,11858.690877715775,14597.803345937604,75175.787226956105,10180.071088663175,41583.413838269858,4659.6612416033086,56503.16799539647,-8893.3868069921009,55958.576929587121,-55958.576929587121,8893.3868069921009,103220.31011344871,0.0
653523.2936376977,3592751.2368613081,-17500.0,6553.5124510183314,-2987.0330188934954,85936.06555492981,3725.5398651161968,48273.239313996084,5566.7208686833492,63256.240648843974,-19296.092666731049,53357.531494087969,-53357.531494087969,19296.092666731049,115931.96484290315,0.0
658523.2936376977,3592751.2368613081,-17500.0,9153.537996327228,-26006.259888994395,73210.63253904575,-5890.0159836911143,43944.525256881796,5202.5416647524162,60090.861913541827,-18873.64676289921,30654.821136808438,-30654.821136808438,18873.64676289921,110898.27998702612,0.0
663523.2936376977,3592751.2368613081,-17500.0,20714.20935208859,-36646.844748430398,36922.024669374448,-11475.190374939668,27356.665457541789,2737.0944745446691,46749.411165432357,-3014.1551513211889,-1628.4249219622427,1628.4249219622427,3014.1551513211889,86870.103038330257,0.0
668523.2936376977,3592751.2368613081,-17500.0,28063.806580373359,-27163.513581101986,765.42852220898033,-9075.3335748561112,8940.0781142042633,-139.78351106496714,32295.838388432992,14224.913928394613,-20895.413994154202,20895.413994154202,-14224.913928394613,58916.560596320109,0.0
673523.2936376977,3592751.2368613081,-17500.0,24344.121599420352,-10323.717069655793,-18206.572096879096,-3165.1723711283685,-2628.747049130197,-1957.1510992292797,24037.244355483759,20537.516847139217,-22477.938556793619,22477.938556793619,-20537.516847139217,41877.253553052476,0.0
678523.2936376977,3592751.2368613081,-17500.0,15052.116040931769,2390.9079730759395,-22726.276427399025,1745.5657219053446,-7425.4281847309248,-2832.1080069279951,20344.644897975606,18063.087066382199,-16126.939998532427,16126.939998532427,-18063.087066382199,35540.349537801259,0.0
683523.2936376977,3592751.2368613081,-17500.0,6022.3117607929971,9021.223377769953,-20655.129509267284,4625.90165633995,-8449.6874689135711,-3153.4320335310636,18163.407206295207,12660.39592723601,-9212.7835543223682,9212.7835543223682,-12660.39592723601,32766.305067532299,0.0
688523.2936376977,3592751.2368613081,-17500.0,-655.50318517162646,11452.588306793361,-16774.667629615851,5934.7373347514394,-7851.7147982371516,-3118.9879994426192,16249.308391073759,7503.2690605022462,-4071.1921756478196,4071.1921756478196,-7503.2690605022462,30170.91044831595,0.0
693523.2936376977,3592751.2368613081,-17500.0,-4954.9576483213868,11615.331296331788,-12999.466202021391,6262.6095636457048,-6708.6662810472008,-2860.4940267195248,14385.675196546394,3527.3195612033569,-774.56559223788076,774.56559223788076,-3527.3195612033569,27264.941501389079,0.0
698523.2936376977,3592751.2368613081,-17500.0,-7427.8543443240069,10727.038790596818,-9882.3452919593801,6038.442109864086,-5497.022836770202,-2492.3109110598507,12610.094328562427,748.8075236583652,1153.0297199394909,-1153.0297199394909,-748.8075236583652,24243.485200433406,0.0
703523.2936376977,3592751.2368613081,-17500.0,-8641.4088888664901,9448.1794708631332,-7469.3199888940198,5538.5784412172179,-4405.6169955264113,-2098.9243749171528,10978.079570563126,-1071.408657482667,2176.9527873047177,-2176.9527873047177,1071.408657482667,21320.641295489797,0.0
708523.2936376977,3592751.2368613081,-17500.0,-9039.3366835395263,8108.863730556398,-5653.3008499814205,4930.7031127781738,-3491.2285376426544,-1729.9397327027962,9520.1060024676226,-2192.5635038662776,2639.2494365934899,-2639.2494365934899,2192.5635038662776,18625.390871636449,0.0
713523.2936376977,3592751.2368613081,-17500.0,-8936.1832668773623,6859.8228997931528,-4302.352685867334,4310.1618357627231,-2753.3389387219913,-1407.712275925722,8243.3320617779373,-2828.4342851103679,2767.9125917067518,-2767.9125917067518,2828.4342851103679,16214.537426162047,0.0
718523.2936376977,3592751.2368613081,-17500.0,-8543.7228204965322,5758.7941144647466,-3300.3200098593843,3726.4967482435009,-2169.7642175264295,-1137.8366783895879,7140.1338536168832,-3138.7110378389816,2707.8779612032613,-2707.8779612032613,3138.7110378389816,14099.05924709272,0.0
723523.2936376977,3592751.2368613081,-17500.0,-7999.5592547461229,4817.5288055316578,-2555.6059465665553,3201.7592571030473,-1712.9970520066636,-917.33543223840002,6195.2351586649511,-3236.9481643090148,2548.5280070572262,-2548.5280070572262,3236.9481643090148,12264.658217178083,0.0
728523.2936376977,3592751.2368613081,-17500.0,-7390.3723090551266,4026.6832536993306,-1999.3919397629659,2742.4422865922879,-1357.0704045345458,-739.7330542386419,5390.1257981432218,-3201.5362082414395,2343.5789382275407,-2343.5789382275407,3201.5362082414395,10685.06572675934,0.0
733523.2936376977,3592751.2368613081,-17500.0,-6768.9614046658435,3368.6345003235997,-1581.1508923922152,2346.849836198739,-1079.9213596316222,-597.76959813571477,4705.3023222135953,-3085.4776195051536,2124.3969116492171,-2124.3969116492171,3085.4776195051536,9329.8933851005368,0.0
738523.2936376977,3592751.2368613081,-17500.0,-6166.0989807820151,2823.8170548033509,-1264.170681340697,2009.4312346695835,-863.75293868004451,-484.66245829994335,4121.918549752756,-2923.998457624919,1908.5849684174655,-1908.5849684174655,2923.998457624919,8168.9108757318336,0.0
743523.2936376977,3592751.2368613081,-17500.0,-5598.5216844939114,2373.6463343598352,-1021.8691145519225,1723.210889459669,-694.60556639434299,-394.57933987365107,3623.4176847716744,-2740.118233771389,1705.4042775850269,-1705.4042775850269,2740.118233771389,7174.1562093299117,0.0
748523.2936376977,3592751.2368613081,-17500.0,-5074.2008893344419,2001.6862601341834,-834.98536627813291,1481.074007282881,-561.69557702738553,-322.72174239958656,3196.0794498495375,-2548.5852923250382,1519.149216285929,-1519.149216285929,2548.5852923250382,6320.794905583235,0.0
753523.2936376977,3592751.2368613081,-17500.0,-4595.767044422566,1693.9475951488248,-689.51778110566761,1276.3916961492632,-456.75775705369233,-265.23964955586735,2828.633113925353,-2358.6020896401797,1351.2269613126734,-1351.2269613126734,2358.6020896401797,5587.2996139545867,0.0
553523.2936376977,3597751.2368613081,-17500.0,-3022.164339644065,-2039.7448128209696,-1068.692659966395,-893.61898306403953,-556.69788963983672,-187.91632257080283,2388.3777122827232,-2245.4196091664294,-1363.2267979207456,1363.2267979207456,2245.4196091664294,4703.133973958953,0.0
558523.2936376977,3597751.2368613081,-17500.0,-3184.2259191600947,-2338.0359112760393,-1281.9952857233704,-997.93620383646305,-662.31830114261879,-219.66586701756296,2672.5819259573418,-2355.0667815783936,-1657.14373560434,1657.14373560434,2355.0667815783936,5241.2482390946907,0.0
563523.2936376977,3597751.2368613081,-17500.0,-3316.9255467101543,-2678.6388797756331,-1547.69307970311,-1108.9903340629828,-788.98036808836241,-256.00929744016469,2994.4046417567129,-2434.4114873103363,-2018.1611867358843,2018.1611867358843,2434.4114873103363,5845.1934862686894,0.0
568523.2936376977,3597751.2368613081,-17500.0,-3398.8875703229874,-3062.9880942978957,-1879.2621270345774,-1223.1766838767996,-939.90347657764698,-296.75774953698414,3357.6245343745113,-2463.272073791426,-2460.4772099416705,2460.4772099416705,2463.272073791426,6519.4189113807442,0.0
573523.2936376977,3597751.2368613081,-17500.0,-3399.6860045249364,-3488.7577813333692,-2292.8616370630361,-1334.0207921975177,-1117.7700589550132,-340.97939644930506,3765.4587333248046,-2412.9415346764617,-2999.552629360046,2999.552629360046,2412.9415346764617,7266.1304691379801,0.0
578523.2936376977,3597751.2368613081,-17500.0,-3276.8798460630501,-3946.8010129965669,-2806.8800595276753,-1430.7316659859537,-1323.6524529455687,-386.46506167999513,4219.9600313771989,-2243.4384501136556,-3650.4767113428134,3650.4767113428134,2243.4384501136556,8083.672714228861,0.0
583523.2936376977,3597751.2368613081,-17500.0,-2972.633899349381,-4416.3262317731687,-3440.2226577462111,-1496.2355633126745,-1555.0641057182415,-428.93965628564558,4721.2311286741779,-1900.4962954493189,-4424.4573726324943,4424.4573726324943,1900.4962954493189,8964.4336318485839,0.0
588523.2936376977,3597751.2368613081,-17500.0,-2410.4342508984519,-4857.5906509046818,-4208.0582217896208,-1504.6662263957405,-1802.5861013050501,-460.98907331807146,5266.6137529950483,-1312.9667340267806,-5322.0180383042352,5322.0180383042352,1312.9667340267806,9892.6604072899663,0.0
593523.2936376977,3597751.2368613081,-17500.0,-1493.084084350729,-5201.4132094646639,-5112.757820431294,-1418.4653824691475,-2044.2799189532739,-470.78543715620555,5850.4212956280426,-392.1625150910113,-6320.7108148457573,6320.7108148457573,392.1625150910113,10843.661349151631,0.0
598523.2936376977,3597751.2368613081,-17500.0,-104.29939018074852,-5335.308334990702,-6126.2471122941124,-1185.5978666672572,-2236.8457835550471,-440.96778000748856,6465.7791656542959,963.88845805553638,-7354.2597416837616,7354.2597416837616,-963.88845805553638,11788.711112762738,0.0
603523.2936376977,3597751.2368613081,-17500.0,1882.1453374359294,-5087.6936022859081,-7158.0583180982503,-737.94739298620107,-2302.3444977019049,-348.55377742913623,7112.4461776842872,2856.1956139068398,-8279.5441316057622,8279.5441316057622,-2856.1956139068398,12717.125248143011,0.0
608523.2936376977,3597751.2368613081,-17500.0,4579.9972549584245,-4215.587837444823,-8001.837272145076,7.3412592433056352,-2109.4827857950627,-167.50289461291572,7819.3374693439237,5353.156140798812,-8829.1103674581009,8829.1103674581009,-5353.156140798812,13703.011108398237,0.0
613523.2936376977,3597751.2368613081,-17500.0,8048.7607833568636,-2408.8811745551361,-8254.6622008894446,1141.3406133300466,-1449.2458842356041,123.91816784630382,8698.3987124422129,8433.5837987083032,-8552.971512748034,8552.971512748034,-8433.5837987083032,15067.173320328644,0.0
618523.2936376977,3597751.2368613081,-17500.0,12231.250247727357,664.14888053321988,-7214.4578937133174,2749.8297469965955,-6.2846047853623048,529.8409329963954,10052.274962943306,11902.656084938526,-6769.1385866483415,6769.1385866483415,-11902.656084938526,17650.055107644424,0.0
623523.2936376977,3597751.2368613081,-17500.0,16885.031845013578,5235.2175553690913,-3790.7401002030451,4893.1124251171796,2670.032671615118,1021.5620095206488,12569.951619004984,15300.087783991301,-2571.3572938661018,2571.3572938661018,-15300.087783991301,22947.442466358767,0.0
628523.2936376977,3597751.2368613081,-17500.0,21553.06360887811,11212.950006070421,3481.3813566682347,7583.9319536886223,7187.7741328697712,1536.2929491058444,17661.757873157596,17861.919066842849,5023.0515503416882,-5023.0515503416882,-17861.919066842849,32714.693856093018,0.0
633523.2936376977,3597751.2368613081,-17500.0,25644.359654774529,17897.934606539839,16179.117077345256,10775.934930908246,14318.962069454647,2026.0376451205482,26562.956260685907,18641.605129756354,16705.584617111905,-16705.584617111905,-18641.605129756354,48459.584595753127,0.0
638523.2936376977,3597751.2368613081,-17500.0,28599.841262705359,23810.201578618093,35394.929897005073,14372.775410444436,24996.693453223092,2628.1995610299964,39637.386744345509,16822.843529967176,32354.983027401344,-32354.983027401344,-16822.843529967176,71359.583638030585,0.0
643523.2936376977,3597751.2368613081,-17500.0,29610.490031380799,26705.002386564578,61060.947991689776,18081.942138517876,40327.548021222174,4083.5778865148945,57177.946171622461,11720.470875688407,50698.966481270952,-50698.966481270952,-11720.470875688407,102190.32423349489,0.0
648523.2936376977,3597751.2368613081,-17500.0,26131.556270424557,22370.896376381963,91100.941455667678,19975.045473553306,60958.040629926101,8206.1822363375304,78318.342247371576,1394.1965475088145,68422.917844452837,-68422.917844452837,-1394.1965475088145,139831.92434919774,0.0
653523.2936376977,3597751.2368613081,-17500.0,16609.765210318721,899.31125806201851,114777.7448679479,12912.767981850426,81359.961091018165,15719.863463152398,96625.954292644747,-15399.636558751485,73141.646614622732,-73141.646614622732,15399.636558751485,173453.39094715146,0.0
658523.2936376977,3597751.2368613081,-17500.0,16981.247423125045,-38986.926954932263,99306.844529480572,-7635.8700899262467,78970.454281054743,18889.76611287193,95800.060023257072,-20607.192511562782,39630.315647714815,-39630.315647714815,20607.192511562782,173400.9381350397,0.0
663523.2936376977,3597751.2368613081,-17500.0,38029.86489478068,-54504.64268941414,33944.050943508977,-19478.030812869591,41865.112389458169,10101.852346097327,69716.760068605508,6958.072577782702,-16369.292621067289,16369.292621067289,-6958.072577782702,126455.80761890866,0.0
668523.2936376977,3597751.2368613081,-17500.0,43732.971722773465,-28170.308740102024,-19878.935574191924,-9725.631114714648,5465.8996511821788,527.12262883878134,43619.99410817938,31327.131499688894,-37493.66845907367,37493.66845907367,-31327.131499688894,76934.41649159645,0.0
673523.2936376977,3597751.2368613081,-17500.0,27422.145070312585,-50.40314268314485,-34665.060931386535,2536.671456299187,-9715.9499541501773,-3149.836527968876,32534.694970700948,30470.751286382445,-27800.702963623786,27800.702963623786,-30470.751286382445,56514.149261641287,0.0
678523.2936376977,3597751.2368613081,-17500.0,9436.4005932773907,13337.198688369785,-30737.318528192023,8598.6868733087667,-12558.685400987189,-4093.4425306534695,27744.379650719085,19837.897255787066,-14146.149638404046,14146.149638404046,-19837.897255787066,49820.245252188943,0.0
683523.2936376977,3597751.2368613081,-17500.0,-2478.6682728587889,17002.333560544201,-23248.698379595953,10463.90867915711,-11417.744237234992,-4277.9635992187568,24024.010797264142,10214.237321996196,-4989.9780087426816,4989.9780087426816,-10214.237321996196,44542.934800670708,0.0
688523.2936376977,3597751.2368613081,-17500.0,-9048.8809123767678,16491.19404346625,-16780.072156162554,10438.212233414328,-9405.5801988062831,-4082.6899222197039,20646.567002285032,3659.9816763152703,79.833219692368175,-79.833219692368175,-3659.9816763152703,39127.624854474394,0.0
693523.2936376977,3597751.2368613081,-17500.0,-12205.764116906308,14543.074515799915,-11982.956480544401,9625.1422622212922,-7444.6486252897448,-3641.2444866986002,17635.716529043129,-389.61378247970924,2618.1425420524852,-2618.1425420524852,389.61378247970924,33914.508969555507,0.0
698523.2936376977,3597751.2368613081,-17500.0,-13353.448737099967,12293.49738614269,-8582.2327266261382,8519.3540373259984,-5781.9150652729049,-3093.1842881646371,15013.98025249913,-2744.6479123525087,3728.4534960050996,-3728.4534960050996,2744.6479123525087,29163.395375462049,0.0
703523.2936376977,3597751.2368613081,-17500.0,-13361.903168712688,10179.088721811318,-6200.8640172982768,7361.3517629070202,-4451.7196391639654,-2545.0131561419171,12767.253237418869,-4012.636935618702,4063.6883323355692,-4063.6883323355692,4012.636935618702,24973.763885005745,0.0
708523.2936376977,3597751.2368613081,-17500.0,-12755.683433854969,8344.2261426347304,-4532.9721518114475,6269.6491364926178,-3418.4967850963294,-2054.0048768945126,10863.036686682979,-4600.2802889466475,3994.966555250021,-3994.966555250021,4600.2802889466475,21354.2567936425,0.0
713523.2936376977,3597751.2368613081,-17500.0,-11848.367699420189,6812.0093047363634,-3357.9844128201375,5296.0991319208151,-2628.1290810184046,-1640.526698922044,9261.0818192509087,-4771.9549880698387,3730.4469343313967,-3730.4469343313967,4771.9549880698387,18267.340840151141,0.0
718523.2936376977,3597751.2368613081,-17500.0,-10824.384060197151,5557.8459220851792,-2523.0126725245882,4455.6269931710131,-2027.7465054003571,-1304.4419732770405,7919.3815180203237,-4697.3901713033765,3385.182921765248,-3385.182921765248,4697.3901713033765,15654.888906023962,0.0
723523.2936376977,3597751.2368613081,-17500.0,-9788.9512292314084,4541.7759438076291,-1923.5302387432764,3744.0045439761611,-1572.5015625547849,-1036.6601817676869,6797.6588289797019,-4484.366247630941,3021.1354966313284,-3021.1354966313284,4484.366247630941,13452.924290184859,0.0
728523.2936376977,3597751.2368613081,-17500.0,-8799.0458995949575,3722.4091267498366,-1488.2731240887431,3148.316686175845,-1226.7844147468909,-825.52691977714323,5859.287367911983,-4200.4262394362513,2670.1304216614435,-2670.1304216614435,4200.4262394362513,11599.63365821751,0.0
733523.2936376977,3597751.2368613081,-17500.0,-7882.693655416957,3062.4381840971159,-1168.5276190829488,2652.7741033244288,-963.28801006638116,-659.81202635377258,5072.3823135418743,-3887.1599939641146,2347.0701329766025,-2347.0701329766025,3887.1599939641146,10039.193377342124,0.0
738523.2936376977,3597751.2368613081,-17500.0,-7050.9273571815538,2530.3059020051578,-930.80677370829153,2241.6908092568283,-761.45900965119199,-529.83989411153595,4410.2066406815547,-3569.5428598919189,2057.5343891732809,-2057.5343891732809,3569.5428598919189,8723.1274462844267,0.0
743523.2936376977,3597751.2368613081,-17500.0,-6305.1280509053568,2100.19690320461,-751.9201575222728,1900.8348463548266,-605.97130051548436,-427.72491985693159,3850.8419420127384,-3262.0033698119023,1802.1352963741367,-1802.1352963741367,3262.0033698119023,7610.3316681498018,0.0
748523.2936376977,3597751.2368613081,-17500.0,-5641.478037155066,1751.3806430716522,-615.67245725810301,1617.9015049049322,-485.43793160472069,-347.23082987501851,3376.453614229642,-2972.3449812321869,1578.9919796694032,-1578.9919796694032,2972.3449812321869,6666.4598047865884,0.0
753523.2936376977,3597751.2368613081,-17500.0,-5053.6145653248686,1467.3775975966853,-510.65113513837315,1382.5433330750207,-391.39865145881674,-283.50613551200661,2972.5252853812844,-2704.26522369332,1385.1159689814278,-1385.1159689814278,2704.26522369332,5863.0598635769647,0.0
548523.2936376977,3602751.2368613081,-17500.0,-3479.4159308843782,-1733.7471737476012,-747.00870423020604,-944.4671349683266,-448.99877856895552,-184.99549934274651,2333.0674115412826,-2655.4719046065688,-854.14527340987843,854.14527340987843,2655.4719046065688,4649.3062967778133,0.0
553523.2936376977,3602751.2368613081,-17500.0,-3780.1406376088175,-2009.8216767389126,-893.09241748443208,-1075.7246721429185,-538.22227921540809,-219.33035354793546,2623.5816858580638,-2890.0872009750674,-1059.5048203116505,1059.5048203116505,2890.0872009750674,5214.6846697350602,0.0
558523.2936376977,3602751.2368613081,-17500.0,-4093.3636990158584,-2335.6156888194823,-1077.2365532079145,-1225.0898398315167,-647.53377009476583,-260.2106704286125,2957.4091844493664,-3132.71690249124,-1318.2347288710764,1318.2347288710764,3132.71690249124,5861.2750687442585,0.0
563523.2936376977,3602751.2368613081,-17500.0,-4410.1808918813631,-2719.3288328944368,-1310.9286562752552,-1393.5382178685934,-781.46077337666827,-308.52458222901902,3340.7754283077475,-3374.7493537012579,-1644.8639135855058,1644.8639135855058,3374.7493537012579,6599.9256385383587,0.0
568523.2936376977,3602751.2368613081,-17500.0,-4715.8213426303146,-3169.2944172758639,-1609.2393257042006,-1580.9097974813801,-945.21462434783291,-364.93612785434669,3780.278813769849,-3601.9755460085184,-2057.5810391906921,2057.5810391906921,3601.9755460085184,7441.510125357684,0.0
573523.2936376977,3602751.2368613081,-17500.0,-4986.8926361108988,-3692.8146438372992,-1991.7407279585552,-1784.9874981293317,-1144.4300911146238,-429.5477587507163,4282.4020951105658,-3791.9277686233349,-2578.6695641610327,2578.6695641610327,3791.9277686233349,8395.7565987571143,0.0
578523.2936376977,3602751.2368613081,-17500.0,-5187.5754865964063,-4293.93121775901,-2483.3660803536245,-2000.0785448411007,-1384.4808775178999,-501.3242253868396,4852.6790294214625,-3910.211766179093,-3234.4346323332206,3234.4346323332206,3910.211766179093,9469.2098414384982,0.0
583523.2936376977,3602751.2368613081,-17500.0,-5264.5468447031226,-4969.4030537514864,-3114.7813404430667,-2214.9149233898438,-1669.0005462861836,-577.17150400777439,5494.2939094745134,-3905.670568255277,-4053.9068193869521,4053.9068193869521,3905.670568255277,10661.864492240504,0.0
588523.2936376977,3602751.2368613081,-17500.0,-5140.5756635932585,-5701.7675340140595,-3921.2753341074435,-2409.7000185191123,-1996.9836911939317,-650.57995718045674,6205.8560250213141,-3704.4785220402132,-5064.9364649270456,5064.9364649270456,3704.4785220402132,11961.87086768277,0.0
593523.2936376977,3602751.2368613081,-17500.0,-4707.1888569739349,-6447.8799894576605,-4938.0553993459571,-2552.2274451550074,-2357.4607190827169,-709.86817510997798,6978.1017438571662,-3203.9305199766791,-6285.1382400511011,6285.1382400511011,3203.9305199766791,13337.715193968765,0.0
598523.2936376977,3602751.2368613081,-17500.0,-3817.8425054883014,-7120.9225242660386,-6187.6795445936768,-2593.2597343398438,-2720.2066346732745,-736.44964196915328,7789.5185941027667,-2268.1740280879653,-7703.2482904466724,7703.2482904466724,2268.1740280879653,14727.853946053034,0.0
603523.2936376977,3602751.2368613081,-17500.0,-2285.1155206908888,-7564.1893712726533,-7651.5355755293367,-2461.815987065906,-3020.2784677449827,-704.41558049799107,8601.9472633877231,-731.02833977932278,-9243.7642189651033,9243.7642189651033,731.02833977932278,16030.549548588331,0.0
608523.2936376977,3602751.2368613081,-17500.0,110.93937729954119,-7517.6601297233419,-9211.3439519204403,-2061.5295276150778,-3133.4130307345531,-584.19963067521007,9360.9918789037147,1584.095585525627,-10705.030651954303,10705.030651954303,-1584.095585525627,17107.252469243613,0.0
613523.2936376977,3602751.2368613081,-17500.0,3591.0203880354788,-6587.2420123565453,-10540.089487073892,-1269.3054271928404,-2838.4565291686772,-354.55193202625003,10019.049246995068,4810.7746801605354,-11661.763447571324,11661.763447571324,-4810.7746801605354,17851.601565539651,0.0
618523.2936376977,3602751.2368613081,-17500.0,8305.6695060933034,-4247.932832255502,-10922.865355669126,63.640822131186532,-1761.9363639339986,-25.569446714568681,10642.532867593858,8933.3104847768518,-11337.546238790514,11337.546238790514,-8933.3104847768518,18504.291030177388,0.0
623523.2936376977,3602751.2368613081,-17500.0,14219.387807608151,49.622271680855832,-9020.5396204898643,2110.4946904100934,700.92913723135314,335.96907593534507,11803.685885231527,13624.617735787724,-8501.0130597050957,8501.0130597050957,-13624.617735787724,20616.443785357365,0.0
628523.2936376977,3602751.2368613081,-17500.0,20992.655297960857,6560.0427935182533,-2695.6907474808822,5069.7183798389606,5490.7074846820478,618.88718259396444,15693.084712945576,18092.834679952444,-1542.2208455873078,1542.2208455873078,-18092.834679952444,28111.554919267099,0.0
633523.2936376977,3602751.2368613081,-17500.0,28028.035095753621,14633.317748569831,10762.583959941023,9170.8082445295568,13992.152354367799,810.07774761928363,25537.815148466223,21161.595988938159,10974.392370521167,-10974.392370521167,-21161.595988938159,45288.373912145398,0.0
638523.2936376977,3602751.2368613081,-17500.0,35026.18647998471,22050.823683214869,33428.603771781607,14749.273332754927,28081.175357513512,1433.3989519665197,42419.533355003361,22061.908217150147,28992.742281474366,-28992.742281474366,-22061.908217150147,74527.560560995989,0.0
643523.2936376977,3602751.2368613081,-17500.0,42896.118255947804,25487.600031376332,64425.683167726682,22656.301275578477,50257.348541664629,4710.7750238400267,67256.381004403418,22085.887665513805,49595.567668165721,-49595.567668165721,-22085.887665513805,117515.68790889691,0.0
648523.2936376977,3602751.2368613081,-17500.0,50598.715198100821,22511.480171080802,99516.332085480884,33699.358096472948,84917.687517243496,17525.69048133097,102012.99593422485,22735.705541927677,68828.278837549035,-68828.278837549035,-22735.705541927677,177946.32096480337,0.0
653523.2936376977,3602751.2368613081,-17500.0,44006.989474656948,2213.7898860946016,131833.46497415408,34947.34227029368,134099.17380013593,50598.930745896112,145112.63906092438,11653.380509653849,79760.567063371825,-79760.567063371825,-11653.380509653849,254567.11208190722,0.0
658523.2936376977,3602751.2368613081,-17500.0,36488.978010742583,-62137.749447959141,111855.48706657164,-11234.035873618433,145361.00551144133,74793.972338701642,159184.24950684674,-6842.6029895988122,33273.989515586283,-33273.989515586283,6842.6029895988122,282155.71188816766,0.0
663523.2936376977,3602751.2368613081,-17500.0,76712.768973036567,-76398.741096218859,-4190.0300534591406,-37063.584286598089,51965.50010823019,31525.813720188045,105561.63358896408,39801.629780067538,-58777.733689750996,58777.733689750996,-39801.629780067538,186182.82150663098,0.0
668523.2936376977,3602751.2368613081,-17500.0,60010.181848224471,-11048.55729879436,-60358.525664886947,-146.38187838068978,-13497.998935698428,-2026.2021072633927,62654.0676526842,59363.287224869906,-57171.130776080485,57171.130776080485,-59363.287224869906,108548.4379945746,0.0
673523.2936376977,3602751.2368613081,-17500.0,16346.486735872886,22062.201960206843,-50916.490678219801,19272.329595865991,-22353.272729612851,-6171.6210814547112,48892.415645411289,35166.868184100065,-24549.327271637532,24549.327271637532,-35166.868184100065,87121.955143831743,0.0
678523.2936376977,3602751.2368613081,-17500.0,-8255.1950923423683,27110.757326445262,-33783.912007407918,21223.840279449836,-18048.832352353267,-5617.5023708832541,39453.344914440589,14027.240731411974,-5855.9872463868305,5855.9872463868305,-14027.240731411974,72523.268307009726,0.0
683523.2936376977,3602751.2368613081,-17500.0,-18116.444923239367,23993.562145040065,-21713.263640012352,18802.994611593884,-13439.391772322731,-5326.5297894684118,31691.798263128701,2446.0530836185203,2149.2928986516085,-2149.2928986516085,-2446.0530836185203,59599.535955357816,0.0
688523.2936376977,3602751.2368613081,-17500.0,-21164.780675655416,19598.747218934113,-14127.219389624537,15950.278074303626,-9939.1148851141934,-4953.4060211941314,25680.039232216972,-3300.4822826042018,5203.3015990066924,-5203.3015990066924,3300.4822826042018,49093.504642434484,0.0
693523.2936376977,3602751.2368613081,-17500.0,-21266.328067960676,15612.985362749903,-9384.2211618352085,13353.603548662799,-7359.0964316262643,-4348.0436779345837,21037.249862972829,-6006.854130161425,6091.5986881210583,-6091.5986881210583,6006.854130161425,40683.030458985013,0.0
698523.2936376977,3602751.2368613081,-17500.0,-20081.519028591654,12336.575638181363,-6370.613856428341,11091.077376432087,-5459.229920361191,-3634.7191708705595,17382.041920648338,-7120.4654939472648,6030.413916767312,-6030.413916767312,7120.4654939472648,33882.215017248323,0.0
703523.2936376977,3602751.2368613081,-17500.0,-18368.114115263994,9732.6442968056926,-4418.8692698294017,9160.4318524388873,-4062.6866412411237,-2942.6781013111731,14456.466015529857,-7380.7218257932327,5569.7446980851219,-5569.7446980851219,7380.7218257932327,28333.411771280647,0.0
708523.2936376977,3602751.2368613081,-17500.0,-16500.170531058131,7691.7047680900805,-3131.0445514437915,7542.2582571179582,-3037.8625945445815,-2338.8990907496077,12091.637712510053,-7185.919493964022,4968.7597923660396,-4968.7597923660396,7185.919493964022,23786.153311274786,0.0
713523.2936376977,3602751.2368613081,-17500.0,-14667.362922393964,6100.890989056039,-2265.984252434313,6205.2243116208047,-2285.5991011941233,-1842.2084409825461,10168.896111370368,-6760.3205288511172,4350.4731671721756,-4350.4731671721756,6760.3205288511172,20051.885491665085,0.0
718523.2936376977,3602751.2368613081,-17500.0,-12961.693609078884,4862.311833566182,-1674.77715254748,5111.2689853705169,-1731.9453664357557,-1446.6953298250523,8598.8117224273756,-6232.4955597546596,3770.7651014553271,-3770.7651014553271,6232.4955597546596,16980.023267734268,0.0
723523.2936376977,3602751.2368613081,-17500.0,-11421.344148831586,3896.4454454255056,-1263.8436784058647,4221.2864951003339,-1322.5820608187364,-1137.1501383592361,7311.3090964752691,-5675.6815185814667,3251.7313117683557,-3251.7313117683557,5675.6815185814667,14447.4934512493,0.0
728523.2936376977,3602751.2368613081,-17500.0,-10055.068816126839,3140.7401218005352,-973.42009507084981,3498.9970666964464,-1018.0761010220632,-896.84926696253376,6250.7193344756506,-5130.3685550240343,2798.6403437570025,-2798.6403437570025,5130.3685550240343,12353.490184812792,0.0
733523.2936376977,3602751.2368613081,-17500.0,-8856.2510821614815,2546.8379260970455,-764.75886453424209,2912.7979025889485,-789.99223160386816,-710.76740191790191,5372.7647369507631,-4617.5868772910762,2408.7576894858744,-2408.7576894858744,4617.5868772910762,10615.866483378451,0.0
738523.2936376977,3602751.2368613081,-17500.0,-7810.9964074677264,2077.6924564025753,-612.37608435845016,2436.2198110668764,-617.87202069629882,-566.52383888397344,4642.2903462432268,-4146.9048730026925,2075.9423536760351,-2075.9423536760351,4146.9048730026925,9168.0710144712775,0.0
743523.2936376977,3602751.2368613081,-17500.0,-6902.6875936446722,1705.0371757584924,-499.27973766408905,2047.6269185898645,-486.98052825388345,-454.3514364764236,4031.3910955119482,-3721.2751012079138,1792.997450522786,-1792.997450522786,3721.2751012079138,7956.4174330608575,0.0
748523.2936376977,3602751.2368613081,-17500.0,-6114.4508524336388,1407.3202387549677,-413.98893877201061,1729.5940389229236,-386.6688813863106,-366.71973454528757,3517.8758124692149,-3339.9660484108372,1552.8216089071038,-1552.8216089071038,3339.9660484108372,6937.6964879070083,0.0
753523.2936376977,3602751.2368613081,-17500.0,-5430.402835742404,1168.0855326103629,-348.64645214192234,1468.2064461843313,-309.20282998380151,-297.89030962830287,3084.0421482407969,-3000.3210538804642,1348.9243358535159,-1348.9243358535159,3000.3210538804642,6077.1486397845501,0.0
548523.2936376977,3607751.2368613081,-17500.0,-4097.0747948369235,-1602.3394848400062,-586.10533612520453,-1086.1050789570709,-409.24313190672819,-208.37298564998338,2537.5915019629256,-3174.6226231958171,-522.40111815816977,522.40111815816977,3174.6226231958171,5053.6702543168967,0.0
553523.2936376977,3607751.2368613081,-17500.0,-4527.2506000259391,-1875.0930156729917,-699.386012255173,-1253.3686216153453,-494.32562190326195,-249.62322159613262,2862.9482785797786,-3522.2670395030509,-674.45104285829279,674.45104285829279,3522.2670395030509,5707.0358810917287,0.0
558523.2936376977,3607751.2368613081,-17500.0,-5001.631223426928,-2203.2872311414567,-843.88202396261477,-1449.2786911218525,-600.05277294179632,-299.67776883465223,3243.3642667213089,-3906.4731361720324,-871.80715257415818,871.80715257415818,3906.4731361720324,6464.560427155654,0.0
563523.2936376977,3607751.2368613081,-17500.0,-5519.7294901422147,-2598.9398719415453,-1030.092818194855,-1678.1854161160045,-731.77881255961722,-360.18375322745351,3689.3384484309336,-4326.370365169495,-1128.8844025479057,1128.8844025479057,4326.370365169495,7343.8510908376347,0.0
568523.2936376977,3607751.2368613081,-17500.0,-6077.3253170350163,-3076.228437196361,-1272.4476097533259,-1944.4078100182583,-896.10118055907742,-432.78878388524549,4210.557677483911,-4777.4503553570557,-1464.8012883958402,1464.8012883958402,4777.4503553570557,8364.6300615001146,0.0
573523.2936376977,3607751.2368613081,-17500.0,-6664.0231752649788,-3651.315465969793,-1590.7993276729756,-2251.6369664960744,-1100.9210485673038,-518.825119828742,4818.0279270629981,-5249.1449357722759,-1904.7545227575806,1904.7545227575806,5249.1449357722759,9548.1462323112555,0.0
578523.2936376977,3607751.2368613081,-17500.0,-7259.5404711740848,-4341.5245161906896,-2012.3869062213726,-2601.8899851542392,-1355.2379042817859,-618.70208847416302,5523.7829438913977,-5721.1281425360503,-2481.5400419109847,2481.5400419109847,5721.1281425360503,10915.762243447598,0.0
583523.2936376977,3607751.2368613081,-17500.0,-7828.1803642094128,-5163.2225188823923,-2574.2401813514857,-2993.7981914443731,-1668.3619533893334,-730.83385632827935,6339.4535344108899,-6157.8169856354325,-3236.8838061435331,3236.8838061435331,6157.8169856354325,12486.094620932494,0.0
588523.2936376977,3607751.2368613081,-17500.0,-8310.7816236839608,-6127.2385319307314,-3325.6936296409954,-3419.9764478035995,-2047.9596467168212,-849.90212033972387,7273.952856392234,-6500.4661801801385,-4221.714293508353,4221.714293508353,6500.4661801801385,14269.652181133093,0.0
593523.2936376977,3607751.2368613081,-17500.0,-8613.3536984994025,-7229.7503149937802,-4329.8530230818997,-3863.2565445852247,-2495.9013252499594,-964.35925901930227,8329.4365019862526,-6656.3915204754658,-5493.3630727613208,5493.3630727613208,6656.3915204754658,16259.203966958983,0.0
598523.2936376977,3607751.2368613081,-17500.0,-8591.7870892254705,-8435.10280667595,-5660.82886832433,-4291.7233941818577,-3000.1614047500166,-1053.5682440558046,9494.1555532111906,-6485.586646937908,-7105.302461803617,7105.302461803617,6485.586646937908,18412.862555096457,0.0
603523.2936376977,3607751.2368613081,-17500.0,-8033.0413440164848,-9644.9105174658162,-7388.8018106574682,-4652.7213294444009,-3519.8799658465878,-1086.3541475539153,10729.691358024484,-5787.2015222137206,-9080.3122166331013,9080.3122166331013,5787.2015222137206,20624.77117361725,0.0
608523.2936376977,3607751.2368613081,-17500.0,-6636.6327887986035,-10645.830581697637,-9534.5667726778374,-4865.8337259354957,-3958.7008659423159,-1025.6291183723981,11948.013967342646,-4293.9765897075304,-11349.345973518211,11349.345973518211,4293.9765897075304,22675.664913970566,0.0
613523.2936376977,3607751.2368613081,-17500.0,-4009.6673231500913,-11031.026777852227,-11955.00207375358,-4812.9865113292053,-4117.4039628808232,-847.79924007356533,12972.543182253652,-1695.3341781939835,-13625.729540033331,13625.729540033331,1695.3341781939835,24158.892222278057,0.0
618523.2936376977,3607751.2368613081,-17500.0,290.66764097078277,-10112.512728540774,-14091.874494685419,-4318.7792763191273,-3607.6629313162903,-585.79214156826379,13491.842199790393,2267.2785401151996,-15177.420508071074,15177.420508071074,-2267.2785401151996,24429.694638433913,0.0
623523.2936376977,3607751.2368613081,-17500.0,6605.5040143303595,-6916.2492617136359,-14509.948824597521,-3109.5098056426104,-1691.4583308117255,-383.77984583901394,13143.300947936186,7566.7484137785841,-14500.86022394881,14500.86022394881,-7566.7484137785841,22983.130832046536,0.0
628523.2936376977,3607751.2368613081,-17500.0,14862.310864497314,-508.56762874961635,-10276.376349779015,-757.15756002804346,3005.2861926138385,-479.00183379478744,13022.462557559378,13488.427214988151,-9082.7176508798111,9082.7176508798111,-13488.427214988151,22610.617636299372,0.0
633523.2936376977,3607751.2368613081,-17500.0,24207.624029300299,8909.7189354922721,3320.6021999630639,3290.2677695970597,12909.58987395194,-891.39423570337192,20915.598757610096,18240.418520797437,4140.6109573456433,-4140.6109573456433,-18240.418520797437,36229.60183367211,0.0
638523.2936376977,3607751.2368613081,-17500.0,33287.175427486218,17679.460174408949,31199.222544390905,9315.7537552431058,31709.148473496301,-521.90552141237902,41987.775557352521,19416.839123719994,26253.407298267684,-26253.407298267684,-19416.839123719994,72741.128426856012,0.0
643523.2936376977,3607751.2368613081,-17500.0,43782.086651582489,16240.020082334446,71651.094562044862,16995.45181202616,63052.633272537692,4598.5361535848278,75213.386511867779,18396.676220380501,49723.816944286285,-49723.816944286285,-18396.676220380501,130340.68245119485,0.0
648523.2936376977,3607751.2368613081,-17500.0,67255.740263203435,-4631.3644243953004,103959.94659563775,29518.726107513015,108164.70324664316,26977.277902966351,118542.14863376183,31291.149638207364,52663.319711634904,-52663.319711634904,-31291.149638207364,205487.6287114413,0.0
653523.2936376977,3607751.2368613081,-17500.0,100067.94821542245,-38987.365484794638,94542.294856738459,49744.601166853812,171826.23128059131,108101.31773365212,182453.18456137538,70781.434182737677,18000.523066868162,-18000.523066868162,-70781.434182737677,317326.07644578104,0.0
658523.2936376977,3607751.2368613081,-17500.0,101610.49742047919,-105010.50719058799,12384.094196322603,-20743.131987303477,192962.81507376334,216191.965016767,243161.05100147991,74917.407909527363,-67015.6543757662,67015.6543757662,-74917.407909527363,421177.34081664064,0.0
663523.2936376977,3607751.2368613081,-17500.0,149244.78863213802,-59102.252371829774,-120673.88474564799,-40477.495371856843,-7380.9083095050091,29322.302092151411,153212.643742997,123980.64940935117,-137467.2616590973,137467.2616590973,-123980.64940935117,265379.19956987008,0.0
668523.2936376977,3607751.2368613081,-17500.0,37344.272476237114,37806.928313466742,-92350.100813140511,53395.15394923358,-52639.434637625905,-28476.149177326122,104834.53889155333,74117.953368530332,-51078.356144462603,51078.356144462603,-74117.953368530332,183767.16015591155,0.0
673523.2936376977,3607751.2368613081,-17500.0,-25857.7061597832,44242.436453985763,-49691.41209535097,53414.979735531553,-32878.432432556714,-13506.355115472943,76161.146597386585,19219.216564107774,-7049.7157996278474,7049.7157996278474,-19219.216564107774,136709.96148124398,0.0
678523.2936376977,3607751.2368613081,-17500.0,-39513.127172629895,34028.109748728675,-27243.843662198651,38582.960289322175,-19816.408658649681,-7346.3918127401384,54242.395908432605,-2723.8163617289024,5883.9516776449509,-5883.9516776449509,2723.8163617289024,99540.508213960988,0.0
683523.2936376977,3607751.2368613081,-17500.0,-38671.139944049828,24940.010281660714,-15704.009773969641,28080.008689401988,-12859.223840540533,-6103.0820454228688,39831.492559098973,-10062.616831161407,8984.6245672364912,-8984.6245672364912,10062.616831161407,74617.186721795777,0.0
688523.2936376977,3607751.2368613081,-17500.0,-34707.83623965826,18380.969646476293,-9449.0651106981295,21373.640678900098,-8794.7375469333128,-5574.8317184310381,30453.37597093228,-12125.299628104243,9090.9984225159133,-9090.9984225159133,12125.299628104243,58025.800179600767,0.0
693523.2936376977,3607751.2368613081,-17500.0,-30415.67908609159,13714.403197807032,-5894.3609575221071,16752.233078608093,-6188.8524824606529,-4864.9004754797998,24027.931860487981,-12232.321007890514,8276.9121453928565,-8276.9121453928565,12232.321007890514,46353.756582963331,0.0
698523.2936376977,3607751.2368613081,-17500.0,-26418.377444729889,10348.452994537325,-3798.5870766149669,13317.179405634979,-4427.4006916654689,-4035.0617470699644,19357.774566686585,-11566.695788872294,7227.4042333770085,-7227.4042333770085,11566.695788872294,37662.722947948132,0.0
703523.2936376977,3607751.2368613081,-17500.0,-22848.236390140533,7885.928737158596,-2525.6251729078867,10659.779279313727,-3204.9509733671212,-3236.5415091619111,15812.892346581028,-10600.233366900438,6188.669222814211,-6188.669222814211,10600.233366900438,30940.873995946244,0.0
708523.2936376977,3607751.2368613081,-17500.0,-19721.088557666775,6063.7641459033975,-1732.2571221340056,8571.8117505456248,-2344.1064269726517,-2548.1409947768839,13048.904429214601,-9547.2570868565381,5249.2521764906778,-5249.2521764906778,9547.2570868565381,25628.246276100072,0.0
713523.2936376977,3607751.2368613081,-17500.0,-17015.824558011063,4702.6491892886042,-1226.0041960830397,6922.9451574605046,-1731.5570563332576,-1989.0370189430973,10858.244110766856,-8512.5731954779385,4434.4763698543848,-4434.4763698543848,8512.5731954779385,21376.940885395263,0.0
718523.2936376977,3607751.2368613081,-17500.0,-14695.179322861959,3677.2372545464236,-895.62326050933814,5618.1489272158569,-1291.6203169756213,-1549.2274453191922,9102.8562823915327,-7546.7990425807939,3743.1121904609963,-3743.1121904609963,7546.7990425807939,17947.071100071356,0.0
723523.2936376977,3607751.2368613081,-17500.0,-12715.073617223012,2898.4341113738042,-675.20538883076415,4583.5162760222256,-972.74809975395078,-1208.820402300177,7684.2997142813647,-6671.3888737531961,3163.3179442140299,-3163.3179442140299,6671.3888737531961,15161.987315029606,0.0
728523.2936376977,3607751.2368613081,-17500.0,-11030.376972262206,2302.2178595142132,-524.8564932047334,3760.7241578388453,-739.47946980328311,-947.17063894745309,6529.4811641997458,-5891.8141800080684,2679.953000167452,-2679.953000167452,5891.8141800080684,12887.122615919074,0.0
733523.2936376977,3607751.2368613081,-17500.0,-9598.3842951986462,1842.2056832929004,-419.96339582528628,3103.8808846427437,-567.24365618224908,-746.32788242347101,5582.9268150289899,-5205.0562447840948,2277.9060547593922,-2277.9060547593922,5205.0562447840948,11018.307693689583,0.0
738523.2936376977,3607751.2368613081,-17500.0,-8380.6029912934919,1484.5555881897758,-345.07358037123475,2577.100832317743,-438.89745668599983,-591.84324146600727,4802.0048411885564,-4603.9491598433096,1943.4919508871162,-1943.4919508871162,4603.9491598433096,9474.2629383775402,0.0
743523.2936376977,3607751.2368613081,-17500.0,-7343.4068339545456,1204.4068815380754,-290.32719310726901,2152.4600901166896,-342.39159307476325,-472.52469203249564,4153.6749061317832,-4079.6677386119009,1664.9073247827298,-1664.9073247827298,4079.6677386119009,8191.2643721842633,0.0
748523.2936376977,3607751.2368613081,-17500.0,-6458.011305438331,983.3715652573585,-249.33595179223744,1808.2849519077706,-269.19021771252721,-379.87106664229555,3612.1542765074264,-3623.1040314003685,1432.2443063002822,-1432.2443063002822,3623.1040314003685,7119.1552406673391,0.0
753523.2936376977,3607751.2368613081,-17500.0,-5700.0981201726954,807.75451331040392,-217.90015356688903,1527.7586821093198,-213.19643464638204,-307.48492156624957,3157.1989579057545,-3225.5862934347365,1237.3150460688917,-1237.3150460688917,3225.5862934347365,6218.3035094459992,0.0
543523.2936376977,3612751.2368613081,-17500.0,-4179.0671221862995,-1181.3006697328287,-367.90676085294223,-1046.7741267609345,-289.60355367341305,-190.8158081240374,2420.0967391440522,-3249.1621851328114,-84.383162712663307,84.383162712663307,3249.1621851328114,4791.2899321509512,0.0
548523.2936376977,3612751.2368613081,-17500.0,-4666.5612745371309,-1384.4411801913834,-429.14799330842567,-1215.7924562880576,-349.55001846177208,-229.60075564123659,2735.4265613235316,-3647.191153001404,-144.0561772173703,144.0561772173703,3647.191153001404,5421.4477966561044,0.0
553523.2936376977,3612751.2368613081,-17500.0,-5222.3427993949117,-1631.184676577705,-506.72330791276465,-1417.3015211898178,-424.43190218672424,-277.30219539827016,3103.9825997542775,-4103.4466193796852,-226.18032940126795,226.18032940126795,4103.4466193796852,6157.9633302929633,0.0
558523.2936376977,3612751.2368613081,-17500.0,-5855.7384686104224,-1932.4053760804086,-606.39073855165134,-1658.069558054287,-518.45442622423673,-335.99441027690273,3536.5534502277665,-4626.1344083250497,-339.11508519322115,339.11508519322115,4626.1344083250497,7021.7313167216671,0.0
563523.2936376977,3612751.2368613081,-17500.0,-6576.4292291022948,-2301.8948858679364,-736.31252020085014,-1946.1503290154571,-637.05523295729222,-408.09632750141549,4046.4382460333677,-5223.6999634895201,-494.49917617807978,494.49917617807978,5223.6999634895201,8037.890987660031,0.0
568523.2936376977,3612751.2368613081,-17500.0,-7393.7122089016366,-2757.091529335773,-908.17628212360967,-2290.9613018461382,-787.21567205839983,-496.27207074978929,4649.9433775505013,-5904.0472381550653,-708.59145378595349,708.59145378595349,5904.0472381550653,9236.4797733882333,0.0
573523.2936376977,3612751.2368613081,-17500.0,-8315.1508654477257,-3319.8869596026439,-1138.8730522363053,-2703.2257626837745,-977.77778427493865,-603.14355369051134,5366.6319672504233,-6673.0973814805875,-1004.1499395418246,1004.1499395418246,6673.0973814805875,10652.976020544464,0.0
578523.2936376977,3612751.2368613081,-17500.0,-9344.2275292908216,-4017.3907501807648,-1453.0091542578032,-3194.6674595225691,-1219.6740532302929,-730.6471154085142,6219.3384683127624,-7532.2645203422671,-1413.0260576573273,1413.0260576573273,7532.2645203422671,12328.513746194378,0.0
583523.2936376977,3612751.2368613081,-17500.0,-10476.377322399234,-4882.3480227062255,-1886.639912489886,-3777.3095165876762,-1525.8633069754972,-878.76293642616611,7234.310800845521,-8474.1870592621235,-1979.6369157734944,1979.6369157734944,8474.1870592621235,14309.358756683008,0.0
588523.2936376977,3612751.2368613081,-17500.0,-11692.407503443819,-5952.5167733454637,-2492.7165922914915,-4462.2338268481672,-1910.5585130843917,-1043.2359228308007,8441.3323090551967,-9475.7147712443766,-2765.3346526697374,2765.3346526697374,9475.7147712443766,16644.901402400861,0.0
593523.2936376977,3612751.2368613081,-17500.0,-12947.614966458788,-7267.4607880042386,-3348.6791691148055,-5257.7627412166739,-2386.9728028671357,-1211.9109585355873,9873.0379719838238,-10486.651244802793,-3853.1634045992287,3853.1634045992287,10486.651244802793,19382.701855614134,0.0
598523.2936376977,3612751.2368613081,-17500.0,-14153.703131777815,-8859.323734032323,-4565.8938713833913,-6167.3256565124475,-2962.2135289445619,-1359.8165593944941,11562.065375072007,-11412.127600287033,-5350.8824071572235,5350.8824071572235,11412.127600287033,22557.459324852251,0.0
603523.2936376977,3612751.2368613081,-17500.0,-15148.476258664483,-10729.95271347229,-6297.5739763208121,-7187.6077501626742,-3626.9255800591841,-1445.1135263204201,13532.329851123828,-12085.903940399578,-7385.6236149655278,7385.6236149655278,12085.903940399578,26166.353120043648,0.0
608523.2936376977,3612751.2368613081,-17500.0,-15645.887550304882,-12797.785946104024,-8731.4314767943542,-8306.7547755431096,-4334.947002922825,-1413.3039210676407,15773.458926598765,-12232.869778539332,-10071.353630658456,10071.353630658456,12232.869778539332,30111.41580635458,0.0
613523.2936376977,3612751.2368613081,-17500.0,-15162.071567417483,-14782.345377805283,-12022.33095759885,-9496.3065711202216,-4960.8564700490633,-1227.1341901675719,18169.365578323872,-11428.018085312522,-13400.190930388218,13400.190930388218,11428.018085312522,34061.875650934729,0.0
618523.2936376977,3612751.2368613081,-17500.0,-12944.510344997925,-15984.37640256037,-16042.453794105635,-10671.867441279155,-5198.4139786280402,-948.21234346113749,20319.095092592026,-9097.6443951659348,-16948.622146556339,16948.622146556339,9097.6443951659348,37147.138878134661,0.0
623523.2936376977,3612751.2368613081,-17500.0,-8036.8635532305434,-14991.216149564792,-19693.483268014897,-11570.726952675001,-4294.8081600456417,-868.32914578723626,21168.769137951982,-4713.8479409826687,-19234.724368561157,19234.724368561157,4713.8479409826687,37443.511202736983,0.0
628523.2936376977,3612751.2368613081,-17500.0,236.40988870561199,-9676.2317023189171,-19524.784311947045,-11527.549914488694,-398.11627494369441,-1535.2795168453711,18547.718365328237,1542.059513742699,-16750.014110517513,16750.014110517513,-1542.059513742699,32228.094449539098,0.0
633523.2936376977,3612751.2368613081,-17500.0,11186.630435489895,1526.5233664209163,-8153.2244411827733,-9406.3348530354633,10756.895354303253,-3153.5440054349792,17446.260871859857,7568.6587150127662,-3545.5959989825033,3545.5959989825033,-7568.6587150127662,30362.712607909813,0.0
638523.2936376977,3612751.2368613081,-17500.0,21274.392046252698,15584.644947243409,25212.421166414959,-4949.3899388200398,37702.527616378655,-3526.7698342882832,43542.943067207554,7940.665828352674,26337.339524616702,-26337.339524616702,-7940.665828352674,76123.899166827163,0.0
643523.2936376977,3612751.2368613081,-17500.0,25697.563364496378,14751.35479509819,84444.13267860288,-5158.5471841197377,91640.083131618565,4528.5099654034093,101284.15128332828,-4670.324836125521,66190.639207186541,-66190.639207186541,4670.324836125521,176264.71919232589,0.0
648523.2936376977,3612751.2368613081,-17500.0,45484.970579403976,-38587.047654648777,123785.28056204654,-29348.825212178679,164266.58303005321,28841.190526189814,176509.55996126379,-10757.27880494927,60603.635859412447,-60603.635859412447,10757.27880494927,309374.59391570394,0.0
653523.2936376977,3612751.2368613081,-17500.0,153379.24636607824,-135314.19634741463,14303.460552694769,-61269.791709877434,186307.90018226131,83111.633186753228,247860.64283869448,85088.055192030617,-86791.323704478593,86791.323704478593,-85088.055192030617,429919.46510981501,0.0
658523.2936376977,3612751.2368613081,-17500.0,278882.5968326414,-139820.64399512068,-231454.14590609274,-62777.570635280041,24773.090211023165,122230.54994390742,301566.09950391203,242601.95942013385,-280603.5786363993,280603.5786363993,-242601.95942013385,526641.98941320914,0.0
663523.2936376977,3612751.2368613081,-17500.0,139950.84342131618,22342.305520064067,-172991.30866258132,105215.78950555298,-86664.638944549763,-127197.07095568374,217144.62319111632,182424.00174614444,-139462.70614306303,139462.70614306303,-182424.00174614444,378073.87812287785,0.0
668523.2936376977,3612751.2368613081,-17500.0,-48101.620031717175,44407.215393056627,-71783.288414322393,136825.03723678648,-45692.032113264235,-63664.867061111749,150717.41400151816,39472.043565676089,-29488.677092031383,29488.677092031383,-39472.043565676089,262253.75611749303,0.0
673523.2936376977,3612751.2368613081,-17500.0,-78838.488147844357,33944.182229999322,-33207.177530905457,85159.995836101254,-24308.978508338627,-18717.461083927559,97551.20035673058,-10955.26192185911,2080.073771596687,-2080.073771596687,10955.26192185911,173030.1408594411,0.0
678523.2936376977,3612751.2368613081,-17500.0,-68964.505301952784,23934.920061972909,-16842.717955231117,51959.618623454451,-14272.153150944521,-8053.407257290608,64521.534184281103,-21672.264534415786,9471.8771819618269,-9471.8771819618269,21672.264534415786,116966.56550561683,0.0
683523.2936376977,3612751.2368613081,-17500.0,-55726.651686130215,16879.18394069406,-9004.4852275791345,34652.32915314108,-8989.0887473074126,-6348.2535831915202,45168.715769194772,-21808.584542350829,10228.585913661811,-10228.585913661811,21808.584542350829,83747.267122073259,0.0
688523.2936376977,3612751.2368613081,-17500.0,-45152.060717739318,12066.724347063364,-4988.0009762386089,25029.983623286549,-5921.1026948583094,-5821.7947818870443,33456.464316876052,-19644.370356444233,9252.0627167753719,-9252.0627167753719,19644.370356444233,63260.212488784833,0.0
693523.2936376977,3612751.2368613081,-17500.0,-37118.840375113105,8753.9837861988835,-2849.5929009775023,18961.031706391881,-4016.7848736808837,-5098.6755837127057,25844.136186802014,-17216.040548841898,7934.1587582506927,-7934.1587582506927,17216.040548841898,49590.602668012296,0.0
698523.2936376977,3612751.2368613081,-17500.0,-30877.056751536067,6436.5006483984935,-1681.7094143201075,14721.0324529309,-2782.9341389166411,-4226.2671578023483,20520.649015917988,-14968.222976088793,6672.6590694437118,-6672.6590694437118,14968.222976088793,39776.877851409001,0.0
703523.2936376977,3612751.2368613081,-17500.0,-25895.009331028519,4789.8367813569967,-1031.1784450406633,11581.083790382041,-1960.3482590308774,-3380.1970317310293,16589.035721340191,-12977.202698514877,5571.508917622541,-5571.508917622541,12977.202698514877,32373.498175295084,0.0
708523.2936376977,3612751.2368613081,-17500.0,-21847.022851498499,3603.5631483476254,-662.66236826609691,9189.8870791853988,-1400.524614202425,-2651.3087701785316,13582.376704708307,-11240.353813880187,4643.9347174626764,-4643.9347174626764,11240.353813880187,26623.431871294637,0.0
713523.2936376977,3612751.2368613081,-17500.0,-18524.424079768251,2738.4089931266585,-450.61502741555523,7344.5831773418104,-1013.2391823989974,-2061.4517308847994,11232.648706215483,-9737.9993025789372,3874.9348908446223,-3874.9348908446223,9737.9993025789372,22080.505702156348,0.0
718523.2936376977,3612751.2368613081,-17500.0,-15780.876299079362,2100.3759346198112,-326.63901762406635,5909.7751993915444,-741.52643502331921,-1599.5336966442601,9369.6153220265969,-8446.0443872010073,3242.0074337674123,-3242.0074337674123,8446.0443872010073,18451.090609913994,0.0
723523.2936376977,3612751.2368613081,-17500.0,-13505.915207432074,1624.9586909608963,-252.81452777031959,4787.6524963748379,-548.47050228106104,-1243.6589478885548,7876.4982804154251,-7339.3531958464373,2722.4616594669837,-2722.4616594669837,7339.3531958464373,15526.862871428999,0.0
728523.2936376977,3612751.2368613081,-17500.0,-11612.554189426402,1267.2698031699613,-207.80881164150739,3905.1571016964599,-409.68734114411012,-971.3220497457728,6669.1429388201905,-6393.4331054449813,2295.9621185552783,-2295.9621185552783,6393.4331054449813,13153.543283278097,0.0
733523.2936376977,3612751.2368613081,-17500.0,-10030.965432643785,995.69223008731433,-179.47476281363589,3207.066224884722,-308.82105043605037,-763.1268343721124,5685.0867472901164,-5585.5135852554786,1945.2205769529744,-1945.2205769529744,5585.5135852554786,11214.223865615259,0.0
738523.2936376977,3612751.2368613081,-17500.0,-8704.6912601140139,787.71254192422396,-160.83077577392874,2651.4671619300439,-234.75382506353034,-603.58154036965243,4877.117734295799,-4895.1434603203516,1655.941598419643,-1655.941598419643,4895.1434603203516,9619.1691432793523,0.0
743523.2936376977,3612751.2368613081,-17500.0,-7587.9892199540463,627.13628393402394,-147.83740491227127,2206.4811082247588,-179.83592634232949,-480.76843423388533,4209.1115346750757,-4304.4097780683451,1416.4867037331176,-1416.4867037331176,4304.4097780683451,8298.930291249093,0.0
748523.2936376977,3612751.2368613081,-17500.0,-6643.7764856052136,502.20337321146553,-138.14947373575592,1847.8039315408682,-138.74394216470498,-385.6900938343619,3653.1683283677858,-3797.8967472114914,1217.462039467719,-1217.462039467719,3797.8967472114914,7199.4141892536372,0.0
753523.2936376977,3612751.2368613081,-17500.0,-5841.97349930173,404.29574134748157,-130.40527461584475,1556.8478705734528,-107.73313777298624,-311.61205373416988,3187.5700178716902,-3362.4971795363358,1051.3182674248305,-1051.3182674248305,3362.4971795363358,6278.2468016951743,0.0
543523.2936376977,3617751.2368613081,-17500.0,-4580.2302381324107,-923.81663342721515,-257.19951124010294,-1134.6996036503172,-224.57068284158248,-204.67719254308457,2558.9103453854973,-3571.6193475685745,253.85838391398329,-253.85838391398329,3571.6193475685745,5049.0242542623982,0.0
548523.2936376977,3617751.2368613081,-17500.0,-5155.3542602737552,-1085.4954470348107,-292.28245542070709,-1326.5644864186866,-271.38190440049596,-247.60760221859223,2904.8192306557589,-4043.3166494245852,259.8326134047677,-259.8326134047677,4043.3166494245852,5736.1908755940403,0.0
553523.2936376977,3617751.2368613081,-17500.0,-5822.4921117940521,-1283.4098362417851,-336.38487973352557,-1558.0226607562172,-330.13200323889225,-300.8640056342569,3312.323956865243,-4593.9426519493645,258.77403457759328,-258.77403457759328,4593.9426519493645,6545.5475931897718,0.0
558523.2936376977,3617751.2368613081,-17500.0,-6598.6081638631049,-1527.3398574030623,-392.96247793383549,-1838.3937209405335,-404.33489422356661,-367.03614522087173,3794.8661230042194,-5238.5645185626836,246.41181404863755,-246.41181404863755,5238.5645185626836,7503.2949994285746,0.0
563523.2936376977,3617751.2368613081,-17500.0,-7503.8529522117688,-1830.1006162536291,-467.1150286867009,-2179.310062986126,-498.62305062791847,-449.24149207715743,4369.3169737256358,-5995.080061959794,216.30111790336741,-216.30111790336741,5995.080061959794,8641.968997234404,0.0
568523.2936376977,3617751.2368613081,-17500.0,-8562.0124505257481,-2208.5796601904112,-566.48414311986357,-2595.2492219471474,-619.09230601862134,-551.06954988484154,5056.9680246832395,-6884.5226997646332,158.70799289960678,-158.70799289960678,6884.5226997646332,10002.060393196878,0.0
573523.2936376977,3617751.2368613081,-17500.0,-9800.8818101935485,-2685.1480857264855,-702.6986012076826,-3104.1440464167185,-773.71760759836434,-676.31572434654038,5884.8224846574167,-7931.1822298196621,58.891229076862146,-58.891229076862146,7931.1822298196621,11634.035341454191,0.0
578523.2936376977,3617751.2368613081,-17500.0,-11252.458275132232,-3289.5761011561999,-893.73315378495784,-3728.0795272079235,-972.81201630799455,-828.28037115535506,6887.3159145022664,-9162.3463142711717,-105.55407649453628,105.55407649453628,9162.3463142711717,13600.890812985243,0.0
583523.2936376977,3617751.2368613081,-17500.0,-12952.715404563465,-4061.6139081843944,-1167.8150260091145,-4494.1250561953148,-1229.446434217833,-1008.2322383307122,8108.7166843591658,-10607.291394626114,-368.83042284098337,368.83042284098337,10607.291394626114,15981.433888639867,0.0
588523.2936376977,3617751.2368613081,-17500.0,-14940.495273087008,-5054.4010308026072,-1569.9842351373161,-5435.5304542152553,-1559.6564638595667,-1212.3904899013739,9606.7301643052833,-12294.888545465148,-783.39270302010664,783.39270302010664,12294.888545465148,18874.66868511241,0.0
593523.2936376977,3617751.2368613081,-17500.0,-17254.391280280073,-6338.7081336537231,-2173.2307530705698,-6594.0080179226788,-1982.1478259770772,-1426.5730167011006,11458.168585691754,-14248.618166517856,-1430.0052475395187,1430.0052475395187,14248.618166517856,22405.949733232002,0.0
598523.2936376977,3617751.2368613081,-17500.0,-19924.600085416034,-8007.1905731639572,-3097.4332174582491,-8024.9746117485893,-2517.1671016618488,-1618.0112738999949,13767.699758765501,-16476.445234215716,-2433.0907674168939,2433.0907674168939,16476.445234215716,26735.576669246213,0.0
603523.2936376977,3617751.2368613081,-17500.0,-22951.358717454023,-10174.56777117879,-4540.7886670518037,-9809.6614970635019,-3184.465645047816,-1726.3882781819057,16679.292416983139,-18949.52604137321,-3982.4133740600282,3982.4133740600282,18949.52604137321,32068.067965253482,0.0
608523.2936376977,3617751.2368613081,-17500.0,-26247.912879400748,-12957.941865340885,-6826.8568345220119,-12079.330085846021,-4000.6632034555578,-1665.0605702414905,20381.395526585118,-21555.01844671931,-6355.4731579536165,6355.4731579536165,21555.01844671931,38646.350790736869,0.0
613523.2936376977,3617751.2368613081,-17500.0,-29499.189709083264,-16384.938845284585,-10449.767950053241,-15048.094574664145,-4972.0635980211582,-1365.7045284988772,25064.571093828461,-23991.707695335437,-9903.2017923920466,9903.2017923920466,23991.707695335437,46662.031633296356,0.0
618523.2936376977,3617751.2368613081,-17500.0,-31871.267672953378,-20087.70774707793,-15998.780326362377,-19003.278244170699,-6041.74878476916,-934.32918335335989,30703.001235050593,-25574.702614342481,-14845.014631772554,14845.014631772554,25574.702614342481,55869.614261828254,0.0
623523.2936376977,3617751.2368613081,-17500.0,-31656.279014268446,-22542.887280993029,-23499.389512264486,-24082.831581887207,-6777.7535881240656,-970.92824120063233,36389.429898976472,-25067.558313730158,-20416.684157479031,20416.684157479031,25067.558313730158,64499.116628270669,0.0
628523.2936376977,3617751.2368613081,-17500.0,-26560.956142677918,-20059.516872274504,-30092.025711664159,-29634.732418414296,-5120.7801882165195,-2802.4116183525662,39051.116261763891,-21262.803209345904,-22684.889691554119,22684.889691554119,21262.803209345904,67685.315105840797,0.0
633523.2936376977,3617751.2368613081,-17500.0,-15470.573937306142,-7922.2506753600219,-26035.820599872979,-33634.91601886155,5870.636716180954,-7458.3966149085672,34912.468333597171,-15101.450356980957,-12342.42273488954,12342.42273488954,15101.450356980957,62817.768765208646,0.0
638523.2936376977,3617751.2368613081,-17500.0,1121.9563023150411,13649.077407969222,4156.3805484623235,-33697.685088864266,43693.439812660443,-10625.869385073698,55459.996448179765,-9730.8025130631977,21208.674104281305,-21208.674104281305,9730.8025130631977,99376.611721727197,0.0
643523.2936376977,3617751.2368613081,-17500.0,19394.342846521344,26275.982208282225,67004.107682712915,-38198.080169167486,143158.64611002061,9481.7255699469879,153575.33905939327,-10810.196895240304,74288.834880395938,-74288.834880395938,10810.196895240304,266023.76330602658,0.0
648523.2936376977,3617751.2368613081,-17500.0,76505.91085584645,-47909.121895149205,64800.134123475378,-104093.71518410918,292525.0575957828,72640.54913041064,313422.57985108875,12839.103238458822,34673.842934935528,-34673.842934935528,-12839.103238458822,544253.4369554877,0.0
653523.2936376977,3617751.2368613081,-17500.0,340147.59407594305,-168549.06154951363,-252151.91751581649,-161547.8845858956,204450.57667806308,48948.273046647344,427964.68301653047,261499.61812634612,-290189.79820814467,290189.79820814467,-261499.61812634612,743006.17142822756,0.0
658523.2936376977,3617751.2368613081,-17500.0,292137.4650671751,-36787.852145060744,-328045.84779050242,98305.520049511848,-136245.94635111096,-31952.363977065575,354620.04222952388,332839.78892306174,-309614.98643542378,309614.98643542378,-332839.78892306174,614334.83760991273,0.0
663523.2936376977,3617751.2368613081,-17500.0,26416.092226606128,35257.240879072211,-153155.67385032095,153369.5807228678,-64503.456004693275,-70230.33150743373,190808.87526074552,121632.7407747955,-104104.10526651872,104104.10526651872,-121632.7407747955,333180.99118018942,0.0
668523.2936376977,3617751.2368613081,-17500.0,-78186.18508409668,10210.773928155821,-68751.484074386797,129388.22897205812,-14600.983460941698,-37745.415475536116,132243.63197093035,16154.630197666687,-41591.823741152992,41591.823741152992,-16154.630197666687,229170.70082388155,0.0
673523.2936376977,3617751.2368613081,-17500.0,-91496.123922369239,5004.2326096052702,-29278.857439471627,83403.728465714696,-8020.9150620462051,-13094.127556040115,92592.070908463851,-22209.839862783538,-10975.3794759845,10975.3794759845,22209.839862783538,162100.52873261549,0.0
678523.2936376977,3617751.2368613081,-17500.0,-76864.335737936999,4481.0558809270196,-13084.982986878729,52589.178801585018,-5471.9437433951007,-6763.2478642081169,63537.388765314252,-28791.794110762086,846.67404998675738,-846.67404998675738,28791.794110762086,113832.76162065356,0.0
683523.2936376977,3617751.2368613081,-17500.0,-60911.643718912324,3735.3699794609252,-6138.5472282597966,35497.279922193709,-3504.4970942067198,-5947.5472813891447,45122.268843065554,-26522.498661789887,4476.4617119567411,-4476.4617119567411,26522.498661789887,82882.231814772604,0.0
688523.2936376977,3617751.2368613081,-17500.0,-48528.591339621664,2824.9774335213424,-2957.3439312227492,25651.585313545525,-2162.5374092020361,-5646.3414762653711,33568.597345065937,-22781.790649421921,5155.4600184726241,-5155.4600184726241,22781.790649421921,63034.998292073135,0.0
693523.2936376977,3617751.2368613081,-17500.0,-39310.521788566613,2029.6473760571753,-1437.5641467857374,19363.881342743258,-1328.0956272818189,-5005.6434007136113,25943.799042326409,-19319.169909886507,4867.3454924089629,-4867.3454924089629,19319.169909886507,49542.789758131876,0.0
698523.2936376977,3617751.2368613081,-17500.0,-32304.713115899656,1423.690216848172,-698.62796940018779,14972.792997812912,-824.36003209628848,-4173.0662053428041,20584.606196636971,-16394.079230898591,4308.4169193329799,-4308.4169193329799,16394.079230898591,39772.803886273439,0.0
703523.2936376977,3617751.2368613081,-17500.0,-26830.681677806242,987.14669042625019,-340.84833690758785,11736.575303913403,-519.33072891652978,-3348.4653510490507,16623.746276861057,-13956.509037665433,3717.6732478446647,-3717.6732478446647,13956.509037665433,32373.752418448825,0.0
708523.2936376977,3617751.2368613081,-17500.0,-22463.635887542998,679.22642027482777,-172.50873193678811,9285.1179449767296,-331.47518282784557,-2631.5431896903842,13596.973648603558,-11921.623031651612,3174.0901140739115,-3174.0901140739115,11921.623031651612,26617.29643090933,0.0
713523.2936376977,3617751.2368613081,-17500.0,-18931.968922972072,463.26360483077553,-98.496282858799361,7402.0810946543816,-213.34738719760563,-2048.499921809645,11234.152420675078,-10217.530620952984,2699.4743131250871,-2699.4743131250871,10217.530620952984,22066.482957566852,0.0
718523.2936376977,3617751.2368613081,-17500.0,-16049.95142960333,311.67127801031319,-70.732679829764322,5943.5554653455501,-137.56952871890036,-1590.5810359238023,9362.8562538890765,-8787.085894537202,2294.7994683976972,-2294.7994683976972,8787.085894537202,18430.548806841038,0.0
723523.2936376977,3617751.2368613081,-17500.0,-13682.393081335425,204.94162017247979,-64.738740827073173,4806.4951373087297,-88.125243091064121,-1237.1559508675234,7864.723687009593,-7584.0584564840938,1953.6836574782828,-1953.6836574782828,7584.0584564840938,15501.805941119719,0.0
728523.2936376977,3617751.2368613081,-17500.0,-11726.622958971395,129.5694694793803,-68.10097512592489,3914.6122881660722,-55.430089165644809,-966.39903334388748,6654.5298094192585,-6570.3112357811851,1667.6486648263699,-1667.6486648263699,6570.3112357811851,13125.829380120222,0.0
733523.2936376977,3617751.2368613081,-17500.0,-10102.731009539348,76.243215845450152,-74.640403462074531,3210.6696079174949,-33.604257978304254,-759.27946584889685,5669.0897628314324,-5714.1143893477874,1428.2210104768324,-1428.2210104768324,5714.1143893477874,11185.335672894749,0.0
738523.2936376977,3617751.2368613081,-17500.0,-8747.6896764996036,38.519603147943968,-81.409011305403197,2651.4828675518324,-18.953585324962248,-600.50411195237155,4860.6978973112246,-4989.0459778769537,1227.7326540035181,-1227.7326540035181,4989.0459778769537,9590.1965382745548,0.0
743523.2936376977,3617751.2368613081,-17500.0,-7611.418247448044,11.909847556071798,-87.123073815495587,2204.3622065297268,-9.1066666673748689,-478.26571994760235,4192.8891389680539,-4373.1565977812943,1059.5624286548818,-1059.5624286548818,4373.1565977812943,8270.6257469038792,0.0
748523.2936376977,3617751.2368613081,-17500.0,-6653.9355693310335,-6.7380373514431042,-91.340330086972813,1844.4820689358737,-2.5124123734783059,-383.63054137998944,3637.5290456331741,-3848.2662259217136,918.13525243704453,-918.13525243704453,3848.2662259217136,7172.266374070693,0.0
753523.2936376977,3617751.2368613081,-17500.0,-5843.2040993601204,-19.655256883944205,-94.02715975696745,1552.9171938912493,1.860186832597603,-309.90253648179549,3172.7388798051652,-3399.3512558959674,798.82303103282516,-798.82303103282516,3399.3512558959674,6252.5480186041059,0.0
543523.2936376977,3622751.2368613081,-17500.0,-4890.4447246031341,-613.30159583158536,-175.72546635976198,-1202.5658707894449,-147.86564063886433,-215.32684842520047,2667.8960538845445,-3809.6242260069539,590.37497015266308,-590.37497015266308,3809.6242260069539,5251.2798307642624,0.0
548523.2936376977,3622751.2368613081,-17500.0,-5533.5851562587195,-718.55134480519678,-190.82252354260359,-1412.0814856483016,-177.81669134576529,-261.4313475315081,3037.7821045838891,-4336.1376839293571,664.05102786404404,-664.05102786404404,4336.1376839293571,5983.1913531228902,0.0
553523.2936376977,3622751.2368613081,-17500.0,-6287.614110151575,-847.59506333500769,-208.99845551272713,-1666.7573340374852,-215.31705151580172,-318.94347898460109,3475.9906970197703,-4957.4380963595704,747.64083733401867,-747.64083733401867,4957.4380963595704,6849.9576019180076,0.0
558523.2936376977,3622751.2368613081,-17500.0,-7175.8758282500348,-1007.1147424054325,-231.64748225091441,-1977.9727060157788,-262.59588178760879,-390.85009951830739,3998.2682540636497,-5694.1335477069824,841.89907189789164,-841.89907189789164,5694.1335477069824,7882.1920586137448,0.0
563523.2936376977,3622751.2368613081,-17500.0,-8227.4680532523853,-1206.0465770880464,-261.00193353139116,-2360.2916969203693,-322.60697621881377,-480.80538579420426,4624.738088039695,-6571.942272457949,947.09521572561425,-947.09521572561425,6571.942272457949,9118.6973161809692,0.0
568523.2936376977,3622751.2368613081,-17500.0,-9478.9117904497325,-1456.4825372692646,-300.69173069048901,-2832.4124005796343,-399.26503852474167,-593.10419717688683,5381.3761932035613,-7623.0878573499504,1062.507142161488,-1062.507142161488,7623.0878573499504,10609.021841255759,0.0
573523.2936376977,3622751.2368613081,-17500.0,-10976.42770633799,-1775.0103971800404,-356.71118027443651,-3418.4208793118164,-497.7454189685094,-732.41646874240564,6302.1186897402822,-8888.1127317914506,1185.5200201059511,-1185.5200201059511,8888.1127317914506,12416.992029384835,0.0
578523.2936376977,3622751.2368613081,-17500.0,-12779.167487808756,-2184.7488697504832,-439.11963639841395,-4149.5065159594142,-624.84614881341406,-902.99655626518802,7431.9974378739253,-10418.302309521077,1310.0402309735618,-1310.0402309735618,10418.302309521077,14625.785222073337,0.0
583523.2936376977,3622751.2368613081,-17500.0,-14963.992983620654,-2718.5582371542041,-565.09821327120017,-5066.4788249506337,-789.40830819125517,-1106.8210542471186,8832.0538736841354,-12279.052730959114,1423.6702746602914,-1423.6702746602914,12279.052730959114,17345.610978304157,0.0
588523.2936376977,3622751.2368613081,-17500.0,-17632.799998661645,-3424.2887226129274,-764.57459166566059,-6223.9022353494574,-1002.8026769934747,-1339.6878198199058,10587.501412023599,-14554.781577139483,1502.6106408935611,-1502.6106408935611,14554.781577139483,20726.109633487285,0.0
593523.2936376977,3622751.2368613081,-17500.0,-20923.961458269878,-4373.706413171928,-1090.8720683241129,-7697.931191899128,-1279.6472448052129,-1583.8037960552024,12822.089600970083,-17356.480321049436,1502.2483163193174,-1502.2483163193174,17356.480321049436,24977.848304116764,0.0
598523.2936376977,3622751.2368613081,-17500.0,-25029.441966988383,-5678.0550548116162,-1641.4854315702873,-9603.0009364177877,-1639.6025969208399,-1795.3929891739908,15724.218815641081,-20833.411472259268,1339.2959946497213,-1339.2959946497213,20833.411472259268,30411.499696161194,0.0
603523.2936376977,3622751.2368613081,-17500.0,-30215.454554621345,-7514.6945153898396,-2599.8017453198377,-12129.348304732035,-2113.463787205133,-1888.8832722184598,19593.671811135126,-25189.026676665348,857.07569970656914,-857.07569970656914,25189.026676665348,37509.165843818148,0.0
608523.2936376977,3622751.2368613081,-17500.0,-36825.61943690019,-10166.46063037543,-4320.0837939390049,-15625.209642594156,-2763.4609546134434,-1733.2443880603432,24916.051437976777,-30689.858425462815,-241.60545597089913,241.60545597089913,30689.858425462815,47040.521146911415,0.0
613523.2936376977,3622751.2368613081,-17500.0,-45178.637551867439,-14045.145848831226,-7494.6671695847226,-20754.527437615783,-3740.513260841336,-1220.7916882748209,32439.798014795855,-37608.374235491545,-2511.008537833517,2511.008537833517,37608.374235491545,60182.153390620791,0.0
618523.2936376977,3622751.2368613081,-17500.0,-55100.318406999577,-19521.865807340044,-13421.973471678324,-28698.365318406959,-5393.118839342108,-570.50150642008805,43093.447861493223,-45899.884019337798,-6872.0287948632431,6872.0287948632431,45899.884019337798,78353.227705101643,0.0
623523.2936376977,3622751.2368613081,-17500.0,-64647.105589013328,-25888.897850118683,-24050.390279546849,-41028.054585345868,-8200.2281137379669,-1112.9768464788619,57207.054080734088,-54225.855857473944,-14175.402735233791,14175.402735233791,54225.855857473944,101822.10948611879,0.0
628523.2936376977,3622751.2368613081,-17500.0,-68615.181600810363,-28136.281979581639,-39685.821849267384,-58185.678437853581,-10950.676997199585,-6245.1524707098833,72101.782812779958,-58810.449776901878,-21950.3018350333,21950.3018350333,58810.449776901878,125753.83085902136,0.0
633523.2936376977,3622751.2368613081,-17500.0,-62136.972312781894,-15026.272277912922,-49160.2390645415,-77341.5580663047,-2592.8105128767538,-19687.684666995399,81717.092482409425,-57566.265520901892,-16007.240392383865,16007.240392383865,57566.265520901892,141640.98606060754,0.0
638523.2936376977,3622751.2368613081,-17500.0,-41199.791762325221,8142.8936031617131,-30307.149030372686,-98646.865611997127,48300.634593231851,-36998.896440641613,109921.8622862979,-53094.491070552525,15767.275451539961,-15767.275451539961,53094.491070552525,191002.42060124397,0.0
643523.2936376977,3622751.2368613081,-17500.0,52968.773724975086,8340.2760325280306,-32434.850809890806,-112703.88583420258,189340.7551662648,-10406.379312641357,223046.25064066876,18389.994115803667,11227.502006854231,-11227.502006854231,-18389.994115803667,389567.27826069627,0.0
648523.2936376977,3622751.2368613081,-17500.0,297051.41381934041,-128578.82046714696,-246843.49725882531,-176683.48718536107,336535.5780759569,136748.84556814417,488066.24771416141,241366.53408203254,-239520.79126460702,239520.79126460702,-241366.53408203254,846964.0639737508,0.0
653523.2936376977,3622751.2368613081,-17500.0,482820.67745871795,-109538.67879736262,-482659.33772023139,68342.230709267402,-126585.35515586984,-42682.704053588372,515983.56488978059,498784.18067848188,-484118.57062554656,484118.57062554656,-498784.18067848188,893880.39205729682,0.0
658523.2936376977,3622751.2368613081,-17500.0,55930.284635695512,22887.34522446715,-160526.33124383364,210592.71765069017,-184989.51023906609,-39383.935089000399,301404.14554662351,157822.76857886222,-143576.9308273661,143576.9308273661,-157822.76857886222,522101.13980453077,0.0
663523.2936376977,3622751.2368613081,-17500.0,-55197.688083466244,30461.260822030123,-76427.417171387031,129697.34500162955,-69859.981330522831,-14555.587402767622,153653.8943919153,33174.082648589378,-42761.087516278509,42761.087516278509,-33174.082648589378,266184.94067175005,0.0
668523.2936376977,3622751.2368613081,-17500.0,-73232.421780758479,1066.8686519256814,-51508.602845189853,88770.196410771299,-14777.882410196207,-8992.8750566980489,95546.492274097749,-803.93794737167264,-32367.484446243874,32367.484446243874,803.93794737167264,165837.66386165883,0.0
673523.2936376977,3622751.2368613081,-17500.0,-74019.767938118355,-9965.5156481672857,-28595.781175721142,62019.799434509485,-1968.1757227244534,-5226.9253384082631,71647.650430203386,-18792.485011151355,-20203.374836287327,20203.374836287327,18792.485011151355,124578.77352848071,0.0
678523.2936376977,3622751.2368613081,-17500.0,-64941.773845201482,-9797.9359234478416,-14442.002091936416,43128.819297524024,486.61599310466801,-4686.690801504652,53409.329750033467,-24235.680019608779,-9876.2459271135303,9876.2459271135303,24235.680019608779,94905.364608664866,0.0
683523.2936376977,3622751.2368613081,-17500.0,-53894.49630853031,-7632.1520434338963,-7234.8506167469268,31024.374145697864,1124.0923919551876,-5092.671157354961,40063.381877218439,-23476.843973890878,-4077.4532700479849,4077.4532700479849,23476.843973890878,73128.244628586646,0.0
688523.2936376977,3622751.2368613081,-17500.0,-44276.786298461011,-5794.4231599490149,-3693.2621154980748,23239.857587233062,1281.0017865091986,-5091.9010831623318,30810.235771754582,-20875.487766753373,-1228.6850082192414,1228.6850082192414,20875.487766753373,57603.287976720327,0.0
693523.2936376977,3622751.2368613081,-17500.0,-36556.922784938462,-4461.8550272967832,-1930.6467976929632,17908.402591337941,1216.6754165441416,-4601.0030665010345,24292.960979509713,-18078.903354496026,120.4396016613955,-120.4396016613955,18078.903354496026,46259.521143015103,0.0
698523.2936376977,3622751.2368613081,-17500.0,-30410.190392985973,-3492.8469285624201,-1036.8235551527744,14027.867286362209,1057.3468247072999,-3881.8454143645008,19518.618670036954,-15541.902110000367,742.28235509113711,-742.28235509113711,15541.902110000367,37651.268581160271,0.0
703523.2936376977,3622751.2368613081,-17500.0,-25467.225144106593,-2769.9280192487936,-578.22154155587702,11095.384918369084,876.59317431916043,-3143.9672672696774,15896.012608410363,-13343.45275290143,1005.2226307479359,-1005.2226307479359,13343.45275290143,30932.703515564954,0.0
708523.2936376977,3622751.2368613081,-17500.0,-21450.287507022203,-2219.6008158423306,-342.54724010132423,8837.2381189412226,709.51471754455054,-2489.7802883141953,13079.622455924786,-11465.185895480576,1086.3046236715918,-1086.3046236715918,11465.185895480576,25600.869534564805,0.0
713523.2936376977,3622751.2368613081,-17500.0,-18160.666167118179,-1795.046267718099,-222.59435910994131,7082.3243240641277,568.30178269186626,-1950.4107517363816,10854.858568674103,-9868.9005448739263,1074.575079637506,-1074.575079637506,9868.9005448739263,21327.904320536793,0.0
718523.2936376977,3622751.2368613081,-17500.0,-15451.782479602811,-1464.3805821653373,-162.90854853313039,5711.0203097728563,454.0748264187992,-1522.338278410793,9077.8362972547311,-8515.4562246104942,1016.9228661029597,-1016.9228661029597,8515.4562246104942,17880.509158312954,0.0
723523.2936376977,3622751.2368613081,-17500.0,-13211.228322734012,-1204.7558966563445,-134.35475721646915,4634.5617624562965,363.62576033734672,-1189.2087571562201,7646.1050560024296,-7368.958245819691,938.77768337852876,-938.77768337852876,7368.958245819691,15083.488204152956,0.0
728523.2936376977,3622751.2368613081,-17500.0,-11350.485087007457,-999.33852948941797,-121.51113362918998,3785.5272756659674,292.64438433832368,-932.29887734754357,6483.8804988597631,-6397.6064616062104,854.0420886722095,-854.0420886722095,6397.6064616062104,12801.817188045332,0.0
733523.2936376977,3622751.2368613081,-17500.0,-9798.8707376368566,-835.55852127639707,-116.2222349904104,3112.3669666270625,237.04454178643385,-734.70449954716287,5533.8443717750824,-5573.7640408917096,770.19454272004168,-770.19454272004168,5573.7640408917096,10930.287500391187,0.0
738523.2936376977,3622751.2368613081,-17500.0,-8499.590272784144,-703.96423328219976,-114.22355384318637,2575.6265378826083,193.39298672544305,-582.55332350035576,4752.0693153211041,-4873.7573609067513,691.06285818050037,-691.06285818050037,4873.7573609067513,9386.5353872128107,0.0
743523.2936376977,3622751.2368613081,-17500.0,-7406.8841704876031,-597.4132299372252,-113.34263338234456,2145.1052179387298,158.95964910821593,-464.97852086721485,4104.5965285603306,-4277.536675432264,618.39283828028692,-618.39283828028692,4277.536675432264,8105.9031822289298,0.0
748523.2936376977,3622751.2368613081,-17500.0,-6483.8287355086213,-510.48225000131384,-112.52925441868038,1797.6639165898098,131.63145821982513,-373.66887399425678,3564.9965352838294,-3768.2643442422464,552.75532805772355,-552.75532805772355,3768.2643442422464,7037.499259826649,0.0
753523.2936376977,3622751.2368613081,-17500.0,-5700.5880898122368,-439.03214907604985,-111.32823854531199,1515.5368039692826,109.79372959732913,-302.34285493093756,3112.5771275076872,-3331.8835700714208,494.07681062599659,-494.07681062599659,3331.8835700714208,6141.1439510719792,0.0
543523.2936376977,3627751.2368613081,-17500.0,-5091.9377907895614,-265.41886225961974,-132.62147162146664,-1246.7274601290003,-62.93335478150312,-222.2308676334404,2742.534922289678,-3947.9189274283563,904.6965774222956,-904.6965774222956,3947.9189274283563,5389.3096288586439,0.0
548523.2936376977,3627751.2368613081,-17500.0,-5777.4348245671008,-303.56774882823794,-137.10887693838546,-1467.3134193913954,-73.382559579367594,-270.31742021525707,3128.2208400648606,-4505.0365738413147,1041.7868802848459,-1041.7868802848459,4505.0365738413147,6150.7172634677918,0.0
553523.2936376977,3627751.2368613081,-17500.0,-6585.3945889464803,-349.32845549090405,-141.43146391931913,-1736.4795347046288,-85.982564044126775,-330.46398601400483,3586.6049076276154,-5165.7234670809175,1204.9518964337619,-1204.9518964337619,5165.7234670809175,7055.2554231622271,0.0
558523.2936376977,3627751.2368613081,-17500.0,-7543.1261517974172,-404.71873398392466,-145.7909934126433,-2066.8650276062958,-101.231405863779,-405.88636566315142,4134.9570613820642,-5953.7286771394602,1399.9432088149679,-1399.9432088149679,5953.7286771394602,8136.4693010542196,0.0
563523.2936376977,3627751.2368613081,-17500.0,-8685.36734054101,-472.46060565455542,-150.71261205795554,-2474.83621431249,-119.73404763454282,-500.54018644149482,4795.5822938955407,-6899.283225543395,1633.8520602384765,-1633.8520602384765,6899.283225543395,9437.3810861670754,0.0
568523.2936376977,3627751.2368613081,-17500.0,-10056.817613845129,-556.30965822706435,-157.34784111095263,-2981.7051461812266,-142.20639477765604,-619.09845193908097,5597.6505259586729,-8041.216208082813,1915.3748811960018,-1915.3748811960018,8041.216208082813,11013.738475803362,0.0
573523.2936376977,3627751.2368613081,-17500.0,-11715.842334757164,-661.59534555979235,-168.03892643583919,-3615.4160204967093,-169.45744424143166,-766.65876190046959,6579.9115683473583,-9429.9622595479177,2255.067559831366,-2255.067559831366,9429.9622595479177,12938.714649152769,0.0
578523.2936376977,3627751.2368613081,-17500.0,-13740.126338969121,-796.15408517810613,-187.37605696969158,-4412.9768607307706,-202.32931503658619,-947.83633074489489,7794.908122702278,-11132.014702829423,2665.5081897773425,-2665.5081897773425,11132.014702829423,15310.013115657743,0.0
583523.2936376977,3627751.2368613081,-17500.0,-16235.746892816102,-972.03189603679311,-224.20234681092865,-5424.2337665880041,-241.57164403592807,-1164.562879566882,9315.8942273470257,-13236.895666287613,3161.1930164547721,-3161.1930164547721,13236.895666287613,18261.263827645424,0.0
588523.2936376977,3627751.2368613081,-17500.0,-19352.48214759284,-1208.7821420170117,-295.48756270978868,-6718.4035514410944,-287.6696784055323,-1411.3304832689691,11248.934883721748,-15868.795574650414,3757.7677062241291,-3757.7677062241291,15868.795574650414,21981.630938335671,0.0
593523.2936376977,3627751.2368613081,-17500.0,-23310.740182459183,-1540.1959985502956,-433.99939330598153,-8396.9377775326084,-340.87079573978122,-1665.8084697694949,13755.401023824204,-19207.319591240062,4469.6829695268825,-4469.6829695268825,19207.319591240062,26752.078942584241,0.0
598523.2936376977,3627751.2368613081,-17500.0,-28449.978573102293,-2028.6649292007269,-704.03137649916573,-10621.941831673865,-402.58089189701695,-1872.3965757971421,17095.809441042533,-23526.423090351491,5303.9938696097906,-5303.9938696097906,23526.423090351491,33016.584727745692,0.0
603523.2936376977,3627751.2368613081,-17500.0,-35314.033057135945,-2796.5510010733751,-1235.1392861066822,-13683.582299894046,-482.5944799655685,-1919.7613729011039,21716.647318832915,-29268.666462781024,6244.1327959257451,-6244.1327959257451,29268.666462781024,41525.782390759014,0.0
608523.2936376977,3627751.2368613081,-17500.0,-44785.67487650644,-4093.797363378646,-2298.7445210668448,-18162.708361562996,-627.40591859803214,-1633.7167130708517,28416.427931975897,-37179.707431225514,7205.8359400748668,-7205.8359400748668,37179.707431225514,53618.531063196831,0.0
613523.2936376977,3627751.2368613081,-17500.0,-58222.675049648271,-6429.8115445009989,-4493.1462742983513,-25305.590912029977,-1016.2103277976308,-884.91241687332263,38626.08845057564,-48502.970851324877,7913.8341680304693,-7913.8341680304693,48502.970851324877,71707.702465405615,0.0
618523.2936376977,3627751.2368613081,-17500.0,-77249.731019629049,-10739.979671039835,-9209.7207784395669,-37763.948718697487,-2239.5866605847527,-145.59398532164934,54736.578477598428,-65020.84456504049,7569.7917429953523,-7569.7917429953523,65020.84456504049,99838.67422844292,0.0
623523.2936376977,3627751.2368613081,-17500.0,-101837.01327352949,-18035.839811653303,-19745.634853494837,-60439.898261770075,-5857.4192112482096,-2298.9191439095002,79915.771905767586,-87791.920482189773,4168.4863253437579,-4168.4863253437579,87791.920482189773,143224.83646252795,0.0
628523.2936376977,3627751.2368613081,-17500.0,-123439.62192388602,-25331.529608335884,-42809.928392381174,-98586.259838968777,-13748.447027327969,-16178.637426816362,115098.55691848528,-111069.21593367041,-5137.1413213043124,5137.1413213043124,111069.21593367041,202503.1269323329,0.0
633523.2936376977,3627751.2368613081,-17500.0,-117058.79030699022,-9454.198913310709,-80763.727081532648,-145158.0766815067,-12952.247869142508,-53824.081535105099,149396.94102030518,-112281.09019625722,-10545.13925775321,10545.13925775321,112281.09019625722,258853.01183988011,0.0
638523.2936376977,3627751.2368613081,-17500.0,-78187.765050761896,53850.190218895004,-87760.603940918139,-191251.58956793274,84380.499110075907,-96579.210415895053,213378.2946374717,-91259.685081634379,37840.780967927189,-37840.780967927189,91259.685081634379,374225.9645593969,0.0
643523.2936376977,3627751.2368613081,-17500.0,158546.97454641451,-30080.990781915887,-199042.96098260419,-290175.60711124656,264461.79873059801,-165619.55338046953,440361.20405275794,74330.575067051919,-98094.674293040182,98094.674293040182,-74330.575067051919,763004.71025260072,0.0
648523.2936376977,3627751.2368613081,-17500.0,606144.38797981013,-167131.98727490797,-617039.64818503475,12302.404088051318,-1039.8334175361335,-10343.666797507622,634136.51836029906,613654.55330329447,-609468.70514946792,609468.70514946792,-613654.55330329447,1098369.2255488287,0.0
653523.2936376977,3627751.2368613081,-17500.0,174244.64644908527,-51906.505067173697,-224049.97167732893,246128.2424974349,-217513.93955884388,-55126.121162379561,385184.92520612309,265007.2123708466,-263814.97609464935,263814.97609464935,-265007.2123708466,672048.76485615759,0.0
658523.2936376977,3627751.2368613081,-17500.0,-40549.422142268952,-10504.092226322617,-49376.780460637005,162709.43948501252,-117754.4396215735,-12590.770947679428,201126.16688745809,40298.59002546897,-66213.407566357026,66213.407566357026,-40298.59002546897,349941.1758689523,0.0
663523.2936376977,3627751.2368613081,-17500.0,-63113.595481005534,-188.67737454244676,-27590.783025530938,89419.712569309369,-50371.573159529005,1137.2470018629895,107446.86015499025,-3809.3840643832391,-24044.636235900522,24044.636235900522,3809.3840643832391,186299.0023321815,0.0
668523.2936376977,3627751.2368613081,-17500.0,-54883.380629109255,-8437.6516353649058,-29404.434833338884,56458.178924104803,-14842.103811919953,888.18024448502456,65065.275461726735,-8041.6508829729455,-23759.64227893309,23759.64227893309,8041.6508829729455,113029.4963229796,0.0
673523.2936376977,3627751.2368613081,-17500.0,-49736.30039038798,-15245.448369224516,-23596.909202090872,40616.33907472335,-1188.4877363198584,-1204.4222936341778,49677.500807434815,-12047.495388954612,-21916.043904212846,21916.043904212846,12047.495388954612,86142.827985573618,0.0
678523.2936376977,3627751.2368613081,-17500.0,-45228.685971778388,-15979.049795045654,-15656.904391953156,30688.741124164473,2926.5676221854847,-3002.0432623034039,40087.893424092115,-15213.724343819835,-16370.193106727049,16370.193106727049,15213.724343819835,70893.889382808673,0.0
683523.2936376977,3627751.2368613081,-17500.0,-40057.075595474256,-13943.560905723447,-9701.1638526994866,23802.089151124801,3803.6528865626756,-4030.9349098687289,32283.164821699731,-16110.449321229142,-11107.738805968504,11107.738805968504,16110.449321229142,58754.133346196562,0.0
688523.2936376977,3627751.2368613081,-17500.0,-34833.593561061418,-11409.631070985428,-5952.5578903915684,18823.470777574541,3618.9404546962369,-4259.35961615423,26120.538138733853,-15513.233783066458,-7300.6205691026298,7300.6205691026298,15513.233783066458,48771.721842443272,0.0
693523.2936376977,3627751.2368613081,-17500.0,-30033.956090864889,-9137.7640223179769,-3706.2544484844307,15062.146023681793,3102.1149757230269,-3950.7294213988584,21316.97547731673,-14259.407867117972,-4753.2014064265113,4753.2014064265113,14259.407867117972,40580.062248637892,0.0
698523.2936376977,3627751.2368613081,-17500.0,-25804.354659683177,-7275.7583011755351,-2366.6718595408115,12122.462917282866,2530.7342464471703,-3397.4247398777966,17536.694950422923,-12802.994288162528,-3074.4784908263573,3074.4784908263573,12802.994288162528,33839.549540119893,0.0
703523.2936376977,3627751.2368613081,-17500.0,-22144.005931609157,-5795.8129776105789,-1559.570885479686,9786.2051791877366,2012.9429803821713,-2795.738297183048,14523.783870181018,-11351.158140903677,-1965.6121728979842,1965.6121728979842,11351.158140903677,28284.993657668361,0.0
708523.2936376977,3627751.2368613081,-17500.0,-19006.382133342238,-4633.0215983898761,-1065.7200259748361,7920.1680336632844,1582.0698017769994,-2244.2045109000355,12100.074594784954,-9993.6180310554482,-1229.8409549674971,1229.8409549674971,9993.6180310554482,23710.843038576884,0.0
713523.2936376977,3627751.2368613081,-17500.0,-16333.184460910117,-3722.8889765951653,-758.08454349345823,6429.4766131764409,1238.6262650507015,-1778.4142114910703,10138.15712569843,-8765.9519406761428,-740.4432672687808,740.4432672687808,8765.9519406761428,19948.179720688102,0.0
718523.2936376977,3627751.2368613081,-17500.0,-14064.756382321018,-3010.3676407014482,-562.56490723374418,5239.4099049511788,970.82932856258719,-1401.7388924388742,8542.4957786809282,-7677.4315227216857,-415.09676993835001,415.09676993835001,7677.4315227216857,16853.824995728814,0.0
723523.2936376977,3627751.2368613081,-17500.0,-12144.147911924319,-2451.0362259683143,-435.45146561601121,4289.1235042704766,764.11926505310646,-1104.1332935375237,7239.0624068860971,-6724.0573296458206,-199.65585077710739,199.65585077710739,6724.0573296458206,14306.481996558377,0.0
728523.2936376977,3627751.2368613081,-17500.0,-10519.236607435887,-2010.0285899722396,-350.64863963135116,3529.1273966253657,605.04051071825404,-871.74341315221386,6169.5599275942004,-5895.3626962155868,-58.152446226523807,58.152446226523807,5895.3626962155868,12204.753597637397,0.0
733523.2936376977,3627751.2368613081,-17500.0,-9143.7847107782036,-1660.3966005325901,-292.39128285527823,2919.6218727528017,482.45207020262575,-691.14561226851993,5287.7942805632956,-5178.2113258676254,33.47964634022901,-33.47964634022901,5178.2113258676254,10465.096532438547,0.0
738523.2936376977,3627751.2368613081,-17500.0,-7977.7283019874458,-1381.4835765039304,-251.04372910715466,2428.9658666044293,387.60249354252704,-550.86512140050843,4557.1056398095834,-4558.9342423861908,91.433268026280984,-91.433268026280984,4558.9342423861908,9019.4647994462448,0.0
743523.2936376977,3627751.2368613081,-17500.0,-6986.9429207832936,-1157.512890815251,-220.64953480980137,2032.2182823733419,313.80002681159186,-441.65962618505489,3948.4008998050881,-4024.4777138849645,126.65309619893605,-126.65309619893605,4024.4777138849645,7812.861551018369,0.0
748523.2936376977,3627751.2368613081,-17500.0,-6142.7105987812474,-976.43920866426708,-197.48422505299371,1709.8222252969758,255.99574650967205,-356.31253844567516,3438.5873410252671,-3562.9575958459986,146.56601934659511,-146.56601934659511,3562.9575958459986,6801.0330809395855,0.0
753523.2936376977,3627751.2368613081,-17500.0,-5421.0551263387524,-829.04839738229373,-179.19213456921563,1446.4789316176982,210.40101379189892,-289.28071607050401,3009.3103412150226,-3163.8642946329528,156.2283544354425,-156.2283544354425,3163.8642946329528,5948.432672001436,0.0
543523.2936376977,3632751.2368613081,-17500.0,-5173.6474965788211,100.54943859843178,-133.4056037789972,-1264.9111065758507,26.044485651579965,-225.0594377498121,2779.8883603876934,-3977.8938034303073,1177.5722538352202,-1177.5722538352202,3977.8938034303073,5457.3663159735961,0.0
548523.2936376977,3632751.2368613081,-17500.0,-5872.0615948440018,134.38720205591022,-138.6288457315662,-1489.1237346243784,36.326046136612398,-273.80115547068823,3172.1882592286056,-4538.3412719439511,1367.6878523802582,-1367.6878523802582,4538.3412719439511,6231.0615701228417,0.0
553523.2936376977,3632751.2368613081,-17500.0,-6695.6385928248919,178.48052780621038,-143.98780940369065,-1762.801962548047,50.31042144518748,-334.76465015158755,3638.7779545857334,-5202.7414804442642,1596.9333444688245,-1596.9333444688245,5202.7414804442642,7150.9574283553411,0.0
558523.2936376977,3632751.2368613081,-17500.0,-7672.4535827760337,236.19906306781795,-149.79127423641614,-2098.8432079315307,69.430772848422961,-411.1968665223481,4197.439455884949,-5994.9043882865253,1874.9909135493481,-1874.9909135493481,5994.9043882865253,8251.6407713222889,0.0
563523.2936376977,3632751.2368613081,-17500.0,-8838.3299903954612,312.13798835236713,-156.70257310823175,-2513.9633822327924,95.733202568639584,-507.07633529407673,4871.2127066973271,-6945.1736242194165,2214.305266490433,-2214.305266490433,6945.1736242194165,9577.6522434724593,0.0
568523.2936376977,3632751.2368613081,-17500.0,-10239.566380216671,412.60422759514074,-166.04220674004554,-3029.9569448647112,132.16560619789803,-627.06748285498952,5690.3547291066998,-8092.6102082618163,2630.9688528908773,-2630.9688528908773,8092.6102082618163,11187.016204814503,0.0
573523.2936376977,3632751.2368613081,-17500.0,-11937.00101975064,546.30247201756947,-180.3344717455301,-3675.4538010145848,183.01299827676175,-776.17341133836283,6695.2862108705558,-9488.1582216667248,3145.9302956459392,-3145.9302956459392,9488.1582216667248,13156.437778114472,0.0
578523.2936376977,3632751.2368613081,-17500.0,-14012.378811036067,725.29996481976025,-204.30149613547232,-4488.4891270523094,254.5564120601145,-958.70640058588026,7941.2483772920659,-11199.473919536882,3786.6847078239912,-3786.6847078239912,11199.473919536882,15589.33691968345,0.0
583523.2936376977,3632751.2368613081,-17500.0,-16578.883924470614,966.35189099647152,-246.68184081973001,-5520.5745216262158,356.06450662988141,-1175.8137029522004,9506.1065905508531,-13318.776019116625,4589.7225131508731,-4589.7225131508731,13318.776019116625,18629.047867794026,0.0
588523.2936376977,3632751.2368613081,-17500.0,-19799.605430199783,1292.6561008388844,-323.59831169458397,-6843.9575759721602,501.26274060776603,-1420.1283991572143,11504.329224712485,-15976.604522325946,5604.2971315814093,-5604.2971315814093,15976.604522325946,22482.151632334742,0.0
593523.2936376977,3632751.2368613081,-17500.0,-23921.66194706731,1735.9372463789407,-464.87394394302248,-8566.4645923833777,710.40117583931112,-1665.1494047791075,14113.729961734382,-19367.848900059136,6898.6987453513193,-6898.6987453513193,19367.848900059136,27462.963210019621,0.0
598523.2936376977,3632751.2368613081,-17500.0,-29341.617341018147,2338.275496260715,-726.11822387398252,-10865.665519406641,1012.7994710870812,-1846.4375186528816,17629.376701475223,-23804.145150971064,8571.6537067889731,-8571.6537067889731,23804.145150971064,34083.887043423885,0.0
603523.2936376977,3632751.2368613081,-17500.0,-36732.61600712924,3151.5325372634898,-1212.5359478949194,-14073.950320337113,1448.6225363142107,-1835.7814611821398,22575.543603462564,-29823.723009286616,10774.462600751633,-10774.462600751633,29823.723009286616,43246.352660913719,0.0
608523.2936376977,3632751.2368613081,-17500.0,-47284.041399393449,4227.9553079898405,-2128.3068070005038,-18897.42107120216,2064.5535976443707,-1435.1363096013961,29936.720321543999,-38422.370820188793,13754.083095609552,-13754.083095609552,38422.370820188793,56644.26720581347,0.0
613523.2936376977,3632751.2368613081,-17500.0,-63101.749022754375,5584.2987382109641,-3889.1220098152166,-26974.039850367724,2884.0703351562834,-525.1163232349013,41611.604739939314,-51512.884863119762,17925.691868962331,-17925.691868962331,51512.884863119762,77575.425141319691,0.0
618523.2936376977,3632751.2368613081,-17500.0,-87622.361808206784,7096.7886233033432,-7423.4643147304087,-42213.915198612573,3787.7690600226429,117.49227359092694,61223.977510328448,-72671.5101327835,23918.796286243381,-23918.796286243381,72671.5101327835,112399.66329442605,0.0
623523.2936376977,3632751.2368613081,-17500.0,-124742.7941076385,8270.8425714737677,-15171.873722894208,-73525.64225644563,4108.3341064455753,-4306.5398655311083,95332.470630815471,-107440.10678844029,32119.755191381286,-32119.755191381286,107440.10678844029,172592.82328769067,0.0
628523.2936376977,3632751.2368613081,-17500.0,-170028.97536213291,8371.9733179442865,-35047.199560515037,-137444.68442000428,1624.3817955434715,-31989.982562359117,153997.32523777749,-157507.10502059836,39221.938727745532,-39221.938727745532,157507.10502059836,274833.41216100333,0.0
633523.2936376977,3632751.2368613081,-17500.0,-168432.98850692849,14176.853617544435,-95333.420669609986,-239138.16133060836,-4291.7645053107963,-128362.43636656435,240506.28549134036,-179498.89937998686,23871.027066427938,-23871.027066427938,179498.89937998686,419808.81815335015,0.0
638523.2936376977,3632751.2368613081,-17500.0,51641.234276770301,72479.891300147705,-258170.16866953936,-237221.6423277084,71346.735599023072,-244909.75561751451,308357.68983656331,30272.519766254019,-69204.900959630744,69204.900959630744,-30272.519766254019,540281.51320871187,0.0
643523.2936376977,3632751.2368613081,-17500.0,470054.39166104258,-81102.435366425765,-569361.44017221418,-77380.340571172215,181813.68346155959,6708.2639828891697,559676.84895283845,490950.98043151753,-465627.51217950886,465627.51217950886,-490950.98043151753,974848.81783898221,0.0
648523.2936376977,3632751.2368613081,-17500.0,254770.32318312116,-109267.35762478247,-252354.1161956646,201401.92795711718,-297631.02661227662,100481.94758621906,456797.93448441837,310562.84226724075,-339468.0043872121,339468.0043872121,-310562.84226724075,791198.87131530081,0.0
653523.2936376977,3632751.2368613081,-17500.0,59779.296418861108,-29968.638036490916,-41791.997353568899,102700.28959427745,-179692.22218659244,40349.007795271216,215851.65799369282,80526.092501905718,-91212.202096510329,91212.202096510329,-80526.092501905718,374065.49516004621,0.0
658523.2936376977,3632751.2368613081,-17500.0,-5958.5697115469966,-18207.037944582182,-9117.9610130608635,67022.412345434044,-82201.536552265141,12376.017438024792,106213.94859737884,17631.831754071434,-35313.521995714524,35313.521995714524,-17631.831754071434,187472.24533543421,0.0
663523.2936376977,3632751.2368613081,-17500.0,-22768.59671807522,-11864.704998873454,-11702.425032557654,43056.545181861577,-36877.117187786942,6833.7147905771335,57712.591251357342,1405.9936155945397,-21309.757297045286,21309.757297045286,-1405.9936155945397,103609.12112528984,0.0
668523.2936376977,3632751.2368613081,-17500.0,-24223.321952708433,-12491.540238242384,-18213.895226911522,29781.886078832365,-13123.801637621295,3349.2044971953683,36460.116989724898,-917.71942202060018,-21076.684504449404,21076.684504449404,917.71942202060018,65393.904938740343,0.0
673523.2936376977,3632751.2368613081,-17500.0,-24455.747692027639,-15345.862268391989,-19000.285159133276,23061.771873934096,-1531.1234410993636,363.05538835034355,30647.375592367192,-2863.7686558235109,-21227.038263362272,21227.038263362272,2863.7686558235109,53097.951529482423,0.0
678523.2936376977,3632751.2368613081,-17500.0,-24853.08313656825,-16359.416757230396,-15751.838408070231,19054.633204488015,3227.7405469960872,-1747.8703480336217,27389.189609537127,-5569.6017087800028,-18703.859578447893,18703.859578447893,5569.6017087800028,48267.80432356699,0.0
683523.2936376977,3632751.2368613081,-17500.0,-24531.51756496567,-15400.115306707034,-11707.957961520971,16100.013391102182,4667.6587427117347,-2898.4306239002372,24013.060159089724,-7703.6525832700363,-14995.136491313438,14995.136491313438,7703.6525832700363,43697.871962870333,0.0
688523.2936376977,3632751.2368613081,-17500.0,-23360.117860911716,-13488.437749047047,-8316.5033144735244,13645.839404734508,4664.8040214749935,-3272.073417698371,20692.748947851389,-8846.0817074627994,-11439.991008788569,11439.991008788569,8846.0817074627994,38695.799748349615,0.0
693523.2936376977,3632751.2368613081,-17500.0,-21621.167010028948,-11366.241053782896,-5828.9557864673361,11513.605618533733,4113.0921213361089,-3152.4174532068077,17663.345536756318,-9175.805582465453,-8521.8113252046041,8521.8113252046041,9175.805582465453,33687.423201798796,0.0
698523.2936376977,3632751.2368613081,-17500.0,-19613.632876246578,-9386.709963195457,-4096.7871168728334,9650.5562613301299,3419.9701095219611,-2789.8756185167163,15007.074809406125,-8975.4062908227424,-6278.1162192056081,6278.1162192056081,8975.4062908227424,29009.979852366301,0.0
703523.2936376977,3632751.2368613081,-17500.0,-17551.053012773202,-7676.072572046246,-2912.6271769915265,8041.8086450502369,2759.1076703124841,-2350.9150667136769,12727.455452481312,-8470.8863151894802,-4603.1174396746073,4603.1174396746073,8470.8863151894802,24828.168824256529,0.0
708523.2936376977,3632751.2368613081,-17500.0,-15565.279871661811,-6253.8856776000748,-2105.4404659798383,6675.2142214548039,2192.5062164247101,-1925.3744885919266,10796.248066806533,-7815.7597643386453,-3369.6863732526308,3369.6863732526308,7815.7597643386453,21190.87830083086,0.0
713523.2936376977,3632751.2368613081,-17500.0,-13728.361917591557,-5095.6403468668323,-1552.3502367323567,5531.3420062653649,1731.272848243432,-1551.98602016205,9173.3867245011916,-7107.2074402690851,-2466.8395341496871,2466.8395341496871,7107.2074402690851,18081.357723361409,0.0
718523.2936376977,3632751.2368613081,-17500.0,-12072.380767261075,-4162.3623063338118,-1169.5737288499486,4584.4379313886848,1365.8092442612538,-1241.1424853076373,7816.0733620819492,-6403.397583254362,-1807.1324005512429,1807.1324005512429,6403.397583254362,15450.54436209453,0.0
723523.2936376977,3632751.2368613081,-17500.0,-10604.464614893448,-3413.8500204048546,-901.18273111566566,3806.2278612834139,1080.1261157188833,-989.80300262691503,6683.3726912011425,-5736.7451064866564,-1324.7161442265756,1324.7161442265756,5736.7451064866564,13237.328663765255,0.0
728523.2936376977,3632751.2368613081,-17500.0,-9317.3509153614123,-2814.0228267957132,-710.11141478648869,3169.1696455625583,858.06368414664041,-789.79196805610354,5738.4069864045623,-5123.2716026393491,-971.13190174306419,971.13190174306419,5123.2716026393491,11379.85031534677,0.0
733523.2936376977,3632751.2368613081,-17500.0,-8196.3810118358542,-2332.5455108104438,-571.79147370451108,2648.368375518226,685.58950709785631,-631.89136725055982,4949.1145252311544,-4568.9557004793469,-711.1467283565662,711.1467283565662,4568.9557004793469,9821.0849887719214,0.0
738523.2936376977,3632751.2368613081,-17500.0,-7223.8690672197199,-1944.7924322347344,-469.86618265425847,2222.367694922491,551.32838711129625,-507.60529134540025,4288.2285484088216,-4073.9074026725766,-519.29255913963357,519.29255913963357,4073.9074026725766,8511.0742832573451,0.0
743523.2936376977,3632751.2368613081,-17500.0,-6381.6659672087126,-1631.1611882084253,-393.36787911121627,1873.231114726299,446.37936047335671,-409.75517972936063,3732.9374497104968,-3635.031607482284,-377.19317377614675,377.19317377614675,3635.031607482284,7407.3381850858923,0.0
748523.2936376977,3632751.2368613081,-17500.0,-5652.5450072112435,-1376.2139808330817,-334.87651310355773,1586.2530690694875,363.90584104935317,-332.54063831718645,3264.4346749805095,-3247.6737939728537,-271.57849268601944,271.57849268601944,3247.6737939728537,6474.3956182227603,0.0
753523.2936376977,3632751.2368613081,-17500.0,-5020.8630199872805,-1167.855860734991,-289.32097127717901,1349.521709202548,298.70471036409094,-271.38826284430422,2867.3902617716285,-2906.6040177017912,-192.84087955292489,192.84087955292489,2906.6040177017912,5682.9238145437121,0.0
543523.2936376977,3637751.2368613081,-17500.0,-5132.4987170891354,463.60871363808764,-179.16232367619986,-1256.4628726274957,114.5343821085125,-223.7204119051093,2778.8370851653262,-3898.6642064435455,1393.0747935870759,-1393.0747935870759,3898.6642064435455,5453.1702698983272,0.0
548523.2936376977,3637751.2368613081,-17500.0,-5813.4908554307276,567.8235215885984,-196.8018043886506,-1476.6441663704718,145.20605023711201,-271.75946767300996,3168.2188283610171,-4434.9366667826307,1620.8920137719701,-1620.8920137719701,4434.9366667826307,6221.2345791677135,0.0
553523.2936376977,3637751.2368613081,-17500.0,-6613.1186113614494,699.43404082607685,-218.56379169192513,-1744.5540451836289,185.25284023423455,-331.68032270019711,3630.5556278496124,-5067.0425709640749,1895.9349527955546,-1895.9349527955546,5067.0425709640749,7133.0766895741417,0.0
558523.2936376977,3637751.2368613081,-17500.0,-7556.8451013460563,866.8638459590951,-246.24485668381152,-2072.302889701612,237.94264990647196,-406.56046995868769,4183.0568861735755,-5815.7035432546545,2229.9194774140592,-2229.9194774140592,5815.7035432546545,8222.2928899248182,0.0
563523.2936376977,3637751.2368613081,-17500.0,-8676.7208545260364,1081.5314033624259,-282.63145843012393,-2475.4319920582861,307.8221018811625,-500.12057866005114,4847.9274890825063,-6706.8410804181221,2637.9022339551739,-2637.9022339551739,6706.8410804181221,9532.0039708181885,0.0
568523.2936376977,3637751.2368613081,-17500.0,-10013.529683681621,1359.0716832657408,-332.10864662385194,-2973.9643637306231,401.26568592206752,-616.63159862789882,5654.1926114187436,-7773.1069253099413,3139.3521946477235,-3139.3521946477235,7773.1069253099413,11118.180705359258,0.0
573523.2936376977,3637751.2368613081,-17500.0,-11619.95118849929,1721.135839808328,-401.67874876286828,-3593.8320014734823,527.27735481477589,-760.49729063969653,6640.4367456242717,-9056.0384674397519,3759.6271942227145,-3759.6271942227145,9056.0384674397519,13054.537082842311,0.0
578523.2936376977,3637751.2368613081,-17500.0,-13565.479808739565,2198.0957577195554,-502.69095746998875,-4368.9128204580211,698.66543049214249,-935.12297880590711,7859.1210556441438,-10609.281472252567,4532.0690988840979,-4532.0690988840979,10609.281472252567,15440.082725445047,1.0
583523.2936376977,3637751.2368613081,-17500.0,-15944.597127328067,2833.2238403916404,-653.82673805096829,-5344.2331004452044,933.77629849855077,-1140.3078623766025,9383.8277303445102,-12503.839982814501,5501.1365279790698,-5501.1365279790698,12503.839982814501,18411.556713733484,0.0
588523.2936376977,3637751.2368613081,-17500.0,-18891.272960469239,3689.4080218379272,-886.34772844043312,-6581.7792816313149,1259.0922032109763,-1366.754853374779,11322.285696735624,-14837.499212372113,6727.4753190559722,-6727.4753190559722,14837.499212372113,22165.491624842394,0.0
593523.2936376977,3637751.2368613081,-17500.0,-22606.149745953935,4860.5043601394218,-1253.5112843208344,-8172.8357173780851,1713.2682820657431,-1585.4120375322054,13841.397231315765,-17753.307570563607,8296.9948413799884,-8296.9948413799884,17753.307570563607,27000.434702209561,0.0
598523.2936376977,3637751.2368613081,-17500.0,-27409.361656210978,6491.8887702117809,-1847.9072671935876,-10267.615911120842,2353.9816275711432,-1729.0755923964457,17217.972127412129,-21478.242289896923,10338.947816965143,-10338.947816965143,21478.242289896923,33403.127687421555,0.0
603523.2936376977,3637751.2368613081,-17500.0,-33843.495993202559,8820.6615577886168,-2834.4817391607985,-13151.382326232193,3271.5948616072856,-1668.286152885237,21944.48435352014,-26406.332391475,13065.004064465395,-13065.004064465395,26406.332391475,42231.271988296343,0.0
608523.2936376977,3637751.2368613081,-17500.0,-42864.990425633288,12260.606735950236,-4516.7469063269264,-17443.709866801135,4622.9711485441449,-1210.1730952383059,28948.336853950081,-33274.230585082463,16856.917868392957,-16856.917868392957,33274.230585082463,55102.219285428866,0.0
613523.2936376977,3637751.2368613081,-17500.0,-56146.95047364397,17591.898222840788,-7480.7591782268382,-24609.030621978232,6731.9805617905031,-257.13413283052836,40028.142957940392,-43500.303692677495,22457.949472880922,-22457.949472880922,43500.303692677495,75188.574616533122,0.0
618523.2936376977,3637751.2368613081,-17500.0,-76316.228431932395,26386.980622614668,-12950.354351105105,-38180.819119673448,10418.829779905294,364.84672756109762,58672.205318255234,-59677.592579747688,31333.048444517401,-31333.048444517401,59677.592579747688,108738.48012426205,0.0
623523.2936376977,3637751.2368613081,-17500.0,-105912.7364556854,41866.316052537048,-23826.026858081692,-66293.619870517286,18099.634893032293,-4222.7803516165641,91554.180375009164,-85485.520801083054,45994.151017294163,-45994.151017294163,85485.520801083054,167801.57593159538,0.0
628523.2936376977,3637751.2368613081,-17500.0,-139156.1624692617,69746.490606758147,-48322.638391294553,-124881.5152008505,37269.525884723254,-32943.035924342214,151281.30970417146,-120229.32110442761,67857.900182573139,-67857.900182573139,120229.32110442761,274647.40088143642,0.0
633523.2936376977,3637751.2368613081,-17500.0,-117235.81719889713,111294.38880614862,-114569.14778589587,-224431.38556193619,89033.798647798641,-144186.71333430882,258633.31963533515,-119483.88035723822,74418.347991417701,-74418.347991417701,119483.88035723822,461361.08025987819,0.0
638523.2936376977,3637751.2368613081,-17500.0,212965.93315880949,71235.802973656595,-311508.89308436186,-140217.93135920059,180223.35265425695,-324206.22984023765,388817.14092761802,199106.18590301802,-136907.82959942697,136907.82959942697,-199106.18590301802,673455.78432290023,0.0
643523.2936376977,3637751.2368613081,-17500.0,283740.29961302632,-164279.62745767215,-273347.57547067379,105343.06512358144,-156468.09651678745,182362.80634707017,385134.07194920571,311550.76238596399,-368818.97376609856,368818.97376609856,-311550.76238596399,672197.73295204318,0.0
648523.2936376977,3637751.2368613081,-17500.0,114874.17466387422,-89551.345936970713,16011.708020350694,54816.71119053349,-213756.06487307945,88250.924196494074,243565.68970615708,76451.159426262006,-102984.37172455493,102984.37172455493,-76451.159426262006,421898.63300287916,0.0
653523.2936376977,3637751.2368613081,-17500.0,54882.842255391173,-10063.933727943704,48578.943577839811,15365.454268725274,-138094.28053877805,36461.730778735902,139532.44049875357,18178.738515294506,-3375.9958822496646,3375.9958822496646,-18178.738515294506,241837.09901451811,0.0
658523.2936376977,3637751.2368613081,-17500.0,32318.615003762436,327.206895688337,18084.231068209341,10912.119172515831,-69075.726886145349,13538.955293877865,70000.295820364612,15873.814387180444,-3217.8159684267248,3217.8159684267248,-15873.814387180444,122310.62415205639,0.0
663523.2936376977,3637751.2368613081,-17500.0,14209.192477184235,-2802.3499572861783,-1136.1143190361611,11019.503760766444,-32456.179095081203,6630.4044228952198,35049.545694122986,12042.958424382319,-10197.096567575889,10197.096567575889,-12042.958424382319,61030.125436633891,0.0
668523.2936376977,3637751.2368613081,-17500.0,3652.2677890667405,-6830.2309556867003,-11322.126941862185,10267.618070314613,-13028.393788373234,3465.7074843408623,19575.208157231118,8906.4879680093545,-15192.892387718759,15192.892387718759,-8906.4879680093545,34451.689595914853,0.0
673523.2936376977,3637751.2368613081,-17500.0,-2832.471351586546,-10526.749816952879,-15111.436975248938,9793.7131709725054,-2726.2054819966779,1062.8755306842188,16815.001702806105,5919.9259840616414,-17702.291801346139,17702.291801346139,-5919.9259840616414,29261.954509604151,0.0
678523.2936376977,3637751.2368613081,-17500.0,-7409.6916826251263,-12763.184699988858,-14744.897993221059,9562.2697894799076,2248.706809507702,-714.8911830987314,17306.128300682863,2688.2942007996953,-17575.022824958323,17575.022824958323,-2688.2942007996953,30428.786646917735,0.0
683523.2936376977,3637751.2368613081,-17500.0,-10531.529304778769,-13303.178586739639,-12503.958425631796,9230.9198674616873,4211.7345361774478,-1787.6493364505495,16810.938703262207,-274.22010012978808,-15705.465209268488,15705.465209268488,274.22010012978808,30616.368934874448,0.0
688523.2936376977,3637751.2368613081,-17500.0,-12333.453685945249,-12628.549433183904,-9878.0193335389649,8664.5898779891049,4613.7948202148236,-2255.7597743278657,15575.976730822989,-2546.8478686167036,-13152.331465219228,13152.331465219228,2546.8478686167036,29161.128238823203,0.0
693523.2936376977,3637751.2368613081,-17500.0,-13060.239929521698,-11323.182197566368,-7534.4872340770335,7896.5131099705141,4296.9235066357505,-2311.201218386419,14004.978802660275,-4051.4357691470123,-10596.640845985889,10596.640845985889,4051.4357691470123,26716.624495330649,0.0
698523.2936376977,3637751.2368613081,-17500.0,-13015.141807504144,-9807.1309125308671,-5661.0859950207132,7019.404228385044,3712.6250889513517,-2136.5623584219638,12361.049701086567,-4904.1635362155021,-8348.1185249386799,8348.1185249386799,4904.1635362155021,23877.400608490163,0.0
703523.2936376977,3637751.2368613081,-17500.0,-12474.564797378811,-8320.2485680238588,-4239.7306399250092,6122.7241715526261,3083.5441145594996,-1863.003981106438,10788.464890897676,-5274.1050099580225,-6495.2334431898671,6495.2334431898671,5274.1050099580225,21016.680721456331,0.0
708523.2936376977,3637751.2368613081,-17500.0,-11652.953432725391,-6976.2050706082491,-3188.0616013323993,5269.8746061948996,2507.0398112934317,-1569.0435773174379,9356.2521981882692,-5316.7026350674378,-5022.3065471232085,5022.3065471232085,5316.7026350674378,18334.481667842603,0.0
713523.2936376977,3637751.2368613081,-17500.0,-10700.933930393025,-5814.5785281568296,-2418.0286008753478,4496.5942839742429,2016.3556746474419,-1294.595297595388,8089.5008843784935,-5153.4789090912172,-3874.8100452277422,3874.8100452277422,5153.4789090912172,15920.334049388923,0.0
718523.2936376977,3637751.2368613081,-17500.0,-9716.5771376885277,-4836.2770108161685,-1855.2617037888401,3817.4089159197497,1614.5863308743728,-1055.8504777904577,6989.097098964754,-4871.6404373321184,-2990.5550903521034,2990.5550903521034,4871.6404373321184,13799.673474329444,0.0
723523.2936376977,3637751.2368613081,-17500.0,-8759.2347838119003,-4024.5598865709467,-1442.5303204828733,3233.2438746882558,1292.4376533607465,-856.19956985930662,6043.6890458896369,-4530.2793153004786,-2312.6631387994053,2312.6631387994053,4530.2793153004786,11963.778113028899,0.0
728523.2936376977,3637751.2368613081,-17500.0,-7861.6942545285337,-3356.4857733071685,-1137.7171898710478,2737.5349862530898,1036.904964968541,-692.99068342075839,5236.7095137508586,-4167.5926089986988,-1793.7289853872476,1793.7289853872476,4167.5926089986988,10387.770666617786,0.0
733523.2936376977,3637751.2368613081,-17500.0,-7039.4850374458119,-2808.6531118120688,-910.51291905332357,2320.3501063591316,835.14755352554289,-561.27092645030609,4550.3223857780422,-3807.120678435494,-1396.0920929803547,1396.0920929803547,3807.120678435494,9040.8433620355318,0.0
738523.2936376977,3637751.2368613081,-17500.0,-6297.4682301890243,-2359.7606094544199,-739.32966845110832,1970.8599071091542,675.96354343751852,-455.66621556194718,3967.4742374867733,-3462.5289658592051,-1090.6206691895227,1090.6206691895227,3462.5289658592051,7891.7087414805628,0.0
743523.2936376977,3637751.2368613081,-17500.0,-5634.2646569762301,-1991.4993442752161,-608.84086494072562,1678.6661207417794,550.14503035316966,-371.21952536010929,3472.7090638587561,-3141.0417234326169,-855.11476001338428,855.11476001338428,3141.0417234326169,6911.2548453081863,0.0
748523.2936376977,3637751.2368613081,-17500.0,-5045.1134486855217,-1688.6297235712489,-508.15162159222535,1434.4181759865517,450.36006435049057,-303.68934700435597,3052.1510597577058,-2845.8077845143516,-672.79025715868079,672.79025715868079,2845.8077845143516,6073.6327745912668,0.0
753523.2936376977,3637751.2368613081,-17500.0,-4523.6542339811585,-1438.7013115627508,-429.48503828416455,1230.0215875570975,370.87128008773237,-249.58994009284189,2693.4437967069412,-2577.4842482596041,-531.00081165511904,531.00081165511904,2577.4842482596041,5356.5086434400146,0.0
543523.2936376977,3642751.2368613081,-17500.0,-4973.7108250328556,803.24155183395692,-266.36791524964843,-1222.4092375390001,198.09017598598498,-218.36699620178211,2740.155673684661,-3717.1740647009638,1540.2929651442766,-1540.2929651442766,3717.1740647009638,5378.0573910813828,0.0
548523.2936376977,3642751.2368613081,-17500.0,-5609.0687494068907,969.96018387398328,-306.71570019012569,-1431.3661272189688,247.28966260104252,-264.42207543439156,3117.4338487170085,-4204.4271222485731,1787.4606911367018,-1787.4606911367018,4204.4271222485731,6123.18088222611,0.0
553523.2936376977,3642751.2368613081,-17500.0,-6348.2703372455571,1178.1915405252241,-358.24048972646068,-1683.9240534808166,310.74614261468849,-321.55879272084769,3563.5704126377627,-4772.056521125669,2083.9886348513487,-2083.9886348513487,4772.056521125669,7004.4574128625663,0.0
558523.2936376977,3642751.2368613081,-17500.0,-7211.2724294250957,1440.0830702964283,-425.29529346475357,-1990.4879081161575,393.18537219408967,-392.50862043829306,4094.2007145580546,-5435.1229942428827,2441.3367087103306,-2441.3367087103306,5435.1229942428827,8052.6069421698257,0.0
563523.2936376977,3642751.2368613081,-17500.0,-8222.2565433808977,1771.8764442712136,-514.28518748300473,-2364.1047085115661,501.07699759625427,-480.49284016954891,4729.25815884862,-6211.4953704895852,2873.8571576262293,-2873.8571576262293,6211.4953704895852,9306.6256443186521,0.0
568523.2936376977,3642751.2368613081,-17500.0,-9410.5978020275343,2195.478611500715,-634.77658869908475,-2821.1074868472974,643.32610508268385,-589.06841869830896,5494.4357650769452,-7122.2152683168388,3399.5166610919655,-3399.5166610919655,7122.2152683168388,10816.477278817589,0.0
573523.2936376977,3642751.2368613081,-17500.0,-10812.161790227849,2740.7303880495297,-801.28291797295185,-3381.9005614553344,832.24626745181547,-721.63953217692233,6423.334189974642,-8191.8260765230207,4040.7741295320211,-4040.7741295320211,8191.8260765230207,12646.968178332452,0.0
578523.2936376977,3642751.2368613081,-17500.0,-12471.161412913731,3448.7455073928527,-1036.1914126965237,-4071.9549211606604,1084.9238354416652,-880.27053761076445,7560.7683681901844,-9448.6425522284062,4825.6350527556588,-4825.6350527556588,9448.6425522284062,14883.580459838204,0.0
583523.2936376977,3642751.2368613081,-17500.0,-14443.128675772938,4376.9807328265288,-1374.6626923166134,-4923.2655409316249,1425.133224843793,-1063.1179908312301,8968.2074483980869,-10925.064604173671,5788.9580978387876,-5788.9580978387876,10925.064604173671,17641.876331255287,0.0
588523.2936376977,3642751.2368613081,-17500.0,-16800.139163423628,5607.2618879041429,-1873.0382304995803,-5977.0672830742151,1886.0656710908117,-1259.288369755031,10733.371082197933,-12658.334757127997,6974.2304579256324,-6974.2304579256324,12658.334757127997,21083.842770638043,0.0
593523.2936376977,3642751.2368613081,-17500.0,-19640.520959645964,7259.242884323985,-2623.7276779473145,-7290.2218934006096,2514.4553922318983,-1439.3391402670809,12988.33135801418,-14692.874775563241,8436.4672969645162,-8436.4672969645162,14692.874775563241,25448.532570575091,0.0
598523.2936376977,3642751.2368613081,-17500.0,-23106.551930112651,9514.5903633629168,-3782.662167338272,-8952.0487022948309,3377.8105586581355,-1539.848983154611,15945.279219804113,-17086.53982746027,10247.915958233792,-10247.915958233792,17086.53982746027,31112.882075368441,0.0
603523.2936376977,3642751.2368613081,-17500.0,-27412.133397252437,12663.485655069187,-5622.7375407344753,-11129.171005978067,4580.4664323130137,-1445.2576265024431,19967.91721569312,-19923.210562897111,12509.899028147411,-12509.899028147411,19923.210562897111,38715.150014195802,0.0
608523.2936376977,3642751.2368613081,-17500.0,-32863.355506776083,17197.763549841256,-8645.4660306900041,-14178.709612856768,6307.921710411536,-992.42545585436324,25708.105796509077,-23322.593949484981,15372.983525660704,-15372.983525660704,23322.593949484981,49398.197868275645,0.0
613523.2936376977,3642751.2368613081,-17500.0,-39759.688838043709,23991.421993783293,-13834.660781491688,-18899.974213664584,8962.5763049379293,-99.597393913118893,34337.831048377993,-27366.38807097614,19039.624337244819,-19039.624337244819,27366.38807097614,65239.683747116178,0.0
618523.2936376977,3642751.2368613081,-17500.0,-47694.405707931772,34571.003866010476,-23281.49044628807,-26938.956080081698,13573.07028351607,677.37546074531974,47848.650144251071,-31541.553898969232,23545.243690793675,-23545.243690793675,31541.553898969232,89834.253767733535,0.0
623523.2936376977,3642751.2368613081,-17500.0,-52582.506144578903,50980.409583613735,-41778.228304687174,-40685.733741947981,22855.192886922123,-1432.4330203170839,69161.272613419031,-32144.510310911199,27243.592593945545,-27243.592593945545,32144.510310911199,128493.17335442355,0.0
628523.2936376977,3642751.2368613081,-17500.0,-36980.216513916719,71489.584314800493,-80233.653068935295,-58412.918429879646,42532.821233790353,-13619.09295807448,100999.53031123945,-12994.46735192109,19377.046759928606,-19377.046759928606,12994.46735192109,185533.45386883689,0.0
633523.2936376977,3642751.2368613081,-17500.0,45968.243999880855,62306.503485215108,-151941.3668568907,-47309.185784364781,69197.963502240658,-36767.300566867445,139927.25359152275,72123.764931854283,-45433.132103775075,45433.132103775075,-72123.764931854283,249730.0096944242,0.0
638523.2936376977,3642751.2368613081,-17500.0,148588.66067711444,-83057.810951249077,-144058.20480103884,68673.219726597206,-30955.775056526873,33479.928342704261,184980.77547194593,169379.98638974852,-187559.16396021668,187559.16396021668,-169379.98638974852,320818.65852524532,0.0
643523.2936376977,3642751.2368613081,-17500.0,83560.342306896375,-68666.861479825777,77401.889708146846,12378.759484256423,-237337.34444540564,137129.52995432055,249050.25855645415,20652.125454870424,-41831.818477355577,41831.818477355577,-20652.125454870424,432237.95248365687,0.0
648523.2936376977,3642751.2368613081,-17500.0,87918.907765754004,2494.4543712735531,101080.06921541125,-32445.529874024829,-176039.26791210118,60805.28301423759,180159.10751237662,4515.2685517610189,34646.891844321493,-34646.891844321493,-4515.2685517610189,312108.13396328769,0.0
653523.2936376977,3642751.2368613081,-17500.0,65557.526030092238,18915.726543242497,71171.141404357506,-20851.54677755183,-104477.53730903777,19644.382878522138,111732.60605850787,7921.7411237141823,37341.536124997743,-37341.536124997743,-7921.7411237141823,193705.2158962501,0.0
658523.2936376977,3642751.2368613081,-17500.0,46423.957226479528,18138.009261199146,34766.60650703789,-10855.019614857696,-57971.582232796587,7893.6554279043621,64514.90847675821,13524.671365721884,21018.925887114194,-21018.925887114194,-13524.671365721884,112222.48559540103,0.0
663523.2936376977,3642751.2368613081,-17500.0,31231.729558697589,10378.242529084471,9787.4410378095763,-4832.497362176141,-30024.185437115993,4767.201835240503,34401.465012421759,15080.502550986545,4980.8019358554075,-4980.8019358554075,-15080.502550986545,60747.458790081553,0.0
668523.2936376977,3642751.2368613081,-17500.0,19838.323970543985,2794.5245845434383,-4012.2827578253768,-1395.2290234876555,-13747.623204515425,3125.0667667965004,17843.006730674442,13755.902370161988,-5475.0718561359836,5475.0718561359836,-13755.902370161988,32339.18071501009,0.0
673523.2936376977,3642751.2368613081,-17500.0,11463.589957564212,-3081.2598824366496,-10464.474862912504,916.13356449758066,-4433.2436349610734,1546.2242967665998,12171.478120730499,11232.237828581363,-11290.448139184451,11290.448139184451,-11232.237828581363,21252.926110462104,0.0
678523.2936376977,3642751.2368613081,-17500.0,5087.6315926859052,-7022.8903379230096,-12393.027399231363,2630.6253973498151,582.64732316107506,173.68983615509069,11608.977425970879,8173.5921846097899,-13701.266639047381,13701.266639047381,-8173.5921846097899,20336.255603596241,0.0
683523.2936376977,3642751.2368613081,-17500.0,243.94563568505222,-9148.8363324885104,-11854.579036442887,3802.3777724754445,2961.6973299582796,-786.07031223909962,11870.375099192473,5092.2080968403989,-13826.490616022269,13826.490616022269,-5092.2080968403989,21348.685225303641,0.0
688523.2936376977,3642751.2368613081,-17500.0,-3248.4245659187,-9853.6190978822051,-10252.794873270737,4449.0567497982129,3812.322037961188,-1317.3868102699312,11628.474788430196,2393.8761400162948,-12663.386941027742,12663.386941027742,-2393.8761400162948,21461.149959051432,0.0
693523.2936376977,3642751.2368613081,-17500.0,-5565.4382680055296,-9622.2049952446087,-8399.6610170834192,4657.6376862027291,3851.275924132844,-1517.340492129804,10937.50941065066,275.30491010271271,-10950.924506192991,10950.924506192991,-275.30491010271271,20572.587515722793,0.0
698523.2936376977,3642751.2368613081,-17500.0,-6933.6306755632504,-8871.322390387113,-6681.6994582681627,4552.9165413378405,3511.4229519503706,-1505.7512980030426,10000.811747454216,-1246.4600199165579,-9142.0166168847227,9142.0166168847227,1246.4600199165579,19064.007842498304,0.0
703523.2936376977,3642751.2368613081,-17500.0,-7592.7825464558155,-7894.4915518150719,-5237.29087953611,4255.3777740706773,3034.8119761539019,-1380.9316421504873,8975.5983373130621,-2252.1077262948165,-7468.6199704607043,7468.6199704607043,2252.1077262948165,17275.052283163506,0.0
708523.2936376977,3642751.2368613081,-17500.0,-7757.4889327375995,-6872.0941887998324,-4082.7213704626706,3859.899086245166,2545.361483078239,-1209.1659368737771,7960.4071596772446,-2854.5075127805799,-6023.6317917493197,6023.6317917493197,2854.5075127805799,15431.493106249343,0.0
713523.2936376977,3642751.2368613081,-17500.0,-7599.5047752048613,-5902.1614751689267,-3184.4857281126347,3431.785998413387,2099.0829054750679,-1029.3574839185471,7009.5046139353399,-3162.702186642071,-4824.1486436838341,4824.1486436838341,3162.702186642071,13664.12624238922,0.0
718523.2936376977,3642751.2368613081,-17500.0,-7246.1686267951209,-5029.981208097056,-2495.2087860914007,3011.2699147746348,1715.6529970320107,-861.4439359988088,6148.1031016866236,-3267.3518714710644,-3851.4395737778941,3851.4395737778941,3267.3518714710644,12039.041746098586,0.0
723523.2936376977,3642751.2368613081,-17500.0,-6786.6900261395349,-4270.0479024794831,-1969.2053985546231,2620.3365170906359,1396.8464742482524,-713.79155339767522,5383.8457929242959,-3237.8532600841654,-3073.3326073016224,3073.3326073016224,3237.8532600841654,10582.254808621514,0.0
728523.2936376977,3642751.2368613081,-17500.0,-6280.7124959162293,-3620.4175697851165,-1567.9111685210526,2268.9602540010255,1136.634945257284,-588.38417013433173,4714.538065839085,-3124.5834224745131,-2455.5405359141268,2455.5405359141268,3124.5834224745131,9296.715262293359,0.0
733523.2936376977,3642751.2368613081,-17500.0,-5766.3708693563931,-3071.3692964655434,-1260.7773200305533,1959.8240186040034,926.3801109057755,-484.04800211420968,4133.0174963469317,-2962.738467163796,-1966.7123338328279,1966.7123338328279,2962.738467163796,8173.157726152368,0.0
738523.2936376977,3642751.2368613081,-17500.0,-5266.8347983925723,-2610.3032095085196,-1024.4082026838125,1691.539738532887,757.3053900216446,-398.29209221290313,3630.0699680521275,-2776.1492270722856,-1580.1999289366875,1580.1999289366875,2776.1492270722856,7196.6630740863757,0.0
743523.2936376977,3642751.2368613081,-17500.0,-4795.2130848924198,-2224.3243420179847,-841.20928999528803,1460.6930372613315,621.53308413207844,-328.2808952410042,3196.095711886413,-2580.4777701462544,-1274.2417475109341,1274.2417475109341,2580.4777701462544,6350.4331564374133,0.0
748523.2936376977,3642751.2368613081,-17500.0,-4358.0526048318443,-1901.4816950194813,-698.06951300046796,1263.0673286904887,512.40789315508437,-271.30358415415782,2822.0430711051954,-2385.680481817566,-1031.4755439273295,1031.4755439273295,2385.680481817566,5617.8431947736144,0.0
543523.2936376977,3647751.2368613081,-17500.0,-4710.0733469520765,1101.5170193872229,-387.39957112875351,-1165.3201579089337,272.777527777025,-209.37822327591104,2666.4059806654877,-3447.2946086675711,1614.3190843990153,-1614.3190843990153,3447.2946086675711,5236.7817948286247,0.0
548523.2936376977,3647751.2368613081,-17500.0,-5276.3802103069365,1317.7346219485876,-457.89036733515587,-1356.9303889981475,337.36539751792759,-252.34062808588098,3023.3819557851957,-3865.7980739778018,1861.7545087546346,-1861.7545087546346,3865.7980739778018,5943.486726716822,0.0
553523.2936376977,3647751.2368613081,-17500.0,-5925.5444956673828,1584.8287177367863,-548.44297720724785,-1586.1290744079504,419.82402869022786,-305.21074379755328,3442.7937540543157,-4344.0689841097255,2154.7509333206808,-2154.7509333206808,4344.0689841097255,6774.325518583747,0.0
558523.2936376977,3647751.2368613081,-17500.0,-6670.1515768668251,1916.6667856750639,-666.42039438102938,-1860.9664571099411,525.7589958168229,-370.24388677478726,3937.9249825050874,-4890.0122129773554,2502.3682251033247,-2502.3682251033247,4890.0122129773554,7755.6665413030278,0.0
563523.2936376977,3647751.2368613081,-17500.0,-7524.0315133752565,2331.3408835118885,-822.37783031649838,-2191.1050295059317,662.69143686616871,-449.99256382081529,4525.3577171832976,-5511.4980000686573,2915.2253519265305,-2915.2253519265305,5511.4980000686573,8920.3242365372244,0.0
568523.2936376977,3647751.2368613081,-17500.0,-8501.8473584153598,2852.551019040488,-1031.6389769157367,-2587.9675434447513,840.72787196266472,-547.08991223270846,5225.9407308767823,-6215.449536953568,3405.4636844517963,-3405.4636844517963,6215.449536953568,10309.356118298414,0.0
573523.2936376977,3647751.2368613081,-17500.0,-9618.2481971840516,3511.4600136331774,-1316.7483623467947,-3064.7568491291477,1073.4406369153467,-663.70594298476385,6066.1414017205652,-7006.2252944889069,3986.3964818879604,-3986.3964818879604,7006.2252944889069,11974.501148841005,0.0
578523.2936376977,3647751.2368613081,-17500.0,-10886.309581880334,4349.1716661225428,-1711.3403732051199,-3636.2438938346259,1378.9881125201907,-800.3631950665972,7080.0126215973714,-7882.857367519845,4671.5394167187505,-4671.5394167187505,7882.857367519845,13981.618043432192,0.0
583523.2936376977,3647751.2368613081,-17500.0,-12314.893325377448,5420.0716991862355,-2266.3594283097282,-4318.2544331360141,1781.4841572889334,-953.56619277895652,8312.2636371715089,-8834.5096022056368,5472.5139333896986,-5472.5139333896986,8834.5096022056368,16415.927022733635,0.0
588523.2936376977,3647751.2368613081,-17500.0,-13904.236089028165,6796.3709961388658,-3060.2720395084275,-5126.967353287765,2312.5868705730581,-1111.3724736057065,9823.3784183156131,-9833.1102545934064,6394.9035316696991,-6394.9035316696991,9833.1102545934064,19390.644538858807,0.0
593523.2936376977,3647751.2368613081,-17500.0,-15638.286320565689,8574.3665640639483,-4216.2776324088336,-6078.8108925023625,3013.3096729758454,-1245.7974572411158,11698.727611852783,-10821.343436991448,7430.3747182284924,-7430.3747182284924,10821.343436991448,23062.309129684691,0.0
598523.2936376977,3647751.2368613081,-17500.0,-17469.647263355262,10883.053977623054,-5932.2915118829942,-7193.4915146579406,3936.5151736330049,-1301.6278383446736,14065.48249065496,-11692.088032659738,8541.5836811837089,-8541.5836811837089,11692.088032659738,27659.16204896952,0.0
603523.2936376977,3647751.2368613081,-17500.0,-19283.558318039235,13894.476625824715,-8535.1944145737543,-8505.9013939809101,5152.5284634357067,-1185.5756542938821,17123.049021213366,-12248.401298091128,9631.0424499360852,-9631.0424499360852,12248.401298091128,33532.175084516857,0.0
608523.2936376977,3647751.2368613081,-17500.0,-20796.528454928703,17825.729517906253,-12582.215052003328,-10093.954059476211,6766.3221767084751,-775.09956376164587,21189.151371097276,-12109.740496018767,10467.043226696551,-10467.043226696551,12109.740496018767,41232.91451543619,0.0
613523.2936376977,3647751.2368613081,-17500.0,-21255.917315882743,22873.153106724058,-19048.413842268852,-12104.348515748987,8965.4735593652913,-5.4824733811211566,26736.273975396161,-10458.828989780204,10477.594739170077,-10477.594739170077,10458.828989780204,51572.976939332286,0.0
618523.2936376977,3647751.2368613081,-17500.0,-18611.355607844296,28804.832624742365,-29611.455625403061,-14603.525165458706,12096.782414403599,853.13617378957065,34308.686779189316,-5360.1951617851582,8133.5560475795946,-8133.5560475795946,5360.1951617851582,65436.384533679804,0.0
623523.2936376977,3647751.2368613081,-17500.0,-7762.2567747061257,33182.647487106733,-46595.2824802502,-16522.970892198682,16433.338129951262,762.44990353849028,44100.269734828114,7653.2951766442202,-726.12089648995834,726.12089648995834,-7653.2951766442202,82729.489623229834,0.0
628523.2936376977,3647751.2368613081,-17500.0,20092.88673001745,25708.934733736747,-69212.534239581873,-12124.115839365657,19351.61773587991,-1333.9898379742367,55375.737319511667,35530.628433581463,-25357.288633311629,25357.288633311629,-35530.628433581463,100341.0129464802,0.0
633523.2936376977,3647751.2368613081,-17500.0,61231.443161133022,-17046.591003442514,-72502.781355910076,11084.524319536289,2796.0839260908351,-36.047789418172371,69994.506731672474,69363.675453150892,-69267.981685011109,69267.981685011109,-69363.675453150892,121279.84561676432,1.0
638523.2936376977,3647751.2368613081,-17500.0,59226.921686919573,-74818.981393933907,14006.914522280633,37039.714082629769,-68674.590407259806,19116.339103625174,107850.74419134337,40454.566721373136,-65763.85423031103,65763.85423031103,-40454.566721373136,192088.43365129482,0.0
643523.2936376977,3647751.2368613081,-17500.0,27068.032037741654,-38517.638750911981,124595.18185781912,9939.5269856035266,-133173.6750339256,31755.798315389125,145666.00217976214,-30281.748059474008,30970.6894761732,-30970.6894761732,30281.748059474008,258900.03256406679,0.0
648523.2936376977,3647751.2368613081,-17500.0,36896.978559868905,16926.704008134002,123754.1127744401,-17860.123656750224,-116189.77830709278,18371.076747123094,129496.2701221858,-29232.809724512481,72300.021682219638,-72300.021682219638,29232.809724512481,227625.04973779432,0.0
653523.2936376977,3647751.2368613081,-17500.0,43539.327282481201,30933.297176947894,81978.896806575751,-19520.596587194192,-77197.787249843779,7424.0252348500408,92400.760819057235,-8034.1805811232807,58889.462165965728,-58889.462165965728,8034.1805811232807,161438.64152061418,0.0
658523.2936376977,3647751.2368613081,-17500.0,39506.477351751666,27425.259192446261,44981.90543893697,-14678.472474589942,-47198.052124000576,4311.3918774158228,60318.242832478529,5194.4596447941294,36575.222897754829,-36575.222897754829,-5194.4596447941294,105105.46167826332,0.0
663523.2936376977,3647751.2368613081,-17500.0,32310.768578089752,19233.554449574935,19303.057558206594,-10352.655707453938,-27142.248375762025,3718.462650618108,37496.928694460803,11340.277301518259,17776.449339580417,-17776.449339580417,-11340.277301518259,65239.75998492389,0.0
668523.2936376977,3647751.2368613081,-17500.0,24922.125465788969,10924.141340950444,3607.507273435554,-6972.095296660952,-14186.939993077594,3044.4384403771069,22814.460399624772,13125.728195504409,4582.4387698688115,-4582.4387698688115,-13125.728195504409,39677.201540420217,0.0
673523.2936376977,3647751.2368613081,-17500.0,18187.615448310717,4044.752414181829,-4951.5035450565583,-4175.3830016792754,-6066.3179890163137,1995.1739090866988,14471.63650916593,12481.476299009093,-3718.9350557836779,3718.9350557836779,-12481.476299009093,25193.597142150331,0.0
678523.2936376977,3647751.2368613081,-17500.0,12283.679929664075,-1027.117711141356,-8841.2238310930788,-1851.4853499949772,-1238.5703919790951,906.46881499329015,10839.600298666421,10552.274043205314,-8310.6350381280026,8310.6350381280026,-10552.274043205314,18799.230782530023,0.0
683523.2936376977,3647751.2368613081,-17500.0,7292.3901424091182,-4353.2728347326856,-9907.453772185454,-41.062482603135408,1390.2096013567975,39.242345341268049,9727.8823209742732,8085.0589056664066,-10286.224984903092,10286.224984903092,-8085.0589056664066,16921.756213936093,0.0
688523.2936376977,3647751.2368613081,-17500.0,3279.5362037743212,-6218.83152880536,-9453.7933557021643,1237.5888050806354,2621.0495740915394,-528.73223547692237,9246.8302489128691,5596.0737690251153,-10578.579785355367,10578.579785355367,-5596.0737690251153,16412.64240150273,0.0
693523.2936376977,3647751.2368613081,-17500.0,236.7805621183432,-7001.8855757943402,-8323.7174608352616,2036.8815779930769,3022.4000648128813,-832.67549974824385,8746.1283822555015,3394.2508172063335,-9915.5614081601852,9915.5614081601852,-3394.2508172063335,15880.848754371016,0.0
698523.2936376977,3647751.2368613081,-17500.0,-1930.6676082149233,-7066.8414587445031,-7005.0160990895874,2454.8921803980293,2972.9251191992998,-946.53699004617999,8127.0513545882313,1612.7500208571737,-8804.0928806976844,8804.0928806976844,-1612.7500208571737,15037.500794743612,0.0
703523.2936376977,3647751.2368613081,-17500.0,-3371.1511474721992,-6706.5290141909218,-5744.5314261980939,2599.3871384400163,2707.7699506777521,-941.85227802703241,7428.2099211735949,265.87990870002568,-7559.1123254530667,7559.1123254530667,-265.87990870002568,13946.295781704948,0.0
708523.2936376977,3647751.2368613081,-17500.0,-4246.9154610411679,-6129.0629362321324,-4644.8372388731259,2564.9851264604335,2362.8582097774506,-872.93026327351822,6704.80272362504,-695.1136814049587,-6354.4481607052021,6354.4481607052021,695.1136814049587,12730.580518130884,0.0
713523.2936376977,3647751.2368613081,-17500.0,-4707.137761902768,-5469.074335700353,-3731.4292979917595,2424.5586987735155,2010.7035837828389,-775.70545805471693,5999.2274967291642,-1342.4800275181606,-5272.2516887909533,5272.2516887909533,1342.4800275181606,11492.118987257536,0.0
718523.2936376977,3647751.2368613081,-17500.0,-4875.5292846595366,-4806.5419542859781,-2993.5722151631826,2229.3915662557115,1685.9514974429203,-671.60169049384331,5337.7047154673246,-1749.4272937785206,-4340.7740483165544,4340.7740483165544,1749.4272937785206,10298.036350204071,0.0
723523.2936376977,3647751.2368613081,-17500.0,-4847.9500548121487,-4184.5364896397477,-2406.6966176688857,2013.0794899755006,1402.0254885761801,-572.12513300305386,4733.5754358286749,-1979.8091769831469,-3559.5443448930237,3559.5443448930237,1979.8091769831469,9186.3787876099341,0.0
728523.2936376977,3647751.2368613081,-17500.0,-4695.196093098074,-3622.9215603885309,-1943.5377162631805,1796.1950872313962,1161.2612862395679,-482.61169040763497,4191.4368279094515,-2084.9748223791353,-2914.6498362411226,2914.6498362411226,2084.9748223791353,8174.7852332604025,0.0
733523.2936376977,3647751.2368613081,-17500.0,-4467.6728492412476,-3127.8648084365554,-1579.0251752731635,1590.3798356718503,960.73850030662607,-404.84206821637582,3710.5198154869777,-2104.1743175762208,-2387.3194650113742,2387.3194650113742,2104.1743175762208,7267.9011342235244,0.0
738523.2936376977,3647751.2368613081,-17500.0,-4200.1883215761936,-2697.9998915771257,-1291.9702260339373,1401.4750314916309,795.46182899329938,-338.70741086935089,3287.0754864506739,-2066.3865409053205,-1958.3699785115609,1958.3699785115609,2066.3865409053205,6462.7412338398781,0.0
743523.2936376977,3647751.2368613081,-17500.0,-3916.0971283832882,-2328.2132014160352,-1065.2490669731774,1231.7336925429377,659.99340109085983,-283.20184005611327,2915.9291060875912,-1992.4619073071103,-1610.261512129844,1610.261512129844,1992.4619073071103,5752.255038277829,0.0
748523.2936376977,3647751.2368613081,-17500.0,-3630.5877904860754,-2011.8647775748909,-885.3702190219733,1081.3022290881634,549.22015001957107,-236.98121245016691,2591.4341619793536,-1897.0895465707858,-1327.8553566954683,1327.8553566954683,1897.0895465707858,5127.5694255366789,0.0
543523.2936376977,3652751.2368613081,-17500.0,-4360.3293023253409,1344.7717198921878,-531.62484715010453,-1088.9997753464115,335.51779347381876,-197.31561269286613,2561.6664325013462,-3108.0881019221097,1616.3856616155563,-1616.3856616155563,3108.0881019221097,5037.0053366942484,0.0
548523.2936376977,3652751.2368613081,-17500.0,-4840.84639682124,1594.1464345570789,-635.89955247374121,-1258.6548886035148,411.47063583701288,-236.3212027207006,2891.6352016893388,-3444.8422559941355,1846.5266733740261,-1846.5266733740261,3444.8422559941355,5692.6194098113629,0.0
553523.2936376977,3652751.2368613081,-17500.0,-5379.7855780302225,1898.1447405478655,-769.39281215109042,-1458.6842176773066,507.36633818434586,-283.8034639457764,3275.9264533104401,-3818.3503875963161,2113.4812277283054,-2113.4812277283054,3818.3503875963161,6457.1415658318783,0.0
558523.2936376977,3652751.2368613081,-17500.0,-5981.785976149823,2270.1555075067658,-942.20308104237608,-1694.4801463041208,629.0301443183306,-341.47055868655485,3725.0089786550052,-4229.1474524930627,2422.3761436906725,-2422.3761436906725,4229.1474524930627,7351.6909901807385,0.0
563523.2936376977,3652751.2368613081,-17500.0,-6649.8365732017674,2726.9569637069803,-1168.4548746720272,-1971.9740856612189,784.06513666165893,-411.12591380604016,4251.5415798648792,-4675.1268075010903,2778.0824107889712,-2778.0824107889712,4675.1268075010903,8401.7560206586259,0.0
568523.2936376977,3652751.2368613081,-17500.0,-7383.6982510554781,3289.4442418599442,-1468.0840978641518,-2297.3197824248236,982.34644014947014,-494.40075465799987,4870.8592241587858,-5149.6409354329471,3184.2947544148001,-3184.2947544148001,5149.6409354329471,9638.0425098965225,0.0
573523.2936376977,3652751.2368613081,-17500.0,-8177.3625613383974,3983.344961101735,-1869.4783359154403,-2676.2322131163774,1236.573574289745,-592.1822789312032,5601.618583086477,-5638.5076533004003,3641.8363846907987,-3641.8363846907987,5638.5076533004003,11097.433698582627,0.0
578523.2936376977,3652751.2368613081,-17500.0,-9015.0374184600478,4839.7259337520163,-2413.4016147270486,-3112.7748848574583,1562.7944153132164,-703.4918556816674,6466.7452359656145,-6115.3587997168634,4145.6476007855126,-4145.6476007855126,6115.3587997168634,12824.098841718704,0.0
583523.2936376977,3652751.2368613081,-17500.0,-9864.8518715046484,5894.8586240717705,-3158.8490050179876,-3607.3212324297506,1980.6939442635617,-823.42002982998372,7494.8507002190454,-6534.4849459002307,4679.5431144917675,-4679.5431144917675,6534.4849459002307,14870.841128304883,0.0
588523.2936376977,3652751.2368613081,-17500.0,-10668.95823427249,7188.5213568880863,-4191.7719381450452,-4153.4076508107692,2513.2240564491726,-939.57416848764194,8721.8957143057487,-6819.919167716329,5207.1882459291974,-5207.1882459291974,6819.919167716329,17300.913622815424,0.0
593523.2936376977,3652751.2368613081,-17500.0,-11327.682461197584,8758.7833242978104,-5637.9924204621693,-4733.3543916526733,3184.8132747351042,-1026.5424298276707,10192.357375815751,-6848.8341459848198,5656.6159781554579,-5656.6159781554579,6848.8341459848198,20190.781535209113,0.0
598523.2936376977,3652751.2368613081,-17500.0,-11672.926372120652,10628.81058606332,-7681.8211214394723,-5312.9178512911631,4016.9383234501297,-1038.7780050005501,11961.214016424901,-6425.9896368483041,5893.3756633251014,-5893.3756633251014,6425.9896368483041,23634.2027456301,0.0
603523.2936376977,3652751.2368613081,-17500.0,-11420.182938412436,12774.609175333264,-10590.685301319467,-5835.2455286531876,5019.2487751917588,-905.76656577742949,14099.569280489064,-5243.0659977851346,5672.6102392747116,-5672.6102392747116,5243.0659977851346,27745.632073154957,0.0
608523.2936376977,3652751.2368613081,-17500.0,-10076.414375662016,15043.882058612809,-14737.694675639837,-6210.1696142019318,6172.6213282750914,-542.51572355168184,16700.226289581227,-2811.5661058415271,4549.9831798240575,-4549.9831798240575,2811.5661058415271,32649.969001384936,0.0
613523.2936376977,3652751.2368613081,-17500.0,-6769.2555118112732,16944.837012075775,-20574.089487933637,-6272.4661760391264,7389.0090813546494,95.585393893602912,19867.771278774941,1639.8647337779244,1714.9374976813046,-1714.9374976813046,-1639.8647337779244,38414.500338333433,0.0
618523.2936376977,3652751.2368613081,-17500.0,-28.845736256200876,17112.49122575052,-28339.177065773834,-5615.0051702882447,8370.8066021881314,884.59442890785772,23672.67383256551,9225.8415576970456,-4268.0631509597315,4268.0631509597315,-9225.8415576970456,44849.494458721034,0.0
623523.2936376977,3652751.2368613081,-17500.0,11946.459882779849,12223.262652648467,-36744.987533810912,-3138.2937876506876,8059.5853502548571,1425.4554809163237,28158.605127209885,20828.914446367358,-15450.510933056161,15450.510933056161,-20828.914446367358,51399.489432458788,0.0
628523.2936376977,3652751.2368613081,-17500.0,28390.474586856897,-3580.085808509275,-38871.505468597745,3272.4687420789933,2994.2615667313562,1448.6728068915015,34121.013908913694,33721.689823765031,-32022.342662755964,32022.342662755964,-33721.689823765031,59458.815286985082,0.0
633523.2936376977,3652751.2368613081,-17500.0,38564.949764386482,-31597.46185504413,-16687.984857181244,13767.491355633951,-14253.788441066032,2042.461475529833,45848.45031944901,33993.280865585686,-42453.577127943521,42453.577127943521,-33993.280865585686,80883.533391890203,0.0
638523.2936376977,3652751.2368613081,-17500.0,27292.738436106658,-48362.08835931433,41872.141534787253,18547.488025751809,-45795.911124258469,4512.0420777346535,67982.680933984651,5104.3963059909265,-19280.321445417281,19280.321445417281,-5104.3963059909265,124113.44492473426,0.0
643523.2936376977,3652751.2368613081,-17500.0,11132.685464439221,-26295.292913789497,96178.734129776611,7971.443083318044,-70092.531104177237,5838.0733016904414,86588.951421405553,-28254.991896898013,31520.514018277579,-31520.514018277579,28254.991896898013,157210.04073444539,0.0
648523.2936376977,3652751.2368613081,-17500.0,13279.574674284768,7863.8331121276615,101863.31737629656,-5629.0846353753268,-68919.234768100185,4387.6695559902946,84799.360562419344,-31364.530469318743,59952.718482025266,-59952.718482025266,31364.530469318743,152459.78434020901,0.0
653523.2936376977,3652751.2368613081,-17500.0,21866.069594729328,24703.557431615322,76925.742152137187,-11559.35155700356,-53455.418327028245,3320.1039721636853,68984.955263500742,-17098.803857469513,56712.673757109398,-56712.673757109398,17098.803857469513,123291.33585771982,0.0
658523.2936376977,3652751.2368613081,-17500.0,26081.028929675274,26628.374150110958,48300.905368773325,-12164.983690108113,-36978.621820195789,3449.3813838901665,50708.338275215494,-3516.0241270854749,41191.450587607818,-41191.450587607818,3516.0241270854749,90455.58921938359,0.0
663523.2936376977,3652751.2368613081,-17500.0,25895.84806947508,21972.341109452707,25656.836400226101,-10802.614540830111,-23717.68441383191,3608.559996776818,35312.827109950165,5091.0581663093781,25142.166346466656,-25142.166346466656,-5091.0581663093781,63067.264411850498,0.0
668523.2936376977,3652751.2368613081,-17500.0,23227.328488476065,15424.722571295042,10162.382424609137,-8758.0587496550834,-13985.032251053284,3203.5568278560277,23934.70697817667,9441.5857214204061,12273.297846611842,-12273.297846611842,-9441.5857214204061,42902.856664885396,0.0
673523.2936376977,3652751.2368613081,-17500.0,19378.831839331928,9107.6590488875954,583.40313042520336,-6501.8057288566761,-7236.9020603217987,2373.8295431282377,16257.76556045876,10862.07165669644,3129.3507635429205,-3129.3507635429205,-10862.07165669644,29250.794564322525,0.0
678523.2936376977,3652751.2368613081,-17500.0,15133.299528979949,3887.2255383823353,-4697.4243274025712,-4329.2094381063016,-2825.3401447139158,1448.0458992746992,11679.095273980156,10444.109976183538,-2752.2757404156459,2752.2757404156459,-10444.109976183538,20848.516997089631,0.0
683523.2936376977,3652751.2368613081,-17500.0,10997.711818363097,14.169222900089776,-7108.2022246890938,-2449.6496175831685,-141.61434114965809,653.75016004202405,9329.7270435212886,9007.4396275981144,-6094.75465078462,6094.75465078462,-9007.4396275981144,16297.174644253191,0.0
688523.2936376977,3652751.2368613081,-17500.0,7298.9193869742066,-2580.910309932834,-7759.0832810807697,-968.63692767146927,1339.797543789866,76.98620955044494,8129.2760924250706,7145.1799719189748,-7627.6240881142749,7627.6240881142749,-7145.1799719189748,14083.149969658718,0.0
693523.2936376977,3652751.2368613081,-17500.0,4209.7112682494762,-4121.9874078436806,-7439.3134244710518,102.90696501553536,2037.1979325931372,-288.04325308058208,7378.7131149586239,5249.7972308596054,-7980.3178028324983,7980.3178028324983,-5249.7972308596054,12922.451582276688,0.0
698523.2936376977,3652751.2368613081,-17500.0,1775.5671361665584,-4878.1228660574507,-6663.0598574033374,814.57774861171481,2257.741648209033,-486.12943527200804,6771.0882050080781,3544.1003992724991,-7637.95948737454,7637.95948737454,-3544.1003992724991,12079.368114420902,0.0
703523.2936376977,3652751.2368613081,-17500.0,-45.217857006596624,-5097.9068150727362,-5736.2749163735607,1241.4124211616015,2210.9371729046416,-568.51789873051837,6200.4204340260403,2125.1564204519786,-6939.973494856833,6939.973494856833,-2125.1564204519786,11266.669810611817,0.0
708523.2936376977,3652751.2368613081,-17500.0,-1340.5060251685643,-4980.5665345300222,-4823.2836637721966,1459.8122594424919,2030.5051780332933,-578.48236630779218,5643.530019158281,1009.9585768151865,-6103.9274153917158,6103.9274153917158,-1009.9585768151865,10418.470014495668,0.0
713523.2936376977,3652751.2368613081,-17500.0,-2212.9244203112257,-4671.247053422655,-4000.5800538575149,1535.3578379486553,1796.5605131734578,-547.58487316367359,5104.9022344426394,172.46486124954117,-5257.5523134565929,5257.5523134565929,-172.46486124954117,9547.9123006619648,0.0
718523.2936376977,3652751.2368613081,-17500.0,-2760.6895235690804,-4268.2756498360386,-3294.655407134856,1518.9630365885128,1553.9311685859234,-496.75730988138002,4594.5374843655063,-431.30501651433542,-4468.2485958752623,4468.2485958752623,431.30501651433542,8685.6061743798091,0.0
723523.2936376977,3652751.2368613081,-17500.0,-3068.4079118935115,-3834.1697365023688,-2706.0604119101481,1447.5365387131369,1325.5500320296628,-438.86574510636677,4120.4735722057585,-848.60951268958684,-3765.8773333255658,3765.8773333255658,848.60951268958684,7858.300525388544,0.0
728523.2936376977,3652751.2368613081,-17500.0,-3204.3418083657457,-3406.1479783790423,-2223.5378664906775,1346.4675906469859,1121.4743595419789,-381.24167565381561,3687.159913374579,-1122.6670062482567,-3158.5688080284713,3158.5688080284713,1122.6670062482567,7083.8220107798597,0.0
733523.2936376977,3652751.2368613081,-17500.0,-3221.1693612857507,-3004.5658053430366,-1831.7370914130997,1232.4477398473748,944.60627325271696,-327.67394104823711,3295.8664265428747,-1289.8161734486575,-2642.8870449176707,2642.8870449176707,1289.8161734486575,6371.6869222029463,0.0
738523.2936376977,3652751.2368613081,-17500.0,-3158.2497045027321,-2639.0680179120009,-1515.0893213069319,1115.9621073031064,794.14904646165644,-279.80934631037053,2945.5928568533486,-1379.0881002660385,-2209.9766275247871,2209.9766275247871,1379.0881002660385,5725.1924148360386,0.0
743523.2936376977,3652751.2368613081,-17500.0,-3044.2622461645615,-2312.8104760581323,-1259.5286938918932,1003.2473563344166,667.60624814216442,-238.07136939193646,2633.930592349946,-1412.9007544129395,-1849.0716792609464,1849.0716792609464,1412.9007544129395,5143.4973562524801,0.0
543523.2936376977,3657751.2368613081,-17500.0,-3946.9719851203231,1524.6155064858574,-686.84836865542547,-998.06080598734422,384.30351772070236,-182.86362881821182,2431.1402024206827,-2721.5633762328016,1553.1847105663464,-1553.1847105663464,2721.5633762328016,4788.5551256820036,0.0
548523.2936376977,3657751.2368613081,-17500.0,-4332.4964355886741,1789.5616595737024,-824.49211323656289,-1142.8935678924986,467.18165769292136,-217.3326263445467,2729.2112533798213,-2970.877701213818,1751.8052951223269,-1751.8052951223269,2970.877701213818,5383.8314515994216,0.0
553523.2936376977,3657751.2368613081,-17500.0,-4751.4359087729672,2107.3436245178395,-999.26139576699484,-1310.4237361670585,570.48865562904155,-258.71855493495048,3072.5366577746236,-3234.2905784985032,1975.1991102570055,-1975.1991102570055,3234.2905784985032,6070.9601981268625,0.0
558523.2936376977,3657751.2368613081,-17500.0,-5201.1432226590814,2488.9583953471092,-1223.0879638816282,-1503.4302334180225,699.65130184696329,-308.17202948931134,3468.6662663401016,-3505.9193644853221,2223.9009938517584,-2223.9009938517584,3505.9193644853221,6865.549203606487,0.0
563523.2936376977,3657751.2368613081,-17500.0,-5675.0889673830952,2947.2664741427757,-1512.1835603502225,-1724.2900897668362,861.48478029521755,-366.75517936344949,3926.3649140153916,-3775.3995221868249,2496.3907912518594,-2496.3907912518594,3775.3995221868249,7785.5785677312115,0.0
568523.2936376977,3657751.2368613081,-17500.0,-6160.6299134902447,3496.8292145269543,-1888.6580939913504,-1974.3246550864155,1064.4124812776288,-435.14341160282231,4455.9642724028845,-4025.5486448274755,2787.4719477764979,-2787.4719477764979,4025.5486448274755,8851.4440013794429,0.0
573523.2936376977,3657751.2368613081,-17500.0,-6635.6946815072915,4153.2154404538924,-2382.719423777457,-2252.6966860668754,1318.5651513452246,-513.05982528204322,5070.5464527184386,-4228.9581743609851,3085.6390689679288,-3085.6390689679288,4228.9581743609851,10085.752639621716,0.0
578523.2936376977,3657751.2368613081,-17500.0,-7063.944947706761,4931.2803007696757,-3035.5974518433859,-2554.6340565362752,1635.5643831045836,-598.26523566555318,5788.3491310344607,-4343.1188313624207,3368.8694245565671,-3368.8694245565671,4343.1188313624207,11512.725449068845,0.0
583523.2936376977,3657751.2368613081,-17500.0,-7387.8007328439589,5841.4916355955047,-3903.2429910588739,-2868.6840384948423,2027.6048625251078,-684.84943479971548,6629.0408115939445,-4303.613972474488,3597.9786788689526,-3597.9786788689526,4303.613972474488,13156.957865757844,0.0
588523.2936376977,3657751.2368613081,-17500.0,-7518.6168981146902,6882.6625572133989,-5060.562745583632,-3172.6990500556135,2505.1397489401511,-760.54690028063567,7606.8865611846759,-4015.0141121676934,3706.3273075123534,-3706.3273075123534,4015.0141121676934,15041.283296060925,0.0
593523.2936376977,3657751.2368613081,-17500.0,-7323.1700749713627,8028.0738004154709,-6605.0607834465936,-3428.3439232366568,3071.9490463660463,-802.99088312316144,8735.071372541046,-3339.4965569573033,3584.2324636775247,-3584.2324636775247,3339.4965569573033,17183.345489789026,0.0
598523.2936376977,3657751.2368613081,-17500.0,-6605.8051571369961,9199.4487356488844,-8656.3667307035939,-3574.1930000935095,3715.5658790393318,-775.6767964967255,10027.064201981657,-2084.5316421263706,3056.2412874710617,-3056.2412874710617,2084.5316421263706,19590.320670767793,0.0
603523.2936376977,3657751.2368613081,-17500.0,-5086.8642328768638,10218.441025805078,-11341.668925004014,-3517.6478666975622,4389.6821116605288,-626.78186942206082,11495.991717288309,5.3643161448657111,1850.3679974219208,-1850.3679974219208,-5.3643161448657111,22250.639051042544,0.0
608523.2936376977,3657751.2368613081,-17500.0,-2384.630434405809,10717.184626161654,-14739.756036356144,-3124.73277479841,4982.2041959186399,-298.78891940693717,13156.800856068308,3236.8942855620344,-435.48724295636293,435.48724295636293,-3236.8942855620344,25121.77893768928,0.0
613523.2936376977,3657751.2368613081,-17500.0,1963.9247791711496,9982.7970752579695,-18711.785485993048,-2202.1478172187408,5254.0265614219079,237.88738849226939,15038.851497381467,7886.6147071318264,-4337.8283260286025,4337.8283260286025,-7886.6147071318264,28126.653084483467,0.0
618523.2936376977,3657751.2368613081,-17500.0,8312.9992158899313,6748.0281559452696,-22450.679005966598,-464.40121701221682,4710.636960765898,922.24073752105244,17244.719801478797,13904.828663667726,-10370.538570069482,10370.538570069482,-13904.828663667726,31264.760548567938,0.0
623523.2936376977,3657751.2368613081,-17500.0,16212.131053094883,-796.99113126534553,-23490.792810439878,2460.4650208619009,2346.1942278022429,1560.5062862199845,20176.675421299133,20085.579754598537,-18296.57537088756,18296.57537088756,-20085.579754598537,35296.757075359521,0.0
628523.2936376977,3657751.2368613081,-17500.0,22928.215329282855,-13664.730265668797,-16442.477479629866,6664.5179100455298,-3616.7569802656335,1943.1739081189348,25028.390984562175,22575.65131073635,-25133.458503945869,25133.458503945869,-22575.65131073635,43553.329908401858,0.0
633523.2936376977,3657751.2368613081,-17500.0,23010.046567392095,-27877.111528136022,5441.1045134972155,10731.242567340021,-14922.779041428868,2122.3958631926685,33585.548708543225,15009.778695324259,-22946.254022053603,22946.254022053603,-15009.778695324259,61015.854476531611,0.0
638523.2936376977,3657751.2368613081,-17500.0,14273.921485834964,-31914.783109478954,40276.570636778531,11092.516319404445,-29795.319641277198,2332.285617975635,45561.274553927789,-3857.8871723837842,-3989.1510882958032,3989.1510882958032,3857.8871723837842,84954.868683728302,0.0
643523.2936376977,3657751.2368613081,-17500.0,5224.5756931000842,-18654.080009815643,69509.837770897633,5906.3286068217612,-40948.032701343407,2556.839132584937,55214.382832643358,-21648.839211553146,24464.115446086398,-24464.115446086398,21648.839211553146,102420.75124172163,0.0
648523.2936376977,3657751.2368613081,-17500.0,4645.3481357371029,1825.6698991528303,76423.018761979198,-1342.4422539483298,-42757.270897176284,2829.6617579648159,56442.661810335274,-25747.918475024795,43618.101280587405,-43618.101280587405,25747.918475024795,103853.81439993976,0.0
653523.2936376977,3657751.2368613081,-17500.0,10015.607573351757,16217.92567908674,64524.192002965057,-6588.3886537538856,-37086.958361071258,3310.8540670070824,50117.108623738291,-18601.118175088974,46318.227875626886,-46318.227875626886,18601.118175088974,91799.877425107916,0.0
658523.2936376977,3657751.2368613081,-17500.0,15423.187903637756,21489.308801102532,45891.067962911555,-9013.7251764844204,-28584.018142466604,3761.5279368168876,40514.753719290005,-8558.1890960311976,38527.82519093751,-38527.82519093751,8558.1890960311976,74160.92817700404,0.0
663523.2936376977,3657751.2368613081,-17500.0,18380.246293998844,20546.33936807303,28356.759677228722,-9403.683114579484,-20225.941893769752,3801.679081001229,30903.966209379094,-268.65159599784056,27363.122098191765,-27363.122098191765,268.65159599784056,56714.361860918914,0.0
668523.2936376977,3657751.2368613081,-17500.0,18855.482586718168,16602.88803671499,14730.243444976966,-8563.7548608123325,-13206.953168408378,3351.6013521498644,22770.168169521636,5140.9973662921466,16746.856312020234,-16746.856312020234,-5140.9973662921466,41996.225008914109,0.0
673523.2936376977,3657751.2368613081,-17500.0,17524.281267730094,11760.800822328092,5279.3783613300648,-7076.6738244533663,-7822.7615609263303,2598.0987341786949,16534.824325445497,7961.9131479155531,8193.44471298186,-8193.44471298186,-7961.9131479155531,30638.749270219352,0.0
678523.2936376977,3657751.2368613081,-17500.0,15107.052030858868,7172.6173046851545,-667.93643372317513,-5366.3980879797382,-3977.7130550601632,1778.6943422914214,12180.971990110262,8853.6598457731161,1999.3914164938669,-1999.3914164938669,-8853.6598457731161,22459.770628898463,0.0
683523.2936376977,3657751.2368613081,-17500.0,12203.160080636419,3371.078754771715,-4006.1413199290259,-3722.4569837467288,-1413.2488239629288,1055.8690635801279,9415.2480021411611,8481.7911873379162,-2075.0379901040587,2075.0379901040587,-8481.7911873379162,16969.624027464106,0.0
688523.2936376977,3657751.2368613081,-17500.0,9254.2664901184326,512.33439569633788,-5564.1534276656021,-2309.6717137837754,174.25871665851884,498.75917451430371,7716.3732383991701,7400.6669121193481,-4466.4637225007518,4466.4637225007518,-7400.6669121193481,13541.934920605619,0.0
693523.2936376977,3657751.2368613081,-17500.0,6544.9062260665723,-1458.1590555708392,-6004.0387868724056,-1192.0569272477803,1067.9774694648636,111.72532874181066,6635.4035073135256,6019.4579065703065,-5637.2297080783401,5637.2297080783401,-6019.4579065703065,11497.635162499026,0.0
698523.2936376977,3657751.2368613081,-17500.0,4224.4154788538553,-2692.5915658426061,-5804.7483602449774,-366.43954707142757,1499.7919996151475,-132.53792175820783,5885.4538861683614,4606.5343284579922,-5991.6816024130367,5991.6816024130367,-4606.5343284579922,10235.803863164752,0.0
703523.2936376977,3657751.2368613081,-17500.0,2341.3471613382108,-3368.7457726112912,-5285.4662837681799,206.00211212761943,1643.0255336334428,-270.27869416570911,5303.2217932534832,3314.7038413364153,-5844.7377219520349,5844.7377219520349,-3314.7038413364153,9345.6804627498532,0.0
708523.2936376977,3657751.2368613081,-17500.0,879.72906566745985,-3650.45825506856,-4643.1737567344844,576.81271768534009,1618.3837952480708,-334.98646356207115,4806.6319357618213,2213.8032990215006,-5421.3533234369143,5421.3533234369143,-2213.8032990215006,8608.2754982551123,0.0
713523.2936376977,3657751.2368613081,-17500.0,-210.64253617234564,-3671.0685186886403,-3989.8584975077956,796.67555546050608,1505.1050030560334,-353.10248162279868,4359.6626755542511,1320.9767292870163,-4870.9482387164708,4870.9482387164708,-1320.9767292870163,7930.6186680593419,0.0
718523.2936376977,3657751.2368613081,-17500.0,-992.8702686957505,-3530.63309522999,-3382.7542614316085,909.01950304963884,1352.4647585730445,-343.63305263673959,3948.7965993022895,624.04512270624809,-4286.1327866598531,4286.1327866598531,-624.04512270624809,7283.3507667363438,0.0
723523.2936376977,3657751.2368613081,-17500.0,-1530.0256229206416,-3299.8364501971023,-2846.1548569765769,948.1286245821924,1189.4250360381843,-319.35778447972473,3569.960189756403,97.308721589528204,-3720.0115197905088,3720.0115197905088,-97.308721589528204,6663.2656648330612,0.0
728523.2936376977,3657751.2368613081,-17500.0,-1878.5372965006866,-3026.160337740916,-2385.8851955642444,939.60248263155563,1031.8585970620006,-288.40788645168686,3222.2306827440416,-288.90361859926679,-3199.8762665905892,3199.8762665905892,288.90361859926679,6075.2248011952279,0.0
733523.2936376977,3657751.2368613081,-17500.0,-2085.6693705994853,-2740.0018466756815,-1998.2937888682727,901.77868361962146,887.5737966800931,-255.68489355940758,2905.186086162943,-563.10412656690619,-2737.0743478532477,2737.0743478532477,563.10412656690619,5524.707068791975,0.0
738523.2936376977,3657751.2368613081,-17500.0,-2189.3227599508191,-2459.7944204700943,-1675.5268695941475,847.35391725874194,759.62899434499298,-223.95931053694838,2617.9986573263809,-750.31321495874226,-2333.6711574378623,2333.6711574378623,750.31321495874226,5015.3508775788287,0.0
743523.2936376977,3657751.2368613081,-17500.0,-2218.9714841774694,-2195.9212309967106,-1408.4428633629032,784.8506703661119,648.42997018914843,-194.654062596237,2359.2769335691837,-871.33796791721272,-1986.725692309351,1986.725692309351,871.33796791721272,4548.5840238407118,0.0
543523.2936376977,3662751.2368613081,-17500.0,-3493.8399506595797,1638.1653025458759,-840.83588756097811,-897.45335746516469,418.26492516757861,-166.76315726814545,2280.6975627297015,-2310.3159370020985,1435.5596523110573,-1435.5596523110573,2310.3159370020985,4502.5529648835309,0.0
548523.2936376977,3662751.2368613081,-17500.0,-3782.5294990674342,1901.8575638017821,-1007.7688983826376,-1016.3430959316447,503.67409162737334,-196.40651561536205,2543.9149467322986,-2473.3833014307047,1592.8903942887828,-1592.8903942887828,2473.3833014307047,5031.9033075474235,0.0
553523.2936376977,3662751.2368613081,-17500.0,-4081.5675324501849,2211.9487394049215,-1217.3091665679453,-1150.4692743695541,608.57301976613792,-231.40032918959369,2843.1115144231917,-2630.5527100876247,1761.5851072348573,-1761.5851072348573,2630.5527100876247,5635.5890153414703,0.0
558523.2936376977,3662751.2368613081,-17500.0,-4382.5896586765202,2575.758860917148,-1481.9507077484348,-1300.3229433246497,737.51110844715538,-272.37926938586276,3183.2345801261486,-2771.275904281445,1937.8098400042566,-1937.8098400042566,2771.275904281445,6324.0167394644195,0.0
563523.2936376977,3662751.2368613081,-17500.0,-4672.097643175236,3000.6748743843968,-1818.0619802679701,-1465.3019353189156,895.8893100371472,-319.74374726926476,3570.3947857532098,-2879.7008917317385,2114.3134055406967,-2114.3134055406967,2879.7008917317385,7108.3093715450623,0.0
568523.2936376977,3662751.2368613081,-17500.0,-4929.1703688343005,3493.1497732013668,-2246.9945874017576,-1642.8924821633475,1089.8828779563091,-373.35493888962674,4015.5369359911692,-2932.4863814291784,2278.4900370579571,-2278.4900370579571,2932.4863814291784,7999.8206570044204,0.0
573523.2936376977,3662751.2368613081,-17500.0,-5122.3333716503084,4056.8157190728207,-2796.3401199619843,-1827.4126018690577,1326.0941592023667,-432.00877063815858,4532.9787696352596,-2895.8970289690037,2409.4934560733495,-2409.4934560733495,2895.8970289690037,9009.266065820666,0.0
578523.2936376977,3662751.2368613081,-17500.0,-5205.4217911235983,4689.100372873012,-3501.1296353386547,-2008.1492100226023,1610.6766043818157,-492.57071134221985,5126.3546686738264,-2722.1284235636022,2474.0321848862714,-2474.0321848862714,2722.1284235636022,10145.310047864377,0.0
583523.2936376977,3662751.2368613081,-17500.0,-5112.3877871919231,5375.3664658843782,-4404.4333285092735,-2166.7134875416095,1947.4800944214248,-548.63014283791529,5798.8444943865743,-2345.0395335471617,2420.4372594015026,-2420.4372594015026,2345.0395335471617,11412.441582446372,0.0
588523.2936376977,3662751.2368613081,-17500.0,-4751.3798525824241,6079.0608462485043,-5556.0918299226778,-2273.5205879415926,2334.4722764597132,-588.57393121309019,6554.0452514843337,-1676.0637464919462,2170.7391405990893,-2170.7391405990893,1676.0637464919462,12808.09457440746,0.0
593523.2936376977,3662751.2368613081,-17500.0,-3999.2928820736652,6725.6324281588513,-7006.7790567924758,-2283.5493597048153,2757.2611597966402,-593.20628933485614,7393.7474482889656,-602.36806925940004,1611.1153629872881,-1611.1153629872881,602.36806925940004,14319.350974349958,0.0
598523.2936376977,3662751.2368613081,-17500.0,-2699.9870014997482,7177.278014988925,-8791.4682663095737,-2132.1027681023706,3178.0007009790629,-533.70207592196505,8318.0905537600411,1007.9175920401291,582.9612692954355,-582.9612692954355,-1007.9175920401291,15920.786084159336,0.0
603523.2936376977,3662751.2368613081,-17500.0,-673.74695020866898,7195.74046961979,-10890.143113067041,-1732.2481578770646,3517.3591420044031,-372.11283991970214,9329.7235317358682,3283.0331346375897,-1118.2512950844985,1118.2512950844985,-3283.0331346375897,17578.421061665453,0.0
608523.2936376977,3662751.2368613081,-17500.0,2244.9211741692088,6394.8388368874894,-13142.269480571762,-977.04357861755568,3626.7383294528058,-68.831598898778608,10447.99023869514,6286.4368064499004,-3717.1379832866014,3717.1379832866014,-6286.4368064499004,19274.915292600068,0.0
613523.2936376977,3662751.2368613081,-17500.0,6105.3406202031147,4204.1098064977123,-15075.954099104336,247.80102748485885,3248.1013050094007,397.49719888429428,11746.896322169758,9878.4985459960571,-7359.5179968459834,7359.5179968459834,-9878.4985459960571,21099.420108040624,0.0
618523.2936376977,3662751.2368613081,-17500.0,10615.42517537311,-71.80530963922854,-15614.915938452481,2027.0241195210851,1963.8304953963598,998.47087540506698,13438.274817795844,13449.275955511059,-11847.098260999517,11847.098260999517,-13449.275955511059,23498.349988581595,0.0
623523.2936376977,3662751.2368613081,-17500.0,14770.233461927206,-6872.7615644377593,-12746.856222737033,4316.4129062309512,-829.64662939908419,1635.6586561997783,15984.799601689372,15539.958429389084,-16092.386904505496,16092.386904505496,-15539.958429389084,27711.83435695049,0.0
628523.2936376977,3662751.2368613081,-17500.0,16626.562198994205,-15366.445809993404,-3702.6773978299088,6720.5044777065586,-5780.2678158082836,2177.9679073924121,20037.328062349286,13749.613922032284,-17453.459339101584,17453.459339101584,-13749.613922032284,35671.051628225505,0.0
633523.2936376977,3662751.2368613081,-17500.0,14211.486974254731,-22168.12186620542,13121.494510323495,8240.5275081424679,-12981.209425052046,2562.5897528852252,25861.793693402535,6045.8976044554274,-12134.310173871711,12134.310173871711,-6045.8976044554274,48038.722259593815,0.0
638523.2936376977,3662751.2368613081,-17500.0,8114.8369118937535,-22212.720332505174,34471.638777464206,7575.8194494428672,-21013.512631742211,2851.32453352419,32628.551528938187,-6099.9064607026303,1499.8180327796676,-1499.8180327796676,6099.9064607026303,61953.305110276058,0.0
643523.2936376977,3662751.2368613081,-17500.0,2573.7840358862072,-13594.498877358306,51697.615314481503,4371.583667393058,-27042.083236790259,3158.6074861699349,38036.18077623986,-16676.294662966913,18916.923526350223,-18916.923526350223,16676.294662966913,72044.085650908324,0.0
648523.2936376977,3662751.2368613081,-17500.0,1456.0966089771935,-681.19750951454034,57572.607212921146,-81.360181960069411,-28915.199712865349,3536.2845668878999,39581.863792036675,-20282.127109535832,31979.194174901277,-31979.194174901277,20282.127109535832,74473.722389764327,0.0
653523.2936376977,3662751.2368613081,-17500.0,4452.6501851052753,10237.158350432406,52279.579291665963,-4030.581074358252,-26786.055050572588,3894.4713894647339,37083.657293153046,-16994.892725437392,36326.871539392014,-36326.871539392014,16994.892725437392,69498.459761372316,0.0
658523.2936376977,3662751.2368613081,-17500.0,8811.0535970438086,16152.8454789269,40889.854360388592,-6561.073662533784,-22281.233638424972,4040.1656740080334,32063.711742167034,-10394.784583704186,33287.383496083276,-33287.383496083276,10394.784583704186,60050.825344036261,0.0
663523.2936376977,3662751.2368613081,-17500.0,12354.443188076892,17430.049286924073,28282.857391465914,-7616.3001091347815,-17023.349364734197,3841.3128315929903,26190.928142020035,-3682.9029139616941,26369.322872881577,-26369.322872881577,3682.9029139616941,49159.085032770367,0.0
668523.2936376977,3662751.2368613081,-17500.0,14247.188640078428,15688.328812648782,17218.221627925661,-7522.6996598763899,-12053.423461115101,3325.6679983427057,20578.429802293598,1563.2455187423438,18477.964539451266,-18477.964539451266,-1563.2455187423438,38788.579671923268,0.0
673523.2936376977,3662751.2368613081,-17500.0,14517.459659818342,12477.813656741182,8697.0168404309024,-6689.8749600358069,-7879.5668163338414,2631.8204212338733,15795.148432734894,4954.2042940723832,11284.301314574175,-11284.301314574175,-4954.2042940723832,29892.805032357035,0.0
678523.2936376977,3662751.2368613081,-17500.0,13553.801700178656,8890.7313335610306,2738.0727986517727,-5486.5710792742721,-4655.9879793380796,1911.5066855393927,12071.639159929542,6685.0811888504441,5503.0912649564625,-5503.0912649564625,-6685.0811888504441,22783.337945985473,0.0
683523.2936376977,3662751.2368613081,-17500.0,11822.092819421219,5569.5444166386451,-1068.1316266009374,-4191.9057499849896,-2333.3088953801789,1270.4380606936147,9391.4994591785762,7161.4446443369197,1273.0860094047057,-1273.0860094047057,-7161.4446443369197,17423.85703511292,0.0
688523.2936376977,3662751.2368613081,-17500.0,9733.8190084153175,2818.6781779811176,-3249.7925816505049,-2984.9941451237946,-765.1221140977168,757.61084770606919,7532.5764191888265,6809.1120891415239,-1563.1308400744301,1563.1308400744301,-6809.1120891415239,13598.695829256638,0.0
693523.2936376977,3662751.2368613081,-17500.0,7596.4973244385465,721.49708012536007,-4302.0344183604302,-1958.2809668710393,222.80334720616983,379.69715077838754,6249.425701393111,5988.4436487345902,-3282.0478766955398,3282.0478766955398,-5988.4436487345902,11000.142161504034,0.0
698523.2936376977,3662751.2368613081,-17500.0,5608.3408851637159,-764.47735003846572,-4625.9940987033697,-1141.5236810320489,793.29366431034339,120.15289253572786,5350.9640727389251,4966.1663598417999,-4176.7964310231637,4176.7964310231637,-4966.1663598417999,9286.781786290725,0.0
703523.2936376977,3662751.2368613081,-17500.0,3875.2170148275341,-1739.5832479285987,-4517.2340006000495,-526.14204989648624,1080.3199262004682,-46.117730737775851,4696.6432693156949,3918.2458163544288,-4505.511288388805,4505.511288388805,-3918.2458163544288,8143.1375951868113,0.0
708523.2936376977,3662751.2368613081,-17500.0,2435.625850052174,-2319.1421700073029,-4177.9729367415557,-84.491898406713929,1185.2134916721166,-144.18309906903403,4191.0291127404689,2947.0296490343521,-4472.1999974333303,4472.1999974333303,-2947.0296490343521,7328.311723030768,0.0
713523.2936376977,3662751.2368613081,-17500.0,1284.9748931239494,-2610.2198033612144,-3737.749304539976,217.29082811431851,1179.9621269763002,-195.21642178326613,3775.546885097458,2102.0322047775962,-4226.1596078298226,4226.1596078298226,-2102.0322047775962,6688.9798923893741,0.0
718523.2936376977,3662751.2368613081,-17500.0,394.98853670803601,-2701.7204336133436,-3274.1672661379848,411.97931128841947,1113.1625191795074,-215.46784498167187,3417.3239219925463,1398.6016169957247,-3870.0732327620526,3870.0732327620526,-1398.6016169957247,6141.6573389893711,0.0
723523.2936376977,3662751.2368613081,-17500.0,-272.7397913479989,-2662.3475442210533,-2830.0963233401162,527.85220964147732,1016.1546288780755,-216.63220318879226,3099.0867981278475,832.24466199011567,-3470.6830784155354,3470.6830784155354,-832.24466199011567,5646.6437371190586,0.0
728523.2936376977,3662751.2368613081,-17500.0,-758.3288978108294,-2542.4874654756381,-2426.4596511964196,587.66956437994861,908.23823718751271,-206.72756705876932,2812.0525699752516,388.48552927164428,-3068.8675261565836,3068.8675261565836,-388.48552927164428,5187.538101583481,0.0
733523.2936376977,3662751.2368613081,-17500.0,-1099.0137973476817,-2377.568409320098,-2071.0625359627825,608.9036107281164,800.67247892192677,-191.03101749170429,2551.6525400188179,49.058551416689625,-2687.859081957683,2687.859081957683,-49.058551416689625,4758.7739696873941,0.0
738523.2936376977,3662751.2368613081,-17500.0,-1327.0829234698749,-2191.5765810950925,-1764.3539207897918,604.50863258989989,699.54541412636559,-172.88240057716342,2315.2242687563403,-204.54341703886689,-2339.3920151753109,2339.3920151753109,204.54341703886689,4359.0698937057196,0.0
543523.2936376977,3667751.2368613081,-17500.0,-3023.8948324161247,1687.571909904299,-982.6522700630527,-792.02110571859441,437.59672793737991,-149.74798629157141,2116.4175413226467,-1895.4269022795436,1276.8615056625042,-1276.8615056625042,1895.4269022795436,4190.5396140111734,0.0
548523.2936376977,3667751.2368613081,-17500.0,-3220.2443842962525,1935.5449843638005,-1172.0140267330107,-885.40898033337442,521.57529494682581,-174.54411709449522,2343.7027634537876,-1979.112942669421,1387.9347684736604,-1387.9347684736604,1979.112942669421,4651.9044142914772,0.0
553523.2936376977,3667751.2368613081,-17500.0,-3407.6256964427826,2220.2300155003359,-1406.392663696455,-987.32037522437554,622.9863803100161,-203.21891854208499,2598.2764827199262,-2041.1022985345021,1497.3943095079253,-1497.3943095079253,2041.1022985345021,5170.82163496873,0.0
558523.2936376977,3667751.2368613081,-17500.0,-3573.9811299062408,2544.7495996552284,-1697.5207445085584,-1096.4602614220196,745.21399805610156,-235.96948563710177,2884.6829469725258,-2068.2618555652871,1597.9413836138565,-1597.9413836138565,2068.2618555652871,5753.2371146113455,0.0
563523.2936376977,3667751.2368613081,-17500.0,-3701.8747978758392,2910.6375448801004,-2060.0509259221394,-1210.0428710631963,891.92428977040242,-272.66080790780973,3215.8691634855768,-2042.3119649832533,1678.1669409241063,-1678.1669409241063,2042.3119649832533,6404.6514068463739,0.0
568523.2936376977,3667751.2368613081,-17500.0,-3766.6222074774096,3316.2693851389545,-2511.9645443443842,-1322.971118178958,1066.7365999963013,-312.53667727882259,3594.6867171788349,-1938.2209780643518,1720.7184955688961,-1720.7184955688961,1938.2209780643518,7129.421041456093,0.0
573523.2936376977,3667751.2368613081,-17500.0,-3734.0152813576333,3754.3055521587271,-3074.6790580625993,-1426.6723531648136,1272.5382127443113,-353.75857529787424,4019.7561568548595,-1722.3818129257475,1699.8180744942611,-1699.8180744942611,1722.3818129257475,7929.7419264007076,0.0
578523.2936376977,3667751.2368613081,-17500.0,-3557.7919572452761,4207.6376802754703,-3772.3923664245481,-1507.5140407126019,1510.1829419845972,-392.7023934585871,4492.6853508156046,-1350.8504227459202,1578.0626954964437,-1578.0626954964437,1350.8504227459202,8804.2871742652442,0.0
583523.2936376977,3667751.2368613081,-17500.0,-3177.3244542268276,4643.1619094071129,-4629.7654866447383,-1544.7853384399309,1776.169847468763,-422.9502227952546,5014.384164193677,-768.3409880797642,1302.6538989413887,-1302.6538989413887,768.3409880797642,9746.6409223612663,0.0
588523.2936376977,3667751.2368613081,-17500.0,-2516.625640451362,5002.5876060597093,-5666.2558907988659,-1508.3939522785649,2058.7072123682269,-433.97890919535615,5584.4990859921754,90.547827998150979,801.73983921484137,-801.73983921484137,-90.547827998150979,10744.086124010542,0.0
593523.2936376977,3667751.2368613081,-17500.0,-1486.9487313748957,5189.6621786121568,-6884.0531545870463,-1356.7938862830035,2331.3710525446322,-409.74476619927555,6202.3006877166918,1294.9904813590988,-17.223906425399719,17.223906425399719,-1294.9904813590988,11778.336440713678,0.0
598523.2936376977,3667751.2368613081,-17500.0,2.7007192805360503,5054.2652275858354,-8244.4599084231359,-1036.3510209000235,2543.5046053180913,-327.80995491950449,6870.376045344321,2901.2744814192361,-1262.66327140357,1262.66327140357,-2901.2744814192361,12832.233999789049,0.0
603523.2936376977,3667751.2368613081,-17500.0,2019.7054239610318,4377.0842761981958,-9624.752459882131,-484.45152143685021,2606.8537612290038,-160.42303819662092,7604.3398215784209,4917.3530727404923,-3038.4480418529056,3038.4480418529056,-4917.3530727404923,13911.422830578387,0.0
608523.2936376977,3667751.2368613081,-17500.0,4555.4347719965463,2867.0020161865614,-10745.925054584179,359.79578357855831,2379.3835959337398,120.17431786997244,8453.6713637310822,7237.1030152090934,-5390.8573092648439,5390.8573092648439,-7237.1030152090934,15098.658592574877,0.0
613523.2936376977,3667751.2368613081,-17500.0,7434.7157147216976,201.41200621390016,-11068.388929969526,1531.6244159109629,1651.0712153499073,530.15386091605649,9536.8885045993775,9535.6567926782245,-8197.1833825326776,8197.1833825326776,-9535.6567926782245,16661.916285234693,0.0
618523.2936376977,3667751.2368613081,-17500.0,10193.111809864839,-3830.9923962323478,-9688.3112865234907,2996.4291733260734,145.56346962313231,1057.9087994560596,11075.802563993577,11143.530483075314,-10974.737931017162,10974.737931017162,-11143.530483075314,19186.738128743073,0.0
623523.2936376977,3667751.2368613081,-17500.0,11997.309594502914,-9011.8390989909694,-5367.8188887764409,4581.4751564517437,-2429.9524293335103,1653.7509057946222,13366.137381439959,11002.365219557201,-12653.98498917002,12653.98498917002,-11002.365219557201,23521.12136094119,0.0
628523.2936376977,3667751.2368613081,-17500.0,11824.587310272485,-14239.219029947222,3012.1030307450951,5904.2569666796489,-6232.6698861530886,2242.7094901916512,16600.445889688079,7956.6066912490396,-11560.482185196946,11560.482185196946,-7956.6066912490396,30239.336344264029,0.0
633523.2936376977,3667751.2368613081,-17500.0,9156.6982280324628,-17372.191753844581,15346.658505226307,6389.7951308919637,-11009.212697714702,2763.5103359677555,20598.950384684242,1638.1422258202692,-6100.6712990097358,6100.6712990097358,-1638.1422258202692,38861.779628124539,0.0
638523.2936376977,3667751.2368613081,-17500.0,4898.0986819249447,-16161.650727833963,29152.062283974134,5522.9422520610306,-15872.940440672561,3200.6112976694894,24726.792425240565,-6471.9011695469799,3704.4297160736478,-3704.4297160736478,6471.9011695469799,47573.766530154127,0.0
643523.2936376977,3667751.2368613081,-17500.0,1289.0547228386683,-10151.541085551915,40077.587107288811,3276.5778852291951,-19526.424004196655,3567.8904790795268,27992.17145377343,-13265.623334379981,15181.155222753498,-15181.155222753498,13265.623334379981,53912.555056661295,0.0
648523.2936376977,3667751.2368613081,-17500.0,247.52486129230107,-1511.6853041381144,44613.98460619519,266.29300262734586,-20986.521576682917,3855.3979255650947,29285.437355629685,-16107.028628301763,24334.390092214948,-24334.390092214948,16107.028628301763,56122.201669258691,0.0
653523.2936376977,3667751.2368613081,-17500.0,1917.2790727733518,6544.2670628495571,42338.829414266263,-2632.0556292103715,-20138.990692286578,4001.5789267976884,28302.210237489679,-14650.564307401142,28582.935747331667,-28582.935747331667,14650.564307401142,54037.002964659347,0.0
658523.2936376977,3667751.2368613081,-17500.0,5030.6366119239538,11892.259730516584,35411.860025526919,-4781.7770763278868,-17601.473464828003,3930.4970720283914,25581.245422308897,-10447.6912796201,27909.248752528067,-27909.248752528067,10447.6912796201,48784.85352216012,0.0
663523.2936376977,3667751.2368613081,-17500.0,8148.6657974077543,14101.168981889909,26617.202668261612,-5957.4913671998893,-14222.747611491526,3616.3807643840009,21941.863196258601,-5424.4517475945795,23896.973133918586,-23896.973133918586,5424.4517475945795,41895.0688507737,0.0
668523.2936376977,3667751.2368613081,-17500.0,10382.256546330127,13805.83005321465,18045.720990254184,-6242.5371453133257,-10716.832574269907,3107.9911139772903,18093.64595242856,-925.01839252546233,18376.702033248403,-18376.702033248403,925.01839252546233,34650.423389065494,0.0
673523.2936376977,3667751.2368613081,-17500.0,11442.003863410246,11957.249722627548,10814.709624997728,-5868.6162011459191,-7541.8773094717872,2499.7775167424888,14517.499379353674,2430.4804529711992,12724.801244535316,-12724.801244535316,-2430.4804529711992,27886.137671269615,0.0
678523.2936376977,3667751.2368613081,-17500.0,11425.810989343414,9401.4647703275514,5293.7079919503376,-5097.0284453500417,-4919.8709555476235,1887.1307092396862,11492.726215878733,4535.938716173403,7739.3094478869516,-7739.3094478869516,-4535.938716173403,22041.189754159244,0.0
683523.2936376977,3667751.2368613081,-17500.0,10606.824275032752,6738.447572376178,1412.5383454653813,-4152.2634646536399,-2903.3503800187787,1337.9254145198795,9118.2365027911583,5559.6502258747987,3758.7867762976853,-3758.7867762976853,-5559.6502258747987,17275.957468383796,0.0
688523.2936376977,3667751.2368613081,-17500.0,9292.6667453388382,4323.95658726076,-1101.5314696652501,-3195.8679701965661,-1444.1510446918155,886.12530894403903,7326.6236448427344,5773.2194624791882,826.00319897536701,-826.00319897536701,-5773.2194624791882,13576.349735332757,0.0
693523.2936376977,3667751.2368613081,-17500.0,7751.0018166188675,2324.1776292897243,-2576.1558237886702,-2326.0028965125985,-447.42692955760657,538.66761720090267,5997.5421631514891,5451.6748622471323,-1175.4049266616075,1175.4049266616075,-5451.6748622471323,10826.905525326134,0.0
698523.2936376977,3667751.2368613081,-17500.0,6180.9438930016522,779.07615330901911,-3315.7402460248654,-1589.8190746616283,192.65443850567632,286.10511531445968,5021.0521073962836,4825.5283607246993,-2426.2516191524392,2426.2516191524392,-4825.5283607246993,8858.301877653983,0.0
703523.2936376977,3667751.2368613081,-17500.0,4711.5248240142319,-343.79251399701803,-3568.7866047428929,-999.40357113039488,573.11772079431546,111.7066742904548,4301.9797642418025,4065.6430312667526,-3114.6432510943623,3114.6432510943623,-4065.6430312667526,7481.333551583105,0.0
708523.2936376977,3667751.2368613081,-17500.0,3413.3323729504928,-1110.4082601059101,-3521.5947774555934,-546.09947557477699,773.74488932864176,-2.5768975991133325,3762.0466907388804,3286.15560521728,-3406.7521282370808,3406.7521282370808,-3286.15560521728,6516.310740572304,0.0
713523.2936376977,3667751.2368613081,-17500.0,2314.2862640486437,-1595.6437117903158,-3304.9915619280064,-211.18549270157419,855.54446231313864,-72.971195320469604,3342.2318200049813,2555.3086523951051,-3435.8635806162511,3435.8635806162511,-2555.3086523951051,5816.2291941936828,0.0
718523.2936376977,3667751.2368613081,-17500.0,1414.5238705717629,-1869.7074483504764,-3005.79632035751,27.187001088941123,862.71628768774917,-112.6697366095563,3001.8340341469438,1908.0354568438897,-3301.8685763608901,3301.8685763608901,-1908.0354568438897,5276.6788392257122,0.0
723523.2936376977,3667751.2368613081,-17500.0,698.24555702131101,-1992.1021739147727,-2678.5177157150879,190.05354460372556,825.91267525708463,-131.72256558467225,2714.7954759121039,1357.1732907034584,-3075.7172331951442,3075.7172331951442,-1357.1732907034584,4832.0741835710505,0.0
728523.2936376977,3667751.2368613081,-17500.0,142.10925970797183,-2010.0877886642788,-2355.2839019485145,295.76565340867563,765.58552593217985,-137.43405507245868,2465.2865794312247,902.1622530810298,-2805.4749051627123,2805.4749051627123,-902.1622530810298,4445.1256245666063,0.0
733523.2936376977,3667751.2368613081,-17500.0,-279.37528012207383,-1959.4893470668158,-2053.4545664622697,359.38775495570155,694.87316373334386,-134.92193880610924,2243.9465405768683,535.18310877581007,-2522.202124633417,2522.202124633417,-535.18310877581007,4096.2563497395558,0.0
738523.2936376977,3667751.2368613081,-17500.0,-590.71740273810929,-1866.4870745283647,-1781.0756789268514,392.7823569465221,621.86602458172206,-127.66196693256964,2045.2193775457697,245.16718668249848,-2244.9053058090776,2244.9053058090776,-245.16718668249848,3775.8287869264377,0.0
548523.2936376977,3672751.2368613081,-17500.0,-2670.7469170023701,1900.1881731246867,-1306.9169873331678,-755.71419408967415,522.66619248383199,-152.64180245583401,2136.2700656363786,-1510.0622718955103,1155.5834352851814,-1155.5834352851814,1510.0622718955103,4258.1234457547753,0.0
553523.2936376977,3672751.2368613081,-17500.0,-2760.4686024169432,2146.70179647345,-1554.4762624018754,-828.19068438984573,616.59046739713904,-175.3661113768284,2352.2166203153574,-1492.6333450806878,1207.1233229100967,-1207.1233229100967,1492.6333450806878,4694.9755337531878,0.0
558523.2936376977,3672751.2368613081,-17500.0,-2812.9179816429651,2417.6723264734369,-1856.1699858999032,-901.05469479875592,727.27549400276655,-200.52188620493777,2602.925651989925,-1428.8566928136781,1236.4052344200757,-1236.4052344200757,1428.8566928136781,5176.7249699587919,0.0
563523.2936376977,3672751.2368613081,-17500.0,-2809.568152886593,2709.3939183383131,-2223.5138163375555,-970.17637135364976,856.62204797931759,-227.58471580512153,2882.7969061553504,-1300.7326297211514,1229.8260786562494,-1229.8260786562494,1300.7326297211514,5704.77802833635,0.0
568523.2936376977,3672751.2368613081,-17500.0,-2725.8797529668659,3013.5642314643737,-2669.3759954493894,-1029.1049633954167,1005.8111442119819,-255.39237849435037,3192.031537383145,-1085.1650379417451,1168.2574892562184,-1168.2574892562184,1085.1650379417451,6278.8339765029004,0.0
573523.2936376977,3672751.2368613081,-17500.0,-2530.1476006146772,3314.6470571889231,-3207.045104371176,-1068.1508817765759,1174.4367233357091,-281.76361493595846,3531.3828630791486,-753.37004629547266,1025.3871922428195,-1025.3871922428195,753.37004629547266,6896.1398910051566,0.0
578523.2936376977,3672751.2368613081,-17500.0,-2182.7536914557472,3586.0977386586424,-3848.1044569084379,-1073.2665530577628,1359.0544570521001,-302.95701226184792,3900.9697748346057,-271.00243669095994,766.01587983019112,-766.01587983019112,271.00243669095994,7550.8033263201951,0.0
583523.2936376977,3672751.2368613081,-17500.0,-1636.5590168897918,3785.2184297188087,-4598.1773355169162,-1024.8365368189009,1550.8559926504129,-312.95598813845692,4300.3733698105998,400.10653490658103,344.85835830455574,-344.85835830455574,-400.10653490658103,8233.6555315942405,0.0
588523.2936376977,3672751.2368613081,-17500.0,-839.75210404909751,3846.6683904192596,-5449.0458983352519,-896.68477496783214,1732.1149918613869,-302.6305646705585,4729.594485501083,1297.0535510115274,-292.94408555637489,292.94408555637489,-1297.0535510115274,8933.8239694974091,0.0
593523.2936376977,3672751.2368613081,-17500.0,256.66453568604146,3675.3969743450116,-6364.9222378508821,-655.95923787899324,1871.0729050502018,-258.97422545876498,5191.7595011807707,2445.344220866828,-1207.2207882299913,1207.2207882299913,-2445.344220866828,9644.4888771330643,0.0
598523.2936376977,3672751.2368613081,-17500.0,1683.5085103979632,3141.5238294338683,-7260.059597404831,-265.11876937234257,1915.215816163435,-164.88755882023602,5699.171396791372,3839.2809116572726,-2449.8266887055606,2449.8266887055606,-3839.2809116572726,10377.632536283571,0.0
603523.2936376977,3672751.2368613081,-17500.0,3426.2703017298854,2083.1598305095845,-7965.2615411037823,312.03912627666926,1783.7010192658029,-0.35562583070406584,6284.6047387420303,5409.4783087491687,-4036.6697866622476,4036.6697866622476,-5409.4783087491687,11195.07849334502,0.0
608523.2936376977,3672751.2368613081,-17500.0,5383.7059642523209,329.18248569014088,-8184.7453627756631,1097.7420147936909,1361.5374355863041,253.85871860388008,7017.8586068536333,6976.3217724490314,-5896.3612296918582,5896.3612296918582,-6976.3217724490314,12260.329114474836,0.0
613523.2936376977,3672751.2368613081,-17500.0,7317.3128265754876,-2238.5408995761723,-7457.1178127430385,2078.6710670906809,501.4677938217709,609.30693215838357,8019.2321242673343,8198.4122493401319,-7790.8601460973869,7790.8601460973869,-8198.4122493401319,13889.722895644471,0.0
618523.2936376977,3672751.2368613081,-17500.0,8817.3930055465989,-5562.506963487629,-5161.9695827325686,3175.8332373827811,-955.58902131651053,1061.0066931287565,9446.2401658261115,8549.9938091676431,-9223.5070490807175,9223.5070490807175,-8549.9938091676431,16521.998151268199,0.0
623523.2936376977,3672751.2368613081,-17500.0,9347.3639626887798,-9232.7603830013777,-654.09185797193607,4214.3056436914376,-3126.7452452948228,1581.4172850818243,11426.469106535251,7401.0841205811284,-9400.9682782047548,9400.9682782047548,-7401.0841205811284,20518.542595964234,0.0
628523.2936376977,3672751.2368613081,-17500.0,8450.849099340161,-12351.490291443481,6384.6921771022489,4917.2516170086637,-5991.8438071363271,2123.8871045904079,13947.579455575704,4291.6043281733018,-7388.2955750044166,7388.2955750044166,-4291.6043281733018,25867.925322090974,0.0
633523.2936376977,3672751.2368613081,-17500.0,6124.2969619609066,-13663.055159437736,15425.680957172181,4964.7062931814689,-9283.9963873408124,2636.890997963972,16774.371835526839,-617.90126789407645,-2587.0905323753641,2587.0905323753641,617.90126789407645,31994.927222374961,0.0
638523.2936376977,3672751.2368613081,-17500.0,3105.0952891790325,-12136.284464761284,24790.844000561501,4138.4058789864375,-12457.195606926369,3078.6247936031264,19485.058769149142,-6231.695627480206,4610.5539428752354,-4610.5539428752354,6231.695627480206,37810.56742538877,0.0
643523.2936376977,3672751.2368613081,-17500.0,654.372751199356,-7740.0660349317068,32116.458593986084,2485.0099172750265,-14835.684753245279,3418.0778016032268,21594.091612120392,-10827.533993570867,12586.187422010933,-12586.187422010933,10827.533993570867,42060.590836075491,0.0
648523.2936376977,3672751.2368613081,-17500.0,-189.91374074702537,-1676.040672207813,35533.748716134636,350.00733281506479,-15909.358638632744,3624.6686239060541,22582.961526084826,-12989.191253793053,19174.642707963467,-19174.642707963467,12989.191253793053,43847.213987011441,0.0
653523.2936376977,3672751.2368613081,-17500.0,762.56658163405575,4283.9987794307017,34618.364252560175,-1778.4010593152511,-15558.876718781623,3665.6027297180476,22208.656296092966,-12379.851240311651,22818.148127163524,-22818.148127163524,12379.851240311651,42978.367258556922,0.0
658523.2936376977,3672751.2368613081,-17500.0,2909.143596150268,8746.5799301259831,30329.280422734009,-3488.8701133087775,-14044.261383906967,3521.2886980458734,20657.185771466735,-9697.591644359054,23193.335178194131,-23193.335178194131,9697.591644359054,39914.934318447966,0.0
663523.2936376977,3672751.2368613081,-17500.0,5371.5240804186105,11155.6184557221,24230.023235835957,-4570.8478943395048,-11819.943661415628,3204.3094234592081,18336.594238450725,-6059.9358529786514,20979.195336393695,-20979.195336393695,6059.9358529786514,35445.237350421514,0.0
668523.2936376977,3672751.2368613081,-17500.0,7446.6307646068244,11666.983947935843,17750.16931040668,-5011.2280187685583,-9341.6640243678739,2761.7100413187018,15676.75495371651,-2441.5128752514902,17249.353844918685,-17249.353844918685,2441.5128752514902,30362.4022819284,0.0
673523.2936376977,3672751.2368613081,-17500.0,8770.3092300144344,10795.64691273515,11847.646611881552,-4924.4799891855482,-6955.9738768100506,2258.7011947236933,13027.653671164469,559.39808001911206,12994.636491005949,-12994.636491005949,-559.39808001911206,25287.460596109082,0.0
678523.2936376977,3672751.2368613081,-17500.0,9274.7649209491938,9120.3639595082295,6996.6344877499751,-4476.3998341237757,-4871.3694763327585,1757.4143971280519,10635.349692241603,2704.4438849001217,8915.6808461311975,-8915.6808461311975,-2704.4438849001217,20625.79056847711,0.0
683523.2936376977,3672751.2368613081,-17500.0,9075.4592238413934,7124.4602808858917,3315.7323648291213,-3829.3304864829101,-3176.9764431096532,1302.9456464279926,8630.2771871983568,4002.0721099217681,5405.9157781149424,-5405.9157781149424,-4002.0721099217681,16594.080943328652,0.0
688523.2936376977,3672751.2368613081,-17500.0,8366.2571316343619,5144.0333603173822,713.70070119295281,-3113.3848475454747,-1878.5443694395199,919.66316767728949,7019.5681565755749,4591.3062447520206,2618.4938715118788,-2618.4938715118788,-4591.3062447520206,13269.416760663482,0.0
693523.2936376977,3672751.2368613081,-17500.0,7348.3677405866638,3375.7566998832131,-996.55128816311264,-2417.896281183364,-933.91030857021622,614.51086180850825,5754.1106488560008,4656.3085645709762,550.52337291419781,-550.52337291419781,-4656.3085645709762,10636.326631837059,0.0
698523.2936376977,3672751.2368613081,-17500.0,6192.4587374081621,1908.768067509905,-2024.4863696330858,-1794.917164739041,-280.27416075626513,382.91231356252905,4777.4609758982197,4375.1183899113221,-885.10065211541064,885.10065211541064,-4375.1183899113221,8623.4171178496999,0.0
703523.2936376977,3672751.2368613081,-17500.0,5024.8551496480432,760.41585128124973,-2562.0228556258126,-1267.8941948207023,148.1511628114836,214.3458926287698,4032.9713215955644,3895.1206197395763,-1808.7850615816965,1808.7850615816965,-3895.1206197395763,7129.3885061818028,0.0
708523.2936376977,3672751.2368613081,-17500.0,3928.1489594676909,-93.447445997004067,-2766.687356056857,-841.09090182385989,410.57400552744036,96.389805606623611,3466.8268546718714,3325.9421185945002,-2343.042188747203,2343.042188747203,-3325.9421185945002,6041.8890425246091,0.0
713523.2936376977,3672751.2368613081,-17500.0,2948.709462668663,-696.47552043657868,-2758.512678900172,-507.54819904124832,555.70353699364989,17.139206531064588,3031.9137741647178,2741.9604425443958,-2596.3366326033483,2596.3366326033483,-2741.9604425443958,5252.6027169704248,0.0
718523.2936376977,3672751.2368613081,-17500.0,2106.2196433605013,-1097.7116372545302,-2623.883389711084,-254.88597524765132,621.21700014189162,-33.635234966761601,2690.3894863036421,2188.9601710828024,-2656.902030800677,2656.902030800677,-2188.9601710828024,4668.9039756764068,0.0
723523.2936376977,3672751.2368613081,-17500.0,1402.5748709547422,-1343.6234072413454,-2422.011652467188,-69.06460690883506,634.93914769606329,-64.137422590435705,2414.155121045932,1691.6469188350275,-2592.3498269613401,2592.3498269613401,-1691.6469188350275,4220.0549120385831,0.0
728523.2936376977,3672751.2368613081,-17500.0,829.02234174912542,-1474.3614346446418,-2191.6428840153162,63.447256135469416,616.66153130013868,-80.637190314013893,2183.6555809205702,1260.3574617714871,-2452.1166063972082,2452.1166063972082,-1260.3574617714871,3857.2318921759756,0.0
733523.2936376977,3672751.2368613081,-17500.0,371.3359299442584,-1522.6177760547664,-1956.8850535090926,154.60612758492212,580.00641202553788,-87.756136590705836,1985.9155730311154,896.35451094958717,-2270.9177295711424,2270.9177295711424,-896.35451094958717,3549.4417652090979,0.0
548523.2936376977,3677751.2368613081,-17500.0,-2153.6145285256803,1808.5151777652325,-1406.1002744566247,-631.79103270416601,509.50693883345178,-131.4416177084691,1936.7433870840216,-1082.4215501319559,913.03664508279087,-913.03664508279087,1082.4215501319559,3863.2642803783588,0.0
553523.2936376977,3677751.2368613081,-17500.0,-2162.8901843538988,2009.3225642735297,-1655.0835985022447,-678.63801167122051,593.16610692236668,-148.79217002212391,2127.2386027382536,-1003.5055372495501,912.45071012595781,-912.45071012595781,1003.5055372495501,4223.861308032835,0.0
558523.2936376977,3677751.2368613081,-17500.0,-2125.2972400893923,2219.6819517373092,-1952.0868124454537,-720.81556984901965,689.23863119464431,-167.24020301938094,2336.4442190193276,-873.12572700654459,880.26283584452449,-880.26283584452449,873.12572700654459,4614.0732705420323,0.0
563523.2936376977,3677751.2368613081,-17500.0,-2023.4426504200994,2431.8933468230416,-2304.7122617678529,-753.59869204861627,798.0501285710277,-186.01453978620557,2564.8970926441666,-675.53262061950056,802.55639246270982,-802.55639246270982,675.53262061950056,5032.7694251424009,0.0
568523.2936376977,3677751.2368613081,-17500.0,-1835.6905245305527,2633.098513701615,-2720.0270802223572,-770.20336793320052,918.75013687467253,-203.74102208361759,2812.8878159355354,-391.89809925511531,661.0098719974028,-661.0098719974028,391.89809925511531,5477.2320928410645,0.0
573523.2936376977,3677751.2368613081,-17500.0,-1536.0466378314009,2803.0226102825245,-3202.9106842501296,-761.17076814449217,1048.413432985411,-218.14500548921413,3080.3570779994284,-0.76929951271299046,432.18171164576336,-432.18171164576336,0.76929951271299046,5942.939135220242,0.0
578523.2936376977,3677751.2368613081,-17500.0,-1094.8488059619538,2911.093250128285,-3753.1045465093271,-713.73569304563659,1180.6680643611796,-225.65865456509832,3367.1412788130242,520.42293558510676,87.279036664919573,-87.279036664919573,-520.42293558510676,6423.8558278523624,0.0
583523.2936376977,3677751.2368613081,-17500.0,-480.98093373910154,2913.0848653982616,-4360.2284966284806,-611.35196875497684,1303.689129063529,-220.94560446923296,3673.7688445081781,1191.9962603260451,-406.88763123507476,406.88763123507476,-1191.9962603260451,6913.9844856523332,0.0
588523.2936376977,3677751.2368613081,-17500.0,333.30321247546459,2747.8715069103059,-4995.7931447133697,-433.7212667424435,1397.4293303218512,-196.40945534522211,4003.319476477026,2025.6194037430673,-1084.5218167469729,1084.5218167469729,-2025.6194037430673,7411.6216655389835,0.0
593523.2936376977,3677751.2368613081,-17500.0,1363.5072356439557,2335.726321889686,-5601.1570066672157,-157.9304712747701,1430.108567922262,-141.85339203569194,4365.1098914408349,3013.4154151427706,-1973.0377045300588,1973.0377045300588,-3013.4154151427706,7928.7853605594883,0.0
598523.2936376977,3677751.2368613081,-17500.0,2598.4763604813015,1581.1003056257946,-6070.8525976325718,238.37435003390149,1354.377708587989,-44.612294112806488,4780.9458184914529,4111.2236766694696,-3078.0265606284302,3078.0265606284302,-4111.2236766694696,8508.9656047062108,0.0
603523.2936376977,3677751.2368613081,-17500.0,3979.8900829757404,385.02539295850357,-6232.6084153005759,770.58726875104628,1104.3774958719941,109.35053794058847,5293.5251720543447,5216.0727406157321,-4357.922976289231,4357.922976289231,-5216.0727406157321,9253.8326920203144,0.0
608523.2936376977,3677751.2368613081,-17500.0,5378.3667063339326,-1325.403105615392,-5830.1483687784357,1436.4623347782663,596.2624468045376,332.84322238122832,5972.8550839101008,6142.0477956940213,-5687.1856171611616,5687.1856171611616,-6142.0477956940213,10347.088015266174,0.0
613523.2936376977,3677751.2368613081,-17500.0,6576.1372390245524,-3543.0601212422621,-4524.0283043306299,2201.2655149356151,-263.4727130979,633.14519496982768,6910.6481068290022,6607.3579303382421,-6813.9016899049357,6813.9016899049357,-6607.3579303382421,12040.324841769207,0.0
618523.2936376977,3677751.2368613081,-17500.0,7277.7651327826879,-6103.2390133493745,-1938.4146505302974,2981.9249670811705,-1556.2769723616436,1006.8111240259877,8191.727613734949,6258.228315433309,-7333.6925936347252,7333.6925936347252,-6258.228315433309,14565.671881342272,0.0
623523.2936376977,3677751.2368613081,-17500.0,7179.5757125925429,-8608.3652242852004,2212.3016865268587,3638.7118594346166,-3312.6450784425278,1435.8166335254261,9844.8785069448877,4763.7167956478952,-6725.1071564335944,6725.1071564335944,-4763.7167956478952,18002.420227907438,0.0
628523.2936376977,3677751.2368613081,-17500.0,6114.9261251909393,-10421.932816874432,7909.844332390112,3988.7113179091803,-5461.2429177759295,1887.8925019897433,11795.260747513179,1995.9483569730617,-4502.1556933721804,4502.1556933721804,-1995.9483569730617,22175.025404878157,0.0
633523.2936376977,3677751.2368613081,-17500.0,4230.4048099866413,-10820.383816286403,14610.59828007213,3854.1982793836155,-7789.355816062669,2321.9999153820277,13848.16856828147,-1764.5693028325452,-490.71889807451748,490.71889807451748,1764.5693028325452,26627.596225659712,0.0
638523.2936376977,3677751.2368613081,-17500.0,2057.6685588001133,-9319.0161466700174,21204.684683515025,3140.3651016114127,-9954.341206749019,2696.0842023364849,15730.220856515198,-5760.5076441410401,4899.2808644442102,-4899.2808644442102,5760.5076441410401,30694.895955419608,0.0
643523.2936376977,3677751.2368613081,-17500.0,343.63614786749559,-6004.9100338431444,26322.715191389187,1903.2022424767422,-11572.565879442578,2972.766304596285,17172.235758603947,-8981.0859002023044,10651.4388806691,-10651.4388806691,8981.0859002023044,33679.945162459459,0.0
648523.2936376977,3677751.2368613081,-17500.0,-313.09761459374528,-1597.5869525186447,28896.571956241511,353.65782743167614,-12356.303968879367,3122.3511766308384,17915.565055663337,-10611.33225852625,15502.983991100213,-15502.983991100213,10611.33225852625,35081.698902969685,0.0
653523.2936376977,3677751.2368613081,-17500.0,242.89458525693928,2862.4154846615988,28601.879077327896,-1217.2141357331282,-12217.354233456876,3126.6765271748786,17794.824321305641,-10395.378440140332,18485.443723414235,-18485.443723414235,10395.378440140332,34750.300771578433,0.0
658523.2936376977,3677751.2368613081,-17500.0,1713.6729423608349,6469.4068731739799,25884.149628993178,-2545.2987058408098,-11275.352260263771,2985.0736322567441,16867.24835812048,-8660.2564812876317,19266.11717031998,-19266.11717031998,8660.2564812876317,32886.076999176905,0.0
663523.2936376977,3677751.2368613081,-17500.0,3572.9256948381726,8740.5945925439246,21632.726579223996,-3468.6359292006205,-9782.5805799268273,2717.9955393086034,15342.79348254638,-6054.8040422524855,18117.564882851952,-18117.564882851952,6054.8040422524855,29911.738790370408,0.0
668523.2936376977,3677751.2368613081,-17500.0,5320.6505879102669,9633.5233136251736,16787.02385018532,-3944.0911115018421,-8024.6125214999338,2363.435354475142,13480.07515619217,-3241.4692203887062,15650.436306165084,-15650.436306165084,3241.4692203887062,26313.427525898882,0.0
673523.2936376977,3677751.2368613081,-17500.0,6627.9127052902704,9396.973870812024,12082.476286147221,-4020.3026474097278,-6245.9515232535387,1966.9387651022753,11519.190535121055,-707.711093865777,12531.828796085159,-12531.828796085159,707.711093865777,22524.07835724196,0.0
678523.2936376977,3677751.2368613081,-17500.0,7360.7278225683494,8395.6015096938627,7969.832608378726,-3795.1551151907006,-4615.9541827061976,1570.5740394598779,9652.579943372004,1282.7900607349143,9309.4873764149979,-9309.4873764149979,-1282.7900607349143,18868.30093241933,0.0
683523.2936376977,3677751.2368613081,-17500.0,7534.9975578106996,6984.060864517568,4646.6067162757945,-3378.3017168655178,-3226.9355700753431,1205.6255132804943,8005.1593478301302,2653.6541172005273,6349.2653663153869,-6349.2653663153869,-2653.6541172005273,15554.146628924864,0.0
688523.2936376977,3677751.2368613081,-17500.0,7252.9840018350224,5443.5447130597795,2131.8710478498697,-2867.0219093441669,-2109.6089778174396,890.37228266175669,6615.3740815349793,3450.6042843469386,3845.2508798367498,-3845.2508798367498,-3450.6042843469386,12689.85041729353,0.0
693523.2936376977,3677751.2368613081,-17500.0,6649.1718396071692,3964.8641126774896,341.59533877447984,-2335.2553194274724,-1253.653420334781,631.65510898744424,5472.0546656030792,3780.6909788918679,1861.3507497598098,-1861.3507497598098,-3780.6909788918679,10309.011446565002,0.0
698523.2936376977,3677751.2368613081,-17500.0,5854.4640970951623,2657.5465455304793,-853.36888997885262,-1832.0117946861446,-626.2910201037497,428.16151957957459,4551.0178381228652,3768.4320856161303,377.87917088634822,-377.87917088634822,-3768.4320856161303,8394.8934189842475,0.0
703523.2936376977,3677751.2368613081,-17500.0,4977.5585290615145,1569.3106570663008,-1589.7360220515961,-1384.9160061293694,-186.03733124014963,273.82811396187316,3822.1991531356302,3529.7177136023279,-669.44283535919794,669.44283535919794,-3529.7177136023279,6899.9760091695216,0.0
708523.2936376977,3677751.2368613081,-17500.0,4098.7401226980373,706.60191707318938,-1991.2472582875132,-1005.6422860453653,108.59613409883913,160.54540897386926,3252.456653054152,3159.6057367236058,-1361.8226638976353,1361.8226638976353,-3159.6057367236058,5760.2912412854457,0.0
713523.2936376977,3677751.2368613081,-17500.0,3271.0830942290472,51.787514405881531,-2160.0069606364168,-695.2806179436609,294.47316198423187,79.95488586720559,2808.9113889433729,2729.2033614905317,-1780.3154149580603,1780.3154149580603,-2729.2033614905317,4905.8300350117006,0.0
718523.2936376977,3677751.2368613081,-17500.0,2525.175772452591,-424.30236291871779,-2175.017210162142,-448.72652178639174,402.00458288262865,24.454483042236117,2461.7882767824672,2287.5696763959986,-1996.8589678447599,1996.8589678447599,-2287.5696763959986,4268.5519088730562,0.0
723523.2936376977,3677751.2368613081,-17500.0,1874.833359710115,-754.19464075124074,-2094.4363100793666,-257.85859330946693,454.99787955725918,-12.364532438125854,2186.1778993427242,1865.7801335259096,-2070.7539025487408,2070.7539025487408,-1865.7801335259096,3788.5077911354347,0.0
728523.2936376977,3677751.2368613081,-17500.0,1322.4124003276811,-969.0201956063712,-1959.3081452331071,-113.61762793158387,471.36136741514389,-35.632710264466112,1962.624675857825,1481.4245422128856,-2048.3708280003093,2048.3708280003093,-1481.4245422128856,3417.5318068767483,0.0
553523.2936376977,3682751.2368613081,-17500.0,-1629.4799198397504,1826.9296599842521,-1706.8649163474408,-542.47111345572534,556.86151572297717,-124.18275739845571,1912.6705825832919,-583.98084560221162,630.68138173957743,-630.68138173957743,583.98084560221162,3770.2148901712426,0.0
558523.2936376977,3682751.2368613081,-17500.0,-1525.7756283920864,1975.8146864982991,-1986.2226210953122,-559.94849364942525,636.87902564007311,-136.93702798764554,2083.9371846021522,-410.19995273157218,549.80964501703863,-549.80964501703863,410.19995273157218,4080.3643588088858,0.0
563523.2936376977,3682751.2368613081,-17500.0,-1356.545128216816,2111.0267669836148,-2308.6505563809665,-564.65152350451183,724.18093368402788,-148.87598745265907,2268.2065798906078,-172.71779259060247,419.37347421607717,-419.37347421607717,172.71779259060247,4406.1216483578564,0.0
568523.2936376977,3682751.2368613081,-17500.0,-1104.5548133292968,2217.3876800347439,-2675.6595370861264,-550.18972486283042,816.42970458229161,-158.57069398161528,2465.4189794575973,141.99892914273278,223.66916571815676,-223.66916571815676,-141.99892914273278,4744.2300833635381,0.0
573523.2936376977,3682751.2368613081,-17500.0,-750.80482978571854,2273.1151111353979,-3084.7292213489682,-508.18755609230965,909.06126706983309,-163.8388710248004,2675.6138725998312,547.49556493691216,-55.852351280595485,55.852351280595485,-547.49556493691216,5090.8510225918772,0.0
578523.2936376977,3682751.2368613081,-17500.0,-276.09220225127746,2248.05300796545,-3526.1746923311262,-428.05873980752386,994.13455125553742,-161.47761560102722,2899.5347026257814,1055.0983451900881,-439.70087981488609,439.70087981488609,-1055.0983451900881,5442.8411614726419,0.0
583523.2936376977,3682751.2368613081,-17500.0,335.96321406471804,2102.1360904242597,-3978.4297267878005,-297.06629211081616,1058.7968081770889,-146.97205697828051,3139.8733568859757,1670.0336574176606,-948.04224384999702,948.04224384999702,-1670.0336574176606,5800.7297831009791,0.0
588523.2936376977,3682751.2368613081,-17500.0,1093.7678837306735,1784.8791612000032,-4401.3397681952301,-100.96737750959488,1083.3903845989428,-114.24394420814212,3403.5244095941757,2385.2505631548447,-1596.0125527823793,1596.0125527823793,-2385.2505631548447,6174.6671095628362,0.0
593523.2936376977,3682751.2368613081,-17500.0,1989.8631866230407,1237.3521866386518,-4727.3753882950077,174.31065146941862,1039.4142009757104,-55.568439355968444,3705.1457215219702,3172.4403556617608,-2385.400739958056,2385.400739958056,-3172.4403556617608,6594.759430266884,0.0
598523.2936376977,3682751.2368613081,-17500.0,2990.1848696516649,398.98035930844475,-4851.5800780027903,539.4031282377598,887.90289062181625,38.131778275813843,4071.6777853159447,3970.4379392344636,-3291.4566500732817,3291.4566500732817,-3970.4379392344636,7125.5965580519114,0.0
603523.2936376977,3682751.2368613081,-17500.0,4021.7739472122144,-777.6576329697541,-4623.0568889237566,996.13075279780082,579.35922745790481,176.3387918074944,4545.771547052942,4672.9346091154894,-4244.4651685225872,4244.4651685225872,-4672.9346091154894,7878.7937062538167,0.0
608523.2936376977,3682751.2368613081,-17500.0,4963.0843708877219,-2300.9795435577867,-3844.2536542601215,1529.9411897963289,57.101532750485262,367.08954133144351,5183.5644302365108,5120.7512604223675,-5108.480565480234,5108.480565480234,-5120.7512604223675,9007.1834667801213,0.0
613523.2936376977,3682751.2368613081,-17500.0,5645.322146588077,-4103.3181118774,-2288.8944509058206,2101.2668266655292,-733.54614768938814,614.21130899136642,6041.7390608814858,5108.6821138678988,-5665.3321725616097,5665.3321725616097,-5108.6821138678988,10663.8567802333,0.0
618523.2936376977,3682751.2368613081,-17500.0,5877.1644159849293,-6000.5815670499669,247.64825741142525,2638.9699766438962,-1828.1990276692256,914.14829219191779,7153.9529213050055,4420.7807059246115,-5620.4471315858646,5620.4471315858646,-4420.7807059246115,12935.376370874214,0.0
623523.2936376977,3682751.2368613081,-17500.0,5503.2747785617839,-7670.7912329726132,3857.3549067189979,3041.5172000230618,-3219.1231646338251,1253.5254596322061,8504.8903636791183,2904.5161566270685,-4653.4162023897497,4653.4162023897497,-2904.5161566270685,15784.122767667392,0.0
628523.2936376977,3682751.2368613081,-17500.0,4490.9611368487458,-8686.8527012554387,8403.1688772235993,3192.4592240614033,-4830.1883064891636,1608.8578675296774,10013.515733415003,574.37711133304776,-2528.3613140065972,2528.3613140065972,-574.37711133304776,19022.067444363223,0.0
633523.2936376977,3682751.2368613081,-17500.0,3007.2605841952104,-8631.6596936235728,13433.142314557017,2992.8560519197044,-6504.9220076711454,1949.1496351476201,11535.537478548571,-2301.6115177053789,756.83731381516111,-756.83731381516111,2301.6115177053789,22319.959419051938,0.0
638523.2936376977,3682751.2368613081,-17500.0,1422.2156978372955,-7275.8480989261243,18209.159670568653,2402.6075601902826,-8023.9636966650751,2240.7381022567561,12893.042599123817,-5207.4192836404427,4859.4664167865549,-4859.4664167865549,5207.4192836404427,25258.947390652156,0.0
643523.2936376977,3682751.2368613081,-17500.0,196.06421066729717,-4727.4939994025817,21896.97836954314,1470.3538665903732,-9157.2708012382645,2452.8174842220869,13924.132397225698,-7522.8290033998583,9119.7977032182662,-9119.7977032182662,7522.8290033998583,27425.339509388206,0.0
648523.2936376977,3682751.2368613081,-17500.0,-309.19553249827186,-1441.6466601767149,23852.287552185826,330.57093483537341,-9733.42072385334,2562.4665482741407,14488.07812922107,-8754.7900026740317,12760.540567851487,-12760.540567851487,8754.7900026740317,28520.54341764886,0.0
653523.2936376977,3682751.2368613081,-17500.0,20.644178375404472,1939.5354629884114,23843.377441765449,-835.89438204689975,-9691.6164410858564,2558.7686306948976,14477.217052787211,-8721.380583011789,15161.510072351903,-15161.510072351903,8721.380583011789,28437.00886997355,0.0
658523.2936376977,3682751.2368613081,-17500.0,1033.1331519478924,4821.0580699577031,22085.064778673252,-1857.8306968817656,-9090.3661876432998,2445.3437467988815,13902.113593372904,-7580.9486454022817,16050.083372724086,-16050.083372724086,7580.9486454022817,27266.005992958995,0.0
663523.2936376977,3682751.2368613081,-17500.0,2411.572949932005,6828.2419353472023,19094.693993123787,-2617.9476818255662,-8074.3448223187279,2239.9515231069599,12874.685645506321,-5715.7114574678362,15519.92353092255,-15519.92353092255,5715.7114574678362,25243.61126304252,0.0
668523.2936376977,3682751.2368613081,-17500.0,3815.3719604614012,7852.6715953895109,15482.629232818721,-3069.4757258786581,-6822.5638929243496,1970.4914347621957,11552.204924210702,-3564.9264306985369,13913.814493856347,-13913.814493856347,3564.9264306985369,22670.547051473313,0.0
673523.2936376977,3682751.2368613081,-17500.0,4982.5462624187339,7995.9130805470959,11784.807345291167,-3227.3042420695142,-5502.4551560186846,1668.6159398552707,10095.789196463173,-1496.3217362826872,11666.129004397997,-11666.129004397997,1496.3217362826872,19841.282808994783,0.0
678523.2936376977,3682751.2368613081,-17500.0,5769.1178039812867,7473.8276925075115,8380.0326915583319,-3145.8632037756538,-4242.5786479315711,1363.4220772502044,8647.9032649927231,251.73080286949335,9179.0680083870047,-9179.0680083870047,-251.73080286949335,16999.765166728183,0.0
683523.2936376977,3682751.2368613081,-17500.0,6139.5519372245881,6530.8225104710818,5479.9847367851562,-2895.7504549202458,-3124.3039141933941,1077.2411631780124,7315.1559312624086,1570.0895546755719,6757.6685790817182,-6757.6685790817182,-1570.0895546755719,14321.939465240161,0.0
688523.2936376977,3682751.2368613081,-17500.0,6134.0338360928863,5384.549954993533,3160.1467450695732,-2546.0373933996461,-2186.4485736412744,824.14944320091433,6145.7727676192699,2448.3915138359439,4594.5754061631378,-4594.5754061631378,-2448.3915138359439,11917.072040562207,0.0
693523.2936376977,3682751.2368613081,-17500.0,5832.7534731464202,4200.7650613883407,1403.8115189671482,-2154.1350563765563,-1435.9457100240543,610.63317192483942,5146.8846253031888,2937.150183750196,2784.3566047424642,-2784.3566047424642,-2937.150183750196,9838.8817786754571,0.0
698523.2936376977,3682751.2368613081,-17500.0,5327.5643193861506,3089.4243271943474,142.68211884886119,-1762.0769495228872,-859.4414999552348,437.39389384102896,4312.3924129749948,3115.1302812851463,1349.5494411409843,-1349.5494411409843,-3115.1302812851463,8099.7595798491511,0.0
703523.2936376977,3682751.2368613081,-17500.0,4703.8608153371069,2112.3529986569097,-712.61526682312422,-1397.0123267310441,-433.06877280827484,301.40940041441689,3629.0422610748401,3066.4804293569741,267.18470252272277,-267.18470252272277,-3066.4804293569741,6684.1379698082592,0.0
708523.2936376977,3682751.2368613081,-17500.0,4031.4883650016873,1295.232627875406,-1252.8716861900014,-1073.8267215308704,-129.45201904584081,197.71695937621129,3078.4592298654575,2867.3771762806964,-509.57370405631195,509.57370405631195,-2867.3771762806964,5559.2898395567881,0.0
713523.2936376977,3682751.2368613081,-17500.0,3362.0726420955152,639.57402583129726,-1559.5384740403842,-798.40181122216495,77.935778997398188,120.71290579911044,2639.727751697751,2579.970386844207,-1036.1417338169567,1036.1417338169567,-2579.970386844207,4683.3406801118663,0.0
718523.2936376977,3682751.2368613081,-17500.0,2730.1652438965866,132.63207459910359,-1700.2108042365271,-570.65750636812561,212.48825744497265,64.970988154929543,2291.7649106798362,2251.0920746478669,-1367.0145148273652,1367.0145148273652,-2251.0920746478669,4011.0917595420806,0.0
723523.2936376977,3682751.2368613081,-17500.0,2156.1953390946942,-245.31952325941674,-1727.9481750117488,-386.99876636291867,293.59460401129991,25.676896528588845,2015.1001426040934,1913.6054781241664,-1550.7057664128884,1550.7057664128884,-1913.6054781241664,3498.4114677095613,0.0
553523.2936376977,3687751.2368613081,-17500.0,-1167.4627234818386,1617.2441473031336,-1712.5890429415581,-421.87076490318572,511.73945857660317,-101.9689173138517,1710.7539031343192,-237.35833980745701,374.15975884757484,-374.15975884757484,237.35833980745701,3343.5401919679489,0.0
558523.2936376977,3687751.2368613081,-17500.0,-1019.4941296231893,1708.4765642458294,-1964.5517570095578,-420.44850057726603,575.59940891074143,-110.06539351563227,1849.7783275470968,-40.37589821988864,258.27289088695926,-258.27289088695926,40.37589821988864,3586.1690540215786,0.0
563523.2936376977,3687751.2368613081,-17500.0,-809.89048528401293,1774.6134400965279,-2246.195268909642,-404.71977478037792,642.10750243691041,-116.59312543915462,1997.6287987854414,212.62140911475225,93.415243706944551,-93.415243706944551,-212.62140911475225,3836.0758572686941,0.0
568523.2936376977,3687751.2368613081,-17500.0,-526.25132323627565,1800.0833069017772,-2554.3595962007553,-369.12040318882669,707.99510158918793,-120.18132625594993,2154.4577325753285,529.882937360818,-132.54076172253028,132.54076172253028,-529.882937360818,4090.8544917567087,0.0
573523.2936376977,3687751.2368613081,-17500.0,-156.42011033689053,1764.0793134148307,-2880.8610998898766,-306.76997690686073,767.86757877079822,-118.85878189391968,2321.0338539513705,917.8065678890697,-432.53288969180164,432.53288969180164,-917.8065678890697,4348.9580321743342,0.0
578523.2936376977,3687751.2368613081,-17500.0,309.61962701880122,1639.8166643245233,-3209.6512479541811,-209.52914440247821,813.33204578878667,-109.88501295488375,2499.5689777807697,1378.559388370312,-818.77558787321209,818.77558787321209,-1378.559388370312,4611.7384669980356,0.0
583523.2936376977,3687751.2368613081,-17500.0,876.70024127103397,1394.4391409978421,-3512.960358826871,-68.37258538439697,831.94635208874502,-89.591055731368186,2695.1182479771733,1906.4863697811379,-1299.9118806603237,1299.9118806603237,-1906.4863697811379,4887.2239976743131,0.0
588523.2936376977,3687751.2368613081,-17500.0,1540.0130006122324,990.31563398014964,-3746.4450370260784,125.70502006828507,806.09608937508654,-53.283056499701445,2917.6666282172987,2483.1080130264027,-1876.2666026639483,1876.2666026639483,-2483.1080130264027,5196.2766764970638,0.0
593523.2936376977,3687751.2368613081,-17500.0,2279.2271582445214,388.85294688431088,-3843.8083803507648,379.97818857282738,712.06756125531911,4.6997773860349534,3184.6765380769725,3070.8493862094738,-2532.65818349234,2532.65818349234,-3070.8493862094738,5580.8527821760936,0.0
598523.2936376977,3687751.2368613081,-17500.0,3051.8098894464874,-441.72088290954417,-3712.2355648982234,697.21392778284962,519.83345996046216,90.642780012560024,3523.0502572808709,3606.4145606068878,-3228.6415537821877,3228.6415537821877,-3606.4145606068878,6111.1133935703319,0.0
603523.2936376977,3687751.2368613081,-17500.0,3787.3679757841724,-1513.2051022209721,-3231.4196066070763,1071.7373411260546,194.38781797347093,210.68119120872637,3968.3176141146323,3996.1011145759603,-3887.1989617280378,3887.1989617280378,-3996.1011145759603,6883.360690287067,0.0
608523.2936376977,3687751.2368613081,-17500.0,4386.5982633366511,-2798.5857998275796,-2260.8179527632901,1484.7025826660617,-300.25401348264887,369.49051649339242,4558.5430711858198,4117.3004667588211,-4385.1535775943084,4385.1535775943084,-4117.3004667588211,8000.1024964298313,0.0
613523.2936376977,3687751.2368613081,-17500.0,4730.1882058010815,-4210.1448713538439,-661.18354567567076,1899.7620264244704,-993.31298558571052,568.49507684697551,5322.4952458034841,3832.2069668414752,-4551.912273846785,4551.912273846785,-3832.2069668414752,9534.8100733544288,0.0
618523.2936376977,3687751.2368613081,-17500.0,4703.1329063037319,-5582.462810305783,1664.6905741312507,2261.4328898502786,-1895.4888301718911,803.9280598113445,6265.3459946956646,3019.4675527313448,-4186.3218828924673,4186.3218828924673,-3019.4675527313448,11497.867807580817,0.0
623523.2936376977,3687751.2368613081,-17500.0,4235.5768155020687,-6674.4084027985637,4713.9127044381275,2499.2681137148602,-2984.9200398266621,1065.3839416698563,7357.0648267698007,1623.9640417799828,-3100.8506731500838,3100.8506731500838,-1623.9640417799828,13816.902472463209,0.0
628523.2936376977,3687751.2368613081,-17500.0,3350.5192251015328,-7206.0282667085703,8324.2266734383229,2540.3681502655309,-4195.6524931281783,1335.6338687349662,8527.9381124409229,-287.77138317814308,-1192.9345912236549,1192.9345912236549,287.77138317814308,16333.10808674158,0.0
633523.2936376977,3687751.2368613081,-17500.0,2194.6720825754264,-6935.6721166420957,12146.125449697274,2329.6411216318529,-5415.9584529272652,1592.2027635727723,9674.6858946876982,-2494.767190730091,1476.8884792458109,-1476.8884792458109,2494.767190730091,18814.355769425492,0.0
638523.2936376977,3687751.2368613081,-17500.0,1023.6269230478417,-5757.0724074705076,15682.2819664578,1851.8990386853254,-6502.9792076420654,1810.5943808550646,10680.085877048628,-4644.485580307949,4641.6828355711377,-4641.6828355711377,4644.485580307949,20989.189001842125,0.0
643523.2936376977,3687751.2368613081,-17500.0,130.10016246171028,-3769.1720176200383,18404.146390143269,1145.4720652566555,-7313.6215568444431,1968.428258293945,11442.370544326106,-6342.8893501781249,7861.3456627203732,-7861.3456627203732,6342.8893501781249,22599.778666986622,0.0
648523.2936376977,3687751.2368613081,-17500.0,-258.73370861402333,-1271.2954547886307,19906.472486447878,298.33493047168582,-7741.7857335630479,2049.4985681799653,11878.128573184285,-7280.0895622700782,10637.593952309948,-10637.593952309948,7280.0895622700782,23459.301437827729,0.0
653523.2936376977,3687751.2368613081,-17500.0,-61.456725284749126,1324.5325289772131,20026.35922567594,-573.90929424034107,-7746.0743762457096,2046.8128798529606,11916.008371973894,-7329.013104140784,12562.482223606839,-12562.482223606839,7329.013104140784,23491.932620084746,0.0
658523.2936376977,3687751.2368613081,-17500.0,641.8420570078074,3620.8215866421124,18869.869967706985,-1358.7924984065762,-7356.1151938485609,1963.8380290746763,11550.715928592856,-6567.9947344785778,13427.841148372741,-13427.841148372741,6567.9947344785778,22740.241548195765,0.0
663523.2936376977,3687751.2368613081,-17500.0,1658.1690257877531,5338.5636689483781,16745.290584262359,-1973.1393952902583,-6657.0509615146466,1813.5031009683871,10843.974459355195,-5226.5070348799782,13250.644764807515,-13250.644764807515,5226.5070348799782,21340.839425741269,0.0
668523.2936376977,3687751.2368613081,-17500.0,2759.1867366224164,6359.6683713133461,14049.90857773545,-2375.7117014832183,-5761.8844724319133,1615.1780521332616,9893.0872798471573,-3594.0265163182185,12221.810116714911,-12221.810116714911,3594.0265163182185,19482.606115965496,0.0
673523.2936376977,3687751.2368613081,-17500.0,3748.2384511965988,6710.0498034764541,11164.830697323287,-2565.5282193124967,-4783.8879500698104,1390.591406468269,8805.576302078045,-1937.7065313284638,10619.679104968573,-10619.679104968573,1937.7065313284638,17364.530195429914,0.0
678523.2936376977,3687751.2368613081,-17500.0,4496.3440496673747,6510.1345067603752,8389.1551339628386,-2570.9002398153211,-3817.2705948777452,1159.9821555786871,7683.9238304321088,-453.88705532611039,8729.4176995452654,-8729.4176995452654,453.88705532611039,15164.495302845027,0.0
683523.2936376977,3687751.2368613081,-17500.0,4947.6130068303391,5920.8614333880187,5917.0609548384418,-2435.6032726830181,-2928.3533064312946,939.46646630713462,6614.2575199113589,745.14365386225109,6790.1553631770112,-6790.1553631770112,-745.14365386225109,13022.39636015392,0.0
688523.2936376977,3687751.2368613081,-17500.0,5105.314932057734,5102.0037281084042,3845.4760473422698,-2206.8715025610768,-2155.3133460811068,739.93939680354413,5645.1924532772555,1620.5555556728618,4972.3945621567109,-4972.3945621567109,-1620.5555556728618,11035.502988276914,0.0
693523.2936376977,3687751.2368613081,-17500.0,5010.7671207494386,4187.7474063641112,2196.7991345302753,-1927.3107888926943,-1513.0063295597599,567.26030175636936,4791.3038029877962,2185.8775171372135,3377.8109430560098,-3377.8109430560098,-2185.8775171372135,9261.863357448623,0.0
698523.2936376977,3687751.2368613081,-17500.0,4723.3374549087712,3277.1853460554939,944.80046723383623,-1630.8166349229759,-999.67646249072038,423.2067266577975,4055.5526499053476,2485.055078548839,2051.2982164546279,-2051.2982164546279,-2485.055078548839,7727.6673191295531,0.0
703523.2936376977,3687751.2368613081,-17500.0,4305.4439004192627,2434.7774056956673,37.058885710289893,-1341.5594277931343,-603.43222181669773,306.69997345043805,3434.6027943389772,2574.6752872908928,997.15318742210934,-997.15318742210934,-2574.6752872908928,6435.6075433070182,0.0
708523.2936376977,3687751.2368613081,-17500.0,3813.2790557882499,1696.0118933041388,-588.55343143622827,-1074.8500394089699,-307.43927399956164,214.95937893093426,2919.8227609464561,2511.8563337588771,194.43437377735199,-194.43437377735199,-2511.8563337588771,5372.4916807162717,0.0
713523.2936376977,3687751.2368613081,-17500.0,3292.351522262959,1074.8122816788157,-993.31724958512541,-838.88159986935568,-93.557030448380544,144.41722093707008,2499.0712584453063,2347.3160672103331,-390.78054239286757,390.78054239286757,-2347.3160672103331,4515.3663803301879,0.0
718523.2936376977,3687751.2368613081,-17500.0,2776.3983609113407,570.63369680430515,-1231.9004717756898,-636.66225835547573,55.427153632108066,91.352932458035198,2158.5401723856539,2122.3450448655572,-796.76795112512229,796.76795112512229,-2122.3450448655572,3836.0872615081366,0.0
723523.2936376977,3687751.2368613081,-17500.0,2288.2921318502099,174.29173059286919,-1349.9529486862082,-467.75613588600146,154.63894966473768,52.278343047577174,1884.2494916228343,1868.3175837025537,-1060.7593646874907,1060.7593646874907,-1868.3175837025537,3304.645004676991,0.0
558523.2936376977,3692751.2368613081,-17500.0,-604.38966257851189,1436.0263761279757,-1896.1527558280179,-302.55213946340859,510.04642202051042,-86.779282673329021,1636.8394876606808,242.3558672855392,12.515064598879533,-12.515064598879533,-242.3558672855392,3137.9568333306734,0.0
563523.2936376977,3692751.2368613081,-17500.0,-376.11512785312595,1444.0571950618112,-2131.2364473074686,-272.99218503866132,557.61780744944133,-89.19519024335473,1755.7155377972663,492.43800324771507,-170.43744378396173,170.43744378396173,-492.43800324771507,3328.459673893713,0.0
568523.2936376977,3692751.2368613081,-17500.0,-85.400735891453934,1405.1116709052922,-2376.5049894139997,-224.41795185119747,600.45821861164973,-88.365092175028153,1881.651414664721,792.31636322794191,-406.73033575424745,406.73033575424745,-792.31636322794191,3521.0982278266374,0.0
573523.2936376977,3692751.2368613081,-17500.0,274.06656850314209,1300.9358334416388,-2620.0547153640873,-151.52840054131826,632.98316732010949,-82.588872114092851,2016.4091733446908,1142.7013901799442,-703.93926874495594,703.93926874495594,-1142.7013901799442,3717.4083410891099,0.0
578523.2936376977,3692751.2368613081,-17500.0,705.19608829750916,1109.616474880683,-2842.4233875962873,-48.491071401538619,647.13760883344082,-69.611842554514837,2163.6919049193702,1539.2290609342074,-1067.1322744814045,1067.1322744814045,-1539.2290609342074,3923.5658705036999,0.0
583523.2936376977,3692751.2368613081,-17500.0,1204.8978623618464,806.41768929416787,-3013.8044193014503,90.553049681245525,631.75872848928361,-46.553468816695435,2330.402690228655,1969.5776042439918,-1496.0777112001658,1496.0777112001658,-1969.5776042439918,4154.1502254604029,0.0
588523.2936376977,3692751.2368613081,-17500.0,1760.7382753485042,365.97833057883491,-3091.0252858282479,270.56512457154651,572.03334031875238,-9.9024322555295043,2528.1379353542784,2409.9351586046078,-1981.1701848822622,1981.1701848822622,-2409.9351586046078,4437.0205551100753,0.0
593523.2936376977,3692751.2368613081,-17500.0,2347.1549217290712,-233.42390716598337,-3014.9582927267647,494.13116911722295,449.29370435848864,44.361289739880363,2774.3631728810888,2821.2679499348251,-2498.0234218432961,2498.0234218432961,-2821.2679499348251,4817.5541479505719,0.0
598523.2936376977,3692751.2368613081,-17500.0,2922.0694133863162,-1002.8541312323485,-2709.6737246264856,759.36313285931806,241.54321677180718,120.44041579791551,3092.1712887170625,3146.449757451222,-3001.1834962561184,3001.1834962561184,-3146.449757451222,5358.1411548398746,0.0
603523.2936376977,3692751.2368613081,-17500.0,3425.5155093603321,-1932.6914036406852,-2085.4597234126813,1057.2925952922462,-74.757715631409866,222.11723536456287,3507.3197928933496,3310.1676959692709,-3418.3723996166932,3418.3723996166932,-3310.1676959692709,6128.2148460066865,0.0
608523.2936376977,3692751.2368613081,-17500.0,3782.7237162308725,-2980.4913560746345,-1048.5268336483105,1369.2123965434573,-521.08139209286981,351.8425262430236,4042.0917839843232,3224.365968103396,-3648.0884532314494,3648.0884532314494,-3224.365968103396,7185.0728850046708,0.0
613523.2936376977,3692751.2368613081,-17500.0,3914.4440696141933,-4059.7655165957199,479.90816280006317,1664.9138990194187,-1111.0716037527616,509.58754129704568,4707.2829419143145,2802.2027158376377,-3564.9130460793731,3564.9130460793731,-2802.2027158376377,8553.3225250907108,0.0
618523.2936376977,3692751.2368613081,-17500.0,3756.1282867217333,-5035.46771956867,2534.5589270821247,1903.2427771566224,-1843.0082604485374,691.68252395173795,5494.7777415871169,1981.9370721637813,-3037.3714824749259,3037.3714824749259,-1981.9370721637813,10210.997478228439,0.0
623523.2936376977,3692751.2368613081,-17500.0,3283.9634510420274,-5733.9404302808452,5071.4607892280846,2036.4964327843384,-2692.1060292731549,890.02183549003018,6372.9523529845264,757.80882663725822,-1960.8630114037614,1960.8630114037614,-757.80882663725822,12084.028459626805,0.0
628523.2936376977,3692751.2368613081,-17500.0,2539.7538031905019,-5973.4049185857339,7939.61860317835,2019.386750637799,-3605.664386734175,1092.0668832599531,7286.501903015077,-791.8809182825845,-301.37842113667114,301.37842113667114,791.8809182825845,14048.222856860521,0.0
633523.2936376977,3692751.2368613081,-17500.0,1641.2901395310619,-5613.2537083565549,10876.444907486903,1821.3526385207879,-4504.762144741444,1281.9427648356843,8162.1723997503359,-2495.0938740236634,1864.3482813149924,-1864.3482813149924,2495.0938740236634,15940.273415827302,0.0
638523.2936376977,3692751.2368613081,-17500.0,765.67233255518101,-4607.6377651467128,13541.83043594656,1438.4827625692483,-5294.9439296193423,1442.5970347520713,8921.6729538702803,-4108.8865626791994,4333.9240732771104,-4333.9240732771104,4108.8865626791994,17579.758669231578,0.0
643523.2936376977,3692751.2368613081,-17500.0,104.04784598497146,-3038.8958557296191,15590.252507641126,899.80643776392708,-5884.7528025466554,1558.6012458721004,9499.5627524610099,-5375.7683079674525,6806.9777060097358,-6806.9777060097358,5375.7683079674525,18799.928573197867,0.0
648523.2936376977,3692751.2368613081,-17500.0,-196.65182023552751,-1109.8686651989144,16758.176273654371,263.99535549199351,-6206.5888664568674,1618.9142120579963,9842.8634636651786,-6094.926902282119,8953.7565204691036,-8953.7565204691036,6094.926902282119,19479.466312431352,0.0
653523.2936376977,3692751.2368613081,-17500.0,-78.70665460721348,906.68087421363543,16930.863034289931,-393.38959166062995,-6232.1379648565417,1618.8830183029884,9901.7664971794202,-6177.6154113662542,10499.464291592716,-10499.464291592716,6177.6154113662542,19564.7925986706,0.0
658523.2936376977,3692751.2368613081,-17500.0,415.05940584145884,2740.3802075552858,16161.011418252767,-997.41867591360199,-5976.6091348451801,1560.9367325593637,9666.6188274610486,-5662.8594076335639,11289.021395622782,-11289.021395622782,5662.8594076335639,19075.593400197165,0.0
663523.2936376977,3692751.2368613081,-17500.0,1165.1879939228384,4186.4672956505065,14636.561330794302,-1489.4457739285178,-5491.1661201591824,1453.7974223931456,9172.6357543383001,-4691.1774184363439,11308.52775885556,-11308.52775885556,4691.1774184363439,18093.280993085118,0.0
668523.2936376977,3692751.2368613081,-17500.0,2019.0287967702909,5138.3039209472554,12618.153959273262,-1835.9684235663567,-4847.8234049492585,1310.4828188089664,8481.1952634499794,-3453.9172268679763,10663.275181531091,-10663.275181531091,3453.9172268679763,16738.47293282377,0.0
673523.2936376977,3692751.2368613081,-17500.0,2833.2266187723899,5585.9558530183258,10374.083728411651,-2029.4822643344573,-4122.9614990950249,1145.7355681191398,7664.2264425445946,-2141.7436701301367,9530.3884373950496,-9530.3884373950496,2141.7436701301367,15145.917555870166,0.0
678523.2936376977,3692751.2368613081,-17500.0,3501.5757328180111,5591.7501025709307,8132.680477513969,-2083.306704002684,-3384.327511339533,973.60490795427131,6794.1740393121227,-908.59945495006832,8108.1723557817477,-8108.1723557817477,908.59945495006832,13443.570639485986,0.0
683523.2936376977,3692751.2368613081,-17500.0,3964.9702951700988,5257.8190147655496,6058.7874153837665,-2023.6750913674184,-2683.661093230699,805.72047720728892,5938.0737141269447,144.09326473198053,6577.3224393072978,-6577.3224393072978,-144.09326473198053,11739.067104902084,0.0
688523.2936376977,3692751.2368613081,-17500.0,4207.4928154269164,4697.0666524844519,4250.8041217421942,-1881.9688188130283,-2054.641853066968,650.45231250324957,5141.6972662184844,966.70398730160468,5079.247980040157,-5079.247980040157,-966.70398730160468,10113.647108299439,0.0
693523.2936376977,3692751.2368613081,-17500.0,4245.1695230131072,4013.0090112188241,2750.5465595350615,-1688.7752290062156,-1514.5680507519862,512.85578564692094,4421.904723445401,1551.0685005122509,3709.5886693947136,-3709.5886693947136,-1551.0685005122509,8621.8339263800299,0.0
698523.2936376977,3692751.2368613081,-17500.0,4113.0145986409962,3289.0921392462565,1558.4272926884714,-1470.2699908601846,-1067.9398538336495,395.13791954989767,3785.1501819490786,1916.8998811548404,2521.9029170898953,-2521.9029170898953,-1916.8998811548404,7294.6440741687638,0.0
703523.2936376977,3692751.2368613081,-17500.0,3853.8198856623626,2585.4992673736515,648.74353654093204,-1246.6577637809028,-710.50266993339699,297.36422860459322,3233.3895805711136,2099.0964537728664,1536.4190232201695,-1536.4190232201695,-2099.0964537728664,6144.3883005457046,0.0
708523.2936376977,3692751.2368613081,-17500.0,3510.1065706425225,1940.7226425067786,-17.671255805713862,-1032.0756350426927,-432.86574959768393,218.18858296964189,2764.039179400881,2137.9183754632986,750.04608159098746,-750.04608159098746,-2137.9183754632986,5169.6863437960828,0.0
713523.2936376977,3692751.2368613081,-17500.0,3119.3073499351044,1375.5030955759389,-484.31570618832853,-835.34505298322256,-223.30711950774341,155.47983409048504,2370.9583627799811,2072.457676074976,145.41296056806334,-145.41296056806334,-2072.457676074976,4359.9178986705128,0.0
718523.2936376977,3692751.2368613081,-17500.0,2711.559784343734,897.43559029256221,-793.21172158943864,-661.08224458803022,-69.704854028534982,106.79349910698598,2045.786215144027,1936.9766571648286,-302.04414893454918,302.04414893454918,-1936.9766571648286,3698.7778348961865,0.0
563523.2936376977,3697751.2368613081,-17500.0,-42.860374756433252,1134.2822503801863,-1978.3607678677984,-167.21572187572738,475.0666906974447,-66.431779093011912,1543.0143252625242,682.3281605511014,-373.41754604311166,373.41754604311166,-682.3281605511014,2884.7585628294023,0.0
568523.2936376977,3697751.2368613081,-17500.0,237.87187623392279,1047.4572934388905,-2161.7907306913153,-111.98136425767811,498.71101046978026,-62.58408179795606,1646.1891901887275,952.50792385016666,-604.91681527022138,604.91681527022138,-952.50792385016666,3033.6313752208703,0.0
573523.2936376977,3697751.2368613081,-17500.0,570.45667167654153,896.87940143030823,-2327.9287566904359,-35.68774178120136,509.5359746436493,-54.049777880910277,1758.6680104927873,1255.089836073495,-883.24311810530651,883.24311810530651,-1255.089836073495,3190.057297107503,0.0
578523.2936376977,3697751.2368613081,-17500.0,952.88904153281499,665.87853307575972,-2456.3048870388784,65.54234393788856,500.29875609642482,-39.033083744366394,1885.2966319661205,1581.6810481827906,-1207.9785282075022,1207.9785282075022,-1581.6810481827906,3364.3460661989711,0.0
583523.2936376977,3697751.2368613081,-17500.0,1377.3750132082071,337.35764979538192,-2518.0507403176239,195.1047423426262,461.51759376608362,-15.338591347172105,2033.9474898442115,1916.7581325998897,-1572.8619969392773,1572.8619969392773,-1916.7581325998897,3575.3886703716771,0.0
588523.2936376977,3697751.2368613081,-17500.0,1828.1112912728865,-103.78334446188724,-2474.3689698146727,355.10284664715823,381.31495416362844,19.586755743927991,2216.2489913572026,2235.488307223869,-1962.675506205931,1962.675506205931,-2235.488307223869,3853.2799797721264,0.0
593523.2936376977,3697751.2368613081,-17500.0,2279.2167567132205,-666.74785714038717,-2275.8872634216855,545.19747561148267,245.61783590094743,68.514315838233756,2447.5626296880159,2501.949572391025,-2349.6195000176149,2349.6195000176149,-2501.949572391025,4239.4058170655699,0.0
598523.2936376977,3697751.2368613081,-17500.0,2693.5787777735354,-1349.2928153254002,-1863.9229858828253,761.14946725294556,38.974795991710913,134.15495640068633,2745.5022511388406,2668.6569409125918,-2689.8169239565755,2689.8169239565755,-2668.6569409125918,4781.3460433671935,0.0
603523.2936376977,3697751.2368613081,-17500.0,3023.7840603495765,-2130.8370489550084,-1175.0423156843292,993.23264503050996,-253.7151375781896,218.70893170130722,3126.65649042315,2678.7238364752752,-2921.2281802536349,2921.2281802536349,-2678.7238364752752,5522.1927654405363,0.0
608523.2936376977,3697751.2368613081,-17500.0,3216.5505023761734,-2965.4332239315204,-150.35533310255556,1224.91361625473,-644.33305699094592,323.24694829077208,3602.0204549454766,2472.191172201799,-2964.9882616811142,2964.9882616811142,-2472.191172201799,6487.9810206755146,0.0
613523.2936376977,3697751.2368613081,-17500.0,3221.8107993627714,-3777.0655322615457,1249.6587867335595,1432.4440651177285,-1137.5496031160103,446.98849086972609,4172.3518808645513,1997.6471608839856,-2732.6396759442732,2732.6396759442732,-1997.6471608839856,7678.0901536098745,0.0
618523.2936376977,3697751.2368613081,-17500.0,3006.3603271156617,-4460.9253017479441,3025.8391954748258,1586.166673220592,-1726.2224444729134,586.6285395259672,4824.6652053390362,1228.7402074111756,-2141.2427868737263,2141.2427868737263,-1228.7402074111756,9060.3247491233815,0.0
623523.2936376977,3697751.2368613081,-17500.0,2569.5748611299036,-4894.4789700751653,5120.6867808048064,1654.1929715393583,-2387.3627618259729,735.93851916125664,5530.6988833277974,182.39046985005365,-1136.1293140966695,1136.1293140966695,-182.39046985005365,10569.935902648396,0.0
628523.2936376977,3697751.2368613081,-17500.0,1955.7412898170951,-4960.0468389983089,7405.9428865320997,1608.4818352637608,-3080.4377437054172,885.88319570743454,6248.0449320866583,-1067.8023129941018,283.07234945114055,-283.07234945114055,1067.8023129941018,12112.611672796598,0.0
633523.2936376977,3697751.2368613081,-17500.0,1255.8480382304233,-4575.7334073455395,9686.4559746543946,1432.2459342701025,-3749.8081942237045,1025.4105498311415,6924.7025091377172,-2391.1848140316174,2042.2033466401138,-2042.2033466401138,2391.1848140316174,13572.77267571732,0.0
638523.2936376977,3697751.2368613081,-17500.0,593.58294960153705,-3725.403723018243,11726.141564044532,1126.4492438881416,-4332.1303665633359,1142.8823238567816,7507.7654245860422,-3618.4893183278687,3989.257819215351,-3989.257819215351,3618.4893183278687,14827.849020006102,0.0
643523.2936376977,3697751.2368613081,-17500.0,96.640034070542185,-2474.9316235387373,13293.211391988725,712.71041588194646,-4767.6432379068283,1227.8868572128781,7954.7629906182774,-4577.4195416106577,5915.180356924624,-5915.180356924624,4577.4195416106577,15766.788820830074,0.0
648523.2936376977,3697751.2368613081,-17500.0,-137.49218280181046,-965.0936848188918,14211.511046402638,230.81554506223674,-5012.2423965597291,1273.0062903949886,8229.9831229346328,-5134.4812123781139,7596.003392872688,-7596.003392872688,5134.4812123781139,16308.461573750392,0.0
653523.2936376977,3697751.2368613081,-17500.0,-67.726838702886553,618.79507841186501,14399.521174065261,-268.88614916006048,-5046.369625215847,1275.0760542237006,8296.4684031256984,-5227.2539519083448,8842.6662730225726,-8842.6662730225726,5227.2539519083448,16414.654510579829,0.0
658523.2936376977,3697751.2368613081,-17500.0,282.84247058302793,2089.5632105416862,13882.97935987788,-735.75741793621171,-4877.7934991685997,1235.6041552777101,8144.4728608061387,-4874.9454326431114,9540.4068424596007,-9540.4068424596007,4874.9454326431114,16093.950333244637,0.0
663523.2936376977,3697751.2368613081,-17500.0,839.0597197167308,3297.3232131323853,12778.839218722389,-1128.389232423968,-4537.8029811163478,1160.2651576470209,7794.8153714685523,-4165.2614248485806,9664.8475207252432,-9664.8475207252432,4165.2614248485806,15396.043676765914,0.0
668523.2936376977,3697751.2368613081,-17500.0,1498.4740324133288,4152.8098571349783,11259.921520904063,-1420.6154745974143,-4072.7811966699587,1057.6570762753881,7286.9972386474856,-3225.6621997320899,9273.0244868532427,-9273.0244868532427,3225.6621997320899,14399.227839198615,0.0
673523.2936376977,3697751.2368613081,-17500.0,2158.0082739954437,4631.2615974859691,9514.707639239401,-1603.0263348090484,-3534.3145043841305,937.70342993984684,6669.487743904675,-2191.2969394885258,8477.3754643584052,-8477.3754643584052,2191.2969394885258,13195.323210353483,0.0
678523.2936376977,3697751.2368613081,-17500.0,2734.0358798379339,4761.0390800293617,7714.3590529531066,-1680.6995273829864,-2970.6609101928216,810.12036008882558,5993.0052898066278,-1179.6316615010537,7414.4103592629644,-7414.4103592629644,1179.6316615010537,11875.94213865583,0.0
683523.2936376977,3697751.2368613081,-17500.0,3172.3476560808695,4604.712889798323,5992.8386600147096,-1668.7863378413342,-2421.1539440610686,683.26244087883629,5307.6577047883611,-276.30955203901749,6217.6708124759552,-6217.6708124759552,276.30955203901749,10522.442793779421,0.0
688523.2936376977,3697751.2368613081,-17500.0,3448.9301722287423,4239.774864215924,4440.1093832712686,-1587.6434071955016,-1913.7989599937955,563.48396403646359,4655.1469911279137,468.2578610070268,4999.8536229586807,-4999.8536229586807,-468.2578610070268,9200.2726690941745,0.0
693523.2936376977,3697751.2368613081,-17500.0,3564.7302585857274,3743.3691423138944,3104.9386873616791,-1458.6849888953482,-1465.4172039579848,454.98227866410764,4053.4502121696905,1034.8209918962402,3844.5686271485765,-3844.5686271485765,-1034.8209918962402,7957.1459029060097,0.0
698523.2936376977,3697751.2368613081,-17500.0,3537.8532912097426,3182.5945465563345,2002.9889457881268,-1301.498115816152,-1083.3654681894086,359.9938544772458,3509.2262971077084,1427.5213100681551,2805.6414860192017,-2805.6414860192017,-1427.5213100681551,6823.9632477761106,0.0
703523.2936376977,3697751.2368613081,-17500.0,3395.7775539884888,2609.9564011927441,1126.5740095868757,-1132.2554200998907,-767.92052064557015,279.18415364489022,3026.6603031252234,1665.4140060459395,1911.051295595053,-1911.051295595053,-1665.4140060459395,5817.3004386893317,0.0
708523.2936376977,3697751.2368613081,-17500.0,3169.0234371794745,2062.6285826586045,453.7454531843108,-963.17622944831669,-514.67599887135384,212.0963666608439,2606.641267208719,1775.0903843507922,1168.912106804466,-1168.912106804466,-1775.0903843507922,4942.5077404332342,0.0
713523.2936376977,3697751.2368613081,-17500.0,2886.7699330410273,1564.0361006185763,-44.430726081050572,-802.69292890894565,-316.58385416599947,157.56841864389855,2246.9203691735015,1785.1635374126304,573.68067483995856,-573.68067483995856,-1785.1635374126304,4196.7715602566441,0.0
563523.2936376977,3702751.2368613081,-17500.0,204.50424904472732,854.47147338748721,-1801.2213034613069,-84.341088137105061,397.45430560502524,-47.878290219992877,1358.5637010881298,798.93028389137123,-520.74055226409735,520.74055226409735,-798.93028389137123,2503.2052171500154,0.0
568523.2936376977,3702751.2368613081,-17500.0,464.53129631903681,734.79746529793181,-1927.4190147077779,-27.058303807365245,405.79012786855765,-42.121597131463162,1445.5631165908853,1033.1740635247174,-736.99409813553598,736.99409813553598,-1033.1740635247174,2623.3966880473527,0.0
573523.2936376977,3702751.2368613081,-17500.0,761.43119528975296,556.2713164160125,-2025.2537987006431,47.792474650504957,400.21100783862482,-32.108119078132432,1542.9928377493579,1284.7882755636874,-986.64347687301188,986.64347687301188,-1284.7882755636874,2756.7455534334649,0.0
578523.2936376977,3702751.2368613081,-17500.0,1090.2003784028684,307.11070434289229,-2074.965034819385,142.55409356514019,374.50820776776652,-16.446088430308674,1656.3060819887392,1543.3901579539358,-1265.493481007976,1265.493481007976,-1543.3901579539358,2916.3169461028315,0.0
583523.2936376977,3702751.2368613081,-17500.0,1440.8106113713025,-23.340506266313003,-2050.4341235591405,258.8433412863065,320.95654842321613,6.4951464570113764,1793.4215771353943,1792.7362134281079,-1563.7507432142047,1563.7507432142047,-1792.7362134281079,3122.5274408034966,0.0
588523.2936376977,3702751.2368613081,-17500.0,1796.9206077188262,-442.36723475679395,-1918.7159905816511,396.90295265199484,230.38423261810797,38.524532941782248,1964.7742782589344,2009.601422098747,-1863.8660537636995,1863.8660537636995,-2009.601422098747,3403.4165383067066,0.0
593523.2936376977,3702751.2368613081,-17500.0,2135.0186830412158,-950.70533078248957,-1640.5598799977311,554.77097250599013,92.55547415053006,81.498225183135077,2182.5601148805699,2163.3018777635411,-2138.3791745323247,2138.3791745323247,-2163.3018777635411,3791.9976078837603,0.0
598523.2936376977,3702751.2368613081,-17500.0,2424.5768358256223,-1538.5320628322329,-1172.6226988898434,727.33778739612649,-102.97930211244173,137.09705684457168,2458.9391794317758,2216.5231859184146,-2348.3740034391326,2348.3740034391326,-2216.5231859184146,4320.1857299408639,0.0
603523.2936376977,3702751.2368613081,-17500.0,2629.950982928905,-2181.1219704077989,-472.15580987407435,905.46053212285176,-365.42495739080476,206.5025247116082,2803.3849042555739,2128.2573200084048,-2443.5133036092161,2443.5133036092161,-2128.2573200084048,5011.0313043206997,0.0
608523.2936376977,3702751.2368613081,-17500.0,2714.7311874144493,-2835.2508287712772,495.25213562028705,1075.4296553053769,-700.62258648738566,289.98628872507186,3219.7875818992557,1859.5631681594837,-2364.9177908153247,2364.9177908153247,-1859.5631681594837,5872.1383855671866,0.0
613523.2936376977,3702751.2368613081,-17500.0,2648.8245456473414,-3438.0704734904098,1744.981273144964,1219.1887551317388,-1108.4122319639901,386.46694474482564,3703.9967677497834,1382.3295265240145,-2052.1183087109271,2052.1183087109271,-1382.3295265240145,6891.7603201155944,0.0
618523.2936376977,3702751.2368613081,-17500.0,2417.6019557513241,-3910.5462858662486,3261.1326730686228,1315.7224257690254,-1579.9222082838278,493.1332760720133,4242.2870171569039,690.09420702532566,-1454.6134403794065,1454.6134403794065,-690.09420702532566,8037.2525178294554,0.0
623523.2936376977,3702751.2368613081,-17500.0,2031.0286966665531,-4167.1268731645141,4985.8533084948385,1343.8497231607623,-2095.5701872058276,605.2687428594935,4811.0863624751191,-191.63200537384995,-546.9513001164953,546.9513001164953,191.63200537384995,9255.4594229351605,0.0
628523.2936376977,3702751.2368613081,-17500.0,1529.3604336086858,-4131.6414707794283,6814.7908513146231,1286.2354147231486,-2624.7667655545119,716.40810062395678,5378.3388193796309,-1199.5387960862145,656.05795868871712,-656.05795868871712,1199.5387960862145,10475.50758966622,0.0
633523.2936376977,3702751.2368613081,-17500.0,981.68939624819143,-3756.6055301991014,8603.2252846636657,1133.8373566343598,-3128.1744387676808,818.90351623152173,5906.9558845879947,-2235.4044672206192,2089.4488796512378,-2089.4488796512378,2235.4044672206192,11614.836619959699,0.0
638523.2936376977,3702751.2368613081,-17500.0,475.27410936265858,-3040.220360264299,10184.907302486381,889.48301723451777,-3562.7289797048866,904.86355981280053,6360.9223474408664,-3179.894287313899,3639.2110654227722,-3639.2110654227722,3179.894287313899,12588.559918937171,0.0
643523.2936376977,3702751.2368613081,-17500.0,97.154433487667461,-2034.2890670399404,11400.889695616599,569.18038884190753,-3888.6222656625314,967.30437530576773,6712.7666985588085,-3915.3230185988232,5157.3159360120753,-5157.3159360120753,3915.3230185988232,13320.911814206067,0.0
648523.2936376977,3702751.2368613081,-17500.0,-86.536078164177908,-838.48923069030002,12130.643798588948,200.32871606575372,-4076.4805825368603,1001.2524675249934,6936.6915925880012,-4350.9686275781496,6488.2618888292745,-6488.2618888292745,4350.9686275781496,13756.297790587074,0.0
653523.2936376977,3702751.2368613081,-17500.0,-46.310783303280971,418.45628241683892,12315.603744947673,-182.92717642877082,-4112.6384305977444,1004.526193299306,7003.8702993180868,-4442.4810848871712,7499.4881572909671,-7499.4881572909671,4442.4810848871712,13867.152587546223,0.0
658523.2936376977,3702751.2368613081,-17500.0,205.40403801954659,1604.7965278537281,11967.643613294358,-545.87873496047894,-4000.9569888595215,978.00004453505369,6906.0516101561907,-4198.9148079414972,8105.9436731665282,-8105.9436731665282,4198.9148079414972,13656.601408816925,0.0
663523.2936376977,3702751.2368613081,-17500.0,620.56200102092168,2610.4531123178199,11160.887309246227,-859.13714291636495,-3760.8689582180259,925.30537005967813,6656.0151944817599,-3676.0026074194079,8281.6249642877629,-8281.6249642877629,3676.0026074194079,13155.583760803007,0.0
668523.2936376977,3702751.2368613081,-17500.0,1129.8868713802194,3363.3514521826983,10011.277534604365,-1102.6690428800723,-3422.5834325431701,852.07841579379465,6279.6904787611993,-2959.505670496636,8056.3759066343355,-8056.3759066343355,2959.505670496636,12415.710658663236,0.0
673523.2936376977,3702751.2368613081,-17500.0,1659.6288414228356,3834.4884206302854,8651.5590097896602,-1267.2772069592288,-3021.1025031931504,764.97495381727185,5810.0945710739488,-2145.1760150324067,7501.5299141672476,-7501.5299141672476,2145.1760150324067,11500.083063656541,0.0
678523.2936376977,3702751.2368613081,-17500.0,2145.5467622877609,4033.1367929886546,7208.8742423843805,-1353.7355239293722,-2590.6729985028146,670.69614521366418,5282.7397572255832,-1321.3450426354466,6710.6246009591696,-6710.6246009591696,1321.3450426354466,10474.314187883143,0.0
683523.2936376977,3702751.2368613081,-17500.0,2541.3245495889214,3996.1025256571224,5789.3267453571652,-1370.3842817907807,-2160.7443607195078,575.21527661727248,4733.610927704628,-557.59968068139142,5781.0653585243745,-5781.0653585243745,557.59968068139142,9399.3534445664609,0.0
688523.2936376977,3702751.2368613081,-17500.0,2821.1517716875492,3775.2904251889677,4470.5710985192645,-1330.1419036895363,-1753.7929830475584,483.30030228674235,4198.2243996749721,99.836833615677278,4800.426890431836,-4800.426890431836,-99.836833615677278,8326.8172985349283,0.0
693523.2936376977,3702751.2368613081,-17500.0,2977.8551440507117,3426.7238932092137,3301.1404948847039,-1247.7061341755684,-1384.8173101522905,398.33319482880205,3697.0803228442787,627.34845022217451,3838.5971590850322,-3838.5971590850322,-627.34845022217451,7296.7902000168951,0.0
698523.2936376977,3702751.2368613081,-17500.0,3018.5413724733548,3002.605928383196,2304.1854364374326,-1137.3920348117099,-1062.0150419773752,322.36399007942498,3235.6745552553566,1019.8923944417318,2945.1468411185078,-2945.1468411185078,-1019.8923944417318,6337.6007618946132,0.0
703523.2936376977,3702751.2368613081,-17500.0,2959.5005310473671,2546.6958580536811,1483.3080657045866,-1011.7469002950443,-788.10188040796766,256.31237724377416,2818.286004821553,1285.6623584689003,2150.4257187288531,-2150.4257187288531,-1285.6623584689003,5466.9125543867176,0.0
708523.2936376977,3702751.2368613081,-17500.0,2821.5532873715051,2092.4842222986285,828.74086325141513,-880.87305866296595,-561.82842415579728,200.23439347837265,2447.5127509624681,1440.8623595549316,1468.765996408722,-1468.765996408722,-1440.8623595549316,4693.5118487744921,0.0
568523.2936376977,3707751.2368613081,-17500.0,614.45017907970009,469.38131902143897,-1687.2695818584752,35.14526395133003,323.25262401456945,-26.19690040619297,1276.2361586093225,1054.6932161022357,-814.40631234823809,814.40631234823809,-1054.6932161022357,2282.9567033076942,0.0
573523.2936376977,3707751.2368613081,-17500.0,872.38784891731211,277.52715818944017,-1727.5498850493457,105.52023831064018,305.89357292721826,-15.622876249512897,1363.7309297114398,1256.8869228725721,-1030.5876964963672,1030.5876964963672,-1256.8869228725721,2405.1292777185013,0.0
578523.2936376977,3707751.2368613081,-17500.0,1148.2244737696869,25.995323349771333,-1714.4390575192406,191.32076849749581,269.41487459349315,-0.24616504452520346,1468.3567975267338,1453.861100097439,-1261.8591478821702,1261.8591478821702,-1453.861100097439,2560.4166830695062,0.0
583523.2936376977,3707751.2368613081,-17500.0,1431.3905992300056,-290.85622881821223,-1625.4442234684568,292.96378314150707,207.72778591278959,21.117072622801079,1597.3403096348807,1630.218331870027,-1496.8239623364409,1496.8239623364409,-1630.218331870027,2768.1880714275717,0.0
588523.2936376977,3707751.2368613081,-17500.0,1706.6577303324091,-674.8075978367192,-1433.7671899365052,409.58680813213562,113.9673980326186,49.717832880608512,1759.2398941622191,1765.6703384120706,-1717.8158011212195,1717.8158011212195,-1765.6703384120706,3051.6501772308757,0.0
593523.2936376977,3707751.2368613081,-17500.0,1954.0374470899635,-1121.3868816170134,-1109.4080060120293,538.48365771391536,-19.078223936576794,86.762716412230205,1962.9366913674348,1835.3221456106821,-1899.8156778165594,1899.8156778165594,-1835.3221456106821,3434.331111020123,0.0
598523.2936376977,3707751.2368613081,-17500.0,2149.5790344978573,-1617.1776376521109,-621.60289849793128,674.53452922146141,-198.20976285704091,133.24477654053541,2216.069352140506,1811.0588043760608,-2010.124636635785,2010.124636635785,-1811.0588043760608,3935.2339749779244,0.0
603523.2936376977,3707751.2368613081,-17500.0,2267.4737863870887,-2137.3138732947027,57.030932689312522,809.7663951650037,-428.67813240506877,189.71720444738938,2523.2169418532867,1664.4587644259516,-2009.4462514582403,2009.4462514582403,-1664.4587644259516,4564.3355794399749,0.0
608523.2936376977,3707751.2368613081,-17500.0,2283.7401423704978,-2643.9883499614639,944.52888789688859,933.24251035015936,-712.69248263950101,256.02704498505869,2884.2268331960777,1371.4748546550013,-1855.092910635346,1855.092910635346,-1371.4748546550013,5319.6062492028013,0.0
613523.2936376977,3707751.2368613081,-17500.0,2181.384984486423,-3087.0747997975845,2042.2244071197977,1031.5145385603146,-1047.7354387315127,331.04922350592852,3292.9879919526993,918.66570506035919,-1506.8240218601916,1506.8240218601916,-918.66570506035919,6185.5494613637748,0.0
618523.2936376977,3707751.2368613081,-17500.0,1956.2982709929352,-3407.9676250073717,3327.2576719676927,1089.833037055588,-1425.0189405360379,412.48491202451396,3736.8330130089903,310.0238486396068,-935.21196554797848,935.21196554797848,-310.0238486396068,7132.8374362666209,0.0
623523.2936376977,3707751.2368613081,-17500.0,1622.3763053154573,-3547.2367757803763,4747.0850436834407,1094.1663421012422,-1828.5740744791444,496.80222178679219,4196.7472987345518,-427.40125467331779,-131.39222380852377,131.39222380852377,427.40125467331779,8119.0595829878557,0.0
628523.2936376977,3707751.2368613081,-17500.0,1213.8284408257243,-3455.5469354033489,6218.6364727429691,1033.8135017233237,-2235.5173488709443,579.39024589025837,4648.6200211394907,-1241.449204272549,884.17443736617486,-884.17443736617486,1241.449204272549,9091.0502705669915,0.0
633523.2936376977,3707751.2368613081,-17500.0,782.78139919630894,-3105.7221908394963,7634.3327532849062,904.08176841190016,-2617.8798163139381,654.9583758739667,5065.8543042423689,-2058.469948246372,2057.1240459466881,-2057.1240459466881,2058.469948246372,9989.2135527010887,0.0
638523.2936376977,3707751.2368613081,-17500.0,391.47339290241564,-2502.5095764622229,8875.4901785333477,708.27359355725514,-2945.9923825806795,718.15095150872742,5423.9577882666081,-2793.3207480834317,3301.7000437186653,-3301.7000437186653,2793.3207480834317,10753.7412792468,0.0
643523.2936376977,3707751.2368613081,-17500.0,100.3183367403895,-1686.3764698995121,9830.9967106423428,458.24497407456357,-3192.8717676898345,764.27316662242731,5705.4437379864476,-3364.1347515674784,4511.4484889600917,-4511.4484889600917,3364.1347515674784,11331.86036210668,0.0
648523.2936376977,3707751.2368613081,-17500.0,-44.929861026670842,-729.13824420272169,10416.698093232397,173.14389224003597,-3338.5923060644996,789.97608196214514,5889.8097940800435,-3708.0461573581724,5576.3208335641139,-5576.3208335641139,3708.0461573581724,11684.678513022949,0.0
653523.2936376977,3707751.2368613081,-17500.0,-22.899860535497275,278.04480296110677,10590.011534171937,-123.49116719798536,-3373.4909954530881,793.739965931862,5954.0728640646203,-3793.1837943922669,6401.7646798293845,-6401.7646798293845,3793.1837943922669,11792.067850470256,0.0
658523.2936376977,3707751.2368613081,-17500.0,159.83396181912593,1240.9729813010522,10355.651046377889,-407.53615574248482,-3299.3669176665057,776.04574716996228,5891.9745438029358,-3623.3744062000496,6924.4088260209792,-6924.4088260209792,3623.3744062000496,11654.500653620707,0.0
663523.2936376977,3707751.2368613081,-17500.0,472.08229534466022,2078.2957431657501,9761.3679272996142,-657.98149362654806,-3128.4602709551036,739.20430240994472,5711.6546444765136,-3234.6289976870758,7120.206426302082,-7120.206426302082,3234.6289976870758,11291.561389966129,0.0
668523.2936376977,3707751.2368613081,-17500.0,866.56194336762553,2732.848032277629,8885.8855120789285,-859.63535364608049,-2880.6715263823125,686.90608049036064,5430.4517270818005,-2685.2981853990891,7003.7279216986899,-7003.7279216986899,2685.2981853990891,10737.76720176028,0.0
673523.2936376977,3707751.2368613081,-17500.0,1290.4913463543746,3176.3757554408367,7823.1796183635925,-1004.357543714073,-2579.904188910677,623.6157216374371,5071.1413531487933,-2043.4467445390583,6620.204006622509,-6620.204006622509,2043.4467445390583,10036.89382471217,0.0
678523.2936376977,3707751.2368613081,-17500.0,1695.1766837647865,3407.9518001797919,6667.3700192493307,-1090.8446752821667,-2250.464315261127,553.95223184398685,4658.8124108510074,-1375.0338064277157,6033.6475739118814,-6033.6475739118814,1375.0338064277157,9236.0971230191735,0.0
683523.2936376977,3707751.2368613081,-17500.0,2042.5906226478589,3448.0239674746435,5501.2278361494482,-1123.353362662901,-1914.2132555169374,482.1717765462746,4218.9520604794725,-735.32431439990069,5314.5874728192375,-5314.5874728192375,735.32431439990069,8380.8719340835996,0.0
688523.2936376977,3707751.2368613081,-17500.0,2308.3449477521399,3330.5673496049471,4389.5112697973664,-1109.8957993119702,-1588.7976280804085,411.81870371839204,3778.3540538295329,-164.3924470722759,4529.9947067539688,-4529.9947067539688,164.3924470722759,7511.4264942165546,0.0
693523.2936376977,3707751.2368613081,-17500.0,2481.5507237039042,3095.445448468442,3376.8329162740338,-1060.3934765629103,-1286.9435416273416,345.55737964104202,3360.3308803182181,313.68927687605697,3736.6214073090796,-3736.6214073090796,-313.68927687605697,6660.603288092927,0.0
698523.2936376977,3707751.2368613081,-17500.0,2562.6150640637393,2782.2914209947544,2488.9067832939595,-985.12039142610672,-1016.5910704303639,285.15836316268621,2970.852311220759,689.06293747269524,2977.8022243277837,-2977.8022243277837,-689.06293747269524,5853.1675135307714,0.0
703523.2936376977,3707751.2368613081,-17500.0,2560.0791612687135,2426.4083869272695,1735.7763888248087,-893.58852976626042,-781.5623035999447,231.59213690662395,2612.5500224421044,962.92277298162094,2283.0372914224308,-2283.0372914224308,-962.92277298162094,5106.1082870193641,0.0
573523.2936376977,3712751.2368613081,-17500.0,924.56969785628723,55.508805160660344,-1445.4875617648652,143.30583534334556,226.25527856879503,-3.5354561772881241,1215.0782492076507,1191.3591473642725,-1030.1261211275021,1030.1261211275021,-1191.3591473642725,2122.1017778937271,0.0
578523.2936376977,3712751.2368613081,-17500.0,1151.5021675654193,-187.58833619776797,-1384.4046769726544,219.1505057676132,183.44689246523998,10.980457647465359,1313.5971907312771,1335.1288287498871,-1215.8615110917524,1215.8615110917524,-1335.1288287498871,2278.1491952188767,0.0
583523.2936376977,3712751.2368613081,-17500.0,1375.9473165873123,-481.50277351302969,-1249.8730254986303,306.28760530530286,118.47198558402749,30.345788134094217,1435.8262146805478,1451.860366660886,-1394.1160320202971,1394.1160320202971,-1451.860366660886,2488.2415406932323,0.0
588523.2936376977,3712751.2368613081,-17500.0,1584.5912724411971,-824.42666645875454,-1020.8364410381112,403.27916037946841,26.330819140576409,55.405135568564994,1588.2685944173286,1524.6538383390891,-1548.4302417909041,1548.4302417909041,-1524.6538383390891,2769.7472874067375,0.0
593523.2936376977,3712751.2368613081,-17500.0,1761.1912583360431,-1209.066301151161,-675.13305749571407,507.22134730439336,-97.904085181834432,86.91686669953225,1776.9012931760237,1534.074247381677,-1657.1673566913498,1657.1673566913498,-1534.074247381677,3137.8170079837691,0.0
598523.2936376977,3712751.2368613081,-17500.0,1887.6003563853533,-1620.9561992418489,-191.7696794617689,613.42636148017573,-258.46605700279292,125.42909061280287,2006.0250632088919,1459.6542827551598,-1693.8607366613028,1693.8607366613028,-1459.6542827551598,3602.3059278940959,0.0
603523.2936376977,3712751.2368613081,-17500.0,1945.6995328464652,-2037.1777137985546,445.70215835490194,715.24729699821785,-458.04877421548497,171.12544232854844,2277.1370392312392,1282.4268669355054,-1628.6860981606567,1628.6860981606567,-1282.4268669355054,4165.5359905616788,0.0
608523.2936376977,3712751.2368613081,-17500.0,1920.2828226490758,-2426.0548966846131,1244.8113097289302,804.17133430512172,-696.79054584632604,223.65575652699178,2588.0184485940663,988.48761859231672,-1431.4152047664315,1431.4152047664315,-988.48761859231672,4821.061584270501,0.0
613523.2936376977,3712751.2368613081,-17500.0,1802.6598247881191,-2748.484114886628,2199.2802247740515,870.30890546918511,-971.2268167406969,281.98041416513172,2932.1531200415334,573.25527455503948,-1075.9827859572724,1075.9827859572724,-573.25527455503948,5553.1575016838333,0.0
618523.2936376977,3712751.2368613081,-17500.0,1594.3452184664709,-2961.4292017011976,3284.5934458335473,903.36038539363744,-1273.4429759566553,344.26832023728724,3298.5606908377217,45.652522556982461,-546.3453050595009,546.3453050595009,-45.652522556982461,6336.8692056653435,0.0
623523.2936376977,3712751.2368613081,-17500.0,1309.8207073724666,-3023.6869515532935,4455.4082085244254,894.03582919533426,-1590.7255309300847,407.89366450709872,3672.1583716985642,-568.98788834386289,157.31966392922038,-157.31966392922038,568.98788834386289,7138.7992848894328,0.0
628523.2936376977,3712751.2368613081,-17500.0,977.17963941936534,-2903.2981679921049,5646.3061713771203,835.74777133602174,-1906.0041071008332,469.56779618681912,4034.8166081748363,-1228.6508532992104,1013.6443803655703,-1013.6443803655703,1228.6508532992104,7918.9592130234469,0.0
633523.2936376977,3712751.2368613081,-17500.0,635.72122667931251,-2585.1238436576086,6776.9259561561603,726.23237381392835,-2199.2489140254497,525.61852193871687,4367.3923113632518,-1878.022792890396,1978.186959534351,-1978.186959534351,1878.022792890396,8633.8638503867442,0.0
638523.2936376977,3712751.2368613081,-17500.0,330.3390594480058,-2076.5113231824384,7761.4335697026472,568.66073461709539,-2449.7526295885823,572.39168319998657,4653.5243059731665,-2455.6365118807294,2986.1113854405653,-2986.1113854405653,2455.6365118807294,9240.7102501471545,0.0
643523.2936376977,3712751.2368613081,-17500.0,103.66433472470273,-1409.0395009457063,8520.8186569608879,371.84559652933649,-2638.9292682844116,606.7105284678363,4882.2548083739202,-2903.5946985646192,3959.7720532545895,-3959.7720532545895,2903.5946985646192,9702.0694880579158,0.0
648523.2936376977,3712751.2368613081,-17500.0,-12.084502625968826,-635.25457424530919,8995.2555024227058,149.35709079858228,-2753.0315870479253,626.30168894660108,5035.3688057634345,-3177.5648203105893,4819.9529752513108,-4819.9529752513108,3177.5648203105893,9990.2285217097742,0.0
653523.2936376977,3712751.2368613081,-17500.0,-1.2546406983010159,179.16267111085412,9153.4194543368485,-82.325490687050319,-2785.1483312973833,630.09749461508147,5094.9043395525932,-3254.377540564954,5498.1556617491642,-5498.1556617491642,3254.377540564954,10090.323294942977,0.0
658523.2936376977,3712751.2368613081,-17500.0,132.81595131822056,965.87321141714017,8996.3679245360709,-306.20636100215165,-2735.9970800358938,618.34718923306502,5056.5121614960053,-3135.1912643605974,5946.8168938564031,-5946.8168938564031,3135.1912643605974,10001.591026286538,0.0
663523.2936376977,3712751.2368613081,-17500.0,369.58631828094468,1664.286228679943,8555.3074195412973,-507.13866036737829,-2613.3870221373472,592.52192003859705,4925.5365173767304,-2843.6336537710727,6145.0381033109043,-6145.0381033109043,2843.6336537710727,9736.5975355093433,0.0
668523.2936376977,3712751.2368613081,-17500.0,676.45177529028638,2229.4328571700339,7884.330791315695,-673.64193007853123,-2430.5792492702794,555.0455833100724,4713.765499445527,-2419.8677406856832,6098.8926140082049,-6098.8926140082049,2419.8677406856832,9318.743473313225,0.0
673523.2936376977,3712751.2368613081,-17500.0,1015.5073292058433,2635.8992987758088,7050.4184777931696,-798.8625491617446,-2204.023762842779,508.92203665305789,4437.1111714006047,-1912.5486934774808,5837.0068536297222,-5837.0068536297222,1912.5486934774808,8778.700368417778,0.0
678523.2936376977,3712751.2368613081,-17500.0,1350.0809344550375,2877.7266363587623,6123.2547239555361,-880.6367733191729,-1951.016733475187,457.34001720555904,4113.5139230335817,-1370.8217321062352,5403.2173918691406,-5403.2173918691406,1370.8217321062352,8150.5383846975665,0.0
683523.2936376977,3712751.2368613081,-17500.0,1649.6756083628391,2965.216505600149,5166.862560175522,-920.83716000455161,-1687.7220154426063,403.32798139719773,3761.3102722603185,-837.99347441335567,4848.4152321280217,-4848.4152321280217,837.99347441335567,7468.2120268137814,0.0
688523.2936376977,3712751.2368613081,-17500.0,1892.720080721384,2920.0574220203998,4234.0969691284463,-924.29748999949766,-1427.8064259714849,349.5033271762357,3399.0865898542747,-347.66168311799652,4223.3080167822918,-4223.3080167822918,347.66168311799652,6762.8317209898223,0.0
693523.2936376977,3712751.2368613081,-17500.0,2067.2169659902784,2770.127783763332,3364.1113160262776,-897.61431454106275,-1181.7416533843555,297.93120580139333,3047.9783683409314,77.700512338944009,3573.1104580764754,-3573.1104580764754,-77.700512338944009,6060.8895350865032,0.0
698523.2936376977,3712751.2368613081,-17500.0,2169.8091325619262,2544.9570586221384,2582.2857915203513,-848.05523262821407,-956.68321169716796,250.0832218166239,2719.2940321105912,426.22304835586579,2934.4561296893817,-2934.4561296893817,-426.22304835586579,5383.4066651552876,0.0
583523.2936376977,3717751.2368613081,-17500.0,1293.6553482229906,-610.73992466143318,-925.18420260749349,305.52258762028265,49.525076106215124,35.642854406614703,1300.8730846367835,1272.513651480471,-1272.0332257508205,1272.0332257508205,-1272.513651480471,2262.944239495082,0.0
588523.2936376977,3717751.2368613081,-17500.0,1448.8133761105546,-911.33194248606344,-676.14530958025114,385.25833387018525,-37.99726075033589,57.302798641998073,1443.338730994835,1298.6707557710395,-1372.0789497566159,1372.0789497566159,-1298.6707557710395,2536.933122962917,0.0
593523.2936376977,3717751.2368613081,-17500.0,1571.3764845078754,-1237.8300932369466,-326.70708524988362,468.30731685659015,-151.40648034355743,83.858522570640389,1616.2500265758515,1266.6562943132683,-1424.6122105202742,1424.6122105202742,-1266.6562943132683,2883.6391134642604,0.0
598523.2936376977,3717751.2368613081,-17500.0,1647.9709298677242,-1576.2087521954811,136.83136100298563,550.59713645589613,-293.18390808253974,115.57941831289801,1821.6393692215183,1162.026822666315,-1408.7891379924979,1408.7891379924979,-1162.026822666315,3307.0762338597387,0.0
603523.2936376977,3717751.2368613081,-17500.0,1666.2338879595025,-1906.3894988614281,723.40909806132129,626.7437876010423,-464.42847991380262,152.44440663513654,2059.2088708341653,972.6496633354252,-1302.4661512833384,1302.4661512833384,-972.6496633354252,3805.4837350062512,0.0
608523.2936376977,3717751.2368613081,-17500.0,1616.9655816121297,-2202.5444193677577,1434.1053667505978,690.22567133668088,-664.18298488170819,194.03639076163867,2325.851622607664,691.30128766538792,-1084.6836700357123,1084.6836700357123,-691.30128766538792,4370.8380781014712,0.0
613523.2936376977,3717751.2368613081,-17500.0,1496.5686975149938,-2434.5893201463023,2258.9813889696493,733.82558743198854,-888.79874029083931,239.45349768609509,2615.3970566930902,318.49651620713814,-739.09021125630204,739.09021125630204,-318.49651620713814,4988.6989661184043,0.0
618523.2936376977,3717751.2368613081,-17500.0,1309.2996187697715,-2571.0906562098958,3174.5565881441366,750.36671440592954,-1131.4934603578474,287.26208266393991,2918.6348964453241,-135.0257750425472,-257.95878467642842,257.95878467642842,135.0257750425472,5638.4050388655851,0.0
623523.2936376977,3717751.2368613081,-17500.0,1068.6735448459081,-2583.4920870612518,4142.7906607634595,733.69641470973738,-1382.2789674677679,335.51684610738312,3223.697836249592,-646.92492645568666,353.91979875273216,-353.91979875273216,646.92492645568666,6293.7933834718069,0.0
628523.2936376977,3717751.2368613081,-17500.0,797.3451375125361,-2451.1202627149637,5112.4011678582256,679.78199878550947,-1628.4114745668262,381.86630510730254,3516.9307643704292,-1183.7537376462606,1076.4777831421329,-1076.4777831421329,1183.7537376462606,6924.6371574579634,0.0
633523.2936376977,3717751.2368613081,-17500.0,525.01891125309317,-2165.9730415029103,6022.9805802219307,587.69891231771692,-1855.4293882332547,423.74675064381614,3784.5753555106012,-1703.8032463345003,1873.8166601702751,-1873.8166601702751,1703.8032463345003,7498.8646706990094,0.0
638523.2936376977,3717751.2368613081,-17500.0,284.44062913009253,-1736.0346337476544,6811.6852116620703,460.25500182804194,-2048.6973814295325,458.64538988836989,4016.3033667853674,-2162.1876379592709,2696.6039920885419,-2696.6039920885419,2162.1876379592709,7985.4009097113649,0.0
643523.2936376977,3717751.2368613081,-17500.0,106.15211057238538,-1185.9981048634165,7421.4567611148486,304.03729203503411,-2195.2198598759837,484.3929447695815,4204.8067884106686,-2517.3392927618488,3487.4629024192918,-3487.4629024192918,2517.3392927618488,8357.2640597338541,0.0
648523.2936376977,3717751.2368613081,-17500.0,13.207235563984257,-554.85137854848335,7809.079257793207,128.79220443584805,-2285.3652606211131,499.43134023602664,4332.674807241202,-2737.4969782553585,4188.4969492982782,-4188.4969492982782,2737.4969782553585,8594.3888176389482,0.0
653523.2936376977,3717751.2368613081,-17500.0,17.192091205217288,109.34383678474312,7951.2411603157752,-53.774309291808031,-2314.1332950906958,503.00371919483797,4386.7262084595677,-2805.6218073938799,4749.3677804018253,-4749.3677804018253,2805.6218073938799,8685.6707426323628,0.0
658523.2936376977,3717751.2368613081,-17500.0,116.56004232872121,756.33115292106379,7847.1986787070837,-231.53083430985882,-2281.6860165644675,495.22791327710564,4364.1064673094852,-2721.5500403373117,5134.0821081611612,-5134.0821081611612,2721.5500403373117,8629.8332466015036,0.0
663523.2936376977,3717751.2368613081,-17500.0,297.59924163199253,1340.5955486069604,7517.6109956885784,-393.45760207812538,-2193.0662321125751,477.04442895771427,4268.3988397562707,-2501.0061891705118,5325.0385662165272,-5325.0385662165272,2501.0061891705118,8435.0345800298855,0.0
668523.2936376977,3717751.2368613081,-17500.0,537.58739064807503,1826.8583546539385,7000.0788723171909,-530.87640616151316,-2057.2117742672658,450.05455976487934,4107.7334611464967,-2171.9564898148346,5323.6766110837143,-5323.6766110837143,2171.9564898148346,8117.3408696070283,0.0
673523.2936376977,3717751.2368613081,-17500.0,809.15636735435044,2193.1870405921836,6342.7070875252757,-638.1734295782926,-1885.5386492093824,416.28962202953716,3893.3606958793512,-1769.4239796638208,5148.0316439714443,-5148.0316439714443,1769.4239796638208,7698.4575124189823,0.0
678523.2936376977,3717751.2368613081,-17500.0,1084.7445882086631,2431.5143701686716,5597.2166547422266,-712.96249063346363,-1690.4085902237525,377.95837186937553,3638.2558302766752,-1330.0598260753266,4828.171925065094,-4828.171925065094,1330.0598260753266,7203.1576761141805,0.0
683523.2936376977,3717751.2368613081,-17500.0,1340.231001988411,2546.0069540324675,4812.9248069518344,-755.77024948759356,-1483.762395918455,337.21680199843922,3355.8827287154672,-887.55003445406783,4400.7834696082418,-4400.7834696082418,887.55003445406783,6656.8366158116014,0.0
688523.2936376977,3717751.2368613081,-17500.0,1557.2532463508117,2550.0806630354978,4032.3955144564893,-769.40385177128053,-1276.0991194819783,295.9903085115011,3059.4653824588509,-469.48192779075498,3904.0374892844134,-3904.0374892844134,469.48192779075498,6083.4929578264282,0.0
693523.2936376977,3717751.2368613081,-17500.0,1724.1356181950002,2462.9199787013672,3289.0088576086064,-758.18201019931189,-1075.8681095252869,255.86155563472639,2763.3782307010251,-95.815563181413154,3373.5074941697721,-3373.5074941697721,95.815563181413154,5504.292931917319,0.0
588523.2936376977,3722751.2368613081,-17500.0,1310.8279326344352,-952.01538937172052,-393.19983940575963,360.60477011891084,-83.871849758010356,56.686472674215196,1318.2731084940915,1093.871492806564,-1199.3531133820304,1199.3531133820304,-1093.871492806564,2338.7390488639303,0.0
593523.2936376977,3722751.2368613081,-17500.0,1392.8565202435857,-1226.1467329252471,-51.906660800073993,426.49970401899441,-185.77202290909275,78.923498196166534,1475.3511833337031,1034.7245105645632,-1210.0032146138103,1210.0032146138103,-1034.7245105645632,2659.8845353090724,0.0
598523.2936376977,3722751.2368613081,-17500.0,1434.2253237080677,-1501.7836099595997,382.86368464149143,489.88651359374609,-309.67857561617558,104.95772545963194,1658.0997349694903,913.97883892688105,-1158.1110815750599,1158.1110815750599,-913.97883892688105,3041.1352429021172,0.0
603523.2936376977,3722751.2368613081,-17500.0,1426.7495040539932,-1761.8928315693008,915.06224679528168,546.4865469504432,-455.73771020584263,134.66467831164803,1865.2666877894781,724.2956634608064,-1027.5363828872348,1027.5363828872348,-724.2956634608064,3478.7923155651583,0.0
608523.2936376977,3722751.2368613081,-17500.0,1365.2347437683341,-1985.7838604012607,1542.0254397011531,591.35437370367652,-622.48487665854839,167.62974234181027,2093.5151529065406,462.71110355251608,-804.05231140024785,804.05231140024785,-462.71110355251608,3964.695824758398,0.0
613523.2936376977,3722751.2368613081,-17500.0,1249.0917215961738,-2150.5110722317531,2252.4866410963955,619.24542429986718,-806.46997408528421,203.09934727086591,2337.3328507579454,132.47044963875607,-477.84458542557974,477.84458542557974,-132.47044963875607,4486.2138385375638,0.0
618523.2936376977,3722751.2368613081,-17500.0,1083.6730294626288,-2233.1767819482657,3025.2119199957119,625.16080239019891,-1002.0445447097364,239.9630217817807,2589.132906321091,-255.54447169889946,-46.224570605604498,46.224570605604498,255.54447169889946,5026.4807914025823,0.0
623523.2936376977,3722751.2368613081,-17500.0,880.91780224103218,-2213.9835141440199,3828.7973617784423,605.02388972128222,-1201.4149678680033,276.78067992936798,2839.6083788574397,-682.2718213743251,483.95260082649952,-483.95260082649952,682.2718213743251,5565.0178376417234,0.0
628523.2936376977,3722751.2368613081,-17500.0,658.92327197467466,-2079.6136654294241,4623.0759307555591,556.39124184630407,-1395.0387934459832,311.86363827493989,3078.4564747644185,-1121.2326114986672,1094.8056226316585,-1094.8056226316585,1121.2326114986672,6078.8359412916852,0.0
633523.2936376977,3722751.2368613081,-17500.0,440.24258232009345,-1826.2761147612293,5362.3179277339223,479.05899249592841,-1572.3835256282703,343.40877022565576,3295.9274530317639,-1540.8054268698381,1757.497307829223,-1757.497307829223,1540.8054268698381,6544.0309874056356,0.0
638523.2936376977,3722751.2368613081,-17500.0,249.02185453776508,-1461.6569246703118,5999.976269901249,375.41417833807151,-1722.9797938655654,369.67226430344539,3486.4476931297809,-1907.8502751725869,2434.227791825158,-2434.227791825158,1907.8502751725869,6937.7436263252712,0.0
643523.2936376977,3722751.2368613081,-17500.0,107.44962714801396,-1005.139123829677,6494.2620373281516,250.41302726604769,-1837.6125129611232,389.1574486651478,3643.4512806441935,-2192.1073435797298,3082.0827254728292,-3082.0827254728292,2192.1073435797298,7240.2355154947327,0.0
648523.2936376977,3722751.2368613081,-17500.0,32.265598727550241,-486.0214644982118,6813.4999886722262,111.14488653176106,-1909.4360622091315,400.78495053659418,3750.609327380188,-2370.4899067351089,3658.1570822486256,-3658.1570822486256,2370.4899067351089,7436.7653343666825,0.0
653523.2936376977,3722751.2368613081,-17500.0,32.134945669983438,60.02850094804139,6940.1482587663158,-33.960494924989518,-1934.7922527824849,404.01340577558551,3799.050968293011,-2430.326378957403,4124.9677754493678,-4124.9677754493678,2430.326378957403,7518.9449766872058,0.0
658523.2936376977,3722751.2368613081,-17500.0,106.49390731897951,595.5808113661177,6872.6544795828004,-176.13462005011345,-1913.5724466985084,398.88892475702346,3786.9196665919512,-2370.8440792221236,4455.0459508327631,-4455.0459508327631,2370.8440792221236,7485.3543901006196,0.0
663523.2936376977,3722751.2368613081,-17500.0,246.07396704361793,1086.1428623868217,6624.8475995270173,-307.28484824688547,-1849.0681088517058,386.01629542248241,3716.6422274303,-2202.6436117854591,4633.8072511394948,-4633.8072511394948,2202.6436117854591,7341.3367975697192,0.0
668523.2936376977,3722751.2368613081,-17500.0,434.87105552399646,1504.0221772076472,6223.1561960847321,-420.8336698063261,-1747.3707479780903,366.46122706483067,3593.8955823508973,-1945.4206877150191,4660.2604467472956,-4660.2604467472956,1945.4206877150191,7098.0536079124131,0.0
673523.2936376977,3722751.2368613081,-17500.0,652.99520723990327,1830.7230634214675,5702.4099255533674,-512.2535348059647,-1616.473200148034,341.60650561501308,3426.7226694522965,-1624.5814838547499,4545.6682984893341,-4545.6682984893341,1624.5814838547499,6771.0184825552969,0.0
678523.2936376977,3722751.2368613081,-17500.0,879.71549354706883,2057.6670654596805,5101.1506844872783,-579.24976876103437,-1465.2593568730881,312.98945995732004,3224.6009941764969,-1267.5402306765616,4310.6941809065511,-4310.6941809065511,1267.5402306765616,6378.3710914032326,0.0
683523.2936376977,3722751.2368613081,-17500.0,1096.1023331912729,2185.4307922248986,4457.324090230627,-621.62578060217027,-1302.5621260884045,282.14829622577156,2997.5562407053244,-900.41059585582775,3981.8027596752045,-3981.8027596752045,900.41059585582775,5939.1747108219915,0.0
688523.2936376977,3722751.2368613081,-17500.0,1286.887674037416,2221.9447707813788,3804.9281955146607,-640.91658314393123,-1136.412311185582,250.49705123738758,2755.4528441042912,-545.55246059505657,3587.6429935826154,-3587.6429935826154,545.55246059505657,5471.932372664709,0.0
598523.2936376977,3727751.2368613081,-17500.0,1246.6012100401617,-1410.8274799025801,562.73897202956903,433.35464522132065,-313.47863070251611,94.352927035489301,1512.0542772861984,709.65196573278877,-941.48501238392441,941.48501238392441,-709.65196573278877,2799.4396603919677,0.0
603523.2936376977,3727751.2368613081,-17500.0,1223.1771308843363,-1614.5154108330069,1040.9477450842835,475.16822984239343,-437.61217875644701,118.29896950643342,1692.174213477243,526.88850000514094,-798.57340893853848,798.57340893853848,-526.88850000514094,3181.8972114449998,0.0
608523.2936376977,3727751.2368613081,-17500.0,1156.7980208174852,-1782.4676056263481,1591.1870338604424,506.48222036857322,-576.7162902615205,144.48313779298721,1887.4621402463902,288.21931502181872,-578.82509521513555,578.82509521513555,-288.21931502181872,3598.9114676941549,0.0
613523.2936376977,3727751.2368613081,-17500.0,1048.5594267350598,-1897.2742891030441,2202.1773213135884,523.49307821975367,-727.70642119438537,172.29028744503276,2093.149917665462,-1.8245326930179715,-276.75210441436798,276.75210441436798,1.8245326930179715,4039.7172809696435,0.0
618523.2936376977,3727751.2368613081,-17500.0,904.00788617327032,-1942.2729509574854,2855.3375719364312,522.71680036648968,-885.95766398532487,200.86564748837978,2303.0500095727484,-333.05292860426789,107.38570705685883,-107.38570705685883,333.05292860426789,4490.6450571566656,0.0
623523.2936376977,3727751.2368613081,-17500.0,733.37195511655079,-1903.7346050667413,3524.9757894021641,501.4526912838802,-1045.4055929837014,229.14155885193486,2509.8677444602999,-689.50986099788201,566.0965216840043,-566.0965216840043,689.50986099788201,4935.636845797022,0.0
628523.2936376977,3727751.2368613081,-17500.0,551.04670158286933,-1773.1507529512439,4179.5850393342398,458.24656487097815,-1198.8730854017144,255.89857988679896,2705.8332666872143,-1050.2699560465207,1083.905392034515,-1083.905392034515,1050.2699560465207,5357.0896672154404,0.0
633523.2936376977,3727751.2368613081,-17500.0,374.25163869879617,-1549.1845640531324,4784.2899999251358,393.2652387649207,-1338.621040586077,279.85801602314149,2884.3716544607814,-1391.2102613302748,1637.6875283672309,-1637.6875283672309,1391.2102613302748,5737.0060097587266,0.0
638523.2936376977,3727751.2368613081,-17500.0,220.97937077573943,-1238.8210555721375,5304.2340434309854,308.49353697422441,-1457.0725957333732,299.79760744371276,3043.6260976810963,-1687.6036117782396,2198.2670685534981,-2198.2670685534981,1687.6036117782396,6058.3625237874858,0.0
643523.2936376977,3727751.2368613081,-17500.0,107.5595636632971,-857.349549171886,5708.4147362545282,207.68767537351863,-1547.6072406369601,314.67346577637881,3175.088700083917,-1917.1385719807663,2733.1843875416093,-2733.1843875416093,1917.1385719807663,6306.5261147911342,0.0
648523.2936376977,3727751.2368613081,-17500.0,46.311964801702153,-427.04657963561181,5973.3033551445596,96.066488991727638,-1605.2933577732279,323.72944715991844,3265.1542225579674,-2062.8081085291665,3210.2372911231546,-3210.2372911231546,2062.8081085291665,6470.5200192286084,0.0
653523.2936376977,3727751.2368613081,-17500.0,43.782537589038142,25.275056344641275,6085.5629517790994,-20.220979947297934,-1627.4268623338503,326.57501239965694,3308.2240386418539,-2115.0878898733376,3601.175042510336,-3601.175042510336,2115.0878898733376,6543.9445174723269,0.0
658523.2936376977,3727751.2368613081,-17500.0,99.934251407830814,471.40655331973147,6043.3519649315504,-134.76066826563581,-1613.7792799662034,323.21849643035694,3303.0377721372902,-2072.969259499107,3884.8538710754879,-3884.8538710754879,2072.969259499107,6525.4120832712533,0.0
663523.2936376977,3727751.2368613081,-17500.0,208.42944645589515,884.97710206412762,5856.0182133995395,-241.5534060558374,-1566.5204990302643,314.05159702120847,3251.2448001821613,-1943.6835886509989,4049.2908279888588,-4049.2908279888588,1943.6835886509989,6418.4469638095507,0.0
668523.2936376977,3727751.2368613081,-17500.0,357.87788103080123,1244.1925565903202,5542.335048107152,-335.59288296677579,-1489.8471736353054,299.7895708818665,3156.8519227750671,-1741.2552075987248,4092.3146865384724,-4092.3146865384724,1741.2552075987248,6230.888670983114,0.0
673523.2936376977,3727751.2368613081,-17500.0,533.71986445479274,1533.6592331368799,5127.7294003502611,-413.25832959925077,-1389.4059340479162,281.38086035384043,3025.6679433371287,-1484.2642269047083,4020.8489427119475,-4020.8489427119475,1484.2642269047083,5973.9327247482024,0.0
678523.2936376977,3727751.2368613081,-17500.0,720.3204014921215,1745.113751924461,4641.0668539103781,-472.48367237687955,-1271.6217954468498,259.90173564544756,2864.6776494076021,-1193.3044390593855,3849.118037179333,-3849.118037179333,1193.3044390593855,5660.9608193466702,0.0
608523.2936376977,3732751.2368613081,-17500.0,984.23136068206031,-1595.7575961639761,1598.6154015040343,434.10394621555616,-530.09417023051049,124.41906613511308,1704.60482421352,156.00481512130767,-399.29178772832535,399.29178772832535,-156.00481512130767,3269.9640665892589,0.0
613523.2936376977,3732751.2368613081,-17500.0,885.50412007254158,-1673.6834104323107,2123.9615781801153,443.63512626961051,-654.33690531018078,146.31617173343218,1878.5618499176085,-97.387668226228797,-123.096090302099,123.096090302099,97.387668226228797,3643.3753215772763,0.0
618523.2936376977,3732751.2368613081,-17500.0,760.00698951524294,-1692.5550878943368,2677.307890059009,438.78349313123601,-782.96499898324441,168.59400113445545,2054.2694189596227,-379.98216214202023,217.11024568795696,-217.11024568795696,379.98216214202023,4021.2749630397147,0.0
623523.2936376977,3732751.2368613081,-17500.0,616.34709825868606,-1642.8553100918239,3237.7342435019473,417.76245770749972,-911.26045614867905,190.45878228361684,2226.0071941574038,-678.57118007982274,613.96597358892848,-613.96597358892848,678.57118007982274,4391.0310360390404,0.0
628523.2936376977,3732751.2368613081,-17500.0,465.96259246633599,-1519.2261886939323,3780.4527663633094,379.73280972253747,-1033.795903679249,211.02412314718006,2387.9565065783208,-976.60742851727048,1054.3035518417573,-1054.3035518417573,976.60742851727048,4739.0681949595137,0.0
633523.2936376977,3732751.2368613081,-17500.0,322.08268423738809,-1321.727335763575,4278.6662672729317,325.03557295376015,-1144.8344000048355,229.37535175611214,2536.3986198941893,-1255.5661051495531,1519.567350306781,-1519.567350306781,1255.5661051495531,5051.7050428977,0.0
638523.2936376977,3732751.2368613081,-17500.0,198.24996671597154,-1056.5114032592676,4706.0008775766491,255.30109882297467,-1238.8311820125064,244.64696438445623,2671.4391768439782,-1496.8108718106414,1987.0712102907928,-1987.0712102907928,1496.8108718106414,5316.1186902351446,0.0
643523.2936376977,3732751.2368613081,-17500.0,106.62753977225351,-735.70464656790989,5039.1809218531298,173.39752759653422,-1310.9707591778404,256.10282751015035,2781.6789108129574,-1683.6943704431555,2432.0041795807206,-2432.0041795807206,1683.6943704431555,5521.326649962426,0.0
648523.2936376977,3732751.2368613081,-17500.0,56.395565337496784,-376.42824674798186,5260.5142759966202,83.21036569933878,-1357.6556935049291,263.20727458155432,2857.6336022982755,-1803.5331961477414,2829.9133777110155,-2829.9133777110155,1803.5331961477414,5659.0549977977962,0.0
653523.2936376977,3732751.2368613081,-17500.0,52.546892245683146,0.92098021597829938,5359.7602290298255,-10.720375608261428,-1376.8668455196082,265.67607703632598,2895.7543869012065,-1849.0952764344793,3159.2651517358545,-3159.2651517358545,1849.0952764344793,5724.3732979616825,0.0
658523.2936376977,3732751.2368613081,-17500.0,95.313547621157966,374.84789102651439,5335.0562077080122,-103.64935308475989,-1368.3356217484124,263.4990277116168,2895.1261441382758,-1819.3277506195645,3403.6474711284764,-3403.6474711284764,1819.3277506195645,5716.0065058966402,0.0
663523.2936376977,3732751.2368613081,-17500.0,180.31569813872858,725.01539440475256,5192.7730809147479,-191.08768706580074,-1333.5050452516934,256.93165294870903,2856.8685586944694,-1719.2167871815598,3553.2509547026766,-3553.2509547026766,1719.2167871815598,5636.2893295414497,0.0
668523.2936376977,3732751.2368613081,-17500.0,299.36468815378265,1034.2054053432778,4946.3814386799504,-269.20532372721487,-1275.2967868057765,246.45835646103248,2783.8373662623244,-1558.8545135825871,3605.426683798245,-3605.426683798245,1558.8545135825871,5490.785283799898,0.0
628523.2936376977,3737751.2368613081,-17500.0,398.07944967346242,-1307.861266944775,3422.7874919291107,316.55063161668289,-894.60144031343691,174.90510363199175,2115.7624780506444,-903.75260821482675,1013.2317820146284,-1013.2317820146284,903.75260821482675,4207.9394206428851,0.0
633523.2936376977,3737751.2368613081,-17500.0,280.23490234371832,-1133.865044972378,3836.060209941495,270.3958022557951,-983.52806038820199,189.07774446047941,2241.378008616442,-1133.5084486985515,1406.1859902727952,-1406.1859902727952,1133.5084486985515,4467.0589879172521,0.0
638523.2936376977,3737751.2368613081,-17500.0,179.43650493188852,-906.318339805665,4189.8908610259659,212.70438546621853,-1058.7447935303242,200.87503222932412,2356.5417993468664,-1331.3341641258817,1798.5603304430733,-1798.5603304430733,1331.3341641258817,4686.2581445173364,0.0
643523.2936376977,3737751.2368613081,-17500.0,104.84580438585866,-634.89406193439049,4466.6102607653647,145.68292527156012,-1116.7080345700579,209.77211026378214,2449.1100778731416,-1484.6703765520815,2171.2027692571228,-2171.2027692571228,1484.6703765520815,4857.199535564595,0.0
648523.2936376977,3737751.2368613081,-17500.0,63.382701471882193,-332.88358424765323,4652.7646481457477,72.255264704349798,-1154.7628088928655,215.38538312501313,2513.4229129493606,-1583.9497676840031,2505.3436797748254,-2505.3436797748254,1583.9497676840031,4973.5763240232336,0.0
633523.2936376977,3517751.2368613081,-22500.0,196.30516024596301,822.24426598736363,4683.6651701922756,270.9072311339952,1497.5639234906071,356.00968227000817,2705.4889452205107,-1145.3551942989686,3486.2804804436346,-3486.2804804436346,1145.3551942989686,5331.2077341811682,0.0
638523.2936376977,3517751.2368613081,-22500.0,97.175057205502469,501.33429447120596,4863.4161542357706,171.43033326458672,1546.9180844913283,365.63274389368519,2756.7070477880707,-1329.9373438585603,3419.5978205884762,-3419.5978205884762,1329.9373438585603,5434.2092016928063,0.0
643523.2936376977,3517751.2368613081,-22500.0,36.7090910341716,148.79043564369664,4936.3781151119892,63.230935038045807,1566.1731361352511,368.8633804770302,2772.4840556082727,-1460.3725648033774,3257.283557941259,-3257.283557941259,1460.3725648033774,5470.5339817987506,0.0
648523.2936376977,3517751.2368613081,-22500.0,21.290697738184008,-216.82207175607007,4892.6754750131568,-48.556325177537872,1552.7614887927762,365.21792336671706,2750.880328975833,-1525.9233599926747,3003.5179397472612,-3003.5179397472612,1525.9233599926747,5436.4130673779282,0.0
653523.2936376977,3517751.2368613081,-22500.0,53.040115755042976,-574.70649270486172,4729.9402981148723,-158.22100321658388,1506.0932799583766,354.60918744644272,2691.8608809736752,-1520.743111990158,2669.4974286504489,-2669.4974286504489,1520.743111990158,5331.4956620094845,0.0
658523.2936376977,3517751.2368613081,-22500.0,129.28663223277181,-903.94855840556147,4454.0181241002592,-260.02231147414943,1427.7323743106465,337.37788045582664,2597.755731423847,-1444.8170831739235,2272.6467862854129,-2272.6467862854129,1444.8170831739235,5159.0821532568016,0.0
663523.2936376977,3517751.2368613081,-22500.0,242.74849876718528,-1185.7720139736857,4078.6432251334418,-348.76970917487853,1321.3144776776953,314.27438690468699,2475.2648735555013,-1304.118556517969,1834.9499651181518,-1834.9499651181518,1304.118556517969,4926.0066089661786,0.0
668523.2936376977,3517751.2368613081,-22500.0,382.4243960497202,-1405.5471449633069,3624.0845469663682,-420.3432316581011,1192.2074369109114,286.39178592491555,2337.8886213166857,-1109.9139166687121,1380.6465898891468,-1380.6465898891468,1109.9139166687121,4642.167298461065,0.0
673523.2936376977,3517751.2368613081,-22500.0,535.03796770775944,-1554.1997974332753,3114.9770325563277,-472.06649057642386,1046.9651911734104,255.05957654957541,2188.9940099707496,-877.33465295524684,933.68453576036927,-933.68453576036927,877.33465295524684,4319.763922565252,0.0
678523.2936376977,3517751.2368613081,-22500.0,686.75519505738475,-1628.799604642903,2577.7187126288195,-502.87637230429897,892.66755371833233,221.71557661029195,2029.8994753230061,-623.49089014684068,515.3642955145267,-515.3642955145267,623.49089014684068,3972.3497205464164,0.0
683523.2936376977,3517751.2368613081,-22500.0,824.84823371576886,-1632.2865015282161,2037.8763072917629,-513.27630028721751,736.25359437368741,187.77604697335744,1865.8688424272991,-365.48138832748725,142.54459511058462,-142.54459511058462,365.48138832748725,3613.8245588330701,0.0
618523.2936376977,3522751.2368613081,-22500.0,754.35018583843816,1714.2078094823844,3993.9672716149557,583.07546558238187,1381.7042821998862,353.55690800335719,2654.3189912362582,-358.99475039459912,3496.5909584956594,-3496.5909584956594,358.99475039459912,5245.6598510639096,0.0
623523.2936376977,3522751.2368613081,-22500.0,572.72993272511337,1548.9679638182859,4469.9916473209432,523.60135350419444,1521.856900800115,383.92162679003252,2818.2660187532106,-665.31170809859827,3734.3717612515075,-3734.3717612515075,665.31170809859827,5561.354016881337,0.0
628523.2936376977,3522751.2368613081,-22500.0,394.79674964143146,1307.3606064367564,4892.1130524979999,441.74556693329919,1644.8843743506172,410.17635301949252,2956.9570966398096,-966.44638341476025,3888.8813245192077,-3888.8813245192077,966.44638341476025,5829.8241858213978,0.0
633523.2936376977,3522751.2368613081,-22500.0,235.68224682758017,993.85797915741659,5232.336565224552,339.07687483757365,1743.0224934837629,430.70726296556757,3063.2686603893776,-1242.3987426562824,3942.1018399116301,-3942.1018399116301,1242.3987426562824,6037.6054204558559,0.0
638523.2936376977,3522751.2368613081,-22500.0,110.48996551537769,619.8071181051115,5464.2832134253576,219.04553513840341,1809.0364281666705,444.03417601341641,3130.901925561338,-1472.4796525594793,3881.3955061995011,-3881.3955061995011,1472.4796525594793,6172.7539206852352,0.0
643523.2936376977,3522751.2368613081,-22500.0,32.288727279017472,203.3013738244604,5566.2711471038338,86.923954148216311,1837.0361581025184,448.97403081040062,3155.0115857239325,-1637.680409895408,3701.7762919336765,-3701.7762919336765,1637.680409895408,6226.0281180304955,0.0
648523.2936376977,3522751.2368613081,-22500.0,10.080921053370149,-232.00325742833959,5524.3063059673368,-50.527022485941295,1823.2583158309624,444.79476929514271,3132.8095187531799,-1723.2114186231379,3407.4603116773228,-3407.4603116773228,1723.2114186231379,6191.9702616736249,0.0
653523.2936376977,3522751.2368613081,-22500.0,47.161411728391833,-659.1034021308725,5334.4158297139165,-185.656224869623,1766.6711429983613,431.33175950107648,3064.1248955345786,-1720.7420349832878,3012.2687844622164,-3012.2687844622164,1720.7420349832878,6069.7180442096733,0.0
658523.2936376977,3522751.2368613081,-22500.0,140.26786263784643,-1050.6215668887012,5003.7911235146239,-310.71334973312304,1669.2686520385907,409.04160450377736,2952.2437820808373,-1629.8531254647198,2538.640651953383,-2538.640651953383,1629.8531254647198,5863.3888983681263,0.0
663523.2936376977,3522751.2368613081,-22500.0,279.78368056571941,-1382.0386458966586,4550.4041808167476,-418.70598755700547,1535.9703791395698,378.97800171981515,2806.983933882409,-1458.3338744169005,2015.3067623865381,-2015.3067623865381,1458.3338744169005,5581.941351731557,0.0
668523.2936376977,3522751.2368613081,-22500.0,451.01483453277473,-1634.5758780079636,4001.0804683570536,-504.16871103145002,1374.1224934421139,342.68982892049547,2643.2185450913803,-1221.2011553508539,1473.9974710759063,-1473.9974710759063,1221.2011553508539,5238.5085895133943,0.0
673523.2936376977,3522751.2368613081,-22500.0,636.29636710958414,-1797.1712105259232,3388.3578343832819,-563.70312152598444,1192.6817013382581,302.05733320815909,2463.9372233139529,-938.6190969021709,945.79162162709099,-945.79162162709099,938.6190969021709,4849.2917057133545,0.0
678523.2936376977,3522751.2368613081,-22500.0,817.48085758687989,-1867.2091040631119,2746.7334227650949,-596.1999930283223,1001.2319243759025,259.09528211172795,2273.0578584046243,-633.15653988085137,457.79130305867494,-457.79130305867494,633.15653988085137,4432.1829411822819,0.0
683523.2936376977,3522751.2368613081,-22500.0,978.29393073880647,-1849.9645800034116,2108.9992001994005,-602.72843231784282,809.01019213578616,215.75712114043156,2077.8231053269119,-326.94642422183762,30.690892688651218,-30.690892688651218,326.94642422183762,4005.3221075541855,0.0
688523.2936376977,3522751.2368613081,-22500.0,1106.122809098744,-1757.0103805542421,1503.2723766554709,-586.14902437229,624.09754376071908,173.77015257859054,1885.6483625289397,-39.273764403569317,-322.44904435240608,322.44904435240608,39.273764403569317,3585.7711040034824,0.0
693523.2936376977,3522751.2368613081,-22500.0,1192.9930939591804,-1604.0225515111663,951.09961058666636,-550.55646112725753,452.87733661516108,134.5222738837771,1703.0241814311428,215.05071538671956,-596.21096706416574,596.21096706416574,-215.05071538671956,3188.4371837199478,0.0
698523.2936376977,3522751.2368613081,-22500.0,1235.7086152892537,-1408.4620933798633,466.72589013745261,-500.67156421329798,299.79223312766828,99.007192986352933,1535.0141465701802,426.40668394172673,-791.85211396302702,791.85211396302702,-426.40668394172673,2825.289259150516,0.0
613523.2936376977,3527751.2368613081,-22500.0,1120.7968575370041,2075.3594483600591,3720.6433444726081,743.99112237424242,1384.3893015732485,377.78315109505337,2743.0025243070395,71.527011750850761,3476.1501824410134,-3476.1501824410134,-71.527011750850761,5438.2453790876934,0.0
618523.2936376977,3527751.2368613081,-22500.0,921.36263352929893,1997.814939488158,4323.4649724989549,707.46952489586988,1571.3817017610058,420.5082998468198,2966.0177568446175,-270.44372098900362,3854.8319350062056,-3854.8319350062056,270.44372098900362,5866.1884925118893,0.0
623523.2936376977,3527751.2368613081,-22500.0,704.60939252306412,1828.8658713604257,4903.5056336736097,642.63707415029023,1749.1232638097847,460.51402563032093,3169.9140395867948,-634.70990771071388,4164.8900552438181,-4164.8900552438181,634.70990771071388,6258.333503426833,0.0
628523.2936376977,3527751.2368613081,-22500.0,487.29729234808741,1564.0389817945402,5426.6597012977763,548.63775095740675,1907.6237804865862,495.60209381310807,3344.9877460945045,-999.85993695960087,4378.4016646530654,-4378.4016646530654,999.85993695960087,6596.5975298771873,0.0
633523.2936376977,3527751.2368613081,-22500.0,288.99248512167713,1206.7995926436242,5856.3494270550545,426.91874297537873,2036.3397754924406,523.49643470133844,3481.6967808104132,-1340.3377959035297,4470.324471327669,-4470.324471327669,1340.3377959035297,6863.0023956823979,0.0
638523.2936376977,3527751.2368613081,-22500.0,129.88694366910912,769.91332496306325,6157.146934923534,281.5663149551354,2125.190089470515,542.06028191167331,3571.4250194303536,-1628.8389818982473,4422.0930520043603,-4422.0930520043603,1628.8389818982473,7041.229373770856,0.0
643523.2936376977,3527751.2368613081,-22500.0,27.981797128425793,275.60994318904773,6299.1270970470487,119.31084671471177,2165.7512037695833,549.5448636596019,3607.3842237306903,-1839.5831627499181,4225.0469544971938,-4225.0469544971938,1839.5831627499181,7118.3225705531413,0.0
648523.2936376977,3527751.2368613081,-22500.0,-3.9012923824500803,-245.80807193458264,6262.2731850234377,-50.88653889322871,2152.4496977005601,544.83168190458719,3585.5240332935705,-1951.9924328159514,3882.9421179218052,-3882.9421179218052,1951.9924328159514,7086.3069470334276,0.0
653523.2936376977,3527751.2368613081,-22500.0,39.36410546377536,-758.958908458476,6040.051828024044,-218.67147013070877,2083.5201594321575,527.62224699675357,3505.4267004038229,-1954.0625822223092,3412.8285353108095,-3412.8285353108095,1954.0625822223092,6943.4458876796307,0.0
658523.2936376977,3527751.2368613081,-22500.0,153.82457007496902,-1227.608525694016,5641.2838247062882,-373.45715072477634,1961.502138493639,498.53131567557642,3371.7264577992387,-1844.6384282888603,2843.8438499512786,-2843.8438499512786,1844.6384282888603,6694.8800075669133,0.0
663523.2936376977,3527751.2368613081,-22500.0,326.64865206415732,-1619.371982640761,5089.7241439764875,-505.70921633796559,1793.1260103863603,459.05584502662134,3197.9709472634354,-1633.9676065726935,2213.9423403322899,-2213.9423403322899,1633.9676065726935,6352.4782020072362,0.0
668523.2936376977,3527751.2368613081,-22500.0,537.98087022700054,-1909.9168630014572,4421.280739593818,-608.10158841321595,1588.5693012606866,411.41760420325892,3000.2413303892145,-1342.3003590294625,1565.1168241124633,-1565.1168241124633,1342.3003590294625,5933.8761717021989,0.0
673523.2936376977,3527751.2368613081,-22500.0,764.06161018553837,-2085.7744406501151,3679.39456281393,-676.31002890664911,1360.2174393837247,358.30656650238791,2782.768228284252,-996.81126383658159,938.0857887133551,-938.0857887133551,996.81126383658159,5460.8460603021795,0.0
678523.2936376977,3527751.2368613081,-22500.0,980.88714602250923,-2145.2244220791213,2909.5486407342487,-709.29956427503294,1121.1765506131712,302.57446042518876,2552.4917622377257,-627.550698751151,367.53813952701535,-367.53813952701535,627.550698751151,4957.2644140234161,0.0
683523.2936376977,3527751.2368613081,-22500.0,1167.579296680547,-2097.2312988024182,2154.0312177060091,-709.09120168159029,883.83113266237092,246.93548973443976,2319.2069211242324,-263.34003251882064,-121.17612496309083,121.17612496309083,263.34003251882064,4447.0084366719111,0.0
688523.2936376977,3527751.2368613081,-22500.0,1308.7978341210742,-1958.8860700604496,1447.8889391929715,-680.11579619963857,658.69579539146355,193.72443398830822,2092.4465685908544,71.566854114467162,-513.47346058856328,513.47346058856328,-71.566854114467162,3952.0689091164795,0.0
693523.2936376977,3527751.2368613081,-22500.0,1395.8649762552006,-1752.0846894506153,816.59071555900937,-628.33849088321369,453.7085289972855,144.74228256131454,1880.2157600705755,359.54549361074697,-805.15018735682133,805.15018735682133,-359.54549361074697,3491.0611327508741,0.0
698523.2936376977,3527751.2368613081,-22500.0,1426.6401276106658,-1500.200088907488,275.4477206947991,-560.35067310425109,273.9926898342581,101.19660919780229,1688.3781040275928,590.27075060648053,-1000.6375124269741,1000.6375124269741,-590.27075060648053,3078.1811995263984,0.0
703523.2936376977,3527751.2368613081,-22500.0,1404.4556942817242,-1225.3239756062285,-169.53919412529933,-482.58681315664705,122.01474129133787,63.724435090945839,1520.3953861990244,760.21088524526272,-1110.529307594953,1110.529307594953,-760.21088524526272,2722.5549568320075,0.0
708523.2936376977,3527751.2368613081,-22500.0,1336.5436555339697,-946.38163764491378,-519.92352599839251,-400.75721994397821,-1.9899485945762527,32.472997742359446,1377.3520921192021,871.3469847446695,-1148.9847043153345,1148.9847043153345,-871.3469847446695,2427.9315966358322,0.0
603523.2936376977,3532751.2368613081,-22500.0,1686.6538111824223,2225.7784142876712,2582.616452513651,869.95131209857755,1102.2110070049105,335.36056088913159,2495.3236353583293,875.66533698179592,2724.4637495672664,-2724.4637495672664,-875.66533698179592,4961.5292591474799,0.0
608523.2936376977,3532751.2368613081,-22500.0,1550.5186239293594,2342.8008677860312,3237.0940181383789,894.88759240701381,1321.3030592491473,389.29629129740397,2764.6463651263698,599.8187986896769,3246.9597863413705,-3246.9597863413705,-599.8187986896769,5500.6915319939581,0.0
613523.2936376977,3532751.2368613081,-22500.0,1363.5839473963474,2383.9922134267663,3938.613050044939,893.70894630146609,1552.1371159231842,445.15258415242027,3044.8687294879569,259.08552097264078,3762.1393090482243,-3762.1393090482243,-259.08552097264078,6042.6046602959923,0.0
618523.2936376977,3532751.2368613081,-22500.0,1133.9119151787556,2329.6606266743829,4661.0377563354587,860.81895977436341,1786.2189611967569,500.85577112319334,3319.0012116560233,-136.51415262813907,4239.2690680410815,-4239.2690680410815,136.51415262813907,6568.9393168495189,0.0
623523.2936376977,3532751.2368613081,-22500.0,875.95182072650061,2163.848801913035,5369.1077189307134,791.91395115415776,2012.4860771745946,553.79610977762172,3573.6479680882853,-568.98938715475356,4642.8739593428527,-4642.8739593428527,568.98938715475356,7058.1965631199537,0.0
628523.2936376977,3532751.2368613081,-22500.0,610.29196967023915,1877.5886363288585,6019.7401552525007,684.90176683632853,2217.7565785909719,600.94623447219965,3795.8667669168412,-1012.3654797500487,4935.6717616241212,-4935.6717616241212,1012.3654797500487,7486.747862970039,0.0
633523.2936376977,3532751.2368613081,-22500.0,362.18425852333149,1472.0960741408503,6565.0695289408823,540.77498252598366,2387.6614147280688,639.08111790910039,3972.77423213781,-1434.0736688933212,5082.8193622738781,-5082.8193622738781,1434.0736688933212,7830.4656625271255,0.0
638523.2936376977,3532751.2368613081,-22500.0,158.72056106002898,961.16945742331268,6957.2593778466307,364.23573031670759,2508.054770283687,665.09378161438531,4092.4772632842446,-1797.9687141734244,5057.0503200968051,-5057.0503200968051,1797.9687141734244,8066.8770449118265,0.0
643523.2936376977,3532751.2368613081,-22500.0,24.884872301817758,371.96395353029112,7154.6593839404932,163.85163289379273,2566.7723921967054,676.37521148802932,4145.3600641515395,-2068.8317078050322,4843.8645534085927,-4843.8645534085927,2068.8317078050322,8177.6353669609089,0.0
648523.2936376977,3532751.2368613081,-22500.0,-20.87287070491271,-256.52883629187249,7128.3484458778057,-48.42866208822192,2555.4680204849246,671.19967131923522,4125.4622555846481,-2217.7302467518703,4445.60867900422,-4445.60867900422,2217.7302467518703,8150.9666675487033,0.0
653523.2936376977,3532751.2368613081,-22500.0,29.457667011066729,-877.51353389193366,6867.6850624272283,-258.44752098981064,2471.1519808276093,649.03791828259614,4031.8986134788092,-2227.1551032706434,3883.2368103863241,-3883.2368103863241,2227.1551032706434,7983.6492068561301,0.0
658523.2936376977,3532751.2368613081,-22500.0,171.15907893740442,-1442.4646321559708,6383.4080952213253,-451.56159000818008,2317.0419627027131,610.72048425048274,3871.08032364272,-2094.6416606432567,3194.9086167528812,-3194.9086167528812,2094.6416606432567,7682.0878533221103,0.0
663523.2936376977,3532751.2368613081,-22500.0,386.92391023274092,-1908.0731481948239,5707.2513602202625,-614.59949522048805,2102.4525862124192,558.3997840841165,3660.8699704496175,-1833.7945635157691,2431.3459569948336,-2431.3459569948336,1833.7945635157691,7262.1847965139077,0.0
668523.2936376977,3532751.2368613081,-22500.0,649.58316454072553,-2242.4884944802707,4887.8763985098776,-737.63117996993003,1841.6716325260961,495.30362282397306,3419.3967771244065,-1472.2683578400558,1648.7879023079747,-1648.7879023079747,1472.2683578400558,6747.9359862608108,0.0
673523.2936376977,3532751.2368613081,-22500.0,926.80924696622151,-2429.3797654256432,3983.9565623368976,-815.15290165714259,1552.0430987878356,425.32683352173501,3153.634479883347,-1047.1312138546721,901.12492644697659,-901.12492644697659,1047.1312138546721,6168.9816151082277,0.0
678523.2936376977,3532751.2368613081,-22500.0,1186.5841184826302,-2468.9604464347221,3056.0158128148901,-846.45015367217786,1251.6808149098144,352.54637561179618,2874.2874599306383,-598.79010801852223,233.00500006273609,-233.00500006273609,598.79010801852223,5557.5548256829097,0.0
683523.2936376977,3532751.2368613081,-22500.0,1402.0714793845161,-2376.0143613508176,2158.8582966595204,-835.13306575052854,957.30508242647977,280.75943619425311,2594.5320231232963,-164.98394649175617,-324.68310599096361,324.68310599096361,164.98394649175617,4945.3649681724364,0.0
688523.2936376977,3532751.2368613081,-22500.0,1554.8530820127103,-2175.7572293920016,1336.0521671356714,-788.04966975056163,682.60691753267815,213.12662892926556,2326.6227967737477,223.84953246054874,-756.34541040830311,756.34541040830311,-223.84953246054874,4360.8731649902993,0.0
693523.2936376977,3532751.2368613081,-22500.0,1636.1047474413451,-1898.7815670369375,617.16635884798973,-713.90129500182593,437.35057860261043,151.9659522022846,2080.3382550160868,547.11416304348654,-1060.4976336871787,1060.4976336871787,-547.11416304348654,3827.2135414161071,0.0
698523.2936376977,3532751.2368613081,-22500.0,1645.9074848005716,-1576.2859815092618,17.657742833850502,-621.88464678026787,227.213255167406,98.700812892941386,1862.2342446820028,794.46248847575271,-1246.7177772990428,1246.7177772990428,-794.46248847575271,3360.7943200513773,0.0
703523.2936376977,3532751.2368613081,-22500.0,1591.2977634700235,-1236.4119153991403,-459.26471119517737,-520.59749627379335,54.202107757206896,53.933169989989992,1675.4206535449082,964.54700076536778,-1331.7966808869216,1331.7966808869216,-964.54700076536778,2970.4976601540257,0.0
708523.2936376977,3532751.2368613081,-22500.0,1483.7775708349436,-902.02068956093785,-819.69388470799697,-417.31967392384973,-82.583566843687919,17.595834919637824,1519.7848708544075,1062.8232740749804,-1336.0012646642963,1336.0012646642963,-1062.8232740749804,2657.4824726366492,0.0
713523.2936376977,3532751.2368613081,-22500.0,1336.8951046564207,-589.83443375911247,-1075.8140319502311,-317.67063338428426,-186.06920493674428,-10.862113784567951,1392.6138027802622,1099.083279468791,-1280.0374780920658,1280.0374780920658,-1099.083279468791,2415.821156797489,0.0
598523.2936376977,3537751.2368613081,-22500.0,2069.2715877429414,2223.6441189586071,1896.0207459667388,948.04981981863659,946.82658656820081,321.24835121741131,2435.7636393355951,1384.8342308112992,2201.2487215474662,-2201.2487215474662,-1384.8342308112992,4796.0787351174849,0.0
603523.2936376977,3537751.2368613081,-22500.0,2002.0457028989097,2458.9746398045199,2557.8579218232476,1015.2135550544551,1185.3503384017783,384.06594219341406,2729.9683233701235,1180.007130295046,2789.772654576378,-2789.772654576378,-1180.007130295046,5410.4426296452357,0.0
608523.2936376977,3537751.2368613081,-22500.0,1867.8626191206827,2637.5031711429542,3308.4231492434164,1060.1004017508903,1449.8226066928817,452.27516335063643,3045.2276746758712,889.29771887847483,3413.1480349308918,-3413.1480349308918,-889.29771887847483,6055.1635975403706,0.0
613523.2936376977,3537751.2368613081,-22500.0,1666.5591918918906,2732.1629537512267,4130.6474424323296,1074.3265031524236,1733.8267691701369,524.08843531165587,3380.5748085854752,512.64250039084914,4043.4423850789044,-4043.4423850789044,-512.64250039084914,6713.2153566022107,0.0
618523.2936376977,3537751.2368613081,-22500.0,1405.2868534949246,2715.6063391671805,4995.4104918060948,1049.712271783106,2027.2743495372638,596.88323602875403,3717.7436357848956,58.768647667283403,4643.3761662674879,-4643.3761662674879,-58.768647667283403,7362.3052012872222,0.0
623523.2936376977,3537751.2368613081,-22500.0,1099.9224652059027,2563.8693006908047,5860.639914793248,979.40794205549605,2316.2488041795509,667.2005597917954,4036.9527049356752,-452.86173807067735,5167.7768519442525,-5167.7768519442525,452.86173807067735,7975.2597638385541,0.0
628523.2936376977,3537751.2368613081,-22500.0,775.34419054614955,2260.9709812245846,6672.2572204554026,859.25445171748549,2583.4098621354142,730.87325177614161,4320.5573868256561,-991.29941535033322,5567.0265557863904,-5567.0265557863904,991.29941535033322,8521.193914266787,0.0
633523.2936376977,3537751.2368613081,-22500.0,463.97616459079222,1803.8007642517684,7367.6428101583815,689.18084214730266,2809.1325502035843,783.31620826292135,4551.0036663107976,-1515.2884371331379,5792.6407604551223,-5792.6407604551223,1515.2884371331379,8967.5890490842576,0.0
638523.2936376977,3537751.2368613081,-22500.0,202.24000049618195,1206.2200447550108,7881.9153024247498,474.32813625092507,2973.4409915891492,819.9821793410282,4711.7196819050714,-1976.915462255462,5804.5603341533679,-5804.5603341533679,1976.915462255462,9283.2577639400624,0.0
643523.2936376977,3537751.2368613081,-22500.0,25.056945927263151,501.03005701788038,8156.6236214676601,225.52459629085311,3058.5972019734877,836.94393783368923,4788.9222774498139,-2327.7456548919727,5579.0210976471844,-5579.0210976471844,2327.7456548919727,9441.946398659411,0.0
648523.2936376977,3537751.2368613081,-22500.0,-40.742008382324236,-261.43738084518299,8149.5313789444335,-41.219923770367778,3051.9533173676655,831.51228862383698,4773.7073558629363,-2526.663885655491,5115.2064123981218,-5115.2064123981218,2526.663885655491,9426.0706275138091,0.0
653523.2936376977,3537751.2368613081,-22500.0,17.445531859672958,-1018.7000979681816,7843.3478405582155,-306.34393535914336,2948.4585938281803,802.75933702779548,4664.2828221061263,-2547.7936433750583,4438.638467093142,-4438.638467093142,2547.7936433750583,9229.8802443214645,0.0
658523.2936376977,3537751.2368613081,-22500.0,194.15268669503772,-1704.9387484257393,7250.9503191360191,-549.32096744401008,2752.1411164139372,751.80871454829071,4469.2431105567121,-2386.3622150055603,3599.7230633609192,-3599.7230633609192,2386.3622150055603,8861.3011736987228,0.0
663523.2936376977,3537751.2368613081,-22500.0,465.76654574699529,-2261.4389629027514,6415.2106385697862,-751.69532025810042,2476.0492564679803,681.79384830920071,4211.6616554387565,-2060.5975976677937,2667.0977854990615,-2667.0977854990615,2060.5975976677937,8341.8958470855887,0.0
668523.2936376977,3537751.2368613081,-22500.0,794.60226423227584,-2646.0462831964846,5402.964561665538,-899.84548003527539,2140.5292185474609,597.46667966634436,3913.5660053695378,-1608.7874684895505,1717.0638569554189,-1717.0638569554189,1608.7874684895505,7704.7895602113895,0.0
673523.2936376977,3537751.2368613081,-22500.0,1136.127092434672,-2839.1346608079748,4294.4601365538165,-986.78484685525348,1770.2013438967604,504.53603309452626,3586.3084668995566,-1082.1622906724479,821.72030627553204,-821.72030627553204,1082.1622906724479,6990.9139645151045,0.0
678523.2936376977,3537751.2368613081,-22500.0,1447.2737290239361,-2844.685514257762,3171.0122222592263,-1012.5988163550472,1390.3795177767349,408.88894555614269,3245.5601002391536,-535.61245565609363,38.817268694285303,-38.817268694285303,535.61245565609363,6244.3304603252509,0.0
683523.2936376977,3537751.2368613081,-22500.0,1693.5559856814161,-2686.6716544522346,2103.9319398852235,-983.54245516187495,1023.7835353549432,315.86914738516606,2909.0364241409025,-18.78521272975064,-594.40132616884989,594.40132616884989,18.78521272975064,5507.5292283095232,0.0
688523.2936376977,3537751.2368613081,-22500.0,1853.3551539598961,-2402.3055128033443,1147.0385612296141,-910.19741582250595,688.20774587764299,229.7509878486633,2592.4547570897748,430.34168633644504,-1062.5653642292136,1062.5653642292136,-430.34168633644504,4817.4348046583236,0.0
693523.2936376977,3537751.2368613081,-22500.0,1918.8827053406985,-2034.3093376370234,333.64567744467951,-805.26827471972194,395.43775072821899,153.47452035000521,2307.5454160311606,788.42310386112194,-1369.4503460860683,1369.4503460860683,-788.42310386112194,4202.4730267488403,0.0
698523.2936376977,3537751.2368613081,-22500.0,1894.3773360699979,-1624.1129458745693,-322.46306639634878,-681.55569829880028,151.32836338665831,88.631459331783788,2061.1780981126958,1046.4441469165324,-1532.7643944003323,1532.7643944003323,-1046.4441469165324,3680.6973576270293,0.0
703523.2936376977,3537751.2368613081,-22500.0,1792.6804734843031,-1207.1121361865537,-823.39244105041109,-550.45352812958379,-43.291507913141224,35.638455141594648,1855.3097883378168,1207.1388967966739,-1578.2203845512229,1578.2203845512229,-1207.1388967966739,3258.9051790974081,0.0
708523.2936376977,3537751.2368613081,-22500.0,1631.3817873643877,-810.25926861126743,-1182.3438522093222,-421.08704979301547,-191.30093944799171,-5.9867556736723548,1687.6511429848845,1281.3553039382573,-1534.2527965911095,1534.2527965911095,-1281.3553039382573,2932.9529787349175,0.0
713523.2936376977,3537751.2368613081,-22500.0,1429.4182472748871,-451.63422841432811,-1418.9000323900736,-300.03027149271367,-297.91267674372074,-37.323283026792531,1552.9117776226153,1284.4007901103219,-1428.1059435568573,1428.1059435568573,-1284.4007901103219,2689.7456823720822,0.0
718523.2936376977,3537751.2368613081,-22500.0,1204.5809343530123,-141.35440270193507,-1555.1290929910454,-191.44449486429968,-369.47793983245077,-59.773541861060949,1444.3309258505551,1233.013981599818,-1283.4502657605369,1283.4502657605369,-1233.013981599818,2510.9316955704471,0.0
593523.2936376977,3542751.2368613081,-22500.0,2378.9650936862395,2039.2088481563947,1120.2136805008317,972.60475529949395,737.76342691770208,290.77217572454634,2322.2574957517959,1835.9028983679661,1518.0788287511079,-1518.0788287511079,-1835.9028983679661,4501.3744376487039,0.0
598523.2936376977,3542751.2368613081,-22500.0,2413.0126272316115,2377.9272783403621,1730.9102131169798,1083.2013378867307,978.63850474972003,359.37438221689246,2636.6195391465608,1741.8259973938632,2118.7252003046824,-2118.7252003046824,-1741.8259973938632,5161.2684436527989,0.0
603523.2936376977,3542751.2368613081,-22500.0,2374.5080419074993,2691.3975666112151,2464.575865606655,1180.0561816556833,1259.2725472138704,437.22590810279445,2980.8569809212713,1553.2598174134546,2797.4490454254383,-2797.4490454254383,-1553.2598174134546,5882.2974652155299,0.0
608523.2936376977,3542751.2368613081,-22500.0,2253.0087885707758,2949.9469214058872,3318.2966328126163,1253.0992474757595,1577.2474097100901,523.31763664953507,3352.7207433145213,1257.8698464548881,3535.8447064117008,-3535.8447064117008,-1257.8698464548881,6652.048593800193,0.0
613523.2936376977,3542751.2368613081,-22500.0,2044.0867799190764,3118.6755315723117,4276.8436794209028,1290.9227086477413,1926.0310440517262,615.61185342185706,3752.3731097264363,850.33093778787179,4303.1199751585991,-4303.1199751585991,-850.33093778787179,7451.2967674459223,0.0
618523.2936376977,3542751.2368613081,-22500.0,1752.3625743282553,3160.2249619169975,5309.228595354869,1281.7500617751166,2294.0207253546951,710.85636839465565,4166.3868474119618,336.0438261901204,5055.0275633231013,-5055.0275633231013,-336.0438261901204,8253.3531040739781,0.0
623523.2936376977,3542751.2368613081,-22500.0,1394.1312834520679,3039.3942757812788,6366.3830924749745,1214.9406321842559,2663.9874146983589,804.50986876965578,4567.6885347475782,-265.43472419139607,5734.7606792287952,-5734.7606792287952,265.43472419139607,9024.1436911179226,0.0
628523.2936376977,3542751.2368613081,-22500.0,998.67417212065925,2729.4930691500931,7381.155068136607,1082.9676855837549,3013.2702169389345,890.85400266165823,4931.561072431703,-918.26963589763545,6276.6839137466122,-6276.6839137466122,918.26963589763545,9723.3787449256961,0.0
633523.2936376977,3542751.2368613081,-22500.0,607.21669380270885,2219.6963565137694,8271.8597734638679,883.62342951230869,3315.0645240920776,963.35932851941061,5233.8317628650229,-1570.7769471754345,6613.433145795374,-6613.433145795374,1570.7769471754345,10307.102899064286,0.0
638523.2936376977,3542751.2368613081,-22500.0,268.70009982366514,1521.899806193602,8950.227294981758,621.99173789369422,3541.0128422224029,1015.335043392403,5451.188112346601,-2159.5213167313104,6686.140007201715,-6686.140007201715,2159.5213167313104,10731.724963137696,0.0
643523.2936376977,3542751.2368613081,-22500.0,32.231077422389887,674.92247121748562,9333.5787707998497,311.56104862078411,3665.0001245692119,1040.8202877138744,5563.62442790555,-2617.5191188485969,6456.3442936660922,-6456.3442936660922,2617.5191188485969,10959.266937633087,0.0
648523.2936376977,3542751.2368613081,-22500.0,-62.751679459503777,-256.20044657765493,9359.531892896337,-26.152169660833419,3667.6162882231506,1035.5824544489833,5557.6142297724546,-2885.7125450882063,5916.8833318413854,-5916.8833318413854,2885.7125450882063,10963.126627383483,0.0
653523.2936376977,3542751.2368613081,-22500.0,3.7583471272302358,-1187.2469179216732,8999.9168164995772,-363.83631757817631,3540.3011264144716,998.00233354438183,5429.6050243442714,-2925.3156709907389,5098.2898728630189,-5098.2898728630189,2925.3156709907389,10733.219665083821,0.0
658523.2936376977,3542751.2368613081,-22500.0,225.77991562755921,-2027.7055067247784,8269.7207360688262,-672.305212708917,3287.9709775904576,929.59647023310811,5190.699229863566,-2727.4866314367041,4067.70285514748,-4067.70285514748,2727.4866314367041,10279.197155573413,0.0
663523.2936376977,3542751.2368613081,-22500.0,570.70995243981724,-2696.7623835342292,7227.5569126807022,-925.29466879830591,2929.138748037964,834.98454127215678,4870.7534359705342,-2316.870862407503,2919.276045746034,-2919.276045746034,2316.870862407503,9630.6734533396448,0.0
668523.2936376977,3542751.2368613081,-22500.0,985.49768043816937,-3137.9453647295509,5966.585222854008,-1103.8750999714821,2493.231269118462,721.25837189479705,4498.7176932560787,-1747.2787766067618,1758.0166674118109,-1758.0166674118109,1747.2787766067618,8834.1148495146954,0.0
673523.2936376977,3542751.2368613081,-22500.0,1407.9762227265046,-3328.0669934252396,4598.0754501911033,-1199.2428752313983,2015.7178977762424,596.89104765495813,4092.5135093059325,-1090.5299464643449,681.51001739812125,-681.51001739812125,1090.5299464643449,7946.9510205172737,0.0
678523.2936376977,3542751.2368613081,-22500.0,1779.7431506000041,-3278.1022994464311,3232.3620400547779,-1213.1938764221559,1532.3869366910906,470.46570198524904,3674.6137482615463,-421.98019943070244,-235.26240406561999,235.26240406561999,421.98019943070244,7030.2348184355833,0.0
683523.2936376977,3542751.2368613081,-22500.0,2056.6507002911203,-3026.5824730890145,1962.4689201632407,-1156.3884557486356,1074.2818241516241,349.53691387787251,3268.8596445810667,192.84681180767518,-948.25662957560678,948.25662957560678,-192.84681180767518,6141.4070184516822,0.0
688523.2936376977,3542751.2368613081,-22500.0,2214.330170760019,-2628.4731220689937,854.0686782574229,-1045.1942701035446,664.39496487583972,239.85819383245573,2895.2753189350574,707.1149210396261,-1444.887556165148,1444.887556165148,-707.1149210396261,5328.3412777865396,0.0
693523.2936376977,3542751.2368613081,-22500.0,2248.3195644280272,-2143.3163128936685,-57.230364708205578,-898.16033024177602,316.49243605612673,145.06550084405001,2567.4661238969329,1095.7525473448418,-1738.3919967066536,1738.3919967066536,-1095.7525473448418,4625.1566079995255,0.0
698523.2936376977,3542751.2368613081,-22500.0,2170.1506360289063,-1625.6459554489866,-762.63499430196271,-733.01181339905895,35.764287105655455,66.768497690149161,2291.7103341850134,1353.5607360644321,-1859.0456956674857,1859.0456956674857,-1353.5607360644321,4049.7666091752053,0.0
703523.2936376977,3542751.2368613081,-22500.0,2001.5195410148731,-1119.1225429560729,-1273.4995381964293,-564.64890486464571,-179.38025284977061,4.9152759902308034,2067.4021137496306,1490.3155210037708,-1845.1606817785787,1845.1606817785787,-1490.3155210037708,3603.2741055617098,0.0
708523.2936376977,3542751.2368613081,-22500.0,1768.466536880107,-654.35658287036438,-1613.7493753643548,-404.21835730485492,-335.09704407304457,-41.72211194684585,1888.6357904064284,1524.9389331569384,-1735.8047237746898,1735.8047237746898,-1524.9389331569384,3271.8975701843551,0.0
713523.2936376977,3542751.2368613081,-22500.0,1496.76613469016,-249.49578054252899,-1813.1548776913494,-259.04877668236867,-440.0194320347868,-75.066125329711127,1746.5098934406938,1480.2493612747201,-1566.0113027309833,1566.0113027309833,-1480.2493612747201,3031.9148533224102,0.0
718523.2936376977,3542751.2368613081,-22500.0,1208.9615423733969,87.604145547703823,-1902.3025305122001,-133.13413839991796,-503.60057043492003,-97.332406753677162,1631.468202743753,1379.0498614302544,-1364.3643794315446,1364.3643794315446,-1379.0498614302544,2856.4279684964567,0.0
723523.2936376977,3542751.2368613081,-22500.0,922.92973819117174,356.63944340486984,-1909.3945141555978,-27.869124171547838,-534.97537888242471,-110.73885980325242,1535.0286618251714,1241.6972657883207,-1152.3880946666991,1152.3880946666991,-1241.6972657883207,2721.2768899868338,0.0
588523.2936376977,3547751.2368613081,-22500.0,2553.5467647252262,1672.5985269303467,330.14672154661827,931.95010559314403,490.63588792291421,244.70107312343004,2165.9380219643922,2157.9760906304182,736.27098071608646,-736.27098071608646,-2157.9760906304182,4106.2525236037645,0.0
593523.2936376977,3547751.2368613081,-22500.0,2708.7573873443162,2079.5765237513147,834.35188181012313,1080.3472407200707,714.24933263757282,314.68318219599297,2483.6264126475853,2200.5016087715667,1286.7102766771138,-1286.7102766771138,-2200.5016087715667,4771.0946114778462,0.0
598523.2936376977,3547751.2368613081,-22500.0,2800.4819571447943,2499.9972588074406,1480.3410100702442,1227.4231880800464,988.25079420086024,397.53660101499167,2843.5956192234271,2156.8701661653117,1950.0765873801715,-1950.0765873801715,-2156.8701661653117,5526.6873236360052,0.0
603523.2936376977,3547751.2368613081,-22500.0,2808.921299092513,2908.0790988083581,2281.3721105979334,1363.3307880230643,1315.5411949914037,493.47986751826318,3244.7223007521575,2003.7388139567581,2722.7431522626143,-2722.7431522626143,-2003.7388139567581,6368.4219768910798,0.0
608523.2936376977,3547751.2368613081,-22500.0,2716.6896462785671,3268.6229764868799,3241.46329690329,1475.3335096318319,1695.4882097422085,601.72352234199059,3684.3529644508085,1720.4353750297203,3588.7490490352156,-3588.7490490352156,-1720.4353750297203,7284.4974962519718,0.0
613523.2936376977,3547751.2368613081,-22500.0,2512.5867607200998,3537.6340472165966,4350.1359354168471,1548.1915899351443,2122.2700668789316,720.08985992863416,4161.3582853265352,1293.3519618122036,4516.0612920891244,-4516.0612920891244,-1293.3519618122036,8254.1371186392571,0.0
618523.2936376977,3547751.2368613081,-22500.0,2196.102553564559,3665.0531688409592,5576.8605581411712,1565.2327869448216,2583.2139900944803,844.66341958077646,4668.147823445539,721.35071325221361,5453.8266892245592,-5453.8266892245592,-721.35071325221361,9246.1608177350918,0.0
623523.2936376977,3547751.2368613081,-22500.0,1781.9013353972655,3600.2559617733245,6866.3930231222866,1510.2766414314369,3057.5188897328326,969.57053051450475,5173.5500529100982,21.413009469751159,6331.9373208589068,-6331.9373208589068,-21.413009469751159,10218.406291552921,0.0
628523.2936376977,3547751.2368613081,-22500.0,1302.9986883054883,3300.5468681224188,8136.7821815076595,1370.4337542786927,3515.9177837438301,1087.0163058750504,5642.7430524970141,-766.87406219223703,7064.4483952748587,-7064.4483952748587,766.87406219223703,11118.603804350349,0.0
633523.2936376977,3547751.2368613081,-22500.0,810.91974563460167,2741.9891445647277,9282.1931712696169,1139.5206377531306,3921.9139012636379,1187.7109362563554,6042.0799286043248,-1579.976005294975,7558.1455177760636,-7558.1455177760636,1579.976005294975,11887.295952325569,0.0
638523.2936376977,3547751.2368613081,-22500.0,371.15238221531354,1930.6172619500474,10182.425658237373,821.44994403984572,4235.1068149949597,1261.7732782637993,6338.4619595742006,-2334.3379002387292,7726.5690776537622,-7726.5690776537622,2334.3379002387292,12463.175444169654,0.0
643523.2936376977,3547751.2368613081,-22500.0,53.04935844627596,910.70423489467248,10719.701052741211,432.57384385195235,4416.6963332193645,1300.0888063078849,6502.4767792104476,-2936.9711695205215,7507.9383283758134,-7507.9383283758134,2936.9711695205215,12790.698058107773,0.0
648523.2936376977,3547751.2368613081,-22500.0,-84.808076406427361,-233.93777133266153,10800.794497928706,1.8061054864479062,4436.4928724127112,1295.9294578343909,6513.204255858971,-3302.1534401045092,6883.0175663919426,-6883.0175663919426,3302.1534401045092,12829.038036312226,0.0
653523.2936376977,3547751.2368613081,-22500.0,-10.308900150696939,-1388.7453654054684,10379.499658145804,-432.33449493455333,4279.8725642962127,1246.468947614188,6363.7095106044171,-3370.8633932386447,5887.0764994183419,-5887.0764994183419,3370.8633932386447,12560.590715180606,0.0
658523.2936376977,3547751.2368613081,-22500.0,270.79412854329684,-2427.3885251398674,9472.2313497604791,-827.71136812439863,3952.5263772985409,1153.7359584873352,6067.7531385226421,-3127.0358908802855,4610.2291118400362,-4610.2291118400362,3127.0358908802855,11996.710264288309,0.0
663523.2936376977,3547751.2368613081,-22500.0,712.92205391939376,-3236.7330327617456,8160.1368342595069,-1146.3014881359297,3481.0700634243171,1024.6282184845254,5664.5651227397821,-2604.2792664510985,3183.5669221511239,-3183.5669221511239,2604.2792664510985,11178.627635014042,0.0
668523.2936376977,3547751.2368613081,-22500.0,1240.1677487526867,-3740.0983911150129,6575.2109591227772,-1361.4195866035363,2908.7983807506016,869.87907850989086,5194.8045761306312,-1879.4826125228444,1753.9158559866776,-1753.9158559866776,1879.4826125228444,10172.709947181251,0.0
673523.2936376977,3547751.2368613081,-22500.0,1764.4931151428484,-3910.9584080448039,4874.0769996795289,-1462.1438721651996,2287.6451566722494,702.22492984110386,4686.3293501892904,-1054.9108081919489,455.01530192497518,-455.01530192497518,1054.9108081919489,9060.9866939634467,0.0
678523.2936376977,3547751.2368613081,-22500.0,2206.1039868063353,-3772.9710499489406,3207.9696227997051,-1453.6936201065057,1668.8267691031504,534.29478396342552,4171.1484404470111,-235.13657682371976,-615.59834733204741,615.59834733204741,235.13657682371976,7929.3230709853042,0.0
683523.2936376977,3547751.2368613081,-22500.0,2509.0353713539057,-3387.8475462772176,1698.2392443610631,-1354.090956345083,1094.9315076791124,376.79597640242628,3681.3497826062753,493.29600365019843,-1407.6684502006301,1407.6684502006301,-493.29600365019843,6856.0096789475956,0.0
688523.2936376977,3547751.2368613081,-22500.0,2647.8776364154028,-2836.8414454423246,423.24962630326542,-1188.69229586047,595.30030814423412,237.39330283454103,3242.0660165492855,1073.8650038027467,-1916.3517610156127,1916.3517610156127,-1073.8650038027467,5902.7194743165319,0.0
693523.2936376977,3547751.2368613081,-22500.0,2625.7105984531504,-2202.5570287328801,-582.64727073198446,-984.52950830238558,185.07934083610976,120.38988821383546,2868.0771661488066,1482.3575088964049,-2171.1752004666068,2171.1752004666068,-1482.3575088964049,5108.4887395605228,0.0
698523.2936376977,3547751.2368613081,-22500.0,2466.3088152954606,-1555.745679002436,-1321.393624020985,-765.91768863740322,-132.88709861103243,27.063870792564167,2563.1975938748888,1721.7103465452337,-2221.4380657781503,2221.4380657781503,-1721.7103465452337,4486.7997676675723,0.0
703523.2936376977,3547751.2368613081,-22500.0,2204.497045560041,-948.64891864525237,-1819.5388840779294,-551.9369066481222,-364.6772500396271,-43.611522948360957,2321.9478769876987,1813.2051602630031,-2122.8067608100087,2122.8067608100087,-1813.2051602630031,4026.5448581636488,0.0
708523.2936376977,3547751.2368613081,-22500.0,1877.6407371005237,-413.98764746011074,-2116.6179646149326,-355.66140263321898,-521.66580152576864,-94.13734682645628,2132.9004613486568,1787.4206120661029,-1927.6728524937553,1927.6728524937553,-1787.4206120661029,3698.143812924201,0.0
713523.2936376977,3547751.2368613081,-22500.0,1519.7330529539304,32.427785539354268,-2255.9260451304422,-184.61814464171368,-617.44833902017888,-127.74110335458303,1982.5669129157245,1676.9962721228721,-1679.7731218225158,1679.7731218225158,-1676.9962721228721,3463.9003376859396,0.0
718523.2936376977,3547751.2368613081,-22500.0,1158.2449365996724,387.49474570495357,-2278.4174622010796,-41.888078385463544,-665.64474561813586,-147.80839956282304,1858.5305630409632,1511.9041446798244,-1412.3052245980782,1412.3052245980782,-1511.9041446798244,3288.3017681320875,0.0
723523.2936376977,3547751.2368613081,-22500.0,813.1766329696128,656.48328660856839,-2219.4289009627214,72.614877962931232,-678.57555382053181,-157.51267469430161,1751.1140466753006,1317.0229149471197,-1148.336247249857,1148.336247249857,-1317.0229149471197,3144.0961046574162,0.0
728523.2936376977,3547751.2368613081,-22500.0,497.52574010796354,849.36683147358508,-2107.4896375196313,160.97368986926884,-666.63605046548503,-159.61561902745848,1653.7025958677407,1111.4103221860933,-902.39359955423538,902.39359955423538,-1111.4103221860933,3013.5190456994287,0.0
583523.2936376977,3552751.2368613081,-22500.0,2541.6466885538712,1154.6252361396741,-393.48758564659568,822.54481520290653,227.71739741333684,185.91260439817796,1990.2190979778475,2291.5047783862101,-61.428297471510859,61.428297471510859,-2291.5047783862101,3665.3627784475852,0.0
588523.2936376977,3552751.2368613081,-22500.0,2817.697999158946,1579.876325969487,-36.236290964279959,996.21533135122968,415.43552117075831,252.14860960824512,2291.4409153412553,2474.0257760363402,380.67064229695143,-380.67064229695143,-2474.0257760363402,4288.1461983947311,0.0
593523.2936376977,3552751.2368613081,-22500.0,3054.1998733115738,2056.0275972213499,461.52623722952785,1182.7716268501954,658.56616482759478,333.94128859544713,2644.5766666611589,2595.7604192748472,953.74701672860726,-953.74701672860726,-2595.7604192748472,5024.8127747068829,0.0
598523.2936376977,3552751.2368613081,-22500.0,3226.2121294036251,2567.2712049504116,1126.9968203984049,1374.8053160293787,965.47044344394533,432.98379343930321,3052.7593216778105,2627.2875827649973,1670.5313003583817,-1670.5313003583817,-2627.2875827649973,5880.8634219589294,0.0
603523.2936376977,3552751.2368613081,-22500.0,3306.3584765454093,3086.638973593293,1983.8760361245056,1561.0314958912495,1342.5918203640172,550.2502499767736,3516.792760374834,2536.2476919570167,2535.0005690522862,-2535.0005690522862,-2536.2476919570167,6855.6782647654945,0.0
608523.2936376977,3552751.2368613081,-22500.0,3267.9010891459243,3574.0070768811906,3046.949570721179,1725.8249518799901,1792.5347881517366,685.49076358071841,4034.9891649897718,2290.7783846488046,3537.0236075581888,-3537.0236075581888,-2290.7783846488046,7939.9378543561879,0.0
613523.2936376977,3552751.2368613081,-22500.0,3089.5126642235559,3975.5348999848393,4314.8884351814941,1849.3066376774836,2311.6349997779125,836.63491597405505,4605.4096567707111,1864.9779123030069,4646.4217349316659,-4646.4217349316659,-1864.9779123030069,9112.7950265714207,0.0
618523.2936376977,3552751.2368613081,-22500.0,2761.6240006776761,4225.7281966985984,5761.8007206562579,1908.3485584485038,2887.245353350484,999.17906488350104,5224.2211490505042,1246.3790291508085,5807.5587709136871,-5807.5587709136871,-1246.3790291508085,10339.206691012221,0.0
623523.2936376977,3552751.2368613081,-22500.0,2293.5821288054672,4253.4168508192306,7328.9307691403355,1878.8689057754837,3495.2389466848085,1165.6987652903836,5861.0486660012803,444.71889061098864,6936.3178021985032,-6936.3178021985032,-444.71889061098864,11568.117326141884,0.0
628523.2936376977,3552751.2368613081,-22500.0,1719.944974000766,3992.5707737785533,8918.9803635324188,1739.6368347031582,4098.5546500407927,1325.6922320140591,6468.7751098519084,-499.75010412385291,7921.9644501962675,-7921.9644501962675,499.75010412385291,12732.443165600567,0.0
633523.2936376977,3552751.2368613081,-22500.0,1103.2818401018058,3397.7667718588782,10396.527862019026,1477.425952969832,4647.8854014180861,1466.0004326437913,7000.264405667629,-1511.3552752162041,8636.5306100559101,-8636.5306100559101,1511.3552752162041,13751.963090612093,0.0
638523.2936376977,3552751.2368613081,-22500.0,530.34600172248656,2462.0877069778185,11598.286082405961,1092.7108364384112,5085.6221637169056,1572.0133659890114,7408.1571774815347,-2481.2744718300623,8953.3466484723212,-8953.3466484723212,2481.2744718300623,14540.068551375607,0.0
643523.2936376977,3552751.2368613081,-22500.0,99.224521432952457,1232.5834344331076,12355.540041514376,604.31848353763075,5353.6470082453707,1629.7111433286864,7648.6634933384321,-3280.310038071726,8773.6414213944499,-8773.6414213944499,3280.310038071726,15014.643839072885,0.0
648523.2936376977,3552751.2368613081,-22500.0,-102.21743340754867,-183.68572803912369,12527.309193658075,50.890645686741017,5404.3392187384716,1628.2952461930242,7688.8252952943176,-3782.8308076971516,8055.8385934488178,-8055.8385934488178,3782.8308076971516,15112.038217249949,0.0
653523.2936376977,3552751.2368613081,-22500.0,-21.782182082694725,-1629.6163002277606,12037.016809681341,-512.74905287987008,5212.4059919753281,1562.8094260013311,7515.2696255643477,-3897.5658215009335,6837.8461850243038,-6837.8461850243038,3897.5658215009335,14801.368291796231,0.0
658523.2936376977,3552751.2368613081,-22500.0,336.87505528580067,-2926.0264474857936,10900.266833161137,-1024.7649184763504,4783.667722803375,1435.9083895820668,7144.1519477175016,-3595.4669286291933,5241.3643510664606,-5241.3643510664606,3595.4669286291933,14095.011628615764,0.0
663523.2936376977,3552751.2368613081,-22500.0,909.22031626888804,-3911.4541768954414,9230.8852724413609,-1429.0379196506067,4156.9104823708431,1258.0177642551478,6628.0328316939176,-2922.6940115221164,3451.9262509741707,-3451.9262509741707,2922.6940115221164,13051.198241517575,0.0
668523.2936376977,3552751.2368613081,-22500.0,1584.6626973855143,-4480.1735470947769,7219.3708519608399,-1687.3365426026428,3397.0678782002428,1045.6189339129655,6027.0828024478742,-1991.1603763635658,1678.5457982408866,-1678.5457982408866,1991.1603763635658,11766.700804535561,0.0
673523.2936376977,3552751.2368613081,-22500.0,2236.565059562115,-4603.7350882625369,5089.9142257315962,-1786.5224567918517,2581.5743150614217,818.10665151091007,5384.7370028218656,-949.01425767748185,107.00974119795035,-107.00974119795035,949.01425767748185,10361.113763608068,0.0
678523.2936376977,3552751.2368613081,-22500.0,2755.228155204014,-4328.5973062966386,3051.9219884611107,-1738.4611915474125,1784.6689703455615,594.22094399123307,4746.5798743139812,57.056202913247262,-1136.0013761436117,1136.0013761436117,-57.056202913247262,8957.1911208662459,0.0
683523.2936376977,3552751.2368613081,-22500.0,3071.1412642534269,-3753.6030847214224,1263.0296629312797,-1573.5447093782202,1064.8693185628206,389.13225571561497,4155.6490553979384,913.1302600310953,-1997.0271432130924,1997.0271432130924,-913.1302600310953,7662.3524774381431,0.0
688523.2936376977,3552751.2368613081,-22500.0,3162.1548445071162,-2998.8415163754798,-187.02260825560202,-1331.1046918545633,458.73150462589507,212.8566757635393,3642.5281109215275,1553.6860936011285,-2488.1876578328761,2488.1876578328761,-1553.6860936011285,6554.6625064201671,0.0
693523.2936376977,3552751.2368613081,-22500.0,3046.363833074206,-2177.8953461428482,-1272.5594594904501,-1050.3391579292111,-19.013529950381386,70.084579085984416,3221.1020652905645,1960.8661626516596,-2666.1948519555926,2666.1948519555926,-1960.8661626516596,5674.277117730976,0.0
698523.2936376977,3552751.2368613081,-22500.0,2767.3621018484137,-1380.4175949451003,-2015.8041816600755,-764.07406781559746,-371.00974217137957,-38.952674388384139,2889.1918040138726,2152.9433832777954,-2608.4613168475375,2608.4613168475375,-2152.9433832777954,5021.1594815734506,0.0
703523.2936376977,3552751.2368613081,-22500.0,2378.7759797341478,-665.91115920682728,-2467.1367504337736,-495.93307128233465,-611.15235876867212,-117.12362939315042,2632.9872834779117,2169.1516443207838,-2393.738130810917,2393.738130810917,-2169.1516443207838,4561.3766369905097,0.0
708523.2936376977,3552751.2368613081,-22500.0,1932.3992543602888,-65.734561554104914,-2687.9280557920797,-260.24792489692368,-758.83285336336428,-169.01497593986542,2433.4257256202195,2056.1933259159509,-2090.1656390464755,2090.1656390464755,-2056.1933259159509,4242.3786494215165,0.0
713523.2936376977,3552751.2368613081,-22500.0,1471.2751935502113,410.66422053215553,-2738.5953576949737,-63.584781036451325,-834.59788682817327,-199.80886037505053,2271.9620470288937,1858.8521932135495,-1750.1942598573833,1750.1942598573833,-1858.8521932135495,4011.011057521247,0.0
718523.2936376977,3552751.2368613081,-22500.0,1027.0881253505274,768.50805799088778,-2671.9218107473953,93.128736903385928,-857.43619619238041,-214.51778140507417,2133.9388779678548,1614.8837258254134,-1410.2874818077612,1410.2874818077612,-1614.8837258254134,3825.5679880718008,0.0
723523.2936376977,3552751.2368613081,-22500.0,620.4484098518293,1021.3262332365007,-2530.416980044974,212.54480528039986,-843.43624318535603,-217.55330110985784,2009.4494775389071,1353.2114718938017,-1093.200636070577,1093.200636070577,-1353.2114718938017,3659.0669276309895,0.0
728523.2936376977,3552751.2368613081,-22500.0,262.6846942602599,1186.2001593589725,-2346.2375325192293,299.23033219648283,-805.39820749611943,-212.5488916132955,1892.669231228311,1094.1945666897834,-811.18072413589732,811.18072413589732,-1094.1945666897834,3496.8989588850791,0.0
733523.2936376977,3552751.2368613081,-22500.0,-41.86780394901082,1280.6418906183026,-2142.436563817851,358.47924383523764,-753.00891638192263,-202.3478670689982,1780.6741302732071,850.92792479916625,-569.10140557334671,569.10140557334671,-850.92792479916625,3332.8312143997973,0.0
578523.2936376977,3557751.2368613081,-22500.0,2316.1711807625766,543.18541321078328,-980.44981289532245,650.66362094851092,-25.839490929838437,119.06697485731776,1826.4152832917127,2203.0116563831998,-786.40594756174073,786.40594756174073,-2203.0116563831998,3257.1767954960869,0.0
583523.2936376977,3557751.2368613081,-22500.0,2689.5384446196808,932.12115904134635,-787.14636801279926,831.96608559715867,111.96535199185818,176.54413670060208,2093.5849494451895,2503.2571099389634,-493.79084968093639,493.79084968093639,-2503.2571099389634,3792.9209748870626,0.0
588523.2936376977,3557751.2368613081,-22500.0,3057.67758893787,1399.4773812728911,-474.11186956937468,1039.2560786037063,303.38424189496357,250.74939876746674,2416.4098683966208,2780.0249290232123,-73.24157663814799,73.24157663814799,-2780.0249290232123,4453.1786017050381,0.0
593523.2936376977,3557751.2368613081,-22500.0,3396.8328282242287,1942.8037070209398,-6.2096577329700811,1269.348791977839,561.00540766032407,344.78096440212749,2802.8429813023267,3004.9789636520172,501.31982407602868,-501.31982407602868,-3004.9789636520172,5254.6013721461668,0.0
598523.2936376977,3557751.2368613081,-22500.0,3676.5282518664699,2549.9753776047214,654.7401300461969,1515.1894134046408,897.73385584756625,461.53378697726362,3259.466257027294,3142.0196395422508,1253.2505423984483,-1253.2505423984483,-3142.0196395422508,6210.0450207046424,0.0
603523.2936376977,3557751.2368613081,-22500.0,3860.6917107074951,3195.2518597327216,1546.2021539342954,1764.6080499527743,1325.2128110467452,603.20470669491442,3790.4378026163886,3148.4188366620911,2198.0686443394179,-2198.0686443394179,-3148.4188366620911,7325.8213786953229,0.0
608523.2936376977,3557751.2368613081,-22500.0,3910.6942231617713,3835.4299509214943,2698.5988848027409,1999.2294181950485,1851.3796332276058,770.59174010495531,4396.7656385572973,2978.118163423751,3336.3542606512246,-3336.3542606512246,-2978.118163423751,8598.1659844227834,0.0
613523.2936376977,3557751.2368613081,-22500.0,3790.9284163772049,4407.2146200329107,4125.9904680640657,2193.9381877101378,2477.0760844247084,962.19780042408604,5077.6020872042554,2587.9864107259627,4644.9761845687199,-4644.9761845687199,-2587.9864107259627,10009.006842820248,0.0
618523.2936376977,3557751.2368613081,-22500.0,3477.2103876558185,4827.528174987393,5813.9447037138634,2317.4756587822294,3191.8603456855922,1173.2172231225559,5831.8327286671456,1947.5251485908461,6067.7823619520295,-6067.7823619520295,-1947.5251485908461,11521.441497690448,0.0
623523.2936376977,3557751.2368613081,-22500.0,2967.4903520667958,4998.9562951348953,7705.946995221736,2334.8583308460902,3969.5712835861145,1394.5891232478734,6633.7045969063538,1051.6861203863559,7508.1009653045276,-7508.1009653045276,-1051.6861203863559,13075.778555603785,0.0
628523.2936376977,3557751.2368613081,-22500.0,2292.989612308681,4822.5033039664359,9691.4608653059786,2212.2381620808142,4764.772504371128,1612.4314227346306,7423.8666323707312,-65.042021015497994,8826.7859178563667,-8826.7859178563667,65.042021015497994,14587.542801829723,0.0
633523.2936376977,3557751.2368613081,-22500.0,1526.0610098109823,4218.7065440619999,11600.855184550926,1924.383058613437,5511.8480517956532,1808.2824855190456,8136.5949414886754,-1317.2660692398504,9850.5527477457726,-9850.5527477457726,1317.2660692398504,15949.339026025331,0.0
638523.2936376977,3557751.2368613081,-22500.0,779.4269405824042,3155.3214631609885,13213.974641329884,1463.9824978570623,6128.9243320954683,1960.5934001972487,8703.8164106480745,-2566.2168928350357,10394.901889448895,-10394.901889448895,2566.2168928350357,17038.629502348005,0.0
643523.2936376977,3557751.2368613081,-22500.0,191.35525798102955,1675.1109207324778,14288.427051135786,850.49847272184081,6528.3977784224744,2047.716659128095,9059.5805290149729,-3633.1155993845409,10302.563425552005,-10302.563425552005,3633.1155993845409,17732.800575586734,0.0
648523.2936376977,3557751.2368613081,-22500.0,-105.30318363530563,-87.856782219065536,14608.55237101165,134.7979226766538,6634.0490870348021,2052.15566671754,9150.9867132784202,-4332.3889768521458,9491.2392018106548,-9491.2392018106548,4332.3889768521458,17930.8986343344,0.0
653523.2936376977,3557751.2368613081,-22500.0,-24.494120570524551,-1916.8466160688852,14045.740038794911,-604.53161718734452,6401.3973583384459,1965.1349585539754,8952.432560520323,-4520.4960258209549,7995.11540573207,-7995.11540573207,4520.4960258209549,17578.068973396257,0.0
658523.2936376977,3557751.2368613081,-22500.0,436.57234259657918,-3553.2560564242012,12608.961574418779,-1275.134209593389,5834.3731824440947,1789.9485897936065,8481.1828960642215,-4144.631517295833,5979.0679508068879,-5979.0679508068879,4144.631517295833,16685.304410783567,0.0
663523.2936376977,3557751.2368613081,-22500.0,1185.3627314162757,-4761.4652922719442,10460.055596168737,-1792.3161112670323,4990.2686257318392,1542.5298162685017,7808.8557348223221,-3268.4604178516429,3710.5036860393766,-3710.5036860393766,3268.4604178516429,15336.070886512378,0.0
668523.2936376977,3557751.2368613081,-22500.0,2057.4388493780666,-5393.0862507166139,7879.8200752091898,-2100.254499208324,3968.6465252323951,1248.5737391129398,7028.221073847455,-2058.3057171092473,1493.1605681041528,-1493.1605681041528,2058.3057171092473,13674.930254732926,0.0
673523.2936376977,3557751.2368613081,-22500.0,2867.4926901907488,-5421.8890615052142,5195.2961132512119,-2184.1150640977785,2887.4039534073863,938.02277089690074,6208.4332296354169,-732.96407009812708,-411.02634470786131,411.02634470786131,732.96407009812708,11880.487078593202,0.0
678523.2936376977,3557751.2368613081,-22500.0,3464.1516453364629,-4935.369210886076,2699.2706733492901,-2068.5275136671503,1855.6232655386748,638.90550470912353,5414.6267761625595,499.66372586417276,-1838.7900318475599,1838.7900318475599,-499.66372586417276,10131.442183657651,0.0
683523.2936376977,3557751.2368613081,-22500.0,3764.5618654884001,-4092.2279201904139,594.11270930561534,-1804.8175688669542,953.4866951644558,372.62000653167286,4703.8563939365795,1491.2302849841096,-2741.7764317736764,2741.7764317736764,-1491.2302849841096,8575.6362025525377,0.0
688523.2936376977,3557751.2368613081,-22500.0,3759.2703653574008,-3069.4862398863661,-1025.4334485357015,-1453.9932370052913,224.48442434439906,151.80889534502657,4110.9819925067795,2171.5935025168974,-3165.7885913445925,3165.7885913445925,-2171.5935025168974,7307.8889079482242,0.0
693523.2936376977,3557751.2368613081,-22500.0,3494.2066205247779,-2020.8198198054708,-2156.6573165152299,-1072.3161960345628,-321.27232059811416,-19.271490439221047,3644.1346435904811,2539.9603933768012,-3211.6839218232108,3211.6839218232108,-2539.9603933768012,6358.6930211698427,0.0
698523.2936376977,3557751.2368613081,-22500.0,3043.8753659958575,-1055.4761946964386,-2857.2838913896244,-702.92902351084501,-697.52470854605599,-142.79769020518677,3289.0507008936538,2641.4212990466344,-2997.125687996891,2997.125687996891,-2641.4212990466344,5697.1519488577378,0.0
703523.2936376977,3557751.2368613081,-22500.0,2487.5661868455309,-235.63161142069424,-3213.3995587204722,-373.4855182295525,-931.14647334371625,-224.90516616709556,3019.0993217771693,2541.91231819227,-2629.9914616291157,2629.9914616291157,-2541.91231819227,5251.7565950853113,0.0
708523.2936376977,3557751.2368613081,-22500.0,1894.0331823202077,415.24197299636489,-3315.428040977763,-97.821344548055606,-1053.3749338218379,-273.46657928597858,2806.0120980231072,2309.2010116891938,-2195.2972292859945,2195.2972292859945,-2309.2010116891938,4941.6410717884837,0.0
713523.2936376977,3557751.2368613081,-22500.0,1314.754946929804,900.21371800474537,-3244.0486289660571,120.5572263815518,-1094.0718608770069,-296.48415177236205,2626.8848043605294,2001.8648410471292,-1752.4042484512433,1752.4042484512433,-2001.8648410471292,4700.9780866368283,0.0
718523.2936376977,3557751.2368613081,-22500.0,783.31511087558806,1237.531512408777,-3064.2373723488568,284.77487555244045,-1078.7592764717308,-301.13736808495037,2466.3795506836314,1664.9230817482962,-1338.0544490119014,1338.0544490119014,-1664.9230817482962,4487.3285051910498,0.0
723523.2936376977,3557751.2368613081,-22500.0,318.07643149908034,1452.0236743516675,-2824.5314061196864,401.51451754866906,-1027.6400691739846,-293.35742512926009,2315.7920164079915,1329.7362438687046,-971.65250266850228,971.65250266850228,-1329.7362438687046,4278.46127286721,0.0
728523.2936376977,3557751.2368613081,-22500.0,-73.990556433459801,1569.5126677417531,-2558.9844551491178,478.82595420067548,-955.7911898838106,-277.75225233914261,2171.0425649580079,1016.0431380683208,-660.63294490215526,660.63294490215526,-1016.0431380683208,4065.5762514171861,0.0
733523.2936376977,3557751.2368613081,-22500.0,-393.58414535220226,1613.6962547109806,-2290.0990784727942,524.75097311198124,-873.91252640214543,-257.72657782953252,2030.7992332917365,734.68814358410759,-404.92159033976395,404.92159033976395,-734.68814358410759,3847.3612965180628,0.0
738523.2936376977,3557751.2368613081,-22500.0,-646.0160251641862,1604.7483453355208,-2031.7715872356091,546.57515237348571,-789.23947390171929,-235.68487777741197,1895.1270126947143,490.23946549762729,-200.23147510357367,200.23147510357367,-490.23946549762729,3626.0020114103022,0.0
578523.2936376977,3562751.2368613081,-22500.0,2310.1295776859574,217.52571932877461,-1346.6985538903252,601.20205562179012,-165.55886346837721,94.533224138471127,1929.4983416270097,2268.0375691116215,-1234.6315695388057,1234.6315695388057,-2268.0375691116215,3389.3535334115336,0.0
583523.2936376977,3562751.2368613081,-22500.0,2769.0132301987956,613.03887659386737,-1223.2532365398779,805.81517709743559,-38.995818994072039,155.32870967680205,2204.8420340336265,2658.8503277626919,-1001.6667752980146,1001.6667752980146,-2658.8503277626919,3926.1991240401517,0.0
588523.2936376977,3562751.2368613081,-22500.0,3242.9462261001099,1108.9026431984819,-979.25843118440082,1047.3591820212473,147.54486674584882,236.34545869797302,2543.5384422808947,3046.1415224415491,-630.57978134998666,630.57978134998666,-3046.1415224415491,4606.2310002535887,0.0
593523.2936376977,3562751.2368613081,-22500.0,3706.7567748555539,1709.8785039048121,-571.18104189795883,1324.760972337167,411.08417725755953,342.09780054347658,2957.8252446060942,3399.503324940405,-84.957936242097958,84.957936242097958,-3399.503324940405,5456.2697063969326,0.0
598523.2936376977,3562751.2368613081,-22500.0,4125.3061880088426,2410.7830715760779,51.672351129616693,1632.501960839428,770.38953151255146,477.16853935440747,3459.2719102047786,3677.0439289072683,672.07590303577399,-672.07590303577399,-3677.0439289072683,6500.2720770107017,0.0
603523.2936376977,3562751.2368613081,-22500.0,4453.5414308402324,3190.8876967071078,943.87238071908826,1958.6757269012867,1244.3461885600966,645.61164496887625,4057.3818155489744,3825.2385333932871,1672.23190069609,-1672.23190069609,-3825.2385333932871,7755.8526146644072,0.0
608523.2936376977,3562751.2368613081,-22500.0,4638.8218591390296,4007.5928422312581,2157.1659807571737,2282.9628923579012,1849.0756994841613,850.02827157751676,4758.3044214338952,3781.2907893846104,2933.3031186153985,-2933.3031186153985,-3781.2907893846104,9229.6529494631886,0.0
613523.2936376977,3562751.2368613081,-22500.0,4626.6971331841769,4790.5999690794888,3729.2486404262359,2575.0074298436994,2593.4919204833004,1090.2837755710973,5565.2443264625454,3479.4283935141825,4447.1098820579318,-4447.1098820579318,-3479.4283935141825,10911.371105540284,0.0
618523.2936376977,3562751.2368613081,-22500.0,4371.1508236815671,5438.8114572669665,5667.4198100923822,2794.0043950766449,3473.2124481489013,1361.9208731790272,6481.3811619343205,2862.4878259404973,6164.948266123949,-6164.948266123949,-2862.4878259404973,12766.657967146077,0.0
623523.2936376977,3562751.2368613081,-22500.0,3849.515698287491,5823.305841538986,7927.8966654770711,2890.6376019910936,4463.2594772934162,1654.4788537931315,7489.0062848014313,1899.3821539036981,7983.0903464407038,-7983.0903464407038,-1899.3821539036981,14729.754242568913,0.0
628523.2936376977,3562751.2368613081,-22500.0,3080.481901611156,5800.484758137055,10394.089994677173,2812.668091944342,5510.8794820477769,1950.1554407762249,8519.2317405683225,607.1688942246974,9733.3351919862544,-9733.3351919862544,-607.1688942246974,16697.68905178873,0.0
633523.2936376977,3562751.2368613081,-22500.0,2140.6640604096701,5238.9489425516213,12860.871538592162,2515.1537707553798,6531.065102686196,2223.5004569669181,9482.2097072995857,-926.89153799956875,11186.261042079279,-11186.261042079279,926.89153799956875,18529.000905397876,0.0
638523.2936376977,3562751.2368613081,-22500.0,1171.502574368461,4060.4226982651417,15035.988231282008,1975.0394628837478,7408.6422751012788,2442.9907753500156,10280.204096701182,-2532.4046962080783,12076.199028203329,-12076.199028203329,2532.4046962080783,20050.922573223692,0.0
643523.2936376977,3562751.2368613081,-22500.0,365.72191769450086,2287.728789727983,16571.723871946393,1207.3483938267134,8011.1728938455853,2575.1854012115477,10812.977095882776,-3965.0069888674861,12154.137583229736,-12154.137583229736,3965.0069888674861,21078.911536842279,0.0
648523.2936376977,3562751.2368613081,-22500.0,-74.86590908165843,81.994207494226487,17134.841047322294,276.80370378855679,8214.8638236948827,2591.4610283903376,10994.021965651291,-4949.3890256622508,11264.235468244427,-11264.235468244427,4949.3890256622508,21449.909103909096,0.0
653523.2936376977,3562751.2368613081,-22500.0,-6.2503073492457677,-2257.2443727065806,16505.918615925242,-703.60652219326846,7939.8136708976635,2476.0151343939224,10774.320980966668,-5255.9181871404762,9421.0198367055546,-9421.0198367055546,5255.9181871404762,21064.623050551854,0.0
658523.2936376977,3562751.2368613081,-22500.0,590.64182401079233,-4349.7310490380696,14673.303711382883,-1593.2875660553764,7182.5489964707003,2232.367363754076,10168.46805115911,-4787.309437370197,6847.2082199059605,-6847.2082199059605,4787.309437370197,19925.861827164808,0.0
663523.2936376977,3562751.2368613081,-22500.0,1581.5520601990931,-5842.504297299306,11870.237792400963,-2260.9630264563534,6028.7915805114408,1885.0739727513101,9275.1548409845018,-3631.1806041843388,3936.1612803986113,-3936.1612803986113,3631.1806041843388,18155.047580575345,0.0
668523.2936376977,3562751.2368613081,-22500.0,2716.169520883213,-6522.8235254239898,8520.9649217459701,-2623.1821738342633,4635.2840720500299,1474.8857587256637,8241.9575902694214,-2040.7020338808716,1140.0896034592784,-1140.0896034592784,2040.7020338808716,15974.49038205766,0.0
673523.2936376977,3562751.2368613081,-22500.0,3718.1189362265695,-6376.9672910064737,5113.0190168583067,-2665.5612284626682,3186.0744750668446,1048.7806252799523,7183.2028062564805,-346.15221837515492,-1165.6801981426308,1165.6801981426308,346.15221837515492,13658.717752416356,0.0
678523.2936376977,3562751.2368613081,-22500.0,4378.7587502009583,-5566.9423238838099,2059.2058175070606,-2437.3156527004553,1843.7800460008707,649.02034920958147,6192.5217024939939,1155.1514976200856,-2774.864688412104,2774.864688412104,-1155.1514976200856,11473.124533462254,0.0
683523.2936376977,3562751.2368613081,-22500.0,4607.6824210008581,-4348.4535463319608,-387.43291745284205,-2025.4992980440347,717.08490146315398,305.47068057018049,5343.3452674206592,2274.7664318091693,-3663.7697455649895,3663.7697455649895,-2274.7664318091693,9620.1807919978783,0.0
688523.2936376977,3562751.2368613081,-22500.0,4427.4466611183771,-2980.5118977249076,-2144.4530182455992,-1524.4635100634791,-147.05999405532208,33.086002795737009,4669.6109223360991,2950.4722593122301,-3941.5463409570307,3941.5463409570307,-2950.4722593122301,8204.1558988805791,0.0
693523.2936376977,3562751.2368613081,-22500.0,3932.9735820241458,-1665.141185585896,-3258.1106944778462,-1013.428937884285,-752.04390989656656,-166.22891542213853,4163.5841677031076,3218.169902404703,-3778.6167569384925,3778.6167569384925,-3218.169902404703,7220.3430547796634,0.0
698523.2936376977,3562751.2368613081,-22500.0,3244.7693075804145,-526.67450536148681,-3844.6779424248471,-546.55128921003029,-1132.3091522490106,-299.5153491992096,3789.5568961894878,3167.0526967120268,-3347.6186241533187,3347.6186241533187,-3167.0526967120268,6577.9846467937205,0.0
703523.2936376977,3562751.2368613081,-22500.0,2474.6302126288638,380.46154318797073,-4040.9304180083996,-153.05854532711027,-1335.3231937292462,-378.41925999701556,3503.6269466077138,2900.469631112328,-2790.0880705173695,2790.0880705173695,-2900.469631112328,6152.8044509167648,0.0
708523.2936376977,3562751.2368613081,-22500.0,1708.504892941665,1051.564886742608,-3973.3050619239307,157.30722377753705,-1409.0136926261778,-415.77873295041286,3268.6654874484552,2511.4473177535806,-2205.8857367206988,2205.8857367206988,-2511.4473177535806,5837.2365904564276,0.0
713523.2936376977,3562751.2368613081,-22500.0,1002.7865972701593,1510.7558356692546,-3744.0332219664442,387.52513835426987,-1394.9882377706472,-423.48125979317842,3059.930257504298,2072.054504599892,-1656.3986530766808,1656.3986530766808,-2072.054504599892,5561.6504024517817,0.0
718523.2936376977,3562751.2368613081,-22500.0,388.13107459038571,1794.7902535070798,-3428.4898949571557,547.43164194888095,-1326.0693603137361,-411.431456694953,2863.9153319769139,1631.9829999486221,-1173.4099892663392,1173.4099892663392,-1631.9829999486221,5290.7947378837616,0.0
723523.2936376977,3562751.2368613081,-22500.0,-123.95769667624646,1942.6483686612412,-3078.2819554769612,649.52466887038418,-1226.391331978507,-387.28543294237261,2674.7951375365974,1221.7647448245366,-768.61615656975994,768.61615656975994,-1221.7647448245366,5011.8678993181275,0.0
728523.2936376977,3562751.2368613081,-22500.0,-534.57127195359044,1989.90089686892,-2726.3589710073511,706.3760607164395,-1112.6926054596695,-356.61818381607526,2491.0865684380101,857.48747319559516,-441.51833192490676,441.51833192490676,-857.48747319559516,4723.9717047376989,0.0
733523.2936376977,3562751.2368613081,-22500.0,-852.08472035646719,1966.3329848194628,-2392.139111576133,729.27280791513135,-995.95407367908399,-323.27971145103953,2313.3387805833308,545.32691169723682,-185.11371125460809,185.11371125460809,-545.32691169723682,4431.3064663501209,0.0
738523.2936376977,3562751.2368613081,-22500.0,-1088.3540933108382,1895.49133019948,-2085.8017054964962,727.66998821929826,-882.94370551317752,-289.78999809280469,2142.7825043017478,285.21598640610688,10.389606609770169,-10.389606609770169,-285.21598640610688,4139.4533393123438,0.0
743523.2936376977,3562751.2368613081,-22500.0,-1256.245531163828,1795.2090333595384,-1811.5447412916155,709.11883937861592,-777.49253177732555,-257.69696590692803,1980.6440328803264,73.526831523171566,155.35497568700401,-155.35497568700401,-73.526831523171566,3853.6098136509854,0.0
573523.2936376977,3567751.2368613081,-22500.0,1707.297293038263,-472.4978236085621,-1679.4535391000263,327.61591551800706,-391.71179516394341,13.470860702141746,1830.6870531312229,1793.2834722392108,-1765.3203945768701,1765.3203945768701,-1793.2834722392108,3170.9043880754271,1.0
578523.2936376977,3567751.2368613081,-22500.0,2196.6168207777346,-195.79678097242888,-1720.1590858405154,506.23642967473654,-333.10991883516476,56.775857804740639,2055.495563033347,2235.7225333484189,-1720.9531552893511,1720.9531552893511,-2235.7225333484189,3571.4838768082204,0.0
583523.2936376977,3567751.2368613081,-22500.0,2742.2932984080699,184.33785630177724,-1686.3810672567793,729.58906604406002,-227.76648564403737,118.41232132581929,2333.5356634303912,2720.4557744711715,-1575.0035588618061,1575.0035588618061,-2720.4557744711715,4090.4850891856445,0.0
588523.2936376977,3567751.2368613081,-22500.0,3331.0959212380399,686.35130539100601,-1538.9038668774547,1002.6463769750354,-57.857162528371617,203.82053712648047,2680.1868309321658,3230.0674679377867,-1287.6737515709324,1287.6737515709324,-3230.0674679377867,4765.0912661878556,0.0
593523.2936376977,3567751.2368613081,-22500.0,3939.0436344343348,1324.9191541389027,-1226.4894438830045,1327.8225387595378,198.64383943786325,319.2954958510835,3112.8978730680656,3734.8679096687556,-811.49153525271936,811.49153525271936,-3734.8679096687556,5635.7189717110505,0.0
598523.2936376977,3567751.2368613081,-22500.0,4528.6712200830825,2105.8166684729549,-685.38916436062755,1702.8736146296076,567.64719891477534,471.67187044076832,3650.0021057896693,4189.6578435895708,-93.63567903578496,93.63567903578496,-4189.6578435895708,6742.5237871369582,0.0
603523.2936376977,3567751.2368613081,-22500.0,5047.2652215060325,3018.6294193889626,158.75765855040922,2118.1276646495339,1077.5789237840913,667.66211345228066,4308.9910865430002,4531.4538620643825,918.64885950755229,-918.64885950755229,-4531.4538620643825,8120.837444358639,0.0
608523.2936376977,3567751.2368613081,-22500.0,5427.4365955342237,4027.4544931286787,1384.8998058456486,2553.2005519344266,1756.3517264211594,912.71403714277471,5104.6457785273533,4679.7115540987925,2268.2392291295096,-2268.2392291295096,-4679.7115540987925,9795.1964684874765,0.0
613523.2936376977,3567751.2368613081,-22500.0,5591.8968705004245,5060.6397297084841,3064.3342229035429,2973.6876016101264,2626.0015524950368,1209.2780734403398,6048.6223924508449,4541.2300983709902,3972.853534372091,-3972.853534372091,-4541.2300983709902,11771.359591249715,0.0
618523.2936376977,3567751.2368613081,-22500.0,5464.5395451804543,6002.0774392296444,5240.3188717970697,3328.8333252350139,3694.444410598293,1554.4682709230874,7152.9521200012896,4022.3426278809475,6004.199020244474,-6004.199020244474,-4022.3426278809475,14025.946194684017,0.0
623523.2936376977,3567751.2368613081,-22500.0,4989.4189940024298,6688.5606254363474,7898.861497507105,3551.8308125135009,4944.3359622810949,1937.3031224286651,8413.6017551388577,3050.6646587178675,8263.599747297545,-8263.599747297545,-3050.6646587178675,16494.139353824496,0.0
628523.2936376977,3567751.2368613081,-22500.0,4157.3526285585094,6919.8135071700726,10933.067483887453,3565.0351090278596,6320.1853177409903,2336.0554610733934,9758.358481317111,1606.8627051367948,10559.808359880833,-10559.808359880833,-1606.8627051367948,19057.338106522719,0.0
633523.2936376977,3567751.2368613081,-22500.0,3035.8558985926497,6488.9336029357764,14109.063187953499,3292.5704249140276,7716.9325136233738,2716.7093071514419,11068.703321592531,-237.40263077487543,12599.842209324395,-12599.842209324395,237.40263077487543,21534.779561470783,0.0
638523.2936376977,3567751.2368613081,-22500.0,1791.5558960237661,5238.806116623422,17049.710776575408,2681.7609691607067,8976.0616848986811,3033.9779988533128,12205.708064698369,-2286.7657395610131,14008.930579485732,-14008.930579485732,2286.7657395610131,23685.811756232462,0.0
643523.2936376977,3567751.2368613081,-22500.0,686.4512563055066,3140.7798514844353,19260.686626857267,1731.3296966145813,9897.9922401893746,3236.4736409358206,13016.308592633928,-4215.9878194531238,14396.829115662393,-14396.829115662393,4215.9878194531238,25231.664050011241,0.0
648523.2936376977,3567751.2368613081,-22500.0,26.590044368105517,372.16774105299334,20223.589846729108,517.58944994206684,10278.917559316618,3276.888853238112,13356.488844513955,-5617.6203342667613,13476.086317788337,-13476.086317788337,5617.6203342667613,25904.1429222306,0.0
653523.2936376977,3567751.2368613081,-22500.0,56.539093380526609,-2655.7660779231151,19557.647911478824,-797.93254049159259,9971.5511955535367,3125.9289208799755,13131.612309891972,-6118.3886475247182,11204.522323033651,-11204.522323033651,6118.3886475247182,25519.066659134325,0.0
658523.2936376977,3567751.2368613081,-22500.0,833.86264343454923,-5372.8289095985101,17197.886452253992,-1996.7389073147367,8950.5158223126073,2785.3775385702797,12343.706364559783,-5535.4227260614425,7878.3673255569047,-7878.3673255569047,5535.4227260614425,24053.129112822102,0.0
663523.2936376977,3567751.2368613081,-22500.0,2161.9147207242372,-7233.4246161112578,13484.755165345139,-2868.4137558648736,7345.4316931729718,2293.1758017990078,11129.735483177092,-3987.3604283131162,4089.7706787448424,-4089.7706787448424,3987.3604283131162,21685.351845445282,0.0
668523.2936376977,3567751.2368613081,-22500.0,3648.9178145488777,-7924.4747394873266,9078.3967460931181,-3284.2471103381249,5411.3435591163106,1715.4115505965601,9729.7995726709451,-1870.4838226056254,531.85905481152884,-531.85905481152884,1870.4838226056254,18770.036594129029,0.0
673523.2936376977,3567751.2368613081,-22500.0,4873.7396972693305,-7469.0884633021378,4724.0278834639412,-3236.5856102450393,3444.6610938708568,1127.491220354804,8342.4143471495317,303.96516333583907,-2248.0540639527567,2248.0540639527567,-303.96516333583907,15744.24689953921,0.0
678523.2936376977,3567751.2368613081,-22500.0,5551.9479161547397,-6166.6171598833844,1006.4736443597651,-2822.7303230054258,1691.5253021398287,593.81764979133789,7103.6131588190674,2108.3540000896683,-4001.192269582255,4001.192269582255,-2108.3540000896683,13010.612325870807,0.0
683523.2936376977,3567751.2368613081,-22500.0,5605.5515005262378,-4430.1963644519965,-1775.6196483102431,-2191.2677549369305,295.24320618760487,155.22282343967638,6101.2960370367236,3315.9989980716955,-4771.5564618639683,4771.5564618639683,-3315.9989980716955,10839.942328739142,0.0
688523.2936376977,3567751.2368613081,-22500.0,5126.7927906015502,-2632.5185089263236,-3591.8367839827174,-1486.8239695348441,-705.13781571007678,-172.94297972048858,5353.6435493674508,3902.1040988902714,-4782.9211376330968,4782.9211376330968,-3902.1040988902714,9317.152115079849,0.0
693523.2936376977,3567751.2368613081,-22500.0,4292.5595980349499,-1025.6161203844592,-4582.2070222645816,-817.06464105359191,-1344.1544970448954,-395.19108999833946,4818.1554070495331,3973.1605559828431,-4310.8846844791105,4310.8846844791105,-3973.1605559828431,8349.4011069914995,0.0
698523.2936376977,3567751.2368613081,-22500.0,3287.1848726477074,266.72390764999113,-4953.8060575413892,-244.49449607134306,-1692.6257120413788,-527.67179307713729,4425.8275607581218,3686.2429241760956,-3597.5234099779,3597.5234099779,-3686.2429241760956,7747.0359955939921,0.0
703523.2936376977,3567751.2368613081,-22500.0,2258.4690708090166,1217.5391366228757,-4910.1761666345119,206.28568458679032,-1829.0402564068031,-590.89621899874601,4113.8091621402882,3192.7204824472242,-2817.1659405350651,2817.1659405350651,-3192.7204824472242,7327.5711499689396,0.0
708523.2936376977,3567751.2368613081,-22500.0,1304.3509685780623,1857.0758067587658,-4617.6305054918475,536.03460099695292,-1823.3565679122244,-604.84553753362832,3840.060119735364,2611.6926233643167,-2076.4579059886869,2076.4579059886869,-2611.6926233643167,6970.70642018539,0.0
713523.2936376977,3567751.2368613081,-22500.0,477.69806153925629,2240.8578857124085,-4197.1361175128131,759.24934438143009,-1730.6955771924579,-586.44602007071376,3582.5568704574098,2024.4553151193509,-1429.4315627627648,1429.4315627627648,-2024.4553151193509,6617.508030925439,0.0
718523.2936376977,3567751.2368613081,-22500.0,-201.98944715444307,2429.3404476998039,-3729.2009978017873,895.79043191405458,-1590.941876264448,-548.75985904171773,3332.689676849674,1479.5962798460271,-895.10217231053298,895.10217231053298,-1479.5962798460271,6248.522475475439,0.0
723523.2936376977,3567751.2368613081,-22500.0,-736.563415376541,2477.3055054023635,-3263.1839373549446,965.81829450831856,-1431.0499764067442,-501.170167083021,3089.0077101898651,1001.4873593075611,-472.0300571970493,472.0300571970493,-1001.4873593075611,5864.0621923314256,0.0
728523.2936376977,3567751.2368613081,-22500.0,-1139.6497233567331,2429.7107261362635,-2826.5785898107474,987.24009001155434,-1268.1022995210938,-450.00785844607242,2853.082229089739,598.43411554190959,-148.51193292310111,148.51193292310111,-598.43411554190959,5472.0538760122963,0.0
733523.2936376977,3567751.2368613081,-22500.0,-1430.0305220615976,2321.149255673336,-2432.5552782089294,974.76250441368575,-1112.1591807978195,-399.28112028316053,2627.2498886743588,269.09115302129203,91.062627359754771,-91.062627359754771,-269.09115302129203,5081.8533587945649,0.0
738523.2936376977,3567751.2368613081,-22500.0,-1627.5502592146463,2177.0035460323807,-2085.4645926432054,939.83990280622436,-968.55211170978578,-351.3379953003697,2413.5765332100186,6.9707907703208605,262.63756066499536,-262.63756066499536,-6.9707907703208605,4701.596451610214,0.0
743523.2936376977,3567751.2368613081,-22500.0,-1750.8553566685871,2015.1748339441981,-1784.5804983079183,891.04471534070865,-839.57885746539125,-307.39900471643057,2213.4951267565216,-196.64224251065809,380.72117899538227,-380.72117899538227,196.64224251065809,4337.3647825717817,0.0
568523.2936376977,3572751.2368613081,-22500.0,945.23678921250246,-1056.4934586534898,-1789.9984521658755,40.120814125681598,-550.73060893308423,-59.916781564908284,1804.5589243846462,1142.7365363721071,-2049.2923117545524,2049.2923117545524,-1142.7365363721071,3163.1931637659586,0.0
573523.2936376977,3572751.2368613081,-22500.0,1399.2709393809012,-920.12012798928856,-1948.4680198732735,174.1839261723776,-553.44754944586589,-35.833933112562917,1992.6245509785708,1568.1122567727157,-2163.372858270176,2163.372858270176,-1568.1122567727157,3465.8796116234762,0.0
578523.2936376977,3572751.2368613081,-22500.0,1938.0612852224583,-696.73134988861045,-2078.6028037808678,353.09369112391437,-526.41318144451247,2.8197316407659212,2218.1848736755119,2068.1171254901624,-2222.22870710501,2222.22870710501,-2068.1171254901624,3842.8110442048196,0.0
583523.2936376977,3572751.2368613081,-22500.0,2562.7301054559043,-361.0302208302848,-2152.3802511212684,586.27403424413581,-454.16847863998504,61.532602873274556,2494.8971048268172,2640.9137872417359,-2191.9883082097904,2191.9883082097904,-2640.9137872417359,4328.4892959403323,0.0
588523.2936376977,3572751.2368613081,-22500.0,3266.4540606818869,114.62346291504679,-2129.0548127782149,882.97424346282025,-315.8600240053745,147.22924042914687,2840.9171217296416,3275.5318343006347,-2027.3713926676537,2027.3713926676537,-3275.5318343006347,4968.7949353720496,0.0
593523.2936376977,3572751.2368613081,-22500.0,4030.4024529854273,757.27831623392285,-1951.8136765407532,1250.7212458783451,-84.291796397500988,268.31159240692404,3279.0023230894712,3947.2429042698623,-1670.5043093656702,1670.5043093656702,-3947.2429042698623,5819.7280354776194,0.0
598523.2936376977,3572751.2368613081,-22500.0,4819.1032944748422,1588.02716404629,-1545.0284542400627,1692.8451479627563,274.54399262369537,434.44683455252959,3835.7216889966016,4612.171526004081,-1051.5210746263235,1051.5210746263235,-4612.171526004081,6943.4603707796259,0.0
603523.2936376977,3572751.2368613081,-22500.0,5576.0596310496712,2613.3949041208239,-813.54693681947106,2204.8724885589772,800.85894155092353,655.92380284230035,4539.6537546437594,5201.999458821846,-92.564925042025607,92.564925042025607,-5201.999458821846,8402.0883378656035,0.0
608523.2936376977,3572751.2368613081,-22500.0,6221.2145741289642,3812.9722620046268,353.63479777124383,2769.7488740638723,1538.4922005296664,942.35759989988867,5418.9778145415694,5620.5147547294155,1282.6538279867818,-1282.6538279867818,-5620.5147547294155,10249.50645659946,0.0
613523.2936376977,3572751.2368613081,-22500.0,6652.8324333692226,5123.7160910095063,2072.0151327290132,3352.2342333593274,2529.1930710072288,1300.5159899038294,6500.2731813161463,5744.9329551602286,3131.3482275203723,-3131.3482275203723,-5744.9329551602286,12520.921302808674,0.0
618523.2936376977,3572751.2368613081,-22500.0,6757.2441651008176,6423.1842633168317,4438.6480990958216,3893.4916653285309,3802.4639305736523,1731.1173652523778,7812.5400583748242,5436.102257515844,5464.3902482245448,-5464.3902482245448,-5436.102257515844,15218.744909338935,0.0
623523.2936376977,3572751.2368613081,-22500.0,6430.1637197589052,7516.9415381421804,7494.2772836146769,4307.9224437931762,5359.9631798001519,2224.6715470367253,9376.1908423934838,4562.3325441610305,8209.6366618706616,-8209.6366618706616,-4562.3325441610305,18293.96230537512,0.0
628523.2936376977,3572751.2368613081,-22500.0,5611.9997956308171,8139.3357934564683,11170.114867338858,4485.6274453764026,7154.6304086014115,2756.8725702252459,11128.547271343563,3040.6259134932052,11170.785947745757,-11170.785947745757,-3040.6259134932052,21623.798263716071,0.0
633523.2936376977,3572751.2368613081,-22500.0,4335.3963140295564,7980.9655117962066,15225.790397808247,4305.173220239275,9067.3715805568354,3284.7415756549326,12921.891081658672,894.90457319309371,13994.583050104611,-13994.583050104611,-894.90457319309371,24989.783229073171,0.0
638523.2936376977,3572751.2368613081,-22500.0,2774.1882651075512,6758.009789182136,19197.974885885193,3661.6782105812813,10889.11575064,3745.6029284071519,14563.391409986805,-1679.0414550604346,16170.52715263804,-16170.52715263804,1679.0414550604346,28065.715430764834,0.0
643523.2936376977,3572751.2368613081,-22500.0,1267.1893295223574,4331.7042216756472,22398.953630967531,2512.2926179082233,12323.486718146902,4061.8179932445091,15820.155098516472,-4270.6026262559444,17098.890650330803,-17098.890650330803,4270.6026262559444,30432.49544962353,0.0
648523.2936376977,3572751.2368613081,-22500.0,272.10202506240478,857.8129133947632,24022.401571304672,930.70332049863009,13031.672462443645,4154.3641059464826,16448.783053212908,-6286.0554936329772,16260.445859149868,-16260.445859149868,6286.0554936329772,31642.11460322536,0.0
653523.2936376977,3572751.2368613081,-22500.0,209.2597250957954,-3112.2402523274272,23396.916361186933,-857.88400815941509,12733.990338780206,3966.2602616764634,16263.697425100312,-7111.390219809653,13473.569734850707,-13473.569734850707,7111.390219809653,31343.196674951905,0.0
658523.2936376977,3572751.2368613081,-22500.0,1225.4017066341796,-6706.8141303491848,20328.342411293805,-2506.390625587328,11344.929930670274,3490.0469139383176,15229.042883201779,-6394.0625066258117,9115.4464041749416,-9115.4464041749416,6394.0625066258117,29439.801850644119,0.0
663523.2936376977,3572751.2368613081,-22500.0,3031.4464356600874,-9049.8690215899605,15318.640102819727,-3662.3234717766595,9061.3923296812827,2783.6673122452985,13536.184192108574,-4286.7828094813131,4100.9999032445021,-4100.9999032445021,4286.7828094813131,26198.201335228427,0.0
668523.2936376977,3572751.2368613081,-22500.0,4992.9397666704062,-9665.3960699416075,9432.3760442000039,-4118.2516141245269,6316.7329399431246,1958.2376379513337,11583.171842508837,-1430.7180101311651,-469.03803758290633,469.03803758290633,1430.7180101311651,22208.857600875457,0.0
673523.2936376977,3572751.2368613081,-22500.0,6452.4065329915729,-8670.8027733115232,3841.7079149812203,-3890.3544661124602,3607.8685471331578,1139.6597091845153,9731.6088562311852,1359.4902677328271,-3782.2418151191678,3782.2418151191678,-1359.4902677328271,18198.192972775727,0.0
678523.2936376977,3572751.2368613081,-22500.0,7034.7472853992458,-6623.6105900218854,-628.23751683662238,-3172.6689246481783,1312.7144623111087,427.85430596447242,8183.0060611047629,3469.9807055941892,-5572.0794927550032,5572.0794927550032,-3469.9807055941892,14789.443676802444,0.0
683523.2936376977,3572751.2368613081,-22500.0,6728.2387194225885,-4190.2941396134756,-3671.4052419743616,-2220.5098463795484,-392.28246800219398,-123.71147147587584,7023.2216979041914,4661.5057549631183,-6041.618407726417,6041.618407726417,-4661.5057549631183,12319.6313655463,0.0
688523.2936376977,3572751.2368613081,-22500.0,5764.7873158759685,-1888.6092341190943,-5392.7297967998447,-1250.9184000982311,-1505.8044330212585,-505.29584891797742,6218.7408592797874,5009.412471995026,-5614.0586172098619,5614.0586172098619,-5009.412471995026,10772.318080349709,0.0
693523.2936376977,3572751.2368613081,-22500.0,4449.5249372488124,-2.2933431191539495,-6097.7497760716578,-400.54864379575019,-2126.8490654363345,-736.05778186125326,5661.7394334232467,4744.7552617192268,-4713.555765451094,4713.555765451094,-4744.7552617192268,9873.869595843933,0.0
698523.2936376977,3572751.2368613081,-22500.0,3045.0614351825088,1381.6374536978744,-6123.4325324457786,270.28876201429449,-2386.4626434062684,-848.2878353862518,5240.3242947611116,4119.9638112084422,-3657.7079948535575,3657.7079948535575,-4119.9638112084422,9303.4857406303126,0.0
703523.2936376977,3572751.2368613081,-22500.0,1728.2586604631717,2295.9491962484722,-5751.2634756377993,754.17758807753569,-2406.669966561512,-876.04445543307838,4878.1477127346625,3339.3298416444004,-2640.4812582769537,2640.4812582769537,-3339.3298416444004,8839.8746553112123,0.0
708523.2936376977,3572751.2368613081,-22500.0,593.65855360806643,2826.5039854711786,-5183.0730023536744,1072.4196404528911,-2283.7397050827144,-848.95766914461763,4536.788613760722,2540.8711774139538,-1757.6978670400595,1757.6978670400595,-2540.8711774139538,8377.4810949192961,0.0
713523.2936376977,3572751.2368613081,-22500.0,-324.81651809385795,3070.1455757204249,-4548.6921850930457,1257.4759579969432,-2086.0618806164307,-789.95619138634527,4202.8037447952202,1804.3652812769915,-1041.3249260412622,1041.3249260412622,-1804.3652812769915,7884.7238284301038,0.0
718523.2936376977,3572751.2368613081,-22500.0,-1030.7197968984326,3113.7758076735595,-3923.8844542395118,1342.6339723432056,-1858.4839379803766,-715.31675811463379,3875.2135203025427,1167.4754975963644,-487.76465479896018,487.76465479896018,-1167.4754975963644,7364.7185059316262,0.0
723523.2936376977,3572751.2368613081,-22500.0,-1547.0721441012138,3026.9192027975073,-3347.9951427100382,1357.0556931301501,-1628.3143298181494,-635.76929148371516,3557.6682907202076,641.0928685809306,-76.887072970374902,76.887072970374902,-641.0928685809306,6832.3294355381277,0.0
728523.2936376977,3572751.2368613081,-22500.0,-1904.4835112916496,2861.3293715263626,-2837.7163992203118,1324.1247422569058,-1410.8069430597109,-557.87338996315668,3254.5285250155503,220.95651242513952,216.76882300786667,-216.76882300786667,-220.95651242513952,6303.4631991011838,0.0
733523.2936376977,3572751.2368613081,-22500.0,-2134.2484637599782,2653.5528512474489,-2396.6351271680769,1261.5185400669043,-1213.4232552099554,-485.27534509060627,2969.2781978008315,-104.58447850004981,418.16270500113126,-418.16270500113126,104.58447850004981,5791.0388476185271,0.0
738523.2936376977,3572751.2368613081,-22500.0,-2264.8492657275065,2428.2697803280557,-2021.376250801057,1182.0203467895715,-1038.8591181031018,-419.70408308793031,2704.1139801335539,-349.84379961550883,549.17643849691251,-549.17643849691251,349.84379961550883,5304.0814731729015,0.0
743523.2936376977,3572751.2368613081,-22500.0,-2320.5523364699061,2201.4202133239528,-1705.3327289296458,1094.5313423722373,-887.06861949830454,-361.69627256716825,2460.0495061690526,-529.16514390627935,627.82977509940679,-627.82977509940679,529.16514390627935,4848.0828414976222,0.0
748523.2936376977,3572751.2368613081,-22500.0,-2321.169373487035,1982.764650730988,-1440.8082895329962,1005.0244701389722,-756.55502983166627,-311.09300357315618,2237.2063811593962,-655.61604323704398,668.38385389050734,-668.38385389050734,655.61604323704398,4425.7502997762285,0.0
563523.2936376977,3577751.2368613081,-22500.0,109.55055470354719,-1478.9029567420134,-1716.0389553057189,-232.95451532830802,-638.25744973644294,-120.60003823154369,1830.9264964522747,402.88972214014404,-2092.808082243962,2092.808082243962,-402.88972214014404,3303.3269362489818,0.0
568523.2936376977,3577751.2368613081,-22500.0,471.86824901979031,-1477.4690406580037,-1938.3499077667584,-154.1320806374014,-688.498166029446,-115.08044822213793,2004.7486722994656,751.89878070310726,-2314.8347030746418,2314.8347030746418,-751.89878070310726,3575.0649639319904,0.0
573523.2936376977,3577751.2368613081,-22500.0,928.82580049003423,-1417.8987544372751,-2169.0638743410072,-37.329819401869933,-726.02551423047908,-99.845715829076852,2202.955148255744,1188.453764125491,-2525.9477703256443,2525.9477703256443,-1188.453764125491,3883.9676850365572,0.0
578523.2936376977,3577751.2368613081,-22500.0,1493.6283046949443,-1275.567901604694,-2393.6871199784609,128.74388733319182,-739.83177937063726,-70.166727703269274,2433.7755647415561,1723.8149616937978,-2704.0405652318514,2704.0405652318514,-1723.8149616937978,4248.612729995245,0.0
583523.2936376977,3577751.2368613081,-22500.0,2176.3521420129737,-1019.6026197991999,-2587.7470579015871,357.24363139337351,-713.73287768220723,-19.638002220675993,2709.7691564847378,2365.3726870968917,-2815.919518553917,2815.919518553917,-2365.3726870968917,4699.6787567348911,0.0
588523.2936376977,3577751.2368613081,-22500.0,2980.3696152437888,-613.15628713316755,-2712.4345803850288,662.58488227729265,-624.65361682364096,60.170346067298958,3049.5159280563571,3112.6352583536336,-2813.8843220173549,2813.8843220173549,-3112.6352583536336,5284.5979249967968,0.0
593523.2936376977,3577751.2368613081,-22500.0,3897.2518415412424,-15.320058881648491,-2709.2863754670893,1059.0568983883934,-440.75180677065617,179.96421633798465,3479.1824080848673,3951.4467585369475,-2632.3868355904724,2632.3868355904724,-3951.4467585369475,6070.7879934949806,0.0
598523.2936376977,3577751.2368613081,-22500.0,4900.1348333618544,814.16944481491555,-2494.4600367352059,1558.244721238299,-119.71716097812308,352.72550852975763,4033.2758273009754,4846.3402656861954,-2185.8528196454517,2185.8528196454517,-4846.3402656861954,7144.8378063543569,0.0
603523.2936376977,3577751.2368613081,-22500.0,5936.0913645991095,1905.9416206972307,-1954.0099490154166,2164.8075606526422,392.08671620215409,593.22386114291965,4753.8680285302416,5731.5314554945817,-1369.6197714974342,1369.6197714974342,-5731.5314554945817,8605.9501322435572,0.0
608523.2936376977,3577751.2368613081,-22500.0,6919.0563378836796,3266.2125741640639,-942.92049033089609,2870.2446170525391,1158.4961447439391,916.72254197922587,5688.2494129352444,6502.1884317655977,-67.037762075340652,67.037762075340652,-6502.1884317655977,10554.343541993916,0.0
613523.2936376977,3577751.2368613081,-22500.0,7726.3432202470321,4855.3820583257557,707.5471032510743,3644.6118875558632,2248.7044899418624,1336.5118334728238,6887.0577604069467,7009.3649608577489,1833.1790423843286,-1833.1790423843286,-7009.3649608577489,13076.250541976548,0.0
618523.2936376977,3577751.2368613081,-22500.0,8203.5724980474351,6561.1380892938651,3167.7765215834338,4426.9022625045727,3726.3875501284124,1859.9408315354603,8409.0282771066795,7064.2118021601764,4404.9281462105719,-4404.9281462105719,-7064.2118021601764,16225.028552870481,0.0
623523.2936376977,3577751.2368613081,-22500.0,8184.2985305142811,8171.0205815034496,6565.6371149063325,5116.1180373506422,5630.1893856335191,2482.8140683002307,10317.934154030612,6459.156266621394,7635.0808294372891,-7635.0808294372891,-6459.156266621394,19995.400417127079,0.0
628523.2936376977,3577751.2368613081,-22500.0,7530.7380237112957,9355.3324861859182,10914.510374596228,5567.0794450276917,7943.477714554564,3182.4452164671102,12586.373814357667,5014.5249980361823,11357.98049388578,-11357.98049388578,-5014.5249980361823,24288.09526625607,0.0
633523.2936376977,3577751.2368613081,-22500.0,6199.2997105509003,9679.1694572707001,16014.331444226504,5597.775814668963,10553.554879547337,3910.3473071838603,15047.421517659328,2656.8464500777282,15185.446076380615,-15185.446076380615,-2656.8464500777282,28865.84659528064,0.0
638523.2936376977,3577751.2368613081,-22500.0,4326.3752676447457,8671.4871223511273,21342.035064325239,5018.5109383225272,13206.580893381986,4586.5101953972799,17445.67454417051,-473.33276049002598,18460.945311135729,-18460.945311135729,473.33276049002598,33309.99460520751,0.0
643523.2936376977,3577751.2368613081,-22500.0,2308.478709635292,5984.7921656431536,25980.618163302468,3695.4938564704707,15478.352167303156,5098.7979765946693,19433.412432395799,-3909.5023050416385,20295.54416117417,-20295.54416117417,3909.5023050416385,37003.575974361651,0.0
648523.2936376977,3577751.2368613081,-22500.0,804.63495800517819,1657.2376309140923,28692.703602716676,1653.780814790767,16805.820254618699,5314.3792911247365,20596.262007474343,-6821.6151630061986,19775.624668583903,-19775.624668583903,6821.6151630061986,39192.667338263993,0.0
653523.2936376977,3577751.2368613081,-22500.0,540.00104032121737,-3616.1588286748001,28282.507267947483,-815.15018233225931,16641.640486418171,5114.220802952168,20563.493416633341,-8198.6456135137887,16402.045314936138,-16402.045314936138,8198.6456135137887,39188.335454505577,0.0
658523.2936376977,3577751.2368613081,-22500.0,1867.9397656912283,-8481.8759406262088,24251.329411859057,-3148.3911429180148,14737.422475002579,4453.7411862178369,19196.058072791635,-7342.2143250863846,10601.670196535637,-10601.670196535637,7342.2143250863846,36700.982584916957,0.0
663523.2936376977,3577751.2368613081,-22500.0,4367.7657865754018,-11467.63445311589,17341.859534625088,-4718.9983181001271,11389.072579630243,3417.0457454528878,16762.926073231614,-4420.7401988158144,3829.2467026754534,-3829.2467026754534,4420.7401988158144,32125.151922181969,0.0
668523.2936376977,3577751.2368613081,-22500.0,6966.860298835114,-11820.240429984655,9346.4870097699932,-5170.8686200006532,7377.1816821715884,2204.1816727660034,13942.795017577868,-513.27027495288803,-2090.3817317255011,2090.3817317255011,513.27027495288803,26501.234976731932,0.0
673523.2936376977,3577751.2368613081,-22500.0,8611.0313878237212,-9890.9001953168136,2166.5968701922084,-4591.6060896608005,3578.9832973950379,1041.5846163759441,11416.477309483671,3038.7507287978633,-5934.3195398911203,5934.3195398911203,-3038.7507287978633,21100.049299056456,0.0
678523.2936376977,3577751.2368613081,-22500.0,8849.1397064548291,-6732.1671766449754,-3064.348318211159,-3378.0054371869587,578.57811115346033,89.138681301948267,9489.8118861490566,5372.0582628203756,-7515.7299076731815,7515.7299076731815,-5372.0582628203756,16897.037975376563,0.0
683523.2936376977,3577751.2368613081,-22500.0,7867.1524287563434,-3404.8964455065943,-6158.2361561985472,-1969.900352981849,-1446.1851593152214,-590.91380200405956,8188.028485330864,6324.7748075997606,-7384.3777995580585,7384.3777995580585,-6324.7748075997606,14223.87359055854,0.0
688523.2936376977,3577751.2368613081,-22500.0,6157.0461465157177,-576.59716198533226,-7516.2138237330755,-677.49893069898428,-2602.8363848157101,-1011.1260595982773,7349.4958000324623,6194.4951554487116,-6290.7579144625879,6290.7579144625879,-6194.4951554487116,12768.207701478312,0.0
693523.2936376977,3577751.2368613081,-22500.0,4203.093440220895,1502.214002815738,-7710.0916120396978,349.78229878270764,-3113.6161708599229,-1221.635152328817,6763.3005555794516,5411.1108285499386,-4843.0897026621906,4843.0897026621906,-5411.1108285499386,11956.030423581682,0.0
698523.2936376977,3577751.2368613081,-22500.0,2340.5594095788324,2849.5100090015385,-7239.8045537673579,1080.0464396881991,-3201.7341096317728,-1281.9181320081689,6278.4130323241388,4341.5542448339402,-3414.6344944238786,3414.6344944238786,-4341.5542448339402,11349.581078093652,0.0
703523.2936376977,3577751.2368613081,-22500.0,745.86757255877751,3602.0365545708351,-6458.4617008611613,1544.6475458727136,-3043.8205761589493,-1245.4338777580263,5821.3706389406307,3230.9578736432636,-2183.9801646846868,2183.9801646846868,-3230.9578736432636,10742.345724236373,0.0
708523.2936376977,3577751.2368613081,-22500.0,-520.6007014293308,3921.3861460754051,-5583.6269621749543,1798.7845765525267,-2762.3970469128381,-1153.7381916976972,5369.2116676672076,2214.9503611364298,-1206.6082236634159,1206.6082236634159,-2214.9503611364298,10077.733096857466,0.0
713523.2936376977,3577751.2368613081,-22500.0,-1466.8369838293916,3950.3121807167199,-4734.5165279082885,1899.4069534894709,-2434.867975627838,-1036.0210885931467,4922.2811196788889,1352.6344196809296,-473.61391404017149,473.61391404017149,-1352.6344196809296,9364.5600912680675,0.0
718523.2936376977,3577751.2368613081,-22500.0,-2133.5974844711068,3799.2249150994935,-3967.6422995875532,1895.4048858687672,-2106.1739848148395,-911.10127218640173,4488.3454341607021,657.20392894809572,50.93517219979492,-50.93517219979492,-657.20392894809572,8630.657314836606,0.0
723523.2936376977,3577751.2368613081,-22500.0,-2572.4015757172456,3546.9436847008146,-3303.0418604113024,1824.8089101268131,-1799.8979849415105,-790.08842558979131,4075.4429204715739,117.84347777246603,409.67260135168397,-409.67260135168397,-117.84347777246603,7903.4052552997209,0.0
728523.2936376977,3577751.2368613081,-22500.0,-2833.7701317554679,3246.5549174628263,-2741.2979201439202,1715.347518050495,-1526.4874041467956,-678.82815575011523,3689.4326569023142,-286.61074485966554,642.38806184023406,-642.38806184023406,286.61074485966554,7203.5514146747746,0.0
733523.2936376977,3577751.2368613081,-22500.0,-2961.9435575606794,2932.039627528382,-2273.7347316060404,1586.2634168500845,-1288.8040831913831,-579.81322635562174,3333.6461419954594,-579.9788280561595,782.46367553255413,-782.46367553255413,579.9788280561595,6544.5462099455608,0.0
738523.2936376977,3577751.2368613081,-22500.0,-2993.2481039105955,2623.9908356656815,-1888.1446222481352,1450.3366097079102,-1085.6436164988461,-493.5403145807594,3009.3183796908143,-784.85096354268819,856.28108833335671,-856.28108833335671,784.85096354268819,5933.7707828643997,0.0
743523.2936376977,3577751.2368613081,-22500.0,-2956.295760925927,2334.0059863869196,-1571.7945762650968,1315.6711461053114,-913.85916647303486,-419.40986922566037,2716.2128655153883,-920.92718346668721,883.91238119104787,-883.91238119104787,920.92718346668721,5374.1465640061606,0.0
748523.2936376977,3577751.2368613081,-22500.0,-2872.9683122911351,2067.8494334850548,-1312.8614983212083,1187.1138210840454,-769.58268726453298,-356.29103568489899,2453.1977356293273,-1004.5648852244306,880.23123552522429,-880.23123552522429,1004.5648852244306,4865.5736009967504,0.0
558523.2936376977,3582751.2368613081,-22500.0,-711.63334698997721,-1717.3365301325784,-1514.4771802585933,-468.83623799947185,-660.20368169116011,-165.80816187782796,1876.5341771831575,-336.94686441219903,-1936.7872052000457,1936.7872052000457,336.94686441219903,3492.1997320533865,0.0
563523.2936376977,3582751.2368613081,-22500.0,-477.57766574291622,-1824.3782766916877,-1751.7523964639565,-447.18663710813769,-740.82517057469317,-176.26379662294761,2054.7247405028593,-103.1444785491592,-2210.0699669001096,2210.0699669001096,103.1444785491592,3785.4589635696038,0.0
568523.2936376977,3582751.2368613081,-22500.0,-157.24785821230915,-1905.5540809896127,-2019.9963849494281,-399.1220577291935,-822.81672259310471,-182.0694677329119,2251.7138245272258,212.06696701889632,-2505.819770098859,2505.819770098859,-212.06696701889632,4102.0236669426704,0.0
573523.2936376977,3582751.2368613081,-22500.0,269.22336651092405,-1942.4342222713985,-2316.412048018899,-314.11439679179722,-900.23170065310933,-179.79472017425729,2470.941392015246,627.25887405350272,-2814.8824750318236,2814.8824750318236,-627.25887405350272,4446.6321753991369,0.0
578523.2936376977,3582751.2368613081,-22500.0,823.24953157868231,-1909.41742918112,-2632.5313069766325,-178.65693229718818,-963.1946553819073,-164.4423662581454,2717.953022502104,1162.1671507301699,-3120.2253582806616,3120.2253582806616,-1162.1671507301699,4829.2153857186768,0.0
583523.2936376977,3582751.2368613081,-22500.0,1525.9037450399464,-1772.1019119188568,-2950.5526519462164,24.036402888464373,-996.07287102421469,-128.92850089868085,3001.9882983148082,1835.5639224628508,-3393.1190270882503,3393.1190270882503,-1835.5639224628508,5269.5919710057051,0.0
588523.2936376977,3582751.2368613081,-22500.0,2394.4949603348764,-1486.0844410005313,-3238.0436336775742,313.93902685102415,-975.05899185816929,-63.505186369153314,3338.4167846969058,2661.3960603839832,-3588.1940507386489,3588.1940507386489,-2661.3960603839832,5804.8005298839134,0.0
593523.2936376977,3582751.2368613081,-22500.0,3437.0054366409208,-997.03792300999817,-3440.6992055042901,713.34686917675958,-865.16716056302141,44.785378295697647,3752.0514201564556,3642.4658046028612,-3637.5783865834678,3637.5783865834678,-3642.4658046028612,6498.7443556866838,0.0
598523.2936376977,3582751.2368613081,-22500.0,4643.8719243465621,-243.51499901767488,-3473.2181288213314,1244.6806456017462,-616.84803198296117,212.45116946363305,4280.8598399877073,4760.9808898880674,-3444.9565623112226,3444.9565623112226,-4760.9808898880674,7451.2745476000637,0.0
603523.2936376977,3582751.2368613081,-22500.0,5977.0386231994098,835.3441466940352,-3209.2500118620756,1926.2209271222193,-162.81140469342554,459.40104795401368,4978.8141517201693,5965.7530203043752,-2881.5215479351391,2881.5215479351391,-5965.7530203043752,8800.5406265494948,0.0
608523.2936376977,3582751.2368613081,-22500.0,7357.2882178335467,2284.3726089941333,-2473.1037349531866,2764.9531846796713,583.70877937244495,807.90480751323662,5916.3917024397078,7157.0108482822561,-1787.5449601220516,1787.5449601220516,-7157.0108482822561,10712.616106077629,0.0
613523.2936376977,3582751.2368613081,-22500.0,8652.8227947490523,4106.37066594526,-1038.7229272877209,3745.856812146812,1727.0608257879248,1280.1845264000599,7179.5643033353408,8172.067284063427,14.486214330810981,-14.486214330810981,-8172.067284063427,13358.853987006227,0.0
618523.2936376977,3582751.2368613081,-22500.0,9674.9165122539471,6224.2821231996386,1354.8559448309161,4817.5927451801708,3380.2488677718047,1894.1884250509977,8875.5649789694289,8778.5353642922637,2687.249507550353,-2687.249507550353,-8778.5353642922637,16886.61952894663,0.0
623523.2936376977,3582751.2368613081,-22500.0,10189.532337511744,8434.6247116001105,4958.8350144646029,5875.8612282987933,5644.2762204056253,2657.2791277393258,11141.779342958012,8685.7876219578902,6318.4011843926319,-6318.4011843926319,-8685.7876219578902,21384.002804820691,0.0
628523.2936376977,3582751.2368613081,-22500.0,9955.7295034623057,10363.046548705788,9927.0579731752205,6747.9073327990091,8570.0910447358328,3557.8602184746896,14034.245154490452,7588.34693677828,10828.575537469535,-10828.575537469535,-7588.34693677828,26830.401780716998,0.0
633523.2936376977,3582751.2368613081,-22500.0,8801.305958425115,11443.967005283492,16176.1521232945,7185.0566501681024,12097.413743927031,4555.0454622037714,17399.68877492789,5255.2488624846264,15853.016788590485,-15853.016788590485,-5255.2488624846264,33023.402605130555,0.0
638523.2936376977,3582751.2368613081,-22500.0,6743.8987800769428,10961.963744814175,23197.01618722967,6876.5890791510128,15967.373302190472,5565.6589670728063,20928.357896241698,1677.2692207250475,20620.506421469709,-20620.506421469709,-1677.2692207250475,39480.456551064766,0.0
643523.2936376977,3582751.2368613081,-22500.0,4155.626112267485,8220.6916645486508,29855.399292556413,5513.1800417400891,19620.020326701422,6446.7152625170847,24124.973967952668,-2725.8324590379307,23894.10461704119,-23894.10461704119,2725.8324590379307,45338.805996901261,0.0
648523.2936376977,3582751.2368613081,-22500.0,1905.3911241854903,2937.1640970952722,34322.405551312651,2949.8704481777072,22141.395106065083,6979.0852204554212,26291.487322527755,-6899.4192852299311,24136.714763448963,-24136.714763448963,6899.4192852299311,49344.111289443936,0.0
653523.2936376977,3582751.2368613081,-22500.0,1223.9827505461537,-4143.2584656570762,34480.112748038686,-516.51598930656917,22436.718801745821,6892.3886622205573,26677.740529319744,-9219.3399885071431,20172.082937859479,-20172.082937859479,9219.3399885071431,50120.96322218499,0.0
658523.2936376977,3582751.2368613081,-22500.0,2945.2273194721356,-10910.209697130695,29127.602355819938,-3962.9672230305919,19813.54155337279,6000.4506695331702,24871.196324183245,-8272.2036471445936,12319.122212453178,-12319.122212453178,8272.2036471445936,46870.04149658767,0.0
663523.2936376977,3582751.2368613081,-22500.0,6483.8590403525577,-14757.211284558298,19351.651843036198,-6181.9443600138738,14693.549607310226,4403.6350359614935,21245.375707008687,-4143.5942402251867,2958.8754949445856,-2958.8754949445856,4143.5942402251867,40154.099144204207,0.0
668523.2936376977,3582751.2368613081,-22500.0,9924.3283942489943,-14438.325713626567,8323.9663206994137,-6506.757556843716,8596.0147283994356,2511.8350195039161,17018.824707125263,1265.5022298931322,-4729.3503172383262,4729.3503172383262,-1265.5022298931322,31933.170545863966,0.0
673523.2936376977,3582751.2368613081,-22500.0,11533.190820156502,-10890.898304638156,-786.28255381962617,-5238.634898364674,3168.7388985228176,788.17930862371475,13495.817944681061,5669.3015154011737,-8909.4420640718963,8909.4420640718963,-5669.3015154011737,24558.8968896757,0.0
678523.2936376977,3582751.2368613081,-22500.0,10915.555568775226,-6125.5296134701985,-6554.5627978790089,-3219.9819084913024,-706.21852810675637,-502.24603043223613,11134.097973376327,7935.4570541150124,-9776.1570549088974,9776.1570549088974,-7935.4570541150124,19526.092981354574,0.0
683523.2936376977,3582751.2368613081,-22500.0,8752.6851329937381,-1760.0859131342488,-9242.1569640335074,-1197.4105541592087,-2980.4561919846592,-1318.3888273243147,9731.7821200030958,8225.3041807027857,-8587.9449505663342,8587.9449505663342,-8225.3041807027857,16859.950410817622,0.0
688523.2936376977,3582751.2368613081,-22500.0,5972.6583149431663,1483.5696981715992,-9819.8165771808999,435.83057282673894,-4026.5199534216281,-1740.5856685509798,8864.7969509664472,7267.7646836131344,-6574.8361225278395,6574.8361225278395,-7267.7646836131344,15585.138909860805,0.0
693523.2936376977,3582751.2368613081,-22500.0,3255.0335154341305,3541.0541853062255,-9229.2656063826453,1576.5626612916042,-4281.1587314874423,-1881.3856446321308,8200.0219578084143,5762.3656444632488,-4509.8951254024323,4509.8951254024323,-5762.3656444632488,14770.739219786103,0.0
698523.2936376977,3582751.2368613081,-22500.0,948.1019480097566,4638.8427576047334,-8126.6214307460878,2273.0712435737796,-4091.2188178197566,-1843.0681901517837,7578.9363289993798,4171.3577600733151,-2747.5084221992879,2747.5084221992879,-4171.3577600733151,13967.229414043501,0.0
703523.2936376977,3582751.2368613081,-22500.0,-838.73929998287304,5061.7199004363047,-6893.3528506815464,2625.7606975222006,-3688.542506561987,-1704.231793404128,6956.6329756298474,2734.9092681008433,-1386.6369897485902,1386.6369897485902,-2734.9092681008433,13058.718167082698,0.0
708523.2936376977,3582751.2368613081,-22500.0,-2126.6831632599897,5054.4394361012155,-5721.3357650812977,2736.8583102607577,-3212.2490049993962,-1519.1802893823383,6336.022162969035,1546.0854966311986,-404.08961513560882,404.08961513560882,-1546.0854966311986,12064.130061346443,0.0
713523.2936376977,3582751.2368613081,-22500.0,-2992.3094520658583,4797.4581962372949,-4690.5433056018555,2691.079664793489,-2738.3679338117267,-1322.1519373563854,5732.7255567225093,616.93360185191762,267.4715189120509,-267.4715189120509,-616.93360185191762,11035.318931547314,0.0
718523.2936376977,3582751.2368613081,-22500.0,-3525.5953489783874,4412.6907501454862,-3821.5810518337498,2551.6400394479078,-2303.8653482128911,-1132.7196842117628,5161.2899765069951,-78.293403491511071,701.65714214305353,-701.65714214305353,78.293403491511071,10019.64194664143,0.0
723523.2936376977,3582751.2368613081,-22500.0,-3810.0852176808735,3977.4500338487201,-3106.7690384784655,2362.5845983561235,-1923.1597693944261,-960.66754202636616,4631.4003819321388,-578.71927369688058,963.08170493647174,-963.08170493647174,578.71927369688058,9050.4788795939912,0.0
728523.2936376977,3582751.2368613081,-22500.0,-3915.524084549822,3537.970166882305,-2527.0545035354157,2152.9792834158638,-1598.5317810567235,-809.73740358634336,4147.9203114663478,-924.53034196517217,1103.1389274720764,-1103.1389274720764,924.53034196517217,8147.7013941516961,0.0
733523.2936376977,3582751.2368613081,-22500.0,-3896.7040181830557,3120.0099505845797,-2060.5665759453564,1941.0311605023746,-1326.3063759591234,-680.22686831434339,3712.0584359067143,-1151.5842089396428,1160.50543736393,-1160.50543736393,1151.5842089396428,7320.8394202804548,0.0
738523.2936376977,3582751.2368613081,-22500.0,-3794.9963957816835,2736.4017894432382,-1686.5609525146788,1737.4662016768325,-1100.3412277430791,-570.65854092303573,3322.6202696310543,-1289.657896166525,1163.2757511834393,-1163.2757511834393,1289.657896166525,6572.35494511468,0.0
743523.2936376977,3582751.2368613081,-22500.0,-3640.7510635586618,2392.1339675540153,-1386.9579314590767,1548.0559449227594,-913.88708746027953,-478.78612804467326,2976.972376833317,-1362.4421098938249,1131.3490463138444,-1131.3490463138444,1362.4421098938249,5900.2632219255484,0.0
748523.2936376977,3582751.2368613081,-22500.0,-3455.719509959265,2087.6466572093527,-1146.695428656762,1375.4072539254162,-760.50636259004762,-402.16315707489383,2671.5734395258683,-1388.264801363207,1078.5387191566233,-1078.5387191566233,1388.264801363207,5300.0202147723012,0.0
558523.2936376977,3587751.2368613081,-22500.0,-1351.2866415621759,-1958.3694262477825,-1462.5393877589277,-683.15525793913014,-723.80625260046043,-217.701719085028,2103.4626925551361,-897.80509853072431,-1916.2038201883399,1916.2038201883399,897.80509853072431,3987.5968462123983,0.0
563523.2936376977,3587751.2368613081,-22500.0,-1193.6123943922478,-2138.2806225476356,-1718.6532363397002,-700.03446296412847,-828.91366347931603,-240.24212851198695,2314.2660047606678,-732.16702434259753,-2231.5052552732236,2231.5052552732236,732.16702434259753,4351.2425204154706,0.0
568523.2936376977,3587751.2368613081,-22500.0,-950.86440394936767,-2310.2176109120114,-2019.0580830483659,-695.98456911723349,-943.34860422841962,-260.7132718338043,2546.2352933298985,-485.54648580648222,-2589.1002047052307,2589.1002047052307,485.54648580648222,4742.2337517384512,0.0
573523.2936376977,3587751.2368613081,-22500.0,-598.13069421796979,-2458.4471982838068,-2366.7919267837624,-660.09125482661489,-1063.2724683291638,-275.97125011410805,2801.222169762113,-134.17981245242254,-2986.4508141784827,2986.4508141784827,134.17981245242254,5160.6622135693515,0.0
578523.2936376977,3587751.2368613081,-22500.0,-106.06065498857475,-2559.2465979524609,-2761.0744559257178,-577.54487925090268,-1181.120251525077,-281.13080378296968,3081.9150610679017,349.86089019233327,-3414.4483069505641,3414.4483069505641,-349.86089019233327,5608.0275529559331,0.0
583523.2936376977,3587751.2368613081,-22500.0,558.21032489611628,-2578.1613747593715,-3193.7582553327807,-428.78425989981713,-1283.4662961803335,-268.87025525597863,3392.9764386600909,997.55694968776675,-3853.1621354385479,3853.1621354385479,-997.55694968776675,6090.3467397883733,0.0
588523.2936376977,3587751.2368613081,-22500.0,1428.5772497518901,-2467.0351913002542,-3643.6565373490662,-188.83189879911302,-1347.9674885317106,-228.5922910905341,3743.2642965960026,1840.0724138870689,-4265.7202344810803,4265.7202344810803,-1840.0724138870689,6624.5773114862341,0.0
593523.2936376977,3587751.2368613081,-22500.0,2534.9825417680531,-2161.5144434523877,-4067.9218488712263,172.79351185454846,-1339.1769824541916,-145.51615721814537,4149.8192611830191,2903.0182158862162,-4590.025000187914,4590.025000187914,-2903.0182158862162,7250.5541078274591,0.0
598523.2936376977,3587751.2368613081,-22500.0,3894.7889996067324,-1580.5041060603069,-4389.7255506280635,690.94305016414808,-1203.1485599221598,0.12264660194013421,4644.283616863956,4196.4639638400477,-4728.5063494488604,4728.5063494488604,-4196.4639638400477,8050.1598257277283,0.0
603523.2936376977,3587751.2368613081,-22500.0,5499.4596928710971,-630.26567823773826,-4482.1438344812477,1401.5117218788055,-861.10032685261615,233.45422410360419,5281.7309471313765,5699.3527991466053,-4537.3306304729904,4537.3306304729904,-5699.3527991466053,9171.092351848667,0.0
608523.2936376977,3587751.2368613081,-22500.0,7296.322173381679,782.59385955323489,-4149.9793007650014,2334.624753263703,-203.11956903008684,584.50098407972121,6150.1462506870994,7337.8579006296977,-3818.8243488329781,3818.8243488329781,-7337.8579006296977,10842.203774212807,0.0
613523.2936376977,3587751.2368613081,-22500.0,9167.3605702080513,2723.6307704764895,-3115.0337822174047,3502.8686508014439,915.85282447431234,1086.38806724389,7377.9583384692087,8959.7149202685505,-2324.6205286672116,2324.6205286672116,-8959.7149202685505,13359.893556982306,0.0
618523.2936376977,3587751.2368613081,-22500.0,10910.958211594676,5183.1733178456479,-1016.6387280605726,4883.3237881701389,2673.5615614457324,1771.971616387769,9144.9632484541398,10311.362252457351,218.25881064510759,-218.25881064510759,-10311.362252457351,17040.032307922171,0.0
623523.2936376977,3587751.2368613081,-22500.0,12237.854281718925,8007.8038313847564,2552.8204309310781,6393.0729755621596,5264.6464951343751,2669.07352096047,11707.273710278412,11031.508006677406,4042.6830506147517,-4042.6830506147517,-11031.508006677406,22154.59097646032,0.0
628523.2936376977,3587751.2368613081,-22500.0,12796.747388696534,10819.73523452317,7951.836948758566,7859.4739699300653,8861.479461869063,3794.9050294091462,15287.497292457756,10680.675486590197,9224.3321182564177,-9224.3321182564177,-10680.675486590197,28861.473674333512,0.0
633523.2936376977,3587751.2368613081,-22500.0,12244.574464293069,12948.186126360542,15309.942324744276,8988.127357283025,13537.616881050228,5149.2178781123066,19821.258809679282,8826.5876689127381,15509.602681129187,-15509.602681129187,-8826.5876689127381,37102.796764634826,0.0
638523.2936376977,3587751.2368613081,-22500.0,10376.7196616541,13412.119641845038,24252.27352730744,9333.9278832683922,19132.52653605675,6699.0182531332348,24991.711703851754,5202.7402921658249,22102.22927530207,-22102.22927530207,-5202.7402921658249,46435.641814612791,0.0
643523.2936376977,3587751.2368613081,-22500.0,7358.8336653037977,11027.193505591591,33529.795764389186,8302.282233061911,25026.041655765046,8328.5754704378651,30159.343942648698,-19.866498575218429,27444.048342128306,-27444.048342128306,19.866498575218429,55776.065869350445,0.0
648523.2936376977,3587751.2368613081,-22500.0,4121.0412523534897,4848.2166637019545,40636.914568571403,5309.1767043111286,29837.840694345759,9715.6956818482686,34201.86614583811,-5770.64286270507,29153.040980912985,-29153.040980912985,5770.64286270507,63137.812505874419,0.0
653523.2936376977,3587751.2368613081,-22500.0,2624.4999490260839,-4679.9981775387114,41965.331272448224,371.57049458455447,31388.733069471131,10209.744194187702,35613.86742018575,-9651.6808545469794,24748.775706511489,-24748.775706511489,9651.6808545469794,65792.903560513354,0.0
658523.2936376977,3587751.2368613081,-22500.0,4803.8557221972633,-14350.318879436189,34771.514114574675,-5036.7001634086773,27777.600954487029,9091.2488770017007,33267.85958254763,-8807.2770951645816,13945.592708939157,-13945.592708939157,8807.2770951645816,61616.917335436367,0.0
663523.2936376977,3587751.2368613081,-22500.0,9957.5690060809757,-19305.0590046297,20583.937247178648,-8355.98882489469,19497.686480173736,6370.1929824486051,27636.798737835201,-2877.4078167003809,729.56982081336491,-729.56982081336491,2877.4078167003809,51302.169923466136,0.0
668523.2936376977,3587751.2368613081,-22500.0,14428.119398069839,-17407.578520345411,5302.4596978019199,-8203.2308687845562,9796.4200609449999,3073.1077077912819,21080.723051075882,4622.1282588325739,-9080.2959244193389,9080.2959244193389,-4622.1282588325739,38825.917642608008,0.0
673523.2936376977,3587751.2368613081,-22500.0,15338.779747064465,-11099.511694185265,-5755.200828634268,-5555.2710907791688,1962.05664820172,321.98053244854225,16126.895997244315,9692.633928957559,-12880.539028471387,12880.539028471387,-9692.633928957559,28765.00987891771,0.0
678523.2936376977,3587751.2368613081,-22500.0,12876.766460719282,-4194.7895323480416,-11281.110537643375,-2265.0097434219897,-2835.2070692874954,-1457.8989155047593,13336.214737431015,11157.159974107411,-12080.475751529548,12080.475751529548,-11157.159974107411,23131.911983178605,0.0
683523.2936376977,3587751.2368613081,-22500.0,8818.3291936142814,1112.0546010697112,-12724.5758382207,486.01671571849982,-5091.1863934660769,-2388.2771083613829,11876.881325871604,10071.027433241408,-9243.1819967587653,9243.1819967587653,-10071.027433241408,20747.074407147469,0.0
688523.2936376977,3587751.2368613081,-22500.0,4681.2022139207675,4394.8171273747594,-11974.455998419404,2355.8046078430098,-5740.9642280916896,-2736.2313419039469,10910.718482842516,7864.5346383820415,-6131.6868885237127,6131.6868885237127,-7864.5346383820415,19553.918853459974,0.0
693523.2936376977,3587751.2368613081,-22500.0,1217.4924309462228,6044.4714803511588,-10348.954283886649,3431.6651905556923,-5538.3812823168055,-2730.313826156822,10039.411275995104,5488.6773625393535,-3514.1879311783337,3514.1879311783337,-5488.6773625393535,18457.049038048473,0.0
698523.2936376977,3587751.2368613081,-22500.0,-1371.266475126529,6602.6675585688299,-8554.8743197266776,3920.8140585497481,-4955.9145173793986,-2531.624336668443,9158.9417522743679,3392.7660865703497,-1571.3132213988897,1571.3132213988897,-3392.7660865703497,17181.454176464173,0.0
703523.2936376977,3587751.2368613081,-22500.0,-3149.4260830665148,6512.6421818026565,-6905.5289274480083,4020.9181798854265,-4254.7469700269985,-2245.4733533550507,8275.3412846924548,1719.8338878785296,-237.76396076020842,237.76396076020842,-1719.8338878785296,15759.957724049456,0.0
708523.2936376977,3587751.2368613081,-22500.0,-4272.2953511705009,6078.4535692678046,-5507.0107642616695,3884.6692354564011,-3565.8075863094427,-1936.1277528861674,7418.2353893441859,465.82023807536336,620.87910311796406,-620.87910311796406,-465.82023807536336,14287.281517330304,0.0
713523.2936376977,3587751.2368613081,-22500.0,-4903.8896971518898,5490.3527577768473,-4369.4882259573851,3618.9641664127212,-2946.6127709472403,-1639.3272100200818,6612.7862911587054,-430.10651788198584,1136.3432067112151,-1136.3432067112151,430.10651788198584,12844.009177917258,0.0
718523.2936376977,3587751.2368613081,-22500.0,-5185.5955665703614,4859.6928895338906,-3464.8126880054729,3293.9106438073454,-2415.8564605566894,-1372.270344206371,5874.0833190210287,-1041.9189701070761,1415.419435846951,-1415.419435846951,1041.9189701070761,11482.556878047546,0.0
723523.2936376977,3587751.2368613081,-22500.0,-5228.47688608302,4247.2953153230792,-2753.8128286397509,2952.935441701351,-1973.1465857032381,-1141.0040258714948,5208.432554991361,-1438.277427097692,1537.5836054203946,-1537.5836054203946,1438.277427097692,10231.042586584614,0.0
728523.2936376977,3587751.2368613081,-22500.0,-5115.2192869746859,3683.2104922134536,-2198.0926089201421,2621.2860230247584,-1609.761678102532,-945.44261709728903,4616.0446179667078,-1676.3156108026901,1559.2080133590061,-1559.2080133590061,1676.3156108026901,9100.4635366267867,0.0
733523.2936376977,3587751.2368613081,-22500.0,-4905.1979454347074,3179.5301788295192,-1764.3741902071602,2312.3893256210081,-1314.2335047596637,-782.51511432945324,4093.4099092530505,-1800.8986976439808,1519.0411017883837,-1519.0411017883837,1800.8986976439808,8090.9805453472181,0.0
738523.2936376977,3587751.2368613081,-22500.0,-4639.8798518691083,2738.3493778611223,-1425.4683130507212,2032.3005156038528,-1075.0581013289589,-647.99794146416059,3634.9670011069916,-1846.0342513914475,1443.0919849872653,-1443.0919849872653,1846.0342513914475,7196.5039650977915,0.0
743523.2936376977,3587751.2368613081,-22500.0,-4347.5181431045676,2356.557726206906,-1159.8563061147067,1782.6743301748202,-881.86858205834153,-537.5023764513503,3234.1214250085368,-1836.8946551867562,1348.453134857391,-1348.453134857391,1836.8946551867562,6407.754607719573,0.0
748523.2936376977,3587751.2368613081,-22500.0,-4046.8762955662542,2028.638518550662,-950.80854512740098,1562.6802924588119,-725.82077327857587,-446.95431588434423,2883.9244417792615,-1791.7897709883741,1246.1087812777014,-1246.1087812777014,1791.7897709883741,5714.1885356228067,0.0
753523.2936376977,3587751.2368613081,-22500.0,-3750.0384683825073,1748.2490172898538,-785.44585262408214,1370.1993859029028,-599.6011851218243,-372.78759414153103,2577.689019992054,-1723.85010254192,1142.9252268917294,-1142.9252268917294,1723.85010254192,5105.1432434341859,0.0
553523.2936376977,3592751.2368613081,-22500.0,-2078.295211700723,-1909.3387720989986,-1138.7382589169522,-851.73206063380383,-656.68217886522098,-240.34011101620135,2124.7894953150389,-1560.4187331306098,-1512.135606198764,1512.135606198764,1560.4187331306098,4115.9134256295556,0.0
558523.2936376977,3592751.2368613081,-22500.0,-2080.9414972695472,-2140.4198657638185,-1352.3817456390839,-922.19572917426649,-766.40826681115664,-274.46360503379361,2352.1493768670653,-1543.604143709013,-1796.9294684747115,1796.9294684747115,1543.604143709013,4531.6339206338798,0.0
563523.2936376977,3592751.2368613081,-22500.0,-2030.4232338520362,-2390.2754206752825,-1611.5963813636929,-987.75138777734219,-893.23027063931488,-311.39254646616365,2604.7820687294793,-1476.0086080094238,-2134.8133479320904,2134.8133479320904,1476.0086080094238,4987.1129269138755,0.0
568523.2936376977,3592751.2368613081,-22500.0,-1905.2007699181222,-2653.3307988881479,-1925.102687643247,-1041.6839881605379,-1037.7922995361903,-349.82993073646259,2884.3348412705327,-1337.0092508487323,-2532.6510792947674,2532.6510792947674,1337.0092508487323,5482.4609023379699,0.0
573523.2936376977,3592751.2368613081,-22500.0,-1677.3673174383555,-2918.9066399701724,-2301.8277657789886,-1073.980276595895,-1199.0738977154595,-387.3094818108396,3192.0735235256489,-1099.7623612537109,-2995.6042509865415,2995.6042509865415,1099.7623612537109,6016.1011979446903,0.0
578523.2936376977,3592751.2368613081,-22500.0,-1311.6095892086669,-3168.5741934538032,-2749.4567584130659,-1070.1248902407656,-1372.9901149333925,-419.57145163245752,3528.8409540373837,-730.19893315195009,-3524.7341615374971,3524.7341615374971,730.19893315195009,6584.5383816432459,0.0
583523.2936376977,3592751.2368613081,-22500.0,-764.65974890144867,-3372.5340572224368,-3271.5981061581897,-1009.6536468469247,-1550.1557593265059,-439.7076324047672,3895.311050999383,-186.58649117848518,-4112.9664708160199,4112.9664708160199,186.58649117848518,7182.9016926230443,0.0
588523.2936376977,3592751.2368613081,-22500.0,14.076649899515942,-3484.9480725702651,-3862.628964126076,-864.57610477190804,-1712.424995741459,-437.0600563120787,4292.9848753771948,579.55321266251667,-4738.6131210045196,4738.6131210045196,-579.55321266251667,7807.5418263578395,0.0
593523.2936376977,3592751.2368613081,-22500.0,1079.5777679906175,-3438.5049666323025,-4498.8554343281894,-597.95714135042374,-1827.7215012407219,-395.92475573123147,4726.8370508385005,1619.8368045673244,-5355.491664222166,5355.491664222166,-1619.8368045673244,8463.4116953768225,0.0
598523.2936376977,3592751.2368613081,-22500.0,2484.2349776250949,-3139.2880696351331,-5124.1934468066929,-163.23591026184704,-1842.6337189366384,-294.22671430511963,5211.28489234875,2980.6836711253891,-5878.7874792226903,5878.7874792226903,-2980.6836711253891,9181.4775094367469,0.0
603523.2936376977,3592751.2368613081,-22500.0,4264.6107874465488,-2464.5871003304478,-5628.5480264674161,494.70782223190571,-1672.3936858120398,-102.48494449079355,5782.1689808664087,4687.5462973704498,-6166.68748200768,6166.68748200768,-4687.5462973704498,10054.313648982556,0.0
608523.2936376977,3592751.2368613081,-22500.0,6419.6815493965523,-1268.9215840662002,-5818.2561324427988,1435.1692113943529,-1188.3791371322484,216.5299640410619,6517.77668612862,6718.9561551495872,-6000.2714570197413,6000.2714570197413,-6718.9561551495872,11295.077628734647,0.0
613523.2936376977,3592751.2368613081,-22500.0,8879.890816740839,592.82163612170962,-5382.0842049451121,2711.7154202726929,-204.56906691117831,707.24668503865291,7569.7359278924569,8969.5082465184405,-5069.4595170897619,5069.4595170897619,-8969.5082465184405,13299.550996292402,0.0
618523.2936376977,3592751.2368613081,-22500.0,11471.037178037344,3213.0731469557704,-3865.6045646193911,4354.0362512715838,1533.0162715101103,1420.4879617698498,9202.7509313929804,11206.674815082446,-2981.760507990286,2981.760507990286,-11206.674815082446,16642.694363766706,0.0
623523.2936376977,3592751.2368613081,-22500.0,13885.91770337864,6539.6243564772376,-682.58290813913072,6338.7447120144716,4345.3258379272183,2414.6941907226765,11852.034348280009,13037.561471173882,678.64187947896698,-678.64187947896698,-13037.561471173882,21958.96937115123,0.0
628523.2936376977,3592751.2368613081,-22500.0,15686.676496419239,10247.054359927411,4790.2083800410101,8546.8664460601776,8592.4709464924199,3763.3017860531504,16043.309877124477,13915.315172461069,6209.4172549235982,-6209.4172549235982,-13915.315172461069,29776.199014131231,0.0
633523.2936376977,3592751.2368613081,-22500.0,16360.006122353907,13603.299077025804,12984.919706451903,10704.771801487543,14595.397799608154,5571.5772286793008,21946.643206773311,13216.521929183657,13551.003782494097,-13551.003782494097,-13216.521929183657,40365.481448756858,0.0
638523.2936376977,3592751.2368613081,-22500.0,15424.562788218813,15386.892838327833,23762.221760519147,12292.737027303341,22467.960009393326,7991.6419688540127,29341.552102592974,10390.142184610551,21974.939346163264,-21974.939346163264,-10390.142184610551,53523.539433395592,0.0
643523.2936376977,3592751.2368613081,-22500.0,12613.135301280327,13892.219385116514,35888.038683201732,12382.076025915729,31762.335333224444,11157.343979763958,37542.789562435166,5167.1835098398114,29725.663754261328,-29725.663754261328,-5167.1835098398114,68140.959738544901,0.0
648523.2936376977,3592751.2368613081,-22500.0,8441.7214361120368,7177.8293612365796,46294.848603881022,9509.7816931710367,40709.794064027883,14798.056819811225,44940.172101104006,-1906.496161788571,33585.223994451313,-33585.223994451313,1906.496161788571,81427.198214529577,0.0
653523.2936376977,3592751.2368613081,-22500.0,5531.6419975774797,-5400.3048120642034,49421.739141974344,2511.7419756581371,45239.76595040963,17398.52264997051,48675.22993031767,-8032.607772476671,29048.330598359265,-29048.330598359265,8032.607772476671,88275.991233847046,0.0
658523.2936376977,3592751.2368613081,-22500.0,8156.8327666773466,-19397.059324849091,39560.894238443325,-6596.6906873795542,40311.430177856499,16298.99504755465,45815.60074463988,-7793.5439135165998,14069.916860821222,-14069.916860821222,7793.5439135165998,83253.431419560438,0.0
663523.2936376977,3592751.2368613081,-22500.0,15895.124336605435,-25471.263577892332,18714.566472392347,-11874.955302161738,26049.462410012427,10825.012978032502,36722.770710182471,741.4817088847949,-4657.8439474568686,4657.8439474568686,-741.4817088847949,66731.350498421933,0.0
668523.2936376977,3592751.2368613081,-22500.0,21260.39828271807,-19999.361576304236,-1801.7857244457639,-10189.822344673403,10055.693105589591,4160.6589970213536,26358.513329180085,10815.11178545337,-16186.734867351592,16186.734867351592,-10815.11178545337,47378.051891846502,0.0
673523.2936376977,3592751.2368613081,-22500.0,19729.075233618758,-9281.7827787497263,-13567.856188167731,-4770.8398653537643,-940.06692851580272,-577.61493108278432,19617.191293266456,15484.637690752485,-17667.81130392367,17667.81130392367,-15484.637690752485,34267.845408535752,0.0
678523.2936376977,3592751.2368613081,-22500.0,13732.998711708964,-103.17938079813013,-17012.226969793868,324.18028487567199,-6178.8388527832949,-2984.3810357034145,16543.351541433094,14614.146502511065,-13694.239909371876,13694.239909371876,-14614.146502511065,28733.977098886291,0.0
683523.2936376977,3592751.2368613081,-22500.0,7045.6180963770967,5441.5146313951991,-15989.86767699882,3645.666660696761,-7757.5132048579244,-3892.4781877106002,14943.240211491482,11185.537007991297,-8708.4177345691678,8708.4177345691678,-11185.537007991297,26599.833229174666,0.0
688523.2936376977,3592751.2368613081,-22500.0,1568.7946025656393,7998.3983969496267,-13409.711005458374,5369.5442458149946,-7570.2263763769452,-4014.9523973919158,13625.803453876619,7414.1219697359393,-4610.7033971807014,4610.7033971807014,-7414.1219697359393,24944.775088133058,0.0
693523.2936376977,3592751.2368613081,-22500.0,-2302.9923731084455,8706.3042476708815,-10674.769092146616,6021.9297099544001,-6691.4716024116897,-3752.7592265212634,12306.992648814776,4221.9153409230166,-1744.4264851181761,1744.4264851181761,-4221.9153409230166,23034.079856656452,0.0
698523.2936376977,3592751.2368613081,-22500.0,-4782.9234250135023,8427.5807871969428,-8293.7927638281362,6036.1453802464848,-5635.1866104578785,-3322.2717677459082,10993.239210631184,1810.6320165650563,88.237747571186674,-88.237747571186674,-1810.6320165650563,20910.077838902318,0.0
703523.2936376977,3592751.2368613081,-22500.0,-6217.3550012581754,7690.6236591499219,-6378.5401940896954,5702.0933679046984,-4623.9332696210995,-2844.0374493178715,9736.0132380467039,105.75287017403457,1176.8838303520686,-1176.8838303520686,-105.75287017403457,18736.860478409209,0.0
708523.2936376977,3592751.2368613081,-22500.0,-6920.4746533303733,6790.3639470863081,-4893.7172375432201,5201.0494774114177,-3740.7045833113316,-2383.1405174982915,8573.6630558969373,-1039.3039157760359,1766.8717794059903,-1766.8717794059903,1039.3039157760359,16642.041882379275,0.0
713523.2936376977,3592751.2368613081,-22500.0,-7136.1928991083678,5880.6963727849597,-3762.7387320689763,4641.6432194152731,-3004.267972486346,-1970.50049104001,7525.4489279519948,-1768.0081236271992,2037.1680481985084,-2037.1680481985084,1768.0081236271992,14700.256714066591,0.0
718523.2936376977,3592751.2368613081,-22500.0,-7041.2890439963221,5035.2462687970547,-2907.7965957595229,4085.6818895829028,-2405.7602053996611,-1616.7190197823593,6596.2947726752554,-2198.6971331149393,2110.1132932906289,-2110.1132932906289,2198.6971331149393,12945.72715245329,0.0
723523.2936376977,3592751.2368613081,-22500.0,-6758.8501087272243,4283.669754694356,-2262.6899772573965,3565.6107194358287,-1926.2862215783862,-1321.3568118740018,5782.1926686952238,-2422.0259448058659,2066.3836075736281,-2066.3836075736281,2422.0259448058659,11386.654628842545,0.0
728523.2936376977,3592751.2368613081,-22500.0,-6372.0896188479001,3632.5325302008132,-1775.0782027381688,3096.069415469934,-1545.0916216498574,-1078.7603014412759,5074.2677509686855,-2504.6965024339088,1957.8591370072479,-1957.8591370072479,2504.6965024339088,10016.141647561562,0.0
733523.2936376977,3592751.2368613081,-22500.0,-5935.8012250491192,3077.0402436377212,-1405.0403042940732,2681.3576401188402,-1243.046616033497,-881.41853384161743,4461.4363042462001,-2494.5413227596255,1817.1698950195878,-1817.1698950195878,2494.5413227596255,8819.4920697748639,0.0
738523.2936376977,3592751.2368613081,-22500.0,-5485.0631008441851,2607.4713486298633,-1122.6877277696258,2320.1165807550205,-1003.847948893614,-721.71957036348454,3932.0255474415599,-2425.2274819971217,1664.3435492816625,-1664.3435492816625,2425.2274819971217,7778.7494775362511,0.0
743523.2936376977,3592751.2368613081,-22500.0,-5041.5560324492699,2212.589079248502,-905.84720914513366,2008.1718897212829,-814.16779094580374,-592.75714615035895,3474.7614428586689,-2320.0904996044724,1511.2857938528127,-1511.2857938528127,2320.0904996044724,6875.3533790626543,0.0
748523.2936376977,3592751.2368613081,-22500.0,-4618.0150393175509,1881.3572228363105,-738.12946313587213,1740.1972440004772,-663.36593020965279,-488.61652531236473,3079.365158301362,-2195.0705741691381,1364.7400072457008,-1364.7400072457008,2195.0705741691381,6091.5833618904417,0.0
753523.2936376977,3592751.2368613081,-22500.0,-4221.3041770093441,1603.7216202636669,-607.42297956862365,1510.6447203186503,-543.06288771429581,-404.39776658597691,2736.826113849153,-2060.8846043433468,1228.2168012367524,-1228.2168012367524,2060.8846043433468,5411.2594620058235,0.0
553523.2936376977,3597751.2368613081,-22500.0,-2760.3985987775541,-1965.6065073037589,-990.84776934192746,-1061.9201688955786,-660.66976832193939,-287.61535112233054,2346.3392532691555,-2163.0818809129378,-1295.1586583002609,1295.1586583002609,2163.0818809129378,4599.2994324405317,0.0
558523.2936376977,3597751.2368613081,-22500.0,-2880.3529377765853,-2239.015820035951,-1188.0729016883975,-1179.2274531130538,-781.10665421016961,-334.46546956812261,2615.4912965828203,-2254.2380338588382,-1569.2964172113595,1569.2964172113595,2254.2380338588382,5106.7299405922922,0.0
563523.2936376977,3597751.2368613081,-22500.0,-2966.7146795184158,-2547.744221635794,-1432.7563852399223,-1302.6507224108902,-924.15639215397152,-387.71360933584282,2918.1512726555598,-2313.3160487540736,-1903.7806581422801,1903.7806581422801,2313.3160487540736,5672.2207439357189,0.0
568523.2936376977,3597751.2368613081,-22500.0,-2999.5467170204806,-2891.7926940243942,-1736.6318045561256,-1427.8349649125296,-1092.8241050316019,-447.01358270939369,3257.1775461016582,-2321.2927580261889,-2310.6010966667886,2310.6010966667886,2321.2927580261889,6298.6565161416183,0.0
573523.2936376977,3597751.2368613081,-22500.0,-2951.3406159979995,-3267.5519044294742,-2113.5842813698869,-1547.3482978473914,-1289.3350701653076,-511.01346676666486,3634.7843587592688,-2251.7119353617104,-2802.5206123122457,2802.5206123122457,2251.7119353617104,6986.6540004569943,0.0
578523.2936376977,3597751.2368613081,-22500.0,-2784.8580532342435,-3665.2204050748992,-2579.1852347060976,-1649.2526037760358,-1513.9692341795721,-576.68498626209089,4052.0209005968218,-2068.5183987776518,-3391.5962064193818,3391.5962064193818,2068.5183987776518,7733.181832605881,0.0
583523.2936376977,3597751.2368613081,-22500.0,-2450.8273651741069,-4064.8767673346983,-3149.1798085490568,-1715.196028822691,-1763.0216327497769,-638.35267437700315,4508.1285485364142,-1723.7876624342618,-4086.178818309214,4086.178818309214,1723.7876624342618,8529.8654300154121,0.0
588523.2936376977,3597751.2368613081,-22500.0,-1885.9664877041696,-4430.7290376232586,-3835.9310638729003,-1717.9916014486662,-2025.3638525587921,-686.37457078869227,4999.9333499185395,-1155.9189176037689,-4885.3267158535409,4885.3267158535409,1155.9189176037689,9361.3783924964246,0.0
593523.2936376977,3597751.2368613081,-22500.0,-1012.3282855825759,-4703.1484290724557,-4641.1038720181414,-1618.7577621321579,-2276.8400835176949,-705.49857109785978,5521.7807764573781,-289.49399254044101,-5769.0379534656986,5769.0379534656986,289.49399254044101,10205.2692625087,0.0
598523.2936376977,3597751.2368613081,-22500.0,260.15676372808355,-4788.5786793143525,-5541.8069764031197,-1363.9101120623973,-2471.4264533410974,-673.06072223336594,6067.3619424695835,960.93651842730287,-6682.1459487074135,6682.1459487074135,-960.93651842730287,11036.994152885532,0.0
603523.2936376977,3597751.2368613081,-22500.0,2024.7535309024406,-4548.8542514158935,-6466.152661383896,-882.65613180212563,-2527.7758869835525,-557.36762435950379,6636.7709478918678,2679.3320698806197,-7509.5792871356916,7509.5792871356916,-2679.3320698806197,11849.924576450006,0.0
608523.2936376977,3597751.2368613081,-22500.0,4357.8477322653589,-3794.8348927350376,-7253.5479859900406,-86.257466845130011,-2309.63626937662,-316.60859613032102,7256.5086370771769,4923.338799625747,-8042.1547208654401,8042.1547208654401,-4923.338799625747,12713.220914735592,0.0
613523.2936376977,3597751.2368613081,-22500.0,7282.2114061348439,-2295.79446735275,-7597.4717856824345,1128.6512965523045,-1599.1659888673241,102.08233087817871,8028.2011018004032,7680.0424366827747,-7937.7396654134036,7937.7396654134036,-7680.0424366827747,13907.794686666908,0.0
618523.2936376977,3597751.2368613081,-22500.0,10711.151136347777,174.08055835706102,-6979.4399282260183,2868.5746346445644,-64.669574650918548,766.19911913437056,9231.416495910602,10800.471003809394,-6696.6287614862267,6696.6287614862267,-10800.471003809394,16146.721754986471,0.0
623523.2936376977,3597751.2368613081,-22500.0,14383.387565618259,3722.2514742824487,-4630.3434703601688,5216.5564875063119,2768.6645884822569,1771.7258656460936,11503.869371837831,13926.699419015949,-3695.2755628999121,3695.2755628999121,-13926.699419015949,20663.508873108316,0.0
628523.2936376977,3597751.2368613081,-22500.0,17823.727625740106,8137.0351932351814,397.63972590857867,8180.8316693501565,7521.4040562921591,3281.2552208945463,15899.147269413901,16457.289377559799,1648.9763169292701,-1648.9763169292701,-16457.289377559799,28824.64645540743,0.0
633523.2936376977,3597751.2368613081,-22500.0,20386.7222803328,12635.317175004517,8923.7720202812507,11609.164287718446,14889.983582998138,5603.3010056196472,23110.382715646272,17628.463792088958,9515.502639518967,-9515.502639518967,-17628.463792088958,41579.96862104514,0.0
638523.2936376977,3597751.2368613081,-22500.0,21391.270287326341,15701.1673173483,21020.843892713881,15048.092356941046,25441.700378065907,9316.0825837094544,33143.127262158145,16739.637246222104,19165.948179821229,-19165.948179821229,-16739.637246222104,59179.641567511244,0.0
643523.2936376977,3597751.2368613081,-22500.0,20179.375162184169,15155.132926750213,35243.544308776734,17407.330018850644,39175.417484825935,15329.770641473071,45442.778389634361,13301.263751375396,28516.131404653817,-28516.131404653817,-13301.263751375396,80781.945392814669,0.0
648523.2936376977,3597751.2368613081,-22500.0,16243.73182870544,8244.3267883223834,47910.81751999136,16081.363416854469,54366.012267732105,24214.641547112289,58151.875633043674,6919.2608910179133,33781.849200112752,-33781.849200112752,-6919.2608910179133,103250.43160745778,0.0
653523.2936376977,3597751.2368613081,-22500.0,11674.41452732616,-7450.351643691828,51865.905690557069,6806.7013213759728,64555.356837474857,33141.851576044886,66591.784859731721,-975.57332854193737,28687.960894511609,-28687.960894511609,975.57332854193737,118410.71558623548,0.0
658523.2936376977,3597751.2368613081,-22500.0,14641.555938985563,-26899.291794719498,37626.81372287574,-9219.2731143405272,57780.560142778559,33139.855450681491,63748.543930109125,-2121.1834856032374,8177.5725033285462,-8177.5725033285462,2121.1834856032374,113520.0469347106,0.0
663523.2936376977,3597751.2368613081,-22500.0,26353.828271805913,-32699.898993021932,8080.0543143683008,-17654.944844952024,32205.714917146572,20067.092103882584,48830.552048921585,9670.446081155922,-16817.14063051948,16817.14063051948,-9670.446081155922,86678.354307750255,0.0
668523.2936376977,3597751.2368613081,-22500.0,30885.995419780025,-19749.191797462932,-15890.765916232349,-11325.645693801363,6401.4677279402022,5158.3545271121429,32907.071734747951,21494.969326360399,-26701.580736780779,26701.580736780779,-21494.969326360399,57657.263527958457,0.0
673523.2936376977,3597751.2368613081,-22500.0,22973.987864589792,-3379.8856159012298,-24021.74960593936,-847.73599548626976,-7000.8218053567434,-2854.0166280926983,24796.88399114355,22556.817051777576,-21865.696406104402,21865.696406104402,-22556.817051777576,42957.425494111041,0.0
678523.2936376977,3597751.2368613081,-22500.0,11354.478640466068,6695.2414935784209,-22379.912281969791,5962.7322260484661,-10856.641693239919,-5505.1817486487507,21554.266959132765,16934.22619247462,-13228.286091370601,13228.286091370601,-16934.22619247462,38055.856504550815,0.0
683523.2936376977,3597751.2368613081,-22500.0,2014.6666751417458,10811.832642274792,-17838.268801669627,8905.2506686754714,-10606.303707612957,-5913.1196179185354,19268.059231264142,10423.859668574167,-6319.0438271982075,6319.0438271982075,-10423.859668574167,35009.679968384153,0.0
688523.2936376977,3597751.2368613081,-22500.0,-4024.4412213092669,11599.743909890698,-13403.501729451305,9635.0248978795134,-9106.5161949916874,-5536.1745729675758,17056.065953065146,5264.5648971013779,-1898.9416896700936,1898.9416896700936,-5264.5648971013779,31733.620617050259,0.0
693523.2936376977,3597751.2368613081,-22500.0,-7486.9254078104705,10890.193844374742,-9859.7474669778621,9306.373523306298,-7429.4547336264841,-4882.9093446736661,14936.226651151892,1687.1303834778914,651.74125801835578,-651.74125801835578,-1687.1303834778914,28280.650173319205,0.0
698523.2936376977,3597751.2368613081,-22500.0,-9231.620025349248,9628.933646770678,-7217.2593990424102,8516.1728604638993,-5919.7684005076908,-4155.1174082750376,12989.386901905385,-634.85266374153321,2005.6924412009987,-2005.6924412009987,634.85266374153321,24909.00006823615,0.0
703523.2936376977,3597751.2368613081,-22500.0,-9895.896639241404,8256.2724774315575,-5297.7665082900385,7561.6336408969619,-4663.0700469021531,-3452.8235052262562,11252.497594644534,-2064.8163710847689,2637.8519314637456,-2637.8519314637456,2064.8163710847689,21778.328351991469,0.0
708523.2936376977,3597751.2368613081,-22500.0,-9905.1541985553649,6962.8238519048946,-3915.5642710780057,6593.1517643432007,-3654.9262646715201,-2825.3140622281139,9731.1710950341549,-2887.8395692620466,2849.5354339396586,-2849.5354339396586,2887.8395692620466,18961.042725232775,0.0
713523.2936376977,3597751.2368613081,-22500.0,-9534.8646748274186,5820.2079942726341,-2920.8251404313992,5685.1204729402771,-2861.783444090237,-2290.5459796028185,8414.6175044919983,-3307.9033676769945,2825.2685309021758,-2825.2685309021758,3307.9033676769945,16476.259380650703,0.0
718523.2936376977,3597751.2368613081,-22500.0,-8960.8052097358523,4844.4529499119808,-2202.2830656894125,4870.2042895731365,-2244.1548325646886,-1848.2495455080427,7284.2062705305043,-3466.2306101366844,2676.1546309254841,-2676.1546309254841,3466.2306101366844,14313.184133752038,0.0
723523.2936376977,3597751.2368613081,-22500.0,-8293.2866981237039,4026.8517260162057,-1680.0502191275039,4157.935941136453,-1765.4468555483047,-1489.1841955698801,6318.2837267832056,-3458.9917737954793,2468.0617834512805,-2468.0617834512805,3458.9917737954793,12445.71712906514,0.0
728523.2936376977,3597751.2368613081,-22500.0,-7599.8731683515171,3349.0536150087223,-1297.5786942129735,3545.5488197785858,-1394.8123119268655,-1200.8823525734604,5494.9417322536647,-3350.8711698565758,2239.2187391034959,-2239.2187391034959,3350.8711698565758,10841.374841146524,0.0
733523.2936376977,3597751.2368613081,-22500.0,-6920.4505094969772,2790.3323307931637,-1015.0407979544079,3024.3597994355164,-1107.4739695209348,-970.74541392222977,4793.5619693447652,-3184.8458019767359,2011.0844843779005,-2011.0844843779005,3184.8458019767359,9466.5212327919526,0.0
738523.2936376977,3597751.2368613081,-22500.0,-6277.2023513813901,2330.903654256645,-804.38444166305158,2583.429660149804,-884.06025269611234,-787.45713492215771,4195.5982549940609,-2989.0723744487573,1795.0375113854648,-1795.0375113854648,2989.0723744487573,8289.2105793277879,0.0
743523.2936376977,3597751.2368613081,-22500.0,-5681.1751581422905,1953.2544625420383,-645.79357576066411,2211.5554483231622,-709.65664307045529,-641.45690102131277,3684.8787812925193,-2781.673798142047,1596.4794831386339,-1596.4794831386339,2781.673798142047,7280.5427298762597,0.0
748523.2936376977,3597751.2368613081,-22500.0,-5136.5638071765488,1642.494401458426,-525.20343894199095,1898.2687011571086,-572.87509083938721,-524.94537601169645,3247.6000027667105,-2574.0354687664226,1417.3424640030912,-1417.3424640030912,2574.0354687664226,6415.1405210211642,0.0
753523.2936376977,3597751.2368613081,-22500.0,-4643.4763911483078,1386.2541006091326,-432.57240911010922,1634.2599747913678,-465.05290410248756,-431.69003270406085,2872.133330266859,-2373.0557035306692,1257.6102274246282,-1257.6102274246282,2373.0557035306692,5671.1347742475473,0.0
548523.2936376977,3602751.2368613081,-22500.0,-3213.9366198242324,-1678.0688978088526,-678.44903898676284,-1126.4841792456989,-534.97371990439444,-284.13941623410398,2294.2339404345566,-2572.653008222846,-801.11797484635974,801.11797484635974,2572.653008222846,4549.4154175331496,0.0
553523.2936376977,3602751.2368613081,-22500.0,-3464.4471252005019,-1933.4835058360143,-812.21229280820444,-1275.9837443225404,-637.44025734364391,-335.15309500678757,2570.084773645478,-2784.2206793529767,-992.37423456921647,992.37423456921647,2784.2206793529767,5083.8644061655377,0.0
558523.2936376977,3602751.2368613081,-22500.0,-3718.5002423812471,-2231.8994961519361,-980.49395999597186,-1444.5467908291562,-761.8729857078531,-395.48269322870181,2884.8778822883455,-2999.0111116306789,-1231.9397087967554,1231.9397087967554,2999.0111116306789,5690.8966624609566,0.0
563523.2936376977,3602751.2368613081,-22500.0,-3966.3620195443596,-2579.5126111513832,-1193.4297439285895,-1632.7679825209984,-912.87224150729526,-466.3140096815024,3243.7481101127423,-3208.0296000205221,-1532.3772733537685,1532.3772733537685,3208.0296000205221,6379.1496580023058,0.0
568523.2936376977,3602751.2368613081,-22500.0,-4192.9678956751386,-2982.2159272371659,-1464.1791534466017,-1839.9305993151934,-1095.6047167470019,-548.53449730967509,3651.9632827409819,-3397.1283385562074,-1909.1884315425789,1909.1884315425789,3397.1283385562074,7156.8996354943056,0.0
573523.2936376977,3602751.2368613081,-22500.0,-4375.6944460651439,-3444.5012036197695,-1809.642055192563,-2063.0769523968997,-1315.4817527929765,-642.32774155519246,4114.5095604495418,-3544.7670840796045,-2381.0660276594199,2381.0660276594199,3544.7670840796045,8030.9861879146802,0.0
578523.2936376977,3602751.2368613081,-22500.0,-4481.3800873828877,-3967.4901962186213,-2251.0985125649954,-2295.6210968958899,-1577.4137027571153,-746.51151871354443,4635.3924800206041,-3619.0062242524109,-2969.6964326621774,2969.6964326621774,3619.0062242524109,9005.046172945893,0.0
583523.2936376977,3602751.2368613081,-22500.0,-4462.4707580843497,-4545.5520283908691,-2814.4226523265047,-2525.337462588313,-1884.2992819925194,-857.52184562889249,5216.5132601634841,-3573.6326913978342,-3698.5507259658202,3698.5507259658202,3573.6326913978342,10076.728584933369,0.0
588523.2936376977,3602751.2368613081,-22500.0,-4252.2993824893701,-5160.6890609534494,-3529.0916344341954,-2731.5363059443025,-2234.1791795048889,-967.96566532339114,5855.9470165054163,-3343.5100135161806,-4589.612138479476,4589.612138479476,3343.5100135161806,11233.490025949897,0.0
593523.2936376977,3602751.2368613081,-22500.0,-3759.8528187981155,-5773.5527609141445,-4424.36969606004,-2881.2210487870625,-2615.1133389997508,-1064.7561019704779,6545.4582100636926,-2839.7101628107102,-5656.153443081861,5656.153443081861,2839.7101628107102,12446.628387637687,0.0
598523.2936376977,3602751.2368613081,-22500.0,-2865.1989215754156,-6309.7305432986577,-5519.4646567049285,-2924.010584209982,-2996.2446305936182,-1127.0517910132219,7267.2769133242646,-1946.0219974598913,-6888.3410492292369,6888.3410492292369,1946.0219974598913,13663.815146119918,0.0
603523.2936376977,3602751.2368613081,-22500.0,-1418.520843188993,-6640.3868458905254,-6801.7326646997517,-2785.584247007565,-3312.552641404543,-1124.4996519198241,7991.0461293942972,-520.52343442301753,-8226.6366724595773,8226.6366724595773,520.52343442301753,14803.035584493125,0.0
608523.2936376977,3602751.2368613081,-22500.0,750.84810358251616,-6558.9762603246854,-8183.1098096653795,-2359.4341528618215,-3439.3141865754747,-1016.239815040376,8675.2311251495976,1590.3423561382006,-9516.5495338935179,9516.5495338935179,-1590.3423561382006,15760.68076421068,0.0
613523.2936376977,3602751.2368613081,-22500.0,3803.4547237763604,-5764.0341819205278,-9421.8753995448733,-1497.385063968859,-3150.4167886196974,-749.55782976445232,9289.3041060690921,4512.2887214008351,-10440.695358528879,10440.695358528879,-4512.2887214008351,16480.240294783689,0.0
618523.2936376977,3602751.2368613081,-22500.0,7819.8609182013552,-3877.4898235697797,-10002.932201371257,-2.6495981308778016,-2054.2170359547317,-251.48037835910219,9913.6741516163638,8261.6699552111368,-10439.588551730494,10439.588551730494,-8261.6699552111368,17225.239758324966,0.0
623523.2936376977,3602751.2368613081,-22500.0,12681.91256329641,-560.56807230130528,-9005.8991340916346,2360.9184321406424,491.59028065465793,605.59739453486691,11094.721768068464,12616.133621065334,-8677.6005335273276,8677.6005335273276,-12616.133621065334,19304.901324042763,0.0
628523.2936376977,3602751.2368613081,-22500.0,17938.735951577051,4185.3949946575376,-5087.2562464473476,5811.0837881496254,5452.5846270013553,2099.3953417093271,14584.570191675855,16983.558609573192,-4195.9062766552152,4195.9062766552152,-16983.558609573192,25679.081172437862,0.0
633523.2936376977,3602751.2368613081,-22500.0,22790.029078418505,9502.8986187051196,3137.4959180520932,10396.350792573607,14067.533082124217,4853.9294948484667,22409.095778714258,20430.692908879362,3521.8507968102258,-3521.8507968102258,-20430.692908879362,39297.455044648588,0.0
638523.2936376977,3602751.2368613081,-22500.0,26393.427090475117,13197.144848564791,15941.012510752431,15750.672041023066,27466.772123843984,10149.156868659311,34974.474074031197,22140.057287543059,13452.998084869951,-13452.998084869951,-22140.057287543059,61101.170668698498,0.0
643523.2936376977,3602751.2368613081,-22500.0,28313.759461523176,12048.06088214943,30678.272085301767,20780.942423805962,45816.263358324235,20290.922471710193,51686.323370662853,22182.598972990505,22010.453045786548,-22010.453045786548,-22182.598972990505,90096.209210690868,0.0
648523.2936376977,3602751.2368613081,-22500.0,27819.172755633459,3226.9342769102618,41018.271883588124,22444.058530048558,67008.684057667764,38258.196285404629,70701.887931986959,20819.535089266246,23741.929677968845,-23741.929677968845,-20819.535089266246,123119.21680014218,0.0
653523.2936376977,3602751.2368613081,-22500.0,24266.407614209729,-15136.685025083221,38606.179388736979,12204.90543868124,82669.235131505426,61250.747169613096,86406.743063458329,16298.382391311987,13027.098877331568,-13027.098877331568,-16298.382391311987,150598.69720907413,0.0
658523.2936376977,3602751.2368613081,-22500.0,28209.842253286104,-37403.586604445736,15335.5474627656,-14076.646166147222,71402.732294273854,64952.828483339974,85182.723798647363,14625.725990829938,-14004.06055387768,14004.06055387768,-14625.725990829938,148578.01267824808,0.0
663523.2936376977,3602751.2368613081,-22500.0,44164.5054443181,-36620.541677209665,-19769.144414610961,-24686.201952723561,27985.985735379028,32109.620549216721,62127.127631895535,28545.747481943821,-39569.25492435183,39569.25492435183,-28545.747481943821,107996.21824692003,0.0
668523.2936376977,3602751.2368613081,-22500.0,40830.116499451236,-11584.058277925327,-36508.444947611715,-6404.3264450063116,-6497.5287872574281,1097.4694963649686,41389.738962518604,36509.199457951487,-37645.370077582847,37645.370077582847,-36509.199457951487,71689.201516656583,0.0
673523.2936376977,3602751.2368613081,-22500.0,20355.74989869849,7730.094429335807,-33183.115152918042,10242.116573012421,-16570.353502534948,-8880.2740499902193,33692.292740179597,27820.536084600299,-22011.264191844723,22011.264191844723,-27820.536084600299,58937.147941265539,0.0
678523.2936376977,3602751.2368613081,-22500.0,2780.7449123675888,14792.482237481008,-24436.663816849425,16124.443828691046,-15710.415669489394,-9539.8885713311556,29175.642255422877,15617.858066970473,-9369.7140182914136,9369.7140182914136,-15617.858066970473,52289.069318176029,0.0
683523.2936376977,3602751.2368613081,-22500.0,-7284.4518523744318,15436.0875635462,-16874.658113559468,16409.584019074908,-12604.821892725971,-8393.6288632572341,24856.311630922464,6631.9969421589794,-2158.4592835698327,2158.4592835698327,-6631.9969421589794,45627.310233528755,0.0
688523.2936376977,3602751.2368613081,-22500.0,-12089.353288518712,13825.734648231681,-11496.012817822311,14883.802416074941,-9696.6296249051629,-7148.0933421552199,20976.751167903363,1123.401166423439,1458.2629095825951,-1458.2629095825951,-1123.401166423439,39267.61605049733,0.0
693523.2936376977,3602751.2368613081,-22500.0,-13961.245469227357,11697.337378668019,-7865.2608703905871,12965.980554060916,-7380.1749124175003,-5989.0392260260132,17691.381005654082,-2024.5183711821492,3103.0293569428004,-3103.0293569428004,2024.5183711821492,33620.717716695603,0.0
698523.2936376977,3602751.2368613081,-22500.0,-14281.802998140634,9656.8552768739519,-5439.5173983706527,11093.928910294531,-5605.8571194046444,-4933.5650199872671,14955.90153560448,-3727.8776425475817,3716.1258646349015,-3716.1258646349015,3727.8776425475817,28743.39954688121,0.0
703523.2936376977,3602751.2368613081,-22500.0,-13796.248161254154,7884.481447091036,-3812.9862528129634,9398.5275255849883,-4263.0105063766277,-4004.5983694340766,12680.718655019893,-4563.4900979293943,3800.272067260963,-3800.272067260963,4563.4900979293943,24572.366539249859,0.0
708523.2936376977,3602751.2368613081,-22500.0,-12911.371827674076,6408.096607275098,-2712.9865872277924,7915.752649493601,-3251.4176590193424,-3216.8045795980729,10784.76072789426,-4879.0164013550666,3623.2502315995616,-3623.2502315995616,4879.0164013550666,21023.949222096293,0.0
713523.2936376977,3602751.2368613081,-22500.0,-11855.647846867216,5203.1433670273263,-1961.2403905393878,6646.2257491982618,-2490.4778480546538,-2568.4710461103796,9202.3163344140739,-4886.1495174391885,3328.9202284207831,-3328.9202284207831,4886.1495174391885,18016.723703578864,0.0
718523.2936376977,3602751.2368613081,-22500.0,-10758.615062515839,4229.8661976693202,-1441.6298495759852,5574.5936371646003,-1917.6506686096948,-2045.9599148611317,7879.9106190448547,-4715.8764924144798,2994.4162235394692,-2994.4162235394692,4715.8764924144798,15475.032571000076,0.0
723523.2936376977,3602751.2368613081,-22500.0,-9692.1834900997856,3447.5317081819944,-1078.1970722917397,4678.4143878767418,-1485.3400752964387,-1630.3685417911352,6773.2586559770634,-4449.8545670084859,2660.1638564969571,-2660.1638564969571,4449.8545670084859,13329.931410477076,0.0
728523.2936376977,3602751.2368613081,-22500.0,-8693.8543298429886,2819.6310762550693,-820.88716716741953,3933.2153502917322,-1157.7990806514847,-1302.2341039746177,5845.3951483111541,-4138.8083970330972,2346.1744697858935,-2346.1744697858935,4138.8083970330972,11519.925412872153,0.0
733523.2936376977,3602751.2368613081,-22500.0,-7780.5601084782393,2315.3561234670256,-636.42899008937138,3315.3751949962798,-908.41394215132721,-1043.9633334869254,5065.4940091315366,-3813.7882514157191,2061.1360980259187,-2061.1360980259187,3813.7882514157191,9991.3273667919275,0.0
738523.2936376977,3602751.2368613081,-22500.0,-6957.160490815746,1909.5283918821999,-502.50307607722266,2803.5739540359446,-717.46817264307674,-840.72165590948146,4407.9783882958727,-3493.2784083853976,1807.5671196615131,-1807.5671196615131,3493.2784083853976,8698.1128761928794,0.0
743523.2936376977,3602751.2368613081,-22500.0,-6221.6923345383029,1581.9411982731517,-403.99468038509212,2379.3397802615918,-570.38196090482631,-680.49229261553307,3851.7450989450895,-3187.7616473497546,1584.7528364810314,-1584.7528364810314,3187.7616473497546,7601.3729939282257,0.0
748523.2936376977,3602751.2368613081,-22500.0,-5568.5938410199778,1316.5447797332035,-330.57011893660297,2027.0791153670389,-456.36775406784329,-553.76892022818197,3379.4570040475965,-2902.6720159992706,1390.4114280871286,-1390.4114280871286,2902.6720159992706,6668.5398607160605,0.0
753523.2936376977,3602751.2368613081,-22500.0,-4990.6520548907911,1100.6615061922514,-275.09700988258925,1733.8458932486155,-367.42514756820191,-453.13405776140991,2976.9051970288547,-2640.3063932395917,1221.6256167639824,-1221.6256167639824,2640.3063932395917,5872.5334217046684,0.0
548523.2936376977,3607751.2368613081,-22500.0,-3790.898343615836,-1549.8409672923285,-515.84760430560732,-1293.6803954613076,-486.82859755546826,-319.65793369561078,2479.5139626129849,-3074.3900651022727,-473.03848875693166,473.03848875693166,3074.3900651022727,4934.048345565323,0.0
553523.2936376977,3607751.2368613081,-22500.0,-4157.3720652106658,-1802.0526504039069,-617.573753289656,-1484.3721399175688,-584.36930090648343,-380.92386019866916,2791.976976654933,-3391.5734058617486,-613.11166028836942,613.11166028836942,3391.5734058617486,5549.8282681861429,0.0
558523.2936376977,3607751.2368613081,-22500.0,-4554.3086922202128,-2102.4774329828397,-747.42725181889114,-1705.7727351923738,-704.49842714415229,-454.77984237687161,3153.4638669429946,-3737.5348550032277,-794.07796408463309,794.07796408463309,3737.5348550032277,6258.6925824520758,0.0
563523.2936376977,3607751.2368613081,-22500.0,-4978.6241015963114,-2460.6561765358829,-914.70294639738847,-1962.0791632512185,-852.73290158384123,-543.50348674831707,3571.6822807582316,-4109.8368474116614,-1028.456947209723,1028.456947209723,4109.8368474116614,7075.0957676684811,0.0
568523.2936376977,3607751.2368613081,-22500.0,-5423.3972932817551,-2887.5232367306762,-1132.0611584538265,-2257.3288835271196,-1035.7642354292343,-649.41836476167759,4055.371521634951,-4502.4155093731079,-1332.6404020602663,1332.6404020602663,4502.4155093731079,8014.8666487064738,0.0
573523.2936376977,3607751.2368613081,-22500.0,-5875.7563524797024,-3395.0946304799359,-1416.7519142608958,-2594.8183390223553,-1261.4850790213723,-774.56645737322515,4614.1341657985631,-4903.4667889609373,-1727.9409146624512,1727.9409146624512,4903.4667889609373,9094.6090429779688,0.0
578523.2936376977,3607751.2368613081,-22500.0,-6313.7696692974941,-3995.5933063634575,-1792.2014985146945,-2976.1385559800228,-1538.7730261256231,-920.1142143447529,5258.0160620977886,-5292.3141330149629,-2241.7185239274459,2241.7185239274459,5292.3141330149629,10330.454204004371,0.0
583523.2936376977,3607751.2368613081,-22500.0,-6701.9193067946653,-4699.5117424139908,-2289.9319131100278,-3399.6519880858268,-1876.7728146609195,-1085.3752794723539,5996.6758021776232,-5634.8508725328174,-2908.3180641697199,2908.3180641697199,5634.8508725328174,11735.716403073175,0.0
588523.2936376977,3607751.2368613081,-22500.0,-6984.5780809346325,-5511.7160959331668,-2951.5427805836243,-3858.1635456372101,-2283.2044418533505,-1266.3574550374833,6837.8195426621514,-5877.0551887330221,-3769.1549600273374,3769.1549600273374,5877.0551887330221,13316.682154047561,0.0
593523.2936376977,3607751.2368613081,-22500.0,-7076.766382349394,-6424.0099121117273,-3829.8500623866667,-4335.4106105131686,-2760.8397844090014,-1453.8874722014748,7784.2843395648351,-5936.0701741300882,-4870.4424336130151,4870.4424336130151,5936.0701741300882,15065.191336720529,0.0
598523.2936376977,3607751.2368613081,-22500.0,-6851.5267082441169,-7401.4496231942385,-4986.7168071507431,-4800.6727606569857,-3300.5487472915688,-1631.7361993605152,8828.5461867197573,-5688.6671622095255,-6255.296288708947,6255.296288708947,5688.6671622095255,16945.631426411361,0.0
603523.2936376977,3607751.2368613081,-22500.0,-6124.2000567504465,-8358.1752475011144,-6481.5471471581186,-5199.9792162459398,-3867.7796071276257,-1775.7789953794702,9942.2911851207937,-4958.2497434633015,-7943.5226898719093,7943.5226898719093,4958.2497434633015,18872.3646505697,0.0
608523.2936376977,3607751.2368613081,-22500.0,-4637.7394028250465,-9117.6858589885942,-8336.9707757514479,-5440.6335309657861,-4376.0068095652932,-1855.4981668900245,11057.23726043336,-3505.7315879110793,-9886.4844429782224,9886.4844429782224,3505.7315879110793,20672.77692592108,0.0
613523.2936376977,3607751.2368613081,-22500.0,-2064.1838764969089,-9357.3237289000263,-10455.490295381902,-5363.4683298473665,-4633.9055959185062,-1836.6493549236322,12034.815289572429,-1040.2725922425279,-11877.569590539923,11877.569590539923,1040.2725922425279,22040.264294225497,0.0
618523.2936376977,3607751.2368613081,-22500.0,1939.9561772854529,-8561.5038956677927,-12448.81906461648,-4699.0030902873459,-4242.4871785408559,-1672.5955249318652,12643.32977915558,2713.5079729473691,-13402.818982401925,13402.818982401925,-2713.5079729473691,22544.250212518782,0.0
623523.2936376977,3607751.2368613081,-22500.0,7562.3894371443002,-6077.8596617665007,-13364.790148370501,-3024.68439489822,-2414.8265232312347,-1243.2691146366642,12691.521437085135,7835.1182874381248,-13469.921624771769,13469.921624771769,-7835.1182874381248,22067.403851282706,0.0
628523.2936376977,3607751.2368613081,-22500.0,14517.53510583868,-1487.3886950985082,-11444.219400234086,194.6977658354763,2262.050251906157,-159.21209307802789,13284.09084444222,13894.715142999234,-10624.49564904088,10624.49564904088,-13894.715142999234,23032.299249661643,0.0
633523.2936376977,3607751.2368613081,-22500.0,21752.744344318366,4452.630860136147,-4410.125761246838,5294.969928384221,11910.437802919607,2649.0053242736508,19273.626020479696,19689.837670718221,-3661.2940474370453,3661.2940474370453,-19689.837670718221,33448.519317357641,0.0
638523.2936376977,3607751.2368613081,-22500.0,27798.858181880973,8393.5330886570682,8709.8071041609801,11648.049205640797,28625.691379809152,9442.8191856681606,33732.279720093626,23677.182220440194,6274.0081382414355,-6274.0081382414355,-23677.182220440194,58545.816568166767,0.0
643523.2936376977,3607751.2368613081,-22500.0,32680.809214536897,4118.6894463898934,23363.140812667116,16957.697558307016,51817.635268021811,23800.804036975493,54881.02552050777,26220.377224021693,12401.727866774469,-12401.727866774469,-26220.377224021693,95140.505541871942,0.0
648523.2936376977,3607751.2368613081,-22500.0,39190.024972058207,-12537.432765173164,25986.419604273731,17968.564900895697,74286.083022571023,50016.042448177002,78214.971530569863,31933.305565826864,2777.7658304709857,-2777.7658304709857,-31933.305565826864,135756.8279641454,0.0
653523.2936376977,3607751.2368613081,-22500.0,46434.562512595774,-35465.846336876901,3058.3386848367145,7716.2008195307772,81466.498608161899,86493.757970020626,98023.196939700996,41398.558011842171,-26823.877803835036,26823.877803835036,-41398.558011842171,170547.1248178315,0.0
658523.2936376977,3607751.2368613081,-22500.0,56236.788114224546,-48020.997904707307,-36846.712455459114,-21977.103499414145,52836.625463537748,90439.384552429707,99127.637885851058,47462.152292390281,-59721.957774570386,59721.957774570386,-47462.152292390281,172511.47211576227,0.0
663523.2936376977,3607751.2368613081,-22500.0,67661.704547084388,-26855.628933246884,-59494.0481391906,-21116.029431508294,-2120.0958899300531,23674.233271964436,72887.16649759296,57369.372574263863,-65025.785072670624,65025.785072670624,-57369.372574263863,126590.05484019686,0.0
668523.2936376977,3607751.2368613081,-22500.0,41014.971317536452,5538.5150843456659,-50658.908007488746,15485.082109686853,-26318.039391220347,-18413.488031301684,55833.637850620587,48453.741354821446,-39655.624219502984,39655.624219502984,-48453.741354821446,96835.48349805217,0.0
673523.2936376977,3607751.2368613081,-22500.0,6198.4079507943925,18504.541565254196,-33622.469994766798,31033.197650419927,-24087.514629154859,-20068.534630003785,47255.115381070944,25796.427466163954,-16045.297317754452,16045.297317754452,-25796.427466163954,82986.379643078704,0.0
678523.2936376977,3607751.2368613081,-22500.0,-12589.451948895834,19173.935548747231,-20915.698101341783,29875.549119858952,-17437.63205765087,-14606.73718076068,38417.040035853192,9046.4174525151648,-3549.0622389519322,3549.0622389519322,-9046.4174525151648,68915.725023781866,0.0
683523.2936376977,3607751.2368613081,-22500.0,-19610.995671806239,16311.029482581805,-12964.682264298301,24840.582653719161,-12243.71965480464,-10848.266516332931,30679.739496404447,35.156611265802781,1932.2295815933894,-1932.2295815933894,-35.156611265802781,56229.509698384223,0.0
688523.2936376977,3607751.2368613081,-22500.0,-21189.810328305433,13103.280775665176,-8141.6813623529551,20128.137288132697,-8698.9592004767401,-8540.2775291550261,24667.878024687434,-4297.7769504310863,4056.3702441382111,-4056.3702441382111,4297.7769504310863,46073.212619359729,0.0
693523.2936376977,3607751.2368613081,-22500.0,-20557.222531908286,10346.346404787193,-5201.2584298891697,16347.082736804874,-6278.578535691513,-6879.5192744928299,20106.669929274223,-6216.2660330747431,4670.3941508397938,-4670.3941508397938,6216.2660330747431,38130.493292946005,0.0
698523.2936376977,3607751.2368613081,-22500.0,-19073.993082204452,8137.2341744431242,-3384.3572457881296,13347.70059713867,-4589.6907157645182,-5537.0633706862072,16592.873481923856,-6910.6949195319285,4616.8524324948157,-4616.8524324948157,6910.6949195319285,31833.103799314449,0.0
703523.2936376977,3607751.2368613081,-22500.0,-17307.611658883347,6406.1257635089623,-2245.0432692191375,10940.042830976117,-3389.3418155109653,-4422.3452583183298,13824.222693621366,-6973.4804607033457,4281.2518976887386,-4281.2518976887386,6973.4804607033457,26748.041376535544,0.0
708523.2936376977,3607751.2368613081,-22500.0,-15509.261400848416,5059.0917283502658,-1520.2350275888134,8990.6812186326006,-2525.1189416748666,-3507.993418544208,11602.878297224057,-6709.3744463250696,3844.5159961449622,-3844.5159961449622,6709.3744463250696,22588.6296268597,0.0
713523.2936376977,3607751.2368613081,-22500.0,-13795.900883971894,4012.2223397141688,-1052.6382828107457,7407.1842608668831,-1896.9060544989925,-2772.1253479575489,9798.6385717314843,-6283.6809720082274,3392.5045209662803,-3392.5045209662803,6283.6809720082274,19160.45877193147,0.0
718523.2936376977,3607751.2368613081,-22500.0,-12220.610587105135,3197.4683227191267,-746.82254444080945,6120.0667774420563,-1436.5372253888324,-2188.8962441603489,8321.0096269763799,-5789.5750563985112,2964.8530048269422,-2964.8530048269422,5789.5750563985112,16322.050157260815,0.0
723523.2936376977,3607751.2368613081,-22500.0,-10803.008247181971,2561.5020955018858,-544.06799438142627,5073.7266578884737,-1096.5906985891932,-1731.1578005999127,7103.4403303920899,-5280.172545091722,2578.0105243562193,-2578.0105243562193,5280.172545091722,13964.106593521794,0.0
728523.2936376977,3607751.2368613081,-22500.0,-9544.4983652070423,2063.1556087685499,-407.76226945283906,4222.5687854367461,-843.66892278084731,-1373.7159679650113,6094.9909731557436,-4785.1826118496701,2236.719373265315,-2236.719373265315,4785.1826118496701,11999.282286958489,0.0
733523.2936376977,3607751.2368613081,-22500.0,-8436.8078948621624,1670.8760053587775,-314.79159919653483,3529.137677649358,-654.0651614769705,-1094.9962636788387,5255.7502179014382,-4320.2902413191541,1939.9603733599972,-1939.9603733599972,4320.2902413191541,10356.754069316125,0.0
738523.2936376977,3607751.2368613081,-22500.0,-7467.0013469394271,1360.5580326513864,-250.39288345154773,2962.8695675754584,-510.84680811208477,-877.41644750625255,4554.0585513837805,-3892.7468632862556,1684.0902608827071,-1684.0902608827071,3892.7468632862556,8978.8445133049918,0.0
743523.2936376977,3607751.2368613081,-22500.0,-6620.4288138297752,1113.7989505534374,-205.03241688583799,2499.0225964815422,-401.8482189839354,-707.07323497157927,3964.637032447084,-3504.8014489044917,1464.49377138416,-1464.49377138416,3504.8014489044917,7818.5674615442849,0.0
748523.2936376977,3607751.2368613081,-22500.0,-5882.401823704743,916.53487556852167,-172.48977160038967,2117.6974719897803,-318.2756482768313,-573.1676575779718,3467.2190942580546,-3155.827023368729,1276.4318027436721,-1276.4318027436721,3155.827023368729,6837.6704636006689,0.0
753523.2936376977,3607751.2368613081,-22500.0,-5239.0871934367979,757.99278715077753,-148.66660288037752,1802.9597381642598,-253.73204091239865,-467.39582770188127,3045.5045694433979,-2843.6368454376288,1115.4518536243288,-1115.4518536243288,2843.6368454376288,6005.0224639772323,0.0
543523.2936376977,3612751.2368613081,-22500.0,-3896.8117122198723,-1149.8646472697028,-305.57423504829728,-1252.2586315279518,-346.05084957931052,-293.92456253118667,2362.0960662627244,-3161.4288611554157,-48.160113269876319,48.160113269876319,3161.4288611554157,4687.13492510789,0.0
548523.2936376977,3612751.2368613081,-22500.0,-4322.4104578369279,-1339.4767041511325,-358.23781781101263,-1446.5766184889285,-415.22302356849536,-351.88222799260211,2661.8769664402153,-3530.170098737342,-101.50069041713914,101.50069041713914,3530.170098737342,5283.6990365645124,0.0
553523.2936376977,3612751.2368613081,-22500.0,-4801.3373267838306,-1567.6415677415935,-425.46380956687887,-1676.3856838961913,-500.90625839667803,-422.70489064980973,3010.8090634964515,-3948.5720999504319,-175.20122785380681,175.20122785380681,3948.5720999504319,5976.3180728516054,0.0
558523.2936376977,3612751.2368613081,-22500.0,-5339.1599755824354,-1843.3329638722057,-512.41957932506807,-1948.6206355671968,-607.51773766747056,-509.2892436006872,3418.419998295718,-4422.4477608276011,-276.6615836211563,276.6615836211563,4422.4477608276011,6782.6817532351934,0.0
563523.2936376977,3612751.2368613081,-22500.0,-5940.9378649395467,-2177.7232357239436,-626.39269047175026,-2271.4411900300584,-740.69717568605881,-615.03030976077059,3896.073485058871,-4957.2867163444462,-416.06995049660463,416.06995049660463,4957.2867163444462,7723.7667645049851,0.0
568523.2936376977,3612751.2368613081,-22500.0,-6610.381927004818,-2584.6589044312477,-777.74871522433114,-2654.3162521707609,-907.6026326500446,-743.75417966641317,4457.2606894755882,-5557.4434401129674,-607.48824348306289,607.48824348306289,5557.4434401129674,8824.275627012521,0.0
573523.2936376977,3612751.2368613081,-22500.0,-7348.4650571145849,-3081.1508838990599,-981.34751811079013,-3108.0274626331025,-1117.2249692351097,-899.49789941918232,5117.995506366804,-6224.7600962509077,-870.35246873363894,870.35246873363894,6224.7600962509077,10112.990783514519,0.0
578523.2936376977,3612751.2368613081,-22500.0,-8151.1552980426168,-3687.773054470415,-1258.6377603132812,-3644.5434825934499,-1380.6678421738054,-1086.0307149524133,5897.2747101135537,-6956.2907862128623,-1231.5196231722684,1231.5196231722684,6956.2907862128623,11622.9136300635,0.0
583523.2936376977,3612751.2368613081,-22500.0,-9005.7124115279767,-4428.7145522938345,-1640.7318261063374,-4276.7091669797337,-1711.2800649179921,-1305.9884213571058,6817.516979595026,-7740.5890473559721,-1727.9835539853834,1727.9835539853834,7740.5890473559721,13390.932412770109,0.0
588523.2936376977,3612751.2368613081,-22500.0,-9884.5738080437623,-5330.9089845757917,-2172.83070524902,-5017.690239133417,-2124.4208243215148,-1559.5422118830616,7904.8243978752371,-8551.6842636139063,-2410.2747419462044,2410.2747419462044,8551.6842636139063,15456.504685663744,0.0
593523.2936376977,3612751.2368613081,-22500.0,-10735.048113553268,-6420.9315492083324,-2920.2842340845573,-5880.0360662194616,-2636.4313367745267,-1842.7814410094895,9188.5870906200653,-9339.2636460367066,-3346.1536241817666,3346.1536241817666,9339.2636460367066,17858.159074995525,0.0
598523.2936376977,3612751.2368613081,-22500.0,-11461.630399870712,-7716.6868819075225,-3975.8742681591439,-6873.8027517529872,-3261.8928829148663,-2146.7252450720157,10698.947131035875,-10012.570948749531,-4622.9219971722214,4622.9219971722214,10012.570948749531,20624.83920365369,0.0
603523.2936376977,3612751.2368613081,-22500.0,-11895.773258353258,-9207.3252031344673,-5465.2522839027997,-8001.5338299245741,-4006.8391284450413,-2459.3749166570201,12457.902707978039,-10414.160078235351,-6343.0940971673353,6343.0940971673353,10414.160078235351,23754.550694409896,0.0
608523.2936376977,3612751.2368613081,-22500.0,-11747.442459028309,-10808.087479468697,-7539.1656376400188,-9243.037692449614,-4851.1557541684197,-2774.9900515177223,14453.430812087941,-10279.520240904181,-8598.9351003427873,8598.9351003427873,10279.520240904181,27162.521444266211,0.0
613523.2936376977,3612751.2368613081,-22500.0,-10542.391129562395,-12268.902472224505,-10319.352249146616,-10512.22675266807,-5700.3332467676919,-3112.6997874239655,16574.366230968324,-9186.7954493624948,-11391.399076529282,11391.399076529282,9186.7954493624948,30564.243563891043,0.0
618523.2936376977,3612751.2368613081,-22500.0,-7591.2854880093637,-13025.767689878307,-13721.312485059372,-11555.881550790913,-6255.050372662362,-3526.7758181190625,18473.489743733335,-6537.0842418945613,-14430.555404756815,14430.555404756815,6537.0842418945613,33256.834730935938,0.0
623523.2936376977,3612751.2368613081,-22500.0,-2134.125929225509,-12079.822366013615,-17039.308798383747,-11785.149533025689,-5698.5286581079326,-4026.6304523227936,19357.543155216779,-1693.151593406963,-16771.30509927134,16771.30509927134,1693.151593406963,33902.701722252248,0.0
628523.2936376977,3612751.2368613081,-22500.0,6125.8731252473926,-8274.1901202113095,-18327.261167824508,-10177.911968171355,-2121.0089702338491,-4208.8719565754191,18006.034330245664,5525.099730940261,-16489.631618346502,16489.631618346502,-5525.099730940261,31332.063496967017,0.0
633523.2936376977,3612751.2368613081,-22500.0,16170.548334947029,-1671.5408381634845,-14319.972409244652,-5735.8533930021849,8041.3502416968113,-2370.7703442814418,18340.049246010483,14044.749859070005,-11299.594967668239,11299.594967668239,-14044.749859070005,31767.751284768441,0.0
638523.2936376977,3612751.2368613081,-22500.0,25467.691002283405,3627.3325725666277,-2796.1594382951303,649.78716372165923,29179.443355892203,5555.4387143384829,30153.956007073582,21280.561994587541,-1676.9222996130084,1676.9222996130084,-21280.561994587541,56812.015901868857,0.0
643523.2936376977,3612751.2368613081,-22500.0,33204.718912069889,-2953.7312595261296,10351.812665251682,2970.621332897274,60596.628582667669,24541.529393169869,61124.822936443081,25817.825171177821,2539.5210462898267,-2539.5210462898267,-25817.825171177821,107087.94826599587,0.0
648523.2936376977,3612751.2368613081,-22500.0,48745.225784516952,-30276.429783338761,2731.0794343254097,-6541.7541297549215,82987.322098453849,52203.898218797323,92355.626741052809,36468.958916819247,-20664.776748320975,20664.776748320975,-36468.958916819247,160709.26877031464,0.0
653523.2936376977,3612751.2368613081,-22500.0,79412.754080351995,-57822.303660434249,-43848.184554594722,-20142.924848679762,61786.142304030138,72523.882711823724,109854.13428740005,65419.081570796247,-74044.999523565071,74044.999523565071,-65419.081570796247,192591.89390911208,0.0
658523.2936376977,3612751.2368613081,-22500.0,97459.200813431555,-45167.449008513417,-87669.452676253335,-22707.057773115652,1814.5956528580016,48645.951328355222,106835.7813379266,86825.269165745791,-100408.05336209381,100408.05336209381,-86825.269165745791,187871.30051889969,0.0
663523.2936376977,3612751.2368613081,-22500.0,77582.805571961697,-5493.1510692307356,-77759.57544908431,12011.670015051317,-32979.592410987352,-24806.839764406821,86564.381205416808,79655.509075851965,-70614.433307568514,70614.433307568514,-79655.509075851965,149985.89546149806,0.0
668523.2936376977,3612751.2368613081,-22500.0,23232.801180611255,14860.779619418723,-47424.706211841469,50011.300581356605,-30119.552988023068,-44077.894134500035,72234.101584056101,47349.778128941791,-33190.355541752346,33190.355541752346,-47349.778128941791,125118.69720270354,0.0
673523.2936376977,3612751.2368613081,-22500.0,-14854.567490314081,17529.00486220407,-26428.885963886027,52184.685260449092,-20429.05537249917,-29564.860770276431,58692.550939334818,16686.895698659391,-11064.988566980983,11064.988566980983,-16686.895698659391,102584.87719474091,0.0
678523.2936376977,3612751.2368613081,-22500.0,-28547.012467986231,14899.786728850697,-14771.461592660715,41369.782679691671,-13339.708389042089,-18046.916301155357,45196.875429196807,226.24251248082561,-983.43877121807918,983.43877121807918,-226.24251248082561,80558.080679680264,0.0
683523.2936376977,3612751.2368613081,-22500.0,-30519.06224262594,11643.910792154869,-8400.3411930180919,31192.484650788712,-8856.2738450477846,-12309.77440421563,34642.822555965875,-6722.755546164286,3004.4186594436082,-3004.4186594436082,6722.755546164286,63079.361578682117,0.0
688523.2936376977,3612751.2368613081,-22500.0,-28532.571902377575,8885.049455940989,-4849.0864134325575,23830.943070824746,-6022.938344629968,-9310.0508797019484,27052.278045150128,-9174.7700790915151,4310.0769515278016,-4310.0769515278016,9174.7700790915151,50244.977012818512,0.0
693523.2936376977,3612751.2368613081,-22500.0,-25554.442583117187,6749.8073829672076,-2832.0945866388101,18624.29871168422,-4183.9124503697249,-7353.6580738320818,21602.345325373157,-9699.7466121118596,4495.3860195221059,-4495.3860195221059,9699.7466121118596,40789.676054147443,0.0
698523.2936376977,3612751.2368613081,-22500.0,-22534.268152526278,5140.2956589128635,-1671.1727281833694,14809.255271014124,-2957.2303433559341,-5852.0208205726685,17570.342817374156,-9413.1084905000243,4233.714840515413,-4233.714840515413,9413.1084905000243,33600.12628087819,0.0
703523.2936376977,3612751.2368613081,-22500.0,-19744.946865414197,3934.2455138787923,-997.06544116321641,11908.125013112143,-2120.4292988423563,-4637.4739634935822,14485.358776243838,-8790.0208107681101,3814.0454248179349,-3814.0454248179349,8790.0208107681101,27961.035984080838,0.0
708523.2936376977,3612751.2368613081,-22500.0,-17252.236645255252,3029.170002355615,-603.57528745181025,9646.9253544020612,-1539.304091675898,-3656.2238192136761,12062.131449361637,-8042.9605304034303,3361.3456307465017,-3361.3456307465017,8042.9605304034303,23441.407098663374,0.0
713523.2936376977,3612751.2368613081,-22500.0,-15058.697720435481,2346.9699050248214,-373.44944452447822,7859.9401303921404,-1129.7889680957412,-2874.5725708046007,10124.120190557902,-7273.3511560606894,2928.9164258066389,-2928.9164258066389,7273.3511560606894,19770.497435384124,0.0
718523.2936376977,3612751.2368613081,-22500.0,-13145.88887474659,1829.8759328743874,-239.09788962212602,6436.8506379264027,-837.56625310625463,-2259.8642888289228,8555.1770303663907,-6531.4362921877846,2537.660459387057,-2537.660459387057,6531.4362921877846,16764.133401658892,0.0
723523.2936376977,3612751.2368613081,-22500.0,-11487.688493727914,1435.5240140054334,-161.13314432887998,5297.9878655667844,-626.69540243104768,-1780.4665158731627,7273.8239561106056,-5841.4612264110519,2193.4940148844944,-2193.4940148844944,5841.4612264110519,14287.689905194396,0.0
728523.2936376977,3612751.2368613081,-22500.0,-10055.562492455232,1132.8706506740086,-116.40018121900744,4382.9448577934409,-472.95818115120949,-1408.1074967333143,6220.0194968170117,-5213.515890767666,1895.4513423470601,-1895.4513423470601,5213.515890767666,12238.0079876893,0.0
733523.2936376977,3612751.2368613081,-22500.0,-8821.2326615321763,899.10884286726002,-91.193527871436928,3644.8540859124928,-359.79494363207954,-1119.090775223046,5348.0764269355959,-4649.7813058802858,1639.6058536172163,-1639.6058536172163,4649.7813058802858,10533.992789665945,0.0
738523.2936376977,3612751.2368613081,-22500.0,-7758.1556207855765,717.41402359386689,-77.363712050744795,3047.026542702446,-275.74227960356484,-894.37781608929492,4622.5458322061049,-4148.0950143999844,1421.0021765341455,-1421.0021765341455,4148.0950143999844,9111.0934242654312,0.0
743523.2936376977,3612751.2368613081,-22500.0,-6842.2839430270624,575.31261890047267,-70.055627174842982,2560.6597477440819,-212.77696160959667,-719.07079765174797,4015.59339926959,-3704.0660570363552,1234.5975772441579,-1234.5975772441579,3704.0660570363552,7917.6214297187998,0.0
748523.2936376977,3612751.2368613081,-22500.0,-6052.3536959879875,463.50689347202314,-66.381405509913421,2163.1221842747559,-165.22677968288636,-581.69315890211658,3505.1906288608793,-3312.3334262899798,1075.6964172250111,-1075.6964172250111,3312.3334262899798,6912.0530183266246,0.0
753523.2936376977,3612751.2368613081,-22500.0,-5369.8771184061216,375.0262951553367,-64.633862612246247,1836.6173973790349,-129.04341575675539,-473.47935967128114,3073.8005106242481,-2967.3015826261144,940.12232289495546,-940.12232289495546,2967.3015826261144,6060.9501727343086,0.0
543523.2936376977,3617751.2368613081,-22500.0,-4273.6794146346301,-901.23251453449438,-193.91084358226101,-1356.5009666412986,-268.03719241196814,-315.07876017335997,2494.2833849602666,-3473.7922765418207,284.07350061258217,-284.07350061258217,3473.7922765418207,4933.288230200681,0.0
548523.2936376977,3617751.2368613081,-22500.0,-4778.4642326691355,-1052.3576668206308,-221.19733330293701,-1577.0941724178858,-321.93572448098183,-379.21238174977782,2821.9163002380051,-3911.6138883903723,293.08650601048407,-293.08650601048407,3911.6138883903723,5582.8764532782843,0.0
553523.2936376977,3617751.2368613081,-22500.0,-5357.0492168584105,-1235.5931606470162,-256.27381033324406,-1841.0822319967062,-389.00034122719336,-458.26455761957334,3205.821408859716,-4417.7646539867874,295.75913297224588,-295.75913297224588,4417.7646539867874,6342.8059327837782,0.0
558523.2936376977,3617751.2368613081,-22500.0,-6021.2566773997987,-1459.0773631170662,-302.29465020136723,-2158.151736000345,-472.92222966135103,-555.87606962414975,3657.7831866939568,-5003.9782603766034,288.2060558851008,-288.2060558851008,5003.9782603766034,7235.4095256413466,0.0
563523.2936376977,3617751.2368613081,-22500.0,-6784.593122410527,-1733.3056139663884,-363.91770596067329,-2540.3004991746106,-578.51503926309613,-676.4622033928872,4192.4445797586322,-5683.8011182197033,264.63228403767607,-264.63228403767607,5683.8011182197033,8288.0923003772295,0.0
568523.2936376977,3617751.2368613081,-22500.0,-7662.277644554626,-2071.8849769959311,-448.10430968441744,-3002.408279178162,-712.0595086465662,-825.23979824796879,4828.0979870949477,-6472.6402167519082,216.39713845197775,-216.39713845197775,6472.6402167519082,9534.5887182907318,0.0
573523.2936376977,3617751.2368613081,-22500.0,-8671.0854551487428,-2492.5489493542318,-565.38704793764362,-3562.9754732461893,-881.74506572171822,-1008.1212808606945,5587.76494948866,-7387.610337488175,130.59426894066246,-130.59426894066246,7387.610337488175,11016.573725503789,0.0
578523.2936376977,3617751.2368613081,-22500.0,-9828.8497154104407,-3018.5219526711858,-731.90550594902254,-4245.144067923291,-1098.2332015317961,-1231.3671842461183,6500.7446506528186,-8447.0187371813699,-12.114345350932126,12.114345350932126,8447.0187371813699,12785.804558153339,0.0
583523.2936376977,3617751.2368613081,-22500.0,-11153.249935296612,-3680.3316810112242,-972.71539887530525,-5078.2289797650374,-1375.386641596353,-1500.8692648415984,7604.894535956646,-9669.1536286178525,-240.82931582445326,240.82931582445326,9669.1536286178525,14907.050649996931,0.0
588523.2936376977,3617751.2368613081,-22500.0,-12659.058034780086,-4518.1139355315636,-1327.221528372093,-6100.2275742384445,-1731.2648657682669,-1821.0307002258166,8950.0312382017473,-11069.709822484423,-599.55635760276255,599.55635760276255,11069.709822484423,17462.211354451021,0.0
593523.2936376977,3617751.2368613081,-22500.0,-14351.832204880669,-5584.1423445662267,-1858.1358044520641,-7362.1346003097415,-2189.6297628344319,-2193.6737401706391,10602.854612590605,-12656.338979530989,-1155.1037983524111,1155.1037983524111,12656.338979530989,20555.95720563583,0.0
598523.2936376977,3617751.2368613081,-22500.0,-16213.172220651792,-6944.1023628825887,-2666.0603761425323,-8935.1109831017402,-2782.4511888064603,-2618.8256976145776,12653.153380615029,-14416.694042439643,-2008.7876766748286,2008.7876766748286,14416.694042439643,24322.063347696047,0.0
603523.2936376977,3617751.2368613081,-22500.0,-18166.290122860613,-8671.7153613870123,-3911.982055621143,-10920.292835149545,-3553.910593523884,-3102.6684763032531,15217.995512008818,-16291.335475852011,-3311.793644092545,3311.793644092545,16291.335475852011,28924.412911782994,0.0
608523.2936376977,3617751.2368613081,-22500.0,-19999.097937377232,-10820.099140765396,-5846.3472504542196,-13453.70251420177,-4563.805910514915,-3684.0520980117235,18430.604420794163,-18112.712690186658,-5277.2178313441709,5277.2178313441709,18112.712690186658,34529.599476000039,0.0
613523.2936376977,3617751.2368613081,-22500.0,-21211.21913541307,-13326.955713140354,-8824.1780386483479,-16674.286308003218,-5873.208463364299,-4494.9567958970829,22375.458416994246,-19478.456798414249,-8156.7119427594307,8156.7119427594307,19478.456798414249,41185.065685255126,0.0
618523.2936376977,3617751.2368613081,-22500.0,-20782.205756408486,-15772.350910471392,-13219.091265181323,-20569.069565283662,-7437.6238106014753,-5844.8089773726097,26886.092861151792,-19542.022430682122,-12080.929458656527,12080.929458656527,19542.022430682122,48465.132345003251,0.0
623523.2936376977,3617751.2368613081,-22500.0,-17048.479455238794,-16951.960100300908,-18997.891602680051,-24567.497016843099,-8682.7085710408937,-8185.372270497166,31094.050299293544,-16854.311413307045,-16559.822188630187,16559.822188630187,16854.311413307045,54759.415561454516,0.0
628523.2936376977,3617751.2368613081,-22500.0,-8279.4275915733779,-14724.418727623231,-24671.899067247956,-26987.068799860466,-7381.7302046186533,-11490.864005730946,32788.123293814271,-9776.047286227049,-19625.885765776438,19625.885765776438,9776.047286227049,56790.703952087548,0.0
633523.2936376977,3617751.2368613081,-22500.0,5709.2701558362951,-7806.4086935489659,-26537.370737717316,-25320.690370330733,1918.3290477286132,-13367.727508867192,28436.773364865337,2135.0900417174753,-18128.801402297137,18128.801402297137,-2135.0900417174753,53906.22123062201,0.0
638523.2936376977,3617751.2368613081,-22500.0,22863.499785900669,-590.63923687574368,-22366.318468528181,-19079.520300173735,27046.09907972264,-6192.3097912329431,40036.112576195606,17547.637273076783,-12823.876453971545,12823.876453971545,-17547.637273076783,69738.029927518277,0.0
643523.2936376977,3617751.2368613081,-22500.0,41819.96536923782,-6922.183600578499,-21710.70883672046,-16583.238762958077,68109.945353774034,20792.053103187602,75531.819831001456,35135.156955824743,-17610.137801879751,17610.137801879751,-35135.156955824743,134268.60200812694,0.0
648523.2936376977,3617751.2368613081,-22500.0,74691.538803104602,-38644.901156343993,-51369.953110964721,-32625.41505097962,88799.763696196649,53078.899615577859,121690.21319217162,62355.104601661631,-59876.681843301427,59876.681843301427,-62355.104601661631,212046.73247062546,0.0
653523.2936376977,3617751.2368613081,-22500.0,124256.92384899331,-57147.347089253213,-107167.74079343135,-34185.618373039637,34577.929562923593,38421.064637888841,138764.01990516082,108376.06723699767,-120471.45671017496,120471.45671017496,-108376.06723699767,240730.06082826207,0.0
658523.2936376977,3617751.2368613081,-22500.0,115254.80581287807,-23696.753141494712,-113767.12082641576,9845.8257694227486,-33310.566187126708,-9160.0813872815197,122118.17316132758,116138.40939822821,-112300.00811443002,112300.00811443002,-116138.40939822821,211519.6929652761,0.0
663523.2936376977,3617751.2368613081,-22500.0,56066.917258709895,6535.1486091661955,-75944.192002138065,49969.510720320475,-35316.932390359747,-44990.350619671088,91709.867682725395,78341.709975270307,-63044.319748671383,63044.319748671383,-78341.709975270307,160186.3289270926,0.0
668523.2936376977,3617751.2368613081,-22500.0,1239.6527533329199,9256.8362729869259,-42334.14328895475,66078.556710794903,-18188.627567534073,-43763.774728151715,73496.666205768852,37140.22659647667,-31130.368594079398,31130.368594079398,-37140.22659647667,127717.2132447513,0.0
673523.2936376977,3617751.2368613081,-22500.0,-27992.224197925691,6398.1074715561417,-22169.654094238238,58272.205580531292,-9751.3258590787882,-28075.065601535,59313.819344923621,8619.1329337217867,-13478.977449833477,13478.977449833477,-8619.1329337217867,103099.04834930412,0.0
678523.2936376977,3617751.2368613081,-22500.0,-36236.200382961048,4555.780837430797,-11520.582641788158,44248.868131211115,-5953.350916667805,-17400.343589434578,45725.239568137498,-5211.0212723400637,-4291.5490805129321,4291.5490805129321,5211.0212723400637,80886.284352445946,0.0
683523.2936376977,3617751.2368613081,-22500.0,-35236.565556334972,3365.3229539010636,-6031.1737757530273,32781.596294594616,-3787.8382533314948,-12055.689696382296,35039.894565272014,-10357.742213805719,-15.746832857327718,15.746832857327718,10357.742213805719,63357.871428122991,0.0
688523.2936376977,3617751.2368613081,-22500.0,-31524.516042573228,2467.3866060498617,-3163.1706300948445,24759.363448120759,-2419.2867994672893,-9192.7973320157816,27313.657770230653,-11629.147801743282,1770.270190421702,-1770.270190421702,11629.147801743282,50444.177633129599,0.0
693523.2936376977,3617751.2368613081,-22500.0,-27489.414184501293,1775.9563139028835,-1640.8159285825827,19177.585314127111,-1546.5758830548941,-7288.2753180744821,21760.688286722369,-11375.930075425304,2395.9308765606202,-2395.9308765606202,11375.930075425304,40915.058465569113,0.0
698523.2936376977,3617751.2368613081,-22500.0,-23801.830471764133,1258.1117775117325,-827.2813393115199,15142.240147681694,-993.50287975843185,-5810.8819118304837,17660.450103995612,-10571.196054986987,2503.3676290710937,-2503.3676290710937,10571.196054986987,33671.088429342919,0.0
703523.2936376977,3617751.2368613081,-22500.0,-20582.964440450192,880.27504985654491,-394.93777463066891,12109.587654498935,-642.90114182661694,-4609.7807444293148,14532.790836223012,-9599.4095150409994,2388.2037960981434,-2388.2037960981434,9599.4095150409994,27995.05165674871,0.0
708523.2936376977,3617751.2368613081,-22500.0,-17809.685201239441,608.90119610974682,-169.97483817446687,9768.7660104485058,-418.9696440496262,-3636.6923278918239,12083.407421867239,-8614.8595909975538,2185.7160322064733,-2185.7160322064733,8614.8595909975538,23451.031452914958,0.0
713523.2936376977,3617751.2368613081,-22500.0,-15430.52999101714,415.4527383859226,-58.108148182460141,7932.9552014700521,-274.27629158278302,-2860.2415160835799,10129.469496569511,-7681.4927818969554,1958.2724946332942,-1958.2724946332942,7681.4927818969554,19764.274552984949,0.0
718523.2936376977,3617751.2368613081,-22500.0,-13393.543227757487,277.91863592254418,-7.4767178395142819,6479.6108163673198,-179.58001900939053,-2248.9784123223208,8550.9020007493655,-6825.2798732402134,1734.5075695620494,-1734.5075695620494,6825.2798732402134,16747.858010470791,0.0
723523.2936376977,3617751.2368613081,-22500.0,-11651.479108482434,180.1776521200371,10.646374205892005,5321.876279106621,-116.85121733961886,-1771.9570923643666,7263.8500486506609,-6054.6049524820537,1526.9702828191671,-1526.9702828191671,6054.6049524820537,14265.320064768395,0.0
728523.2936376977,3617751.2368613081,-22500.0,-10162.288701929265,110.71453855671841,12.185872654644891,4395.0429863971904,-74.868318300714321,-1401.3061090337621,6206.8283568849392,-5369.0743950611995,1340.3424487316697,-1340.3424487316697,5369.0743950611995,12212.254161346353,0.0
733523.2936376977,3617751.2368613081,-22500.0,-8888.9208429326336,61.387679333017978,5.9146892587039641,3649.6213597358951,-46.548339572580467,-1113.5643900481662,5333.2560027518675,-4763.8513704693332,1175.4336164056504,-1175.4336164056504,4763.8513704693332,10506.700912045104,0.0
738523.2936376977,3617751.2368613081,-22500.0,-7799.0587160770419,26.452152081685334,-3.4098252613265632,3047.2966303233452,-27.349339966455467,-889.83380466290555,4607.1171775808371,-4232.0150695615748,1031.1989915091751,-1031.1989915091751,4232.0150695615748,9083.5033085313098,0.0
743523.2936376977,3617751.2368613081,-22500.0,-6864.8054255525085,1.844458646523041,-13.286554400117037,2558.2431344258766,-14.312288650073734,-715.30232967025677,4000.208803691286,-3765.9069573695974,905.78460872059031,-905.78460872059031,3765.9069573695974,7890.5456841582909,0.0
748523.2936376977,3617751.2368613081,-22500.0,-6062.3009027633261,-15.322838998464508,-22.476176356435676,2159.1776737417881,-5.4803662168718752,-578.54798004324539,3490.2580708036844,-3357.8961157984586,797.07182344789908,-797.07182344789908,3357.8961157984586,6886.0047559370632,0.0
753523.2936376977,3617751.2368613081,-22500.0,-5371.287518407793,-27.113024076520713,-30.436926573901189,1831.8845715841928,0.45829456950415837,-470.84152239494347,3059.5639809480185,-3000.7923959726795,702.9548713435413,-702.9548713435413,3000.7923959726795,6036.2335388241572,0.0
543523.2936376977,3622751.2368613081,-22500.0,-4565.3086673046491,-602.09985206342878,-111.50731992398997,-1437.0035777164014,-176.25722231243711,-331.34630018916158,2598.4265070167639,-3704.1587651727205,613.50645311845915,-613.50645311845915,3704.1587651727205,5126.5258060978767,0.0
548523.2936376977,3622751.2368613081,-22500.0,-5131.5727585678032,-700.94674938170294,-119.41919002305939,-1677.8994449253537,-210.61100650479824,-400.21384106853321,2948.2233073352509,-4193.2984935519898,686.51567403056583,-686.51567403056583,4193.2984935519898,5817.7515231313664,0.0
553523.2936376977,3622751.2368613081,-22500.0,-5787.9345821054239,-820.96080205028284,-129.63784887472093,-1968.3874957902888,-253.23729609782762,-485.57979778047167,3360.2480784745762,-4765.041896013483,768.509818025404,-768.509818025404,4765.041896013483,6630.7583824349631,0.0
558523.2936376977,3622751.2368613081,-22500.0,-6551.4591379035128,-967.7407150416575,-143.51876225768581,-2320.3808532324156,-306.46197107094576,-591.66268334089489,3848.2633734132528,-5435.9033297428941,859.9137696867806,-859.9137696867806,5435.9033297428941,7591.7506750258408,0.0
563523.2936376977,3622751.2368613081,-22500.0,-7442.9051775173566,-1148.6700176262952,-163.26123121595873,-2749.0326996214903,-373.33931576625622,-723.67300430747491,4429.7274777737475,-6226.0988089282673,960.60597430182543,-960.60597430182543,6226.0988089282673,8733.59586206944,0.0
568523.2936376977,3622751.2368613081,-22500.0,-8487.6680709930133,-1373.6049820716655,-192.45000297222725,-3273.7606311096893,-457.89795243443899,-887.91539098344526,5127.037213122856,-7160.469708264618,1069.4434825563094,-1069.4434825563094,7160.469708264618,10097.880342125512,0.0
573523.2936376977,3622751.2368613081,-22500.0,-9717.0285833376911,-1655.896738462824,-236.96743053963618,-3919.7068553080221,-565.48285740464553,-1091.7740884342959,5969.3363976564015,-8269.6816984726283,1183.4492162921929,-1183.4492162921929,8269.6816984726283,11737.812172571545,0.0
578523.2936376977,3622751.2368613081,-22500.0,-11169.855860047997,-2013.9433437982611,-306.55168657606657,-4719.949339781484,-703.24911060336262,-1343.4708571192377,6995.2704505051115,-9591.8398362760927,1296.4302246607785,-1296.4302246607785,9591.8398362760927,13722.520074672506,0.0
583523.2936376977,3622751.2368613081,-22500.0,-12894.915730064507,-2473.6284201230997,-417.50737568303339,-5719.0947374597936,-880.93942357309663,-1651.4753108367934,8257.3637045441774,-11174.721327272071,1396.5887155481232,-1396.5887155481232,11174.721327272071,16143.744411334968,0.0
588523.2936376977,3622751.2368613081,-22500.0,-14953.757456791662,-3072.2256374487638,-597.51276820564954,-6979.5290557618,-1112.2557646186608,-2023.6057535724694,9829.1972776178354,-13078.839671746238,1462.3246579254474,-1462.3246579254474,13078.839671746238,19126.700975220701,0.0
593523.2936376977,3622751.2368613081,-22500.0,-17423.31494808253,-3864.6751923914126,-894.32612351585078,-8592.8609620107582,-1417.6037997929327,-2466.6143039054118,11817.33432430713,-15381.264495151443,1454.698182805505,-1454.698182805505,15381.264495151443,22848.171723075546,0.0
598523.2936376977,3622751.2368613081,-22500.0,-20394.245963063175,-4933.2270214381006,-1391.8545930027731,-10701.111725946956,-1830.0876278755914,-2989.5204626027103,14380.560977019843,-18178.407134125689,1303.6314782762383,-1303.6314782762383,18178.407134125689,27565.978435472836,0.0
603523.2936376977,3622751.2368613081,-22500.0,-23951.629932052991,-6399.8177488747433,-2240.0698759034408,-13534.0675041985,-2408.8589374579042,-3620.7162114934031,17757.634555624107,-21579.619713688313,882.64939882205908,-882.64939882205908,21579.619713688313,33661.785365114774,0.0
608523.2936376977,3622751.2368613081,-22500.0,-28099.849743794279,-8431.5646715994553,-3709.5441762443347,-17464.765115654129,-3266.6821783181131,-4464.1059924288147,22294.949750393956,-25663.681774415862,-34.900863423012197,34.900863423012197,25663.681774415862,41682.057571309728,0.0
613523.2936376977,3622751.2368613081,-22500.0,-32541.055629506955,-11196.253978730048,-6281.1028372912415,-23051.428161766326,-4613.1021819340604,-5843.2834297764357,28431.351949807133,-30320.113631839777,-1836.6504807662841,1836.6504807662841,30320.113631839777,52299.994159068956,0.0
618523.2936376977,3622751.2368613081,-22500.0,-36155.722664857123,-14630.291960016973,-10742.746336079557,-30912.597390515781,-6755.3471775342678,-8577.0240347869185,36510.995379533197,-34811.093504883058,-5085.9129124262254,5085.9129124262254,34811.093504883058,65964.791182935063,0.0
623523.2936376977,3622751.2368613081,-22500.0,-36173.16501344987,-17734.514797865177,-18068.636657694962,-41019.512713652126,-9731.974245130421,-14209.553913015781,46151.418203052883,-36910.986470069111,-10203.062842404459,10203.062842404459,36910.986470069111,81780.239806814032,0.0
628523.2936376977,3622751.2368613081,-22500.0,-28017.46713133264,-17459.951772777593,-28341.519308999814,-50995.95920686391,-11581.043507149689,-24161.60094440401,54954.611643962191,-32270.715793337971,-16213.922339863197,16213.922339863197,32270.715793337971,95576.656333285908,0.0
633523.2936376977,3622751.2368613081,-22500.0,-8243.5706032008457,-10269.769247765251,-38519.84126162959,-55258.939598247976,-4596.9628179568781,-35728.223852626172,58295.613369319472,-16490.229159922601,-19767.049424782097,19767.049424782097,16490.229159922601,101884.13923528744,0.0
638523.2936376977,3622751.2368613081,-22500.0,23365.079435216448,-2655.1992713073801,-47071.17957835683,-50039.631152264476,22544.997973223835,-36423.726667849012,65145.837800622292,12473.234005435224,-24219.156931795958,24219.156931795958,-12473.234005435224,115682.94253770683,0.0
643523.2936376977,3622751.2368613081,-22500.0,69791.529274969405,-13601.567348139084,-72989.532599339087,-38528.468233751919,60999.539993713275,-5995.5172135176317,102176.8587612956,60823.403986344667,-55460.022012719943,55460.022012719943,-60823.403986344667,177426.94611047365,0.0
648523.2936376977,3622751.2368613081,-22500.0,125542.22830252378,-43428.283591092244,-128171.89596129366,-33238.050891292092,54627.794215749789,33357.813878733847,148868.83524132616,118834.74076059449,-122577.99001337422,122577.99001337422,-118834.74076059449,259625.25756964509,0.0
653523.2936376977,3622751.2368613081,-22500.0,148237.32987762301,-40688.130560826663,-145675.57564702033,3729.1580748406673,-20738.55630829827,588.86419129712488,153926.15642498696,147275.7808756548,-147785.66781338418,147785.66781338418,-147275.7808756548,266622.63749735086,0.0
658523.2936376977,3622751.2368613081,-22500.0,85257.931387210658,-8426.9944696693819,-98360.059669858718,54999.523878704276,-54323.409278617022,-29313.058094145381,120744.77526924034,106062.20271590241,-95429.596361179341,95429.596361179341,-106062.20271590241,209632.45770530909,0.0
663523.2936376977,3622751.2368613081,-22500.0,22032.05530024051,5404.7169334158734,-57831.967822531944,65231.413968531961,-33849.271704181941,-32333.741441901311,83476.404940564855,55401.144114630486,-48817.950997586857,48817.950997586857,-55401.144114630486,145884.87029765587,0.0
668523.2936376977,3622751.2368613081,-22500.0,-12375.289572352629,1082.8771379966131,-35341.345559844565,60255.244650634442,-11747.215225369644,-27267.175833113321,62001.783426384762,23984.740894369203,-28657.647567926349,28657.647567926349,-23984.740894369203,108244.13471160889,0.0
673523.2936376977,3622751.2368613081,-22500.0,-28910.751794295906,-3717.5309913189817,-20739.602023310719,49934.063539687508,-2691.7486541215612,-19404.216716605755,50382.031031990104,4582.7786854495034,-17490.178212092611,17490.178212092611,-4582.7786854495034,87309.170898950295,0.0
678523.2936376977,3622751.2368613081,-22500.0,-33746.978036300912,-4950.1474824719407,-11595.93815349463,38677.553218221219,-29.638401430845935,-13647.158939870575,40273.597035990868,-5649.6648119655438,-9883.4298482963186,9883.4298482963186,5649.6648119655438,70787.09829906057,0.0
683523.2936376977,3622751.2368613081,-22500.0,-32651.24785953671,-4559.6526639036138,-6356.45938113185,29498.489328062689,745.52811418548413,-10315.70403751925,31846.698280966633,-9870.7872790684469,-5154.2856115434515,5154.2856115434515,9870.7872790684469,57249.501048185193,0.0
688523.2936376977,3622751.2368613081,-22500.0,-29471.353538826042,-3838.3617276983355,-3469.8356793861381,22777.747013121076,975.40389931511129,-8243.2812686099151,25382.491927507763,-11027.260862303881,-2455.8304122308346,2455.8304122308346,11027.260862303881,46672.030817057901,0.0
693523.2936376977,3622751.2368613081,-22500.0,-25927.174282705211,-3172.5535853596662,-1891.0013271920086,17906.439360594988,995.21058971465982,-6697.2227123280036,20525.946936891873,-10843.263019921476,-969.60422329984249,969.60422329984249,10843.263019921476,38475.99951538934,0.0
698523.2936376977,3622751.2368613081,-22500.0,-22604.253410547004,-2622.5183022631927,-1025.4486352950692,14281.126151594779,918.3291996752647,-5417.1203862350412,16826.640133606463,-10129.800424603658,-159.18324617793678,159.18324617793678,10129.800424603658,32018.417414251671,0.0
703523.2936376977,3622751.2368613081,-22500.0,-19650.048180168742,-2175.3567859650007,-550.83015278813673,11503.253556369213,802.56964363666827,-4339.8192003105714,13944.080863181423,-9238.058294652019,277.79944150804204,-277.79944150804204,9238.058294652019,26830.453816911722,0.0
708523.2936376977,3622751.2368613081,-22500.0,-17072.382975133372,-1811.028439637603,-292.51757470260236,9330.4736101925428,679.92797479552439,-3449.1159524619088,11653.283721491363,-8318.8539498799582,505.00956603947725,-505.00956603947725,8318.8539498799582,22604.430800725419,0.0
713523.2936376977,3622751.2368613081,-22500.0,-14841.027261007888,-1513.289366295568,-154.65311411943119,7610.0612891685787,566.19671362491272,-2728.6726759437606,9806.7614003267372,-7438.1572760247091,612.05023603870222,-612.05023603870222,7438.1572760247091,19133.298635869913,0.0
718523.2936376977,3622751.2368613081,-22500.0,-12917.663842219572,-1269.5476488846455,-83.876605413208949,6238.0950178567482,467.50869290523025,-2155.8166359969018,8303.5520588690597,-6624.3806836576769,649.52971567655186,-649.52971567655186,6624.3806836576769,16267.778828027982,0.0
723523.2936376977,3622751.2368613081,-22500.0,-11264.069291003267,-1069.7440192758302,-50.174650408044286,5138.829686499781,384.90073001083624,-1705.3010034679114,7070.836220457838,-5887.9615721025712,646.96538140310895,-646.96538140310895,5887.9615721025712,13893.548066338197,0.0
728523.2936376977,3622751.2368613081,-22500.0,-9844.4456563109707,-905.67034355119927,-36.57224196915255,4254.62701579645,317.08966702121086,-1353.0760531697724,6053.8774583210588,-5230.1526682777103,621.99093225590332,-621.99093225590332,5230.1526682777103,11919.872796380787,0.0
733523.2936376977,3622751.2368613081,-22500.0,-8626.2382054358532,-770.59892512846477,-33.467617567217317,3540.6852792341342,261.9709689285778,-1078.2566091743452,5210.4116673951612,-4647.4327685113039,585.27853207094063,-585.27853207094063,4647.4327685113039,10273.576276583564,0.0
738523.2936376977,3622751.2368613081,-22500.0,-7580.4455266683626,-659.03898074352026,-35.464481126899933,2961.8792609409115,217.3444935334077,-863.67947878185566,4507.2783094041852,-4133.9312467890986,543.29718634368419,-543.29718634368419,4133.9312467890986,8895.3196621134848,0.0
743523.2936376977,3622751.2368613081,-22500.0,-6681.6540019007325,-566.53761237344338,-39.576043197830195,2490.5914335347229,181.22035523679949,-695.70190323950931,3918.2116683126865,-3682.8258038895356,499.92784802521714,-499.92784802521714,3682.8258038895356,7736.9383968810353,0.0
748523.2936376977,3622751.2368613081,-22500.0,-5907.8824965006343,-489.50337662176611,-44.196871791838682,2105.0876259740749,151.91595756445784,-563.69258341357738,3422.2811062220617,-3287.14891739636,457.44053726573384,-457.44053726573384,3287.14891739636,6759.3478342384278,0.0
753523.2936376977,3622751.2368613081,-22500.0,-5240.3067150984152,-425.05032135227168,-48.509549465261571,1788.2515238906867,128.05796281755764,-459.46004545275201,3002.733612922545,-2940.2359970680873,417.09953690237398,-417.09953690237398,2940.2359970680873,5930.834417651994,0.0
543523.2936376977,3627751.2368613081,-22500.0,-4755.2368052007432,-267.36886687033103,-67.171698474991814,-1489.525254771504,-74.777798061782349,-341.92684169686697,2669.9333384409078,-3838.0297572750192,920.47394735584521,-920.47394735584521,3838.0297572750192,5258.5801104256607,0.0
548523.2936376977,3627751.2368613081,-22500.0,-5359.853069107874,-304.11184063789148,-64.704875169348583,-1743.1829761553552,-86.561485965088465,-413.76222647506353,3034.4145637777101,-4355.7782140158151,1053.2037274888107,-1053.2037274888107,4355.7782140158151,5977.3000928013498,0.0
553523.2936376977,3627751.2368613081,-22500.0,-6064.5726673511545,-347.76571717235987,-61.543782824370652,-2050.2497778460438,-100.60407672321618,-503.05555065246193,3465.0423747878285,-4964.0161482975454,1209.4617304202732,-1209.4617304202732,4964.0161482975454,6825.2940971080234,0.0
558523.2936376977,3627751.2368613081,-22500.0,-6889.7280284414528,-400.05850994210266,-58.004429789971475,-2424.0083075257894,-117.38514441243524,-614.36470581694221,3976.9033178538034,-5681.9656517275789,1393.9391346900666,-1393.9391346900666,5681.9656517275789,7831.3480023177544,0.0
563523.2936376977,3627751.2368613081,-22500.0,-7860.6686000880482,-463.30325233929386,-54.824085045031183,-2881.5673598000421,-137.48248588430178,-753.36139727219995,4589.3524837474615,-6533.6936414542688,1612.2553496421533,-1612.2553496421533,6533.6936414542688,9032.0227348171375,0.0
568523.2936376977,3627751.2368613081,-22500.0,-9009.3623647066725,-540.67605607540793,-53.502906026757216,-3445.1887718785702,-161.58802250211903,-926.96982455310069,5327.5726359746595,-7549.6235084798227,1871.0778250863368,-1871.0778250863368,7549.6235084798227,10474.302698451142,0.0
573523.2936376977,3627751.2368613081,-22500.0,-10376.724453071585,-636.67805770831376,-56.905594941901171,-4144.2524722706003,-190.53213315844621,-1143.3930715381898,6224.9235424543876,-8768.706892813505,2178.1938233441847,-2178.1938233441847,8768.706892813505,12219.502131505677,0.0
578523.2936376977,3627751.2368613081,-22500.0,-12016.119648322687,-757.93784920955397,-70.327632120859349,-5018.3444725941408,-225.34191280219224,-1411.9102932533767,7326.6412080233304,-10241.683458194355,2542.459336665132,-2542.459336665132,10241.683458194355,14349.307074148519,0.0
583523.2936376977,3627751.2368613081,-22500.0,-13998.776776541399,-914.65827425299744,-103.40502538199148,-6122.465763241511,-267.41712731019015,-1742.3292270777877,8695.9384015342039,-12036.206341606341,2973.4754050006559,-2973.4754050006559,12036.206341606341,16975.6314665875,0.0
588523.2936376977,3627751.2368613081,-22500.0,-16422.192988034574,-1123.3155826623056,-173.5919669245329,-7536.4598985866605,-319.07868978322801,-2144.2074066567752,10424.474157735272,-14245.189427980327,3480.6543971457477,-3480.6543971457477,14245.189427980327,20257.49853863681,0.0
593523.2936376977,3627751.2368613081,-22500.0,-19422.644286152652,-1411.7737915767023,-312.63286449065328,-9383.0676208810601,-385.21345787626717,-2627.0173452388776,12650.773092817699,-17000.524019468889,4070.8924020804789,-4070.8924020804789,17000.524019468889,24430.950781207412,0.0
598523.2936376977,3627751.2368613081,-22500.0,-23191.182543046325,-1828.9214708835175,-578.96443452505821,-11863.557107014911,-477.98861512852773,-3206.095270886839,15592.598772849246,-20494.676236638115,4742.8720935228757,-4742.8720935228757,20494.676236638115,29862.37115551997,0.0
603523.2936376977,3627751.2368613081,-22500.0,-27983.782963860736,-2461.8881312025619,-1082.3545668583931,-15327.344145827479,-629.67699250713338,-3930.0916376106652,19601.277754206625,-25009.23697509653,5472.8395032832213,-5472.8395032832213,25009.23697509653,37139.505326149541,0.0
608523.2936376977,3627751.2368613081,-22500.0,-34085.460593993404,-3462.0244131055674,-2034.7811063173954,-20398.365132426301,-925.18156522665936,-4974.0083776527472,25241.587586020723,-30929.960748376718,6178.5115758450338,-6178.5115758450338,30929.960748376718,47206.837465386001,0.0
613523.2936376977,3627751.2368613081,-22500.0,-41597.728358572713,-5062.73024592611,-3858.3596369419611,-28158.666362978907,-1574.5512160968779,-6902.5656709680006,33371.194601293406,-38654.219876169096,6629.6736195193917,-6629.6736195193917,38654.219876169096,61495.557149700988,0.0
618523.2936376977,3627751.2368613081,-22500.0,-49708.127023261026,-7489.2961691093715,-7409.0741764345266,-40228.046167184744,-3027.5215863285162,-11282.213019079851,45090.731420187076,-48078.549958400181,6250.5558443387927,-6250.5558443387927,48078.549958400181,81798.743261282987,0.0
623523.2936376977,3627751.2368613081,-22500.0,-54842.09185491348,-10390.745544640153,-14360.406994253313,-57973.509283868334,-5909.9091491829222,-21631.847087137237,61157.047802855115,-56908.283459321523,3820.2807410231871,-3820.2807410231871,56908.283459321523,109127.20878540963,0.0
628523.2936376977,3627751.2368613081,-22500.0,-47932.668291717957,-11038.279403779006,-27363.909742883865,-78840.400705744614,-9461.1948369646161,-42983.154749094516,79948.340088159966,-57083.080309930956,-2382.3558319859767,2382.3558319859767,57083.080309930956,140097.34463472274,0.0
633523.2936376977,3627751.2368613081,-22500.0,-16912.546862992149,-3126.6107503977037,-48028.98989035948,-89765.724467977561,-4943.9712591435382,-73070.088469220151,94241.947397782453,-33664.068273675577,-12726.192046098768,12726.192046098768,33664.068273675577,163250.70005838652,0.0
638523.2936376977,3627751.2368613081,-22500.0,37893.114210446853,7043.1303812423903,-74875.484344925106,-76513.303110522218,26608.640979094278,-85032.183847132896,104420.3357062265,20282.64538974917,-31707.56544550919,31707.56544550919,-20282.64538974917,183850.4967992887,0.0
643523.2936376977,3627751.2368613081,-22500.0,112721.30857480578,-16120.025423219771,-121013.51586178421,-43314.045911912217,53359.044990128328,-55273.437288373418,138816.50598268869,101282.43010232758,-93540.490253528638,93540.490253528638,-101282.43010232758,241945.09457091117,0.0
648523.2936376977,3627751.2368613081,-22500.0,156549.9247674224,-43648.376445877606,-159899.91936081904,7198.4728844014862,2840.6597118641066,-6752.5667365984091,164314.51611282572,160175.83358236452,-158313.32803999612,158313.32803999612,-160175.83358236452,284651.3024306923,0.0
653523.2936376977,3627751.2368613081,-22500.0,116507.83756158309,-31711.630985539952,-117825.31219238671,49106.23999690183,-51211.108136008384,-13583.102330669064,140398.881010746,131091.96947175023,-128226.67429216976,128226.67429216976,-131091.96947175023,243864.59735886878,0.0
658523.2936376977,3627751.2368613081,-22500.0,45892.856782066912,-12754.14695830139,-62174.627498275586,64941.358629227972,-49513.140350472393,-19712.20847560425,97660.932653080075,71272.522209269722,-69983.169243257289,69983.169243257289,-71272.522209269722,171428.20528002307,0.0
663523.2936376977,3627751.2368613081,-22500.0,4263.5190134720542,-4952.9329396087041,-36378.449533929335,55775.085759318747,-27268.696164185516,-15871.00547112286,64094.440696199286,33039.830554258631,-37531.734367874757,37531.734367874757,-33039.830554258631,113471.50546627908,0.0
668523.2936376977,3627751.2368613081,-22500.0,-13326.753580500796,-6538.6239704266509,-26081.399931011176,44629.524941664044,-9029.8043590197994,-13143.334010527316,45698.845924737077,14686.818843392804,-25539.080185098206,25539.080185098206,-14686.818843392804,80705.083471465943,0.0
673523.2936376977,3627751.2368613081,-22500.0,-21541.17099264892,-9542.775915246486,-18677.308837031265,36066.709138637627,-164.82340891666479,-10980.632343770931,37691.562654206791,3885.8636346251096,-19322.34196531534,19322.34196531534,-3885.8636346251096,65308.349367204428,0.0
678523.2936376977,3627751.2368613081,-22500.0,-24844.295327521828,-10371.720256639474,-12479.592598844647,29002.313878964454,2875.8750711413559,-9219.705941366652,31712.421649829936,-2870.0959389663612,-14078.160047948277,14078.160047948277,2870.0959389663612,55450.451851715101,0.0
683523.2936376977,3627751.2368613081,-22500.0,-25032.138493578997,-9590.4162417719381,-7983.1100601940097,23249.646354910521,3527.5998518389379,-7880.6030600760441,26370.085752544946,-6507.2718466490487,-9805.1307466001053,9805.1307466001053,6507.2718466490487,47194.55289615209,0.0
688523.2936376977,3627751.2368613081,-22500.0,-23604.645836712989,-8254.1094576653668,-5036.9925455895336,18736.691778997534,3353.5371188676704,-6755.7530646082205,21862.662283442885,-8081.9642688963941,-6687.1843677569941,6687.1843677569941,8081.9642688963941,40088.888684487014,0.0
693523.2936376977,3627751.2368613081,-22500.0,-21536.271071703406,-6896.7513911585756,-3189.5863334612714,15217.888242541387,2922.9488133181853,-5713.2545597066683,18194.56845084851,-8495.6490031277826,-4533.125684077545,4533.125684077545,8495.6490031277826,34055.067069488818,0.0
698523.2936376977,3627751.2368613081,-22500.0,-19318.576000120393,-5696.3343389986958,-2045.3181186965489,12437.123622428451,2443.9711335060797,-4740.5517663737028,15226.278016848468,-8311.0946607462211,-3066.425366069052,3066.425366069052,8311.0946607462211,28954.862248241305,0.0
703523.2936376977,3627751.2368613081,-22500.0,-17169.248470861963,-4686.8255615237294,-1335.5564082879359,10206.7389022227,1997.4290953609561,-3867.5963627123683,12809.422395440504,-7836.2462416146609,-2065.1317314098142,2065.1317314098142,7836.2462416146609,24646.018284798269,0.0
708523.2936376977,3627751.2368613081,-22500.0,-15178.393281714847,-3855.5651418645066,-892.38638148506607,8401.2308912278368,1612.3020330483721,-3117.4063674654394,10826.931109095493,-7234.5700657593507,-1376.9492953521867,1376.9492953521867,7234.5700657593507,21009.302675446423,0.0
713523.2936376977,3627751.2368613081,-22500.0,-13379.041922108696,-3177.746295869702,-613.32032993630855,6933.6762204810475,1293.8846432103221,-2494.4917867196391,9191.5079730494126,-6593.8991235317917,-901.3214135086605,901.3214135086605,6593.8991235317917,17945.254734836613,0.0
718523.2936376977,3627751.2368613081,-22500.0,-11777.328741834101,-2627.5425790343029,-435.93045359646385,5739.1680736139451,1036.9196876018225,-1989.4762023822648,7836.8687174840452,-5961.9194659436471,-571.61602073813765,571.61602073813765,5961.9194659436471,15367.925568895869,0.0
723523.2936376977,3627751.2368613081,-22500.0,-10365.832879909774,-2181.5856655916282,-321.98669211872578,4766.3227617883613,832.3192874989652,-1586.2444071834166,6711.088369752988,-5363.9431039075043,-343.01326927717628,343.01326927717628,5363.9431039075043,13201.851992386009,0.0
728523.2936376977,3627751.2368613081,-22500.0,-9130.2812033769442,-1819.907912377872,-247.90530280010327,3973.3286089957296,670.47967517858888,-1267.1036868148747,5772.5727421902029,-4812.2727504765689,-184.91889172904757,184.91889172904757,4812.2727504765689,11381.094320816797,0.0
733523.2936376977,3627751.2368613081,-22500.0,-8053.3576928878356,-1525.9671819303751,-199.02986684785344,3325.9491283731822,542.72461275232456,-1015.5700801991618,4987.6196112836697,-4311.5153709293154,-76.213102328545574,76.213102328545574,4311.5153709293154,9848.8080167371572,0.0
738523.2936376977,3627751.2368613081,-22500.0,-7116.9865619304683,-1286.3167513416959,-166.18893729315508,2796.2458957960389,441.77760889904886,-817.50599390325294,4328.7986639264664,-3861.7792990902644,-2.1985688327342814,2.1985688327342814,3861.7792990902644,8556.689577617788,0.0
743523.2936376977,3627751.2368613081,-22500.0,-6303.6733513414565,-1090.1569477934661,-143.6073759601409,2361.5581152587233,361.77679898318684,-661.34004641421575,3773.7574268878207,-3460.6550454206763,47.412222662215754,-47.412222662215754,3460.6550454206763,7464.1835853659386,0.0
748523.2936376977,3627751.2368613081,-22500.0,-5597.2328851037419,-928.87696043889844,-127.62845699742807,2003.6098284743234,298.10578276865618,-537.85846505843119,3304.2820582293152,-3104.4478842952353,79.852222599239667,-79.852222599239667,3104.4478842952353,6537.5424144842873,0.0
753523.2936376977,3627751.2368613081,-22500.0,-4983.1194205838356,-795.63781343107644,-115.92565165678126,1707.7214712795344,247.17400079495491,-439.84238583607089,2905.5340375824198,-2788.9336188755115,100.22501856069835,-100.22501856069835,2788.9336188755115,5748.8497236937392,0.0
543523.2936376977,3632751.2368613081,-22500.0,-4833.2153239700492,84.683990848845966,-66.226019956657822,-1511.4203690834158,31.482178876247872,-346.32528451525201,2705.9338264562716,-3867.2507133518911,1186.5467019921425,-1186.5467019921425,3867.2507133518911,5324.009254151506,0.0
548523.2936376977,3632751.2368613081,-22500.0,-5449.6713070713022,114.55674423287608,-64.212789005981278,-1769.3215401603507,43.676848618819726,-419.16395909217681,3076.6062573329987,-4388.0852519331165,1369.056341188033,-1369.056341188033,4388.0852519331165,6054.2685654172647,0.0
553523.2936376977,3632751.2368613081,-22500.0,-6168.5852901831495,153.26861953324453,-61.747364872936849,-2081.6408604629132,60.131388233430279,-509.71029328282719,3514.8599312145052,-4999.730354688737,1586.7756079960955,-1586.7756079960955,4999.730354688737,6916.6111938932954,0.0
558523.2936376977,3632751.2368613081,-22500.0,-7010.9294762975751,203.57734230048732,-59.237627445021474,-2461.9552127210945,82.428802652460931,-622.57939034850585,4036.2298237534014,-5721.4576646813794,1847.722330143587,-1847.722330143587,5721.4576646813794,7940.7543908427233,0.0
563523.2936376977,3632751.2368613081,-22500.0,-8002.9568111954359,269.16721267948066,-57.538866537417924,-2927.7807286159582,112.7936320406089,-763.50344343383836,4660.7165575485069,-6577.4361332469925,2161.9815900671279,-2161.9815900671279,6577.4361332469925,9164.6106759401919,0.0
568523.2936376977,3632751.2368613081,-22500.0,-9177.9636018918409,354.97525628793915,-58.293070496501549,-3501.9629530265101,154.37301159774321,-939.45822740928941,5414.4640185660264,-7598.3131150096197,2542.3019138486961,-2542.3019138486961,7598.3131150096197,10637.182694263432,0.0
573523.2936376977,3632751.2368613081,-22500.0,-10578.9141186374,467.62628549575385,-64.511168637029485,-4214.7605800183783,211.64539689077534,-1158.6623462110986,6332.3209395222257,-8823.5429526480293,3004.8978694509833,-3004.8978694509833,8823.5429526480293,12422.902817638764,0.0
578523.2936376977,3632751.2368613081,-22500.0,-12262.516561177214,616.0042221977601,-81.57485573205453,-5107.1776266541538,291.01366796096613,-1430.3230968279024,7461.9414112357599,-10305.004745418251,3570.5709996527276,-3570.5709996527276,10305.004745418251,14608.479707002685,0.0
583523.2936376977,3632751.2368613081,-22500.0,-14305.760192668193,811.96700913709719,-118.96906835097325,-6236.7016437741277,401.65020434297003,-1764.0067482345844,8870.6636278018359,-12112.922457054196,4266.3416965242486,-4266.3416965242486,12112.922457054196,17314.287959058391,0.0
588523.2936376977,3632751.2368613081,-22500.0,-16816.590464124201,1071.1816136296941,-193.30349217281895,-7687.9541137346159,556.66532721377882,-2168.7829520132354,10657.563877012159,-14345.99957454596,5127.9604906651739,-5127.9604906651739,14345.99957454596,20714.320197688026,0.0
593523.2936376977,3632751.2368613081,-22500.0,-19951.113789104289,1413.9263507671023,-333.64504566801577,-9593.7173989843523,774.60198791583082,-2653.5620722688382,12975.246051813572,-17149.210425545032,6203.9283672175006,-6203.9283672175006,17149.210425545032,25072.535245628023,0.0
598523.2936376977,3632751.2368613081,-22500.0,-23939.21253749009,1865.4964240141303,-591.13183051864962,-12177.977256043308,1081.0312430555387,-3234.5050259122208,16069.542659074781,-20744.611109366982,7561.9108389069497,-7561.9108389069497,20744.611109366982,30810.032625108073,0.0
603523.2936376977,3632751.2368613081,-22500.0,-29113.964814048275,2455.4031689521962,-1056.939714047199,-15844.415080732588,1509.3206042143809,-3969.2231721086287,20350.155353587659,-25480.621639188008,9297.7794121146289,-9297.7794121146289,25480.621639188008,38626.748119637232,0.0
608523.2936376977,3632751.2368613081,-22500.0,-35910.764949912387,3214.1928968294292,-1898.0392725444315,-21350.582822784807,2097.979261358505,-5076.1077820789078,26507.090612230535,-31891.665204767975,11541.88917028648,-11541.88917028648,31891.665204767975,49705.237898551932,0.0
613523.2936376977,3632751.2368613081,-22500.0,-44700.513913207797,4168.1028545755053,-3435.626906081879,-30107.799659418692,2879.0627332201484,-7291.8043980739585,35671.890352984352,-40690.142538740583,14431.510548043458,-14431.510548043458,40690.142538740583,65992.130803252745,0.0
618523.2936376977,3632751.2368613081,-22500.0,-55025.380917740171,5343.9315078980135,-6338.8300548797915,-44507.836118692481,3853.1810137697539,-12796.615535301362,49545.357685730123,-52349.547883526735,17923.51707261768,-17923.51707261768,52349.547883526735,90392.102412446227,0.0
623523.2936376977,3632751.2368613081,-22500.0,-63136.420291781789,6857.1952218073457,-12146.601057956803,-67419.773135474432,4998.558149398762,-27087.528152911455,70136.011994723027,-65140.404799308897,21034.225576218123,-21034.225576218123,65140.404799308897,126149.33751218277,0.0
628523.2936376977,3632751.2368613081,-22500.0,-56289.383397321064,9351.5777267406884,-24609.978727868322,-97279.833181978494,6764.5865476494419,-60315.738413827065,97821.146316398357,-68919.331419123977,19523.825273718237,-19523.825273718237,68919.331419123977,173023.35532523089,0.0
633523.2936376977,3632751.2368613081,-22500.0,-9481.6934496102876,14504.130193367791,-51774.296545010351,-111339.41353459429,13302.164779789391,-114735.34792553246,124595.36285815937,-34968.083727544945,1637.1962622132451,-1637.1962622132451,34968.083727544945,216256.5425234529,0.0
638523.2936376977,3632751.2368613081,-22500.0,76436.67944487455,14490.80463150902,-101347.3239204702,-63764.827081460098,35442.244961188946,-129408.6247310457,131837.06092296221,59308.190300365393,-50373.374748104288,50373.374748104288,-59308.190300365393,232335.33268100175,0.0
643523.2936376977,3632751.2368613081,-22500.0,135859.54405456298,-23391.892815663767,-148477.53607533011,6481.7483528476878,32080.518210308619,-46099.435387319907,148772.97851106978,143525.30229692793,-129875.29242450262,129875.29242450262,-143525.30229692793,258986.52570733859,0.0
648523.2936376977,3632751.2368613081,-22500.0,121323.64238396956,-46753.311313701837,-126113.45809162533,44236.260834288092,-38701.998109070213,18789.323523251991,145245.96561342891,136775.21972445448,-143297.60721058192,143297.60721058192,-136775.21972445448,251573.64990187951,0.0
653523.2936376977,3632751.2368613081,-22500.0,70395.3089368449,-29665.370324327119,-69042.602404927267,42450.781499071592,-60896.852992848588,19359.103166517016,106611.82256763832,81764.279450515198,-88738.755341796699,88738.755341796699,-81764.279450515198,184669.52302896572,0.0
658523.2936376977,3632751.2368613081,-22500.0,30936.560414010808,-16011.675505584903,-35268.05040190721,37753.224065511829,-42937.812575055948,4680.363083526956,67682.009958557232,43216.608241938309,-48467.208666182538,48467.208666182538,-43216.608241938309,117941.35556061924,0.0
663523.2936376977,3632751.2368613081,-22500.0,7839.4948837574429,-10169.045971235393,-23136.725129374521,31435.137634540202,-22579.278526866547,-1253.4756241151831,41251.443574842939,22556.713142213674,-29642.178478625458,29642.178478625458,-22556.713142213674,74597.225434451771,0.0
668523.2936376977,3632751.2368613081,-22500.0,-3534.7419219140411,-9633.095373085358,-19381.95354712379,25775.611247139648,-8132.9400668451062,-3678.4908248729448,27604.857687496708,12341.29887247431,-22517.066021454404,22517.066021454404,-12341.29887247431,52142.56311344674,0.0
673523.2936376977,3632751.2368613081,-22500.0,-9780.2027638471664,-10972.265937726339,-16430.433890295466,21789.838224613672,-94.326511047721056,-4895.431229722707,24874.526317715096,5998.7230302941334,-19011.191419850853,19011.191419850853,-5998.7230302941334,43429.956575372344,0.0
678523.2936376977,3632751.2368613081,-22500.0,-13496.298248296996,-11664.411185871935,-12920.411357995368,18723.584268248804,3427.0817317763217,-5391.7987022231619,22667.339989752876,1302.3391656898139,-15785.811940493593,15785.811940493593,-1302.3391656898139,39452.189288307447,0.0
683523.2936376977,3632751.2368613081,-22500.0,-15372.768246876714,-11249.859126359141,-9561.5650425656604,16098.849892101274,4510.3602203371138,-5395.6853995624588,20165.6240162914,-1990.3597438409852,-12563.944839177668,12563.944839177668,1990.3597438409852,35966.100033192095,0.0
688523.2936376977,3632751.2368613081,-22500.0,-15903.671713894695,-10158.037586170158,-6853.025019341072,13790.532110367514,4477.4861648191809,-5060.8208707890635,17624.715893410761,-4040.1582246895109,-9703.1966396250409,9703.1966396250409,4040.1582246895109,32273.579990273625,0.0
693523.2936376977,3632751.2368613081,-22500.0,-15567.669542292233,-8825.5454750425488,-4855.7414906426038,11761.698523967234,4001.0064666162407,-4519.3113166080175,15257.402849518821,-5157.3447883718918,-7373.4167389638287,7373.4167389638287,5157.3447883718918,28551.18171292228,0.0
698523.2936376977,3632751.2368613081,-22500.0,-14732.278825162173,-7503.2767279839163,-3443.0982032634038,9986.893192681544,3395.9557099771328,-3889.2250628391453,13146.173603397943,-5646.5485983536619,-5559.9256797311609,5559.9256797311609,5646.5485983536619,25006.346375255238,0.0
703523.2936376977,3632751.2368613081,-22500.0,-13642.909422414525,-6303.5114817031945,-2460.7968651616407,8445.7359053009441,2802.9139805568743,-3259.3143086153796,11303.89612192475,-5737.423588146502,-4178.3426575413314,4178.3426575413314,5737.423588146502,21760.314237443967,0.0
708523.2936376977,3632751.2368613081,-22500.0,-12454.355988603671,-5263.5876239012032,-1780.7430761189305,7120.3462691446293,2278.148989515932,-2682.8838608309852,9715.7894359147722,-5586.8474311293994,-3136.1725475795283,3136.1725475795283,5586.8474311293994,18865.171998387417,0.0
713523.2936376977,3632751.2368613081,-22500.0,-11261.271008421169,-4384.9566691972295,-1308.8510177882779,5991.985111961003,1837.3445081025695,-2183.7800864098053,8357.247078634804,-5298.3625171008698,-2353.444746048398,2353.444746048398,5298.3625171008698,16328.845618554791,0.0
718523.2936376977,3632751.2368613081,-22500.0,-10119.087782265309,-3653.4909283568991,-979.34942286959847,5039.8749906720914,1477.6388795024161,-1766.5786655263546,7200.8262887205356,-4939.2168172886759,-1766.4463818354757,1766.4463818354757,4939.2168172886759,14133.461553426023,0.0
723523.2936376977,3632751.2368613081,-22500.0,-9057.672351848043,-3049.5918123709116,-747.22096983501456,4241.9709888311845,1188.8413870827592,-1425.4888276825291,6219.3432988973618,-4552.3057301812223,-1326.1501805683361,1326.1501805683361,4552.3057301812223,12247.855045296101,0.0
728523.2936376977,3632751.2368613081,-22500.0,-8090.4321812233375,-2553.0800621868366,-581.90890495618021,3576.3880188183903,958.93646743432055,-1150.3567133222793,5387.4409097988137,-4164.2269937404417,-995.47246697982109,995.47246697982109,4164.2269937404417,10635.686895617006,0.0
733523.2936376977,3632751.2368613081,-22500.0,-7220.4981733392124,-2145.4018046223036,-462.71047438367856,3022.6261485596633,776.55939952507003,-930.09681737478127,4682.3537271653486,-3790.7424430467181,-746.62889032695807,746.62889032695807,3790.7424430467181,9260.3365820641793,0.0
738523.2936376977,3632751.2368613081,-22500.0,-6444.9019336729443,-1810.4528515550858,-375.57384259557921,2562.3155248215453,631.92207961889039,-754.3783787046109,4084.1704812946828,-3440.5051304861349,-558.91464587544806,558.91464587544806,3440.5051304861349,8087.5660748552518,0.0
743523.2936376977,3632751.2368613081,-22500.0,-5757.3414812158917,-1534.7098697142271,-310.92179840467332,2179.5162270552814,516.9948854858784,-614.28930433582298,3575.7834566663382,-3117.5976427252513,-416.94163995181316,416.94163995181316,3117.5976427252513,7086.7467634297436,0.0
748523.2936376977,3632751.2368613081,-22500.0,-5149.9536958885028,-1307.0409508039822,-262.18999712850132,1860.7067093098688,425.36802124410951,-502.46531276752228,3142.6659217052506,-2823.2423654337413,-309.28178043338266,309.28178043338266,2823.2423654337413,6231.2219999509216,0.0
753523.2936376977,3632751.2368613081,-22500.0,-4614.4093155198125,-1118.3926826186573,-224.84842157305255,1594.5952443064159,352.00332466526072,-412.97345331194026,2772.5833053824599,-2556.9398365439192,-227.44139931562131,227.44139931562131,2556.9398365439192,5498.1976288202741,0.0
543523.2936376977,3637751.2368613081,-22500.0,-4796.3703159690076,434.18576034375411,-109.74301825965433,-1501.9208985650048,137.19727831479349,-344.40122809121954,2705.3253534398364,-3791.0103293302673,1396.5068000684057,-1396.5068000684057,3791.0103293302673,5320.6300934074852,0.0
548523.2936376977,3637751.2368613081,-22500.0,-5397.3447272718886,529.23210958702964,-119.33143402780763,-1755.3022101873332,172.98512807633176,-416.23188832008657,3073.3458190751967,-4289.2114217583712,1614.2890079203694,-1614.2890079203694,4289.2114217583712,6045.8100075359207,0.0
553523.2936376977,3637751.2368613081,-22500.0,-6095.1753552796408,648.23048343733967,-132.08000323142485,-2061.2044626065385,219.35141568472096,-505.29292449944461,3507.7517111529351,-4870.8937957370927,1874.4466742666482,-1874.4466742666482,4870.8937957370927,6900.9372367636433,0.0
558523.2936376977,3637751.2368613081,-22500.0,-6908.69666021587,798.14351297699523,-149.68911110870837,-2432.374797445972,279.83928517602118,-615.96844014215242,4023.5796677280796,-5552.6633948508097,2186.6723873919582,-2186.6723873919582,5552.6633948508097,7914.8837452547705,0.0
563523.2936376977,3637751.2368613081,-22500.0,-7861.1261807286255,988.24431238951479,-174.8296544837421,-2885.1072109336183,359.31906093757652,-753.64276022089314,4640.1116916705796,-6354.9304552081112,2563.1638204043184,-2563.1638204043184,6354.9304552081112,9124.3625321486397,0.0
568523.2936376977,3637751.2368613081,-22500.0,-8981.4048305527685,1230.9878716313603,-211.71924778682592,-3440.4287078621051,464.53640426699496,-924.76596331622443,5382.4432200067458,-7302.9834439268707,3019.3518671276329,-3019.3518671276329,7302.9834439268707,10576.655901215039,0.0
573523.2936376977,3637751.2368613081,-22500.0,-10306.182047343393,1543.2654957419747,-267.05974008592727,-4125.8651924972755,604.91083435203245,-1136.7612335420731,6283.8774656295618,-8428.5490427530076,3574.8982171958837,-3574.8982171958837,8428.5490427530076,12333.708485599847,0.0
578523.2936376977,3637751.2368613081,-22500.0,-11882.886176086291,1948.2466063843412,-351.57876608252178,-4978.2614935345619,793.71608346082326,-1397.6326752675768,7389.75173793045,-9772.2064248542647,4255.1182560988382,-4255.1182560988382,9772.2064248542647,14478.574613752717,0.0
583523.2936376977,3637751.2368613081,-22500.0,-13774.662204337026,2478.1599981591316,-482.59373610653068,-6048.6805664162266,1049.869626415461,-1715.1329447647138,8763.8649583253919,-11387.389788209872,5093.138066895659,-5093.138066895659,11387.389788209872,17126.160133672838,0.0
588523.2936376977,3637751.2368613081,-22500.0,-16068.428170256273,3178.6496107994135,-688.3352737997767,-7411.6335624989124,1400.7599090818912,-2095.6168368675044,10499.762822524663,-13347.369664591433,6133.398831756871,-6133.398831756871,13347.369664591433,20442.072765196517,0.0
593523.2936376977,3637751.2368613081,-22500.0,-18887.632586114662,4115.8755812633262,-1015.361332774317,-9183.5739405756103,1887.0100348423266,-2543.9602489392669,12741.153482197184,-15757.634630222099,7437.6830249676013,-7437.6830249676013,15757.634630222099,24676.972401702336,0.0
598523.2936376977,3637751.2368613081,-22500.0,-22410.160421216213,5388.5919821440739,-1541.5844910250642,-11561.190563104898,2571.2825236538642,-3070.3312886503027,15719.14779106602,-18777.09285124503,9095.7206160640235,-9095.7206160640235,18777.09285124503,30230.123938049412,0.0
603523.2936376977,3637751.2368613081,-22500.0,-26883.979035229804,7149.1704978326443,-2399.9771588005606,-14900.310492970862,3556.3616166081565,-3723.1048441649973,19818.430581243931,-22649.489191458091,11242.823777896312,-11242.823777896312,22649.489191458091,37764.458855541103,0.0
608523.2936376977,3637751.2368613081,-22500.0,-32601.929621587795,9639.3152832542146,-3824.1039576743897,-19869.603724228717,5025.8963534676841,-4704.5075345130217,25686.289448640091,-27729.247040381517,14082.377387509325,-14082.377387509325,27729.247040381517,48399.729504239389,0.0
613523.2936376977,3637751.2368613081,-22500.0,-39694.864116447519,13241.376896363945,-6242.4271228951875,-27705.548878885424,7340.668377137421,-6715.4710296277399,34384.973007544184,-34411.182355316902,17881.511780560257,-17881.511780560257,34411.182355316902,63983.713387900993,0.0
618523.2936376977,3637751.2368613081,-22500.0,-47315.944420674474,18501.416202277291,-10491.2750454132,-40444.41640697408,11259.780097094204,-11840.662109998922,47525.01932926575,-42614.912526038577,22780.912014102843,-22780.912014102843,42614.912526038577,87308.040815329849,0.0
623523.2936376977,3637751.2368613081,-22500.0,-51157.999423898567,25857.925155967925,-18323.490020360572,-60242.137785574618,18362.581839458267,-25325.653034858482,67093.682633902426,-49735.417435791394,27803.930233650222,-27803.930233650222,49735.417435791394,121663.54555816544,0.0
628523.2936376977,3637751.2368613081,-22500.0,-37854.373672559857,33963.599224750957,-33531.323749430288,-84087.901489914555,31284.081998067853,-56797.524603114805,93859.729806904885,-44600.103303814052,27181.797400894597,-27181.797400894597,44600.103303814052,167536.29165708114,0.0
633523.2936376977,3637751.2368613081,-22500.0,17135.834590967959,33589.228404368732,-62961.287352677333,-85176.783768861904,50028.804598041454,-106550.02218819344,120758.62154799685,1338.8638790400619,1555.0034143841804,-1555.0034143841804,-1338.8638790400619,210868.35964709727,0.0
638523.2936376977,3637751.2368613081,-22500.0,95697.430692267721,1777.6103031029666,-105623.5688692744,-13302.37336981471,50670.225936414383,-97380.97550518252,124697.39425895801,94795.480879551193,-72705.375744130157,72705.375744130157,-94795.480879551193,217212.87386134954,0.0
643523.2936376977,3637751.2368613081,-22500.0,101186.544386376,-44511.615492460274,-111684.63290347965,40552.606269002143,-10281.711437509508,22068.368015955035,123721.2275191455,119157.81798077319,-125964.89422786969,125964.89422786969,-119157.81798077319,214304.40672341976,0.0
648523.2936376977,3637751.2368613081,-22500.0,72402.088108554351,-43777.084416460079,-60460.729250359771,26271.334023292467,-66826.132499713713,58641.747519481112,110300.20452448595,74674.314236575243,-92333.19681433629,92333.19681433629,-74674.314236575243,192952.53789444873,0.0
653523.2936376977,3637751.2368613081,-22500.0,47780.63925712902,-20120.169986280638,-23872.734198446629,10875.733627534888,-67026.705711003291,39546.428769937163,79362.754526904144,40476.587425930265,-46252.414715862396,46252.414715862396,-40476.587425930265,140210.71818092614,0.0
658523.2936376977,3637751.2368613081,-22500.0,31354.120085577866,-8106.352446997932,-13684.168649320292,7673.0646082816074,-43406.55749441369,18379.620599726251,48959.642217787186,26129.09190866553,-25531.675492773753,25531.675492773753,-26129.09190866553,87399.028295644166,0.0
663523.2936376977,3637751.2368613081,-22500.0,18141.527665075402,-5473.3260257685997,-12950.795106175401,8665.3984319719184,-22898.470341366396,7226.7247419014057,29239.697437451752,18334.557059896691,-18780.997142795004,18780.997142795004,-18334.557059896691,51328.919703441039,0.0
668523.2936376977,3637751.2368613081,-22500.0,8664.6509629737575,-6392.986275073129,-13934.333032436478,9390.3546444802651,-9422.5612261822789,1935.4827594110357,18642.322338261532,13098.542951396861,-16947.273686334047,16947.273686334047,-13098.542951396861,32518.064203954815,0.0
673523.2936376977,3637751.2368613081,-22500.0,2040.6069599962093,-8264.3394071604616,-13882.307504122227,9705.5762010113231,-1551.7379297426132,-873.83930145556758,15148.378047407105,8962.5494080595363,-16173.215799703552,16173.215799703552,-8962.5494080595363,26652.259585448082,0.0
678523.2936376977,3637751.2368613081,-22500.0,-2722.7774205842366,-9666.2842178869923,-12460.071266169325,9727.2161936719203,2465.2509309178345,-2431.334351858377,15025.800946045496,5346.8687198132347,-14932.105455567405,14932.105455567405,-5346.8687198132347,26079.444781904527,0.0
683523.2936376977,3637751.2368613081,-22500.0,-6039.7492047940914,-10129.130660979172,-10338.607580527949,9445.5062364184687,4126.872080090965,-3190.8225876239135,14504.955618368591,2308.7834645358207,-13090.805437895538,13090.805437895538,-2308.7834645358207,25795.107012362605,0.0
688523.2936376977,3637751.2368613081,-22500.0,-8143.6775698785968,-9797.8677967961812,-8167.3316018273445,8897.0542190597534,4502.8272453247127,-3410.0228185435794,13495.409090632742,-25.738186649851741,-11003.471482558114,11003.471482558114,25.738186649851741,24674.151208575666,0.0
693523.2936376977,3637751.2368613081,-22500.0,-9285.0450721857796,-8990.0823860818437,-6278.5497611420869,8163.6243216473868,4253.0059575715941,-3286.9772537191152,12241.987570874397,-1670.7444713027307,-8988.5037672766666,8988.5037672766666,1670.7444713027307,22883.310031215435,0.0
698523.2936376977,3637751.2368613081,-22500.0,-9719.5068492391856,-7974.3094532251152,-4764.7724099932757,7333.423890453173,3747.2349170974553,-2976.7232082170158,10924.86637217235,-2737.096665985021,-7211.398918926735,7211.398918926735,2737.096665985021,20756.620208523029,0.0
703523.2936376977,3637751.2368613081,-22500.0,-9669.8199449321946,-6923.365757586339,-3602.7447135922471,6480.2998776421973,3178.0855790047681,-2589.4574612693718,9648.8458361211087,-3361.0967898569234,-5723.2572381849659,5723.2572381849659,3361.0967898569234,18549.026025755626,0.0
708523.2936376977,3637751.2368613081,-22500.0,-9310.8879187560287,-5931.8100743009063,-2730.5124330524327,5657.1329617679303,2637.3174242971122,-2194.2232851632275,8467.982630454766,-3666.820803675917,-4514.6717261847825,4514.6717261847825,3666.820803675917,16418.064241822536,0.0
713523.2936376977,3637751.2368613081,-22500.0,-8771.1946512436352,-5042.9939339402072,-2082.694767366344,4896.4826974198877,2162.1262331050357,-1828.3386719275613,7405.4989045469074,-3754.0960433120999,-3551.0180876505929,3551.0180876505929,3754.0960433120999,14448.12617089263,0.0
718523.2936376977,3637751.2368613081,-22500.0,-8140.5133965929263,-4270.2870946431212,-1603.1618310809536,4214.5378069990966,1761.8126634175655,-1507.9566161548516,6466.6301873043449,-3698.1537031219632,-2791.0102063880777,2791.0102063880777,3698.1537031219632,12675.701694964646,0.0
723523.2936376977,3637751.2368613081,-22500.0,-7478.7721868306917,-3611.0265214505266,-1247.7276869123436,3615.9377247969278,1432.6088827396854,-1236.7537624077065,5646.6407286076355,-3553.3321864778209,-2195.2587594461393,2195.2587594461393,3553.3321864778209,11108.333544520032,0.0
728523.2936376977,3637751.2368613081,-22500.0,-6824.0563340899189,-3054.9488452201554,-983.09227830380109,3098.0876154540147,1165.5670113215565,-1011.9372418196642,4935.7750657644092,-3357.611624034043,-1729.5916926141385,1729.5916926141385,3357.611624034043,9737.4240983581931,0.0
733523.2936376977,3637751.2368613081,-22500.0,-6199.1035381048232,-2588.9876988156557,-784.73723019900945,2654.4367314722213,950.51325922766785,-827.92984951889946,4322.2492576456061,-3136.7675158994452,-1365.822860214297,1365.822860214297,3136.7675158994452,8546.3716758446353,0.0
738523.2936376977,3637751.2368613081,-22500.0,-5616.245534255444,-2199.8293282040281,-634.82867201402064,2276.7020225624769,777.85538396153515,-678.41647054331645,3793.9819537749208,-2907.7703046945712,-1081.3804604819948,1081.3804604819948,2907.7703046945712,7515.472398352339,0.0
743523.2936376977,3637751.2368613081,-22500.0,-5080.9994181442862,-1875.1509025978605,-520.46659116674709,1956.2412415827894,639.27337199066221,-557.36511778371937,3339.5279443172221,-2681.4012082417166,-858.51089722184656,858.51089722184656,2681.4012082417166,6624.7088740608224,0.0
748523.2936376977,3637751.2368613081,-22500.0,-4594.5844734883449,-1604.1182701773789,-432.33104172330212,1684.8216069018938,527.8641491040953,-459.45834630099222,2948.5145826355651,-2464.1849927832723,-683.40092686779928,683.40092686779928,2464.1849927832723,5855.2163324210042,0.0
753523.2936376977,3637751.2368613081,-22500.0,-4155.6366664834977,-1377.4900803306618,-363.67758708948907,1454.9950616681419,438.0437185748894,-380.21221007495922,2611.7716455755867,-2259.7789129251664,-545.36951880802644,545.36951880802644,2259.7789129251664,5189.9560682740575,0.0
543523.2936376977,3642751.2368613081,-22500.0,-4649.4819680609571,761.70257412546823,-194.38312561449692,-1462.2061372899052,237.1423628133459,-336.38052313972611,2668.8056242446896,-3615.9305175562777,1539.9312988152672,-1539.9312988152672,3615.9305175562777,5249.6551138452533,0.0
548523.2936376977,3642751.2368613081,-22500.0,-5209.5489926712871,914.73592358264159,-225.43673164351048,-1702.8259263176426,294.39877485991576,-405.30219789060624,3025.6356952642263,-4068.247681994997,1775.6833569412738,-1775.6833569412738,4068.247681994997,5953.6831199209391,0.0
553523.2936376977,3642751.2368613081,-22500.0,-5853.7438614877256,1104.168843001102,-266.07796944139108,-1991.4160419157004,367.67647204586012,-490.30837901919631,3445.1665551731817,-4590.1136188160153,2055.5729984825148,-2055.5729984825148,4590.1136188160153,6780.8334891817585,0.0
558523.2936376977,3642751.2368613081,-22500.0,-6596.3863429879166,1340.0429293807131,-320.23014791959753,-2338.9038101424239,462.07448046395962,-595.29685105476813,3941.0615169688272,-5193.2528658242318,2388.9828817715488,-2388.9828817715488,5193.2528658242318,7757.4824148471889,0.0
563523.2936376977,3642751.2368613081,-22500.0,-7454.341366494471,1635.5515699446503,-393.66050278665506,-2758.9448827288597,584.49614991288036,-724.94896001267853,4530.6360197524464,-5891.2282387939558,2787.3889516939707,-2787.3889516939707,5891.2282387939558,8916.7914010679524,0.0
568523.2936376977,3642751.2368613081,-22500.0,-8447.4900717741239,2008.1582991311109,-494.94263163398045,-3268.6909432753419,744.34492372560192,-884.69843235880967,5236.1193784921043,-6699.5988850880804,3264.7965906047834,-3264.7965906047834,6699.5988850880804,10300.904702210901,0.0
573523.2936376977,3642751.2368613081,-22500.0,-9599.3605578367806,2481.1797592580128,-636.9737419650902,-3889.8874628023805,954.51447888137466,-1080.5026800069224,6086.5489568280873,-7636.06204907131,3838.2531702736792,-3838.2531702736792,7636.06204907131,11964.185870073517,0.0
578523.2936376977,3642751.2368613081,-22500.0,-10938.015367505819,3086.0703597601582,-839.40230575466126,-4650.5845343885467,1232.8213382558133,-1318.2611189764191,7120.7393106156505,-8720.5973419672937,4528.4509730605205,-4528.4509730605205,8720.5973419672937,13978.209018141913,0.0
583523.2936376977,3642751.2368613081,-22500.0,-12497.369344286752,3865.8250451844292,-1132.5813699565124,-5588.1152823554421,1604.1484886541821,-1602.7162397504671,8392.1894454623143,-9975.7161416968829,5360.4800187149685,-5360.4800187149685,9975.7161416968829,16439.928028136037,0.0
588523.2936376977,3642751.2368613081,-22500.0,-14319.00711156853,4880.2257165653336,-1564.1421579442974,-6754.789384659578,2103.8380749019916,-1935.8892258486899,9977.5347299091209,-11426.955504000987,6364.840470432443,-6364.840470432443,11426.955504000987,19485.711282452303,0.0
593523.2936376977,3642751.2368613081,-22500.0,-16453.830207887917,6214.2301709284402,-2210.2184490294676,-8229.4235480593288,2783.5496341660437,-2316.1362766922398,11991.468870935405,-13103.530520518716,7578.8501646481509,-7578.8501646481509,13103.530520518716,23316.253846988944,0.0
598523.2936376977,3642751.2368613081,-22500.0,-18959.622283071931,7991.6588631732493,-3195.2551592503514,-10140.878927567101,3722.5332583292875,-2742.4009779633129,14612.906088508353,-15037.341462338549,9048.1085068676639,-9048.1085068676639,15037.341462338549,28240.806987342548,0.0
603523.2936376977,3642751.2368613081,-22500.0,-21879.379189715786,10396.849296600849,-4728.3877208410768,-12713.693154825914,5051.6092488603781,-3238.2560328302152,18128.335621433049,-17251.107115994517,10824.678157747052,-10824.678157747052,17251.107115994517,34751.804434949976,0.0
608523.2936376977,3642751.2368613081,-22500.0,-25151.122972060828,13703.045877921395,-7173.1156755907496,-16343.752177643142,7007.1150353216726,-3934.9715696501735,22993.801847665491,-19700.082076254694,12945.371083209124,-12945.371083209124,19700.082076254694,43633.516819653501,0.0
613523.2936376977,3642751.2368613081,-22500.0,-28309.718739192034,18279.659606644895,-11184.469559365214,-21670.464785336317,10049.708182309541,-5299.6827983373523,29892.58122117399,-22051.502180025731,15323.912176773012,-15323.912176773012,22051.502180025731,56061.914131050973,0.0
618523.2936376977,3642751.2368613081,-22500.0,-29653.720717454744,24432.626682022565,-17970.79602194914,-29412.588927401721,15085.263818884534,-8624.5683415434614,39689.716961129889,-22984.313583065406,17330.791740023378,-17330.791740023378,22984.313583065406,73497.553911094845,0.0
623523.2936376977,3642751.2368613081,-22500.0,-24400.536240300458,31513.932860043627,-29680.837082216705,-39062.894468596722,23627.663539237816,-16586.364926484093,52985.616319963316,-18383.201756505157,16425.889026748089,-16425.889026748089,18383.201756505157,96758.030903674953,0.0
628523.2936376977,3642751.2368613081,-22500.0,-2712.1822082664225,34710.242884317493,-49184.717086527446,-44131.710464857686,36414.29429716133,-31581.247869942268,68519.553542380963,1489.5117728674909,4825.3626928432168,-4825.3626928432168,-1489.5117728674909,122828.04958856988,0.0
633523.2936376977,3642751.2368613081,-22500.0,41692.506115394484,18945.26984095556,-74591.80331743609,-24419.882834869997,44012.387027041266,-42315.247108748146,79903.525580012705,46732.192743560649,-32040.63173017613,32040.63173017613,-46732.192743560649,139597.96584429892,0.0
638523.2936376977,3642751.2368613081,-22500.0,70832.712039384423,-25018.325038232542,-80504.581769657991,25065.585526697381,9360.7230165913497,-2095.930925424148,84054.015572816075,83702.241981430052,-82962.816755852706,82962.816755852706,-83702.241981430052,145637.25449690918,0.0
643523.2936376977,3642751.2368613081,-22500.0,52000.021568706434,-42401.341327229609,-42313.192728708003,26774.498342862913,-61420.986877155316,65578.717802564075,98549.24308851143,55659.248899108003,-76121.478398049279,76121.478398049279,-55659.248899108003,170944.05307227367,0.0
648523.2936376977,3642751.2368613081,-22500.0,42481.853136204547,-21616.737833119918,-4410.5112677134812,-1890.2368459148399,-83805.224657714978,64408.49457967042,93006.656633923514,25425.766899556482,-34423.650406026914,34423.650406026914,-25425.766899556482,161834.42030214064,0.0
653523.2936376977,3642751.2368613081,-22500.0,37995.853101469547,-3105.1071241535474,7970.9632631011773,-10989.010987950986,-67557.224048100412,38367.962673292102,70158.548625685449,15977.606417806337,-9850.7518296071921,9850.7518296071921,-15977.606417806337,122457.91418170741,0.0
658523.2936376977,3642751.2368613081,-22500.0,31721.994971456214,3837.174553219877,4263.6484707340123,-9194.1485440801935,-43639.169320562054,19875.251658743964,46026.824206258309,14913.633344902511,-3870.9918959280812,3870.9918959280812,-14913.633344902511,81116.670677851187,0.0
663523.2936376977,3642751.2368613081,-22500.0,24087.766045219072,3263.5028711541049,-2671.4101884079787,-4995.9284901017927,-24413.823461034513,9924.115007224329,27230.839389980109,14453.941718067141,-5722.798342556438,5722.798342556438,-14453.941718067141,49321.278111536325,0.0
668523.2936376977,3642751.2368613081,-22500.0,16757.988089354276,154.34991254517709,-7801.1975976708109,-1459.6432450280865,-11578.48454144017,4664.2620298400234,15910.990500196018,12936.305407729993,-8833.4125224423151,8833.4125224423151,-12936.305407729993,29343.599087238937,0.0
673523.2936376977,3642751.2368613081,-22500.0,10543.392992883866,-3142.9558068158162,-10356.98902210776,1094.586877761875,-3718.9629259549147,1602.5066727378801,11524.904167632718,10683.988667664138,-11055.414335244555,11055.414335244555,-10683.988667664138,20115.128822910232,0.0
678523.2936376977,3642751.2368613081,-22500.0,5475.6577789040166,-5697.8551464300836,-10823.436404703651,2878.6328716910612,704.97102312975505,-284.89139197794373,10431.143448378045,8088.5440720373535,-11931.614884260069,11931.614884260069,-8088.5440720373535,18130.081586693192,0.0
683523.2936376977,3642751.2368613081,-22500.0,1473.9202336265657,-7234.7440811138804,-10000.933879815024,4034.3731481904497,2902.5316768672278,-1397.5191899077538,10400.738483333265,5503.8982720906479,-11654.842240054882,11654.842240054882,-5503.8982720906479,18387.366017648197,0.0
688523.2936376977,3642751.2368613081,-22500.0,-1529.7721375208337,-7850.1670807721057,-8598.4695334118678,4665.302761222365,3754.9402890043939,-1959.2195980243559,10168.022486584496,3205.9556630266402,-10643.541328371883,10643.541328371883,-3205.9556630266402,18427.819261159551,0.0
693523.2936376977,3642751.2368613081,-22500.0,-3640.1469624148449,-7795.6290929330635,-7079.8800234388636,4883.9730303613878,3858.6862845065825,-2145.3550139022896,9625.8537116388507,1337.3933315705708,-9291.5491108745755,9291.5491108745755,-1337.3933315705708,17825.580154919335,0.0
698523.2936376977,3642751.2368613081,-22500.0,-5004.8747497224522,-7329.3669724949696,-5683.6279005080542,4807.7942768584535,3588.4874321803127,-2098.5343103962214,8888.9997353806921,-77.102469135510546,-7872.3180581298093,7872.3180581298093,77.102469135510546,16733.662257570511,0.0
703523.2936376977,3642751.2368613081,-22500.0,-5787.3302883531078,-6653.183086744607,-4500.4404416819034,4542.6031979434174,3163.9371533513131,-1925.3741379069627,8067.388491418661,-1082.8638571269494,-6540.6535646980465,6540.6535646980465,1082.8638571269494,15373.114211419137,0.0
708523.2936376977,3642751.2368613081,-22500.0,-6140.6828419432641,-5902.9388863411978,-3542.1800001232946,4172.6506561440183,2704.7408668513403,-1697.8433581136107,7236.6721104204307,-1753.596162411322,-5366.9249215540585,5366.9249215540585,1753.596162411322,13916.187736815076,0.0
713523.2936376977,3642751.2368613081,-22500.0,-6194.039067908182,-5160.5077291553498,-2785.8708168829976,3758.6033046300772,2270.313663510829,-1459.7937807679903,6442.4745891479715,-2166.2100940611649,-4370.7360931608891,4370.7360931608891,2166.2100940611649,12475.190325234522,0.0
718523.2936376977,3642751.2368613081,-22500.0,-6048.6540967670553,-4469.8356059562175,-2197.4050685502843,3340.4180654042812,1885.7451205488796,-1235.0546303986541,5709.0452408936526,-2388.8735210595232,-3544.9305387401391,3544.9305387401391,2388.8735210595232,11115.127628586566,0.0
723523.2936376977,3642751.2368613081,-22500.0,-5779.8712062651139,-3850.6019117859346,-1742.6906922563467,2942.0568637675001,1557.7826822501293,-1034.5762421302027,5046.694390692147,-2477.0006630959447,-2870.3931658375473,2870.3931658375473,2477.0006630959447,9868.5155981198604,0.0
728523.2936376977,3642751.2368613081,-22500.0,-5441.461421038106,-3308.0835341588295,-1392.0429363162582,2576.1914265909759,1284.1671696586891,-861.72952630453653,4457.2157533153577,-2473.2690204345986,-2324.3343425144617,2324.3343425144617,2473.2690204345986,8747.2439126602058,0.0
733523.2936376977,3642751.2368613081,-22500.0,-5070.4213105308945,-2839.668037149529,-1121.2925382878536,2248.0818533739857,1058.8155064299945,-715.82572754354578,3937.5597453128071,-2409.3340933748796,-1884.50247773093,1884.50247773093,2409.3340933748796,7750.9543034955996,0.0
738523.2936376977,3642751.2368613081,-22500.0,-4691.2994735284983,-2438.8963341122012,-911.47427199257152,1958.446662131015,874.53920047589088,-594.27104249425633,3482.2036628953442,-2308.011485355526,-1531.0477220225259,1531.0477220225259,2308.011485355526,6872.5767812530003,0.0
743523.2936376977,3642751.2368613081,-22500.0,-4319.7230345577791,-2097.8375154418904,-748.01728390664096,1705.4346016451784,724.36230404406592,-493.79465132885315,3084.6142883461239,-2185.3533473327643,-1247.1160711107432,1247.1160711107432,2185.3533473327643,6101.8120310679205,0.0
748523.2936376977,3642751.2368613081,-22500.0,-3965.1017836690457,-1808.4036490891738,-619.85902384573205,1485.9044416268305,602.07939854004985,-411.09670135088237,2738.1103921527288,-2052.3990601599544,-1018.8125819191753,1018.8125819191753,2052.3990601599544,5427.2274309069398,0.0
543523.2936376977,3647751.2368613081,-22500.0,-4404.3258369515934,1050.2012774389509,-312.87062172574946,-1395.246872237429,326.68272036340426,-322.82666768723999,2598.7642451388401,-3355.2193135321727,1612.1157824674178,-1612.1157824674178,3355.2193135321727,5115.5102049647103,0.0
548523.2936376977,3647751.2368613081,-22500.0,-4902.3436002637554,1249.3126686586625,-372.59984343157839,-1616.0701430733775,401.81888081320733,-387.18965457646181,2936.768512180136,-3743.1372270719371,1847.8628082419486,-1847.8628082419486,3743.1372270719371,5783.9841850016364,0.0
553523.2936376977,3647751.2368613081,-22500.0,-5466.4200427081314,1493.0724549693805,-450.04755085945351,-1878.2138727977292,497.01189270824807,-465.94589615325651,3331.6932136554465,-4182.0273063099057,2124.1384335226903,-2124.1384335226903,4182.0273063099057,6564.7859294965701,0.0
558523.2936376977,3647751.2368613081,-22500.0,-6104.8377734232727,1792.9026976690911,-551.75849330408755,-2190.0828326571709,618.29506994043788,-562.31727831666888,3795.1540971251598,-4677.448847360045,2448.161988024543,-2448.161988024543,4677.448847360045,7480.5028093783621,0.0
563523.2936376977,3647751.2368613081,-22500.0,-6826.1125170453306,2163.4328585525113,-687.05477830786504,-2561.7327967810579,773.67618703488824,-680.02943717664061,4341.5718782152708,-5234.4664181734097,2828.1065963702254,-2828.1065963702254,5234.4664181734097,8558.9533673031056,0.0
568523.2936376977,3647751.2368613081,-22500.0,-7638.4497559006941,2623.448144468076,-869.35327623568583,-3005.1187054189249,973.8114114614433,-823.1699809929604,4989.0166060097317,-5856.8064388689609,3272.9219085302802,-3272.9219085302802,5856.8064388689609,9834.6327346481085,0.0
573523.2936376977,3647751.2368613081,-22500.0,-8548.8245508046639,3197.1252264643626,-1118.1760923082693,-3534.3727807796949,1232.9112249774273,-995.81326055950842,5760.4175570448833,-6545.4858861689381,3791.8722909801554,-3791.8722909801554,6545.4858861689381,11350.733748578514,0.0
578523.2936376977,3647751.2368613081,-22500.0,-9561.4452263095736,3915.6315678567016,-1462.2576518789981,-4166.1778574199343,1569.9611090319772,-1201.2504064915936,6685.3672155517288,-7296.6192717437825,4393.5617748307686,-4393.5617748307686,7296.6192717437825,13162.099755844734,0.0
583523.2936376977,3647751.2368613081,-22500.0,-10675.198902837064,4819.2048999994477,-1944.4243398372626,-4920.4631788362713,2010.4062565009535,-1440.6471216762184,7802.977168962525,-8097.9601270018347,5084.0771132362524,-5084.0771132362524,8097.9601270018347,15339.845583092512,0.0
588523.2936376977,3647751.2368613081,-22500.0,-11879.109138693253,5959.811141692333,-2629.3968330475832,-5821.959044954765,2588.5994776407601,-1711.1010238750266,9166.5716364684649,-8923.3004575797422,5863.5351494271399,-5863.5351494271399,8923.3004575797422,17978.893921510342,0.0
593523.2936376977,3647751.2368613081,-22500.0,-13143.36865649321,7404.3041900495646,-3616.5194537780994,-6903.7051166156243,3351.7091885735313,-2003.791772941076,10851.483824644141,-9722.7917621509005,6719.5425509905508,-6719.5425509905508,9722.7917621509005,21210.43181565162,0.0
598523.2936376977,3647751.2368613081,-22500.0,-14399.491574834841,9237.0943597089899,-5060.9653544670637,-8214.1026018596895,4366.7617205860943,-2305.1847061102403,12967.430587028291,-10404.278014092768,7613.9717368653428,-7613.9717368653428,10404.278014092768,25221.60450601589,0.0
603523.2936376977,3647751.2368613081,-22500.0,-15492.596909866148,11557.412442473587,-7209.4664780068515,-9827.3697772627747,5734.4369662655236,-2609.9113878884041,15675.107914025253,-10792.451397941979,8453.325316400118,-8453.325316400118,10792.451397941979,30281.497829399439,0.0
608523.2936376977,3647751.2368613081,-22500.0,-16064.836602602722,14451.86080484657,-10459.061197726447,-11844.704756039888,7615.1812864989406,-2964.5823070053402,19197.98608630936,-10532.070303369837,9015.6503285421059,-9015.6503285421059,10532.070303369837,36756.457795757808,0.0
613523.2936376977,3647751.2368613081,-22500.0,-15288.578688247035,17875.757247703463,-15440.339289725936,-14323.359234882042,10264.475701485861,-3568.8601900455114,23795.095014468025,-8861.6044237893748,8763.202007199654,-8763.202007199654,8861.6044237893748,45048.149347290513,0.0
618523.2936376977,3647751.2368613081,-22500.0,-11366.85874295772,21246.433877965992,-23060.459485779993,-16926.324431528377,13999.633208252299,-4903.0407367673743,29610.12076355287,-4162.3874109747976,6391.3984682868449,-6391.3984682868449,4162.3874109747976,55279.381077952989,0.0
623523.2936376977,3647751.2368613081,-22500.0,-1100.5774566324108,22320.209212783175,-34115.206270567913,-17847.306867416464,18680.620552604942,-7505.7877167106972,36272.544342235007,6506.891570988294,-996.28540026235805,996.28540026235805,-6506.891570988294,66457.338592842425,0.0
628523.2936376977,3647751.2368613081,-22500.0,18296.411458584724,15262.981136820554,-46986.256680562336,-12020.135603927698,21320.802698123152,-10018.048482860397,42418.055866091789,25858.860139128265,-17982.08974999265,17982.08974999265,-25858.860139128265,75572.141372871789,0.0
633523.2936376977,3647751.2368613081,-22500.0,39786.132969727529,-7281.1403288175034,-51046.064812092525,6367.3540661271363,10623.131948117176,-4238.3100166525901,47582.719494665915,46774.262106047019,-43821.708900469202,43821.708900469202,-46774.262106047019,82516.848131752893,0.0
638523.2936376977,3647751.2368613081,-22500.0,40269.60033379071,-33647.055735579517,-26930.634153847481,24665.146847632986,-27469.834906011874,20236.675349161014,60375.820869980409,42509.395200922452,-53888.999524245381,53888.999524245381,-42509.395200922452,105148.60587544236,0.0
643523.2936376977,3647751.2368613081,-22500.0,24442.44737088096,-29759.497999070769,13844.992838132079,14748.147153542492,-69270.501996666644,43564.903263488151,77747.666015719893,12680.45077920812,-26022.187413705302,26022.187413705302,-12680.45077920812,135592.17439175121,0.0
648523.2936376977,3647751.2368613081,-22500.0,22075.554098111992,-6506.7015733702874,32936.567502006765,-5994.5699591665643,-76572.715142476809,40845.102145118806,77294.930958651137,-2169.067810819367,4562.6121106237615,-4562.6121106237615,2169.067810819367,134504.12428278298,0.0
653523.2936376977,3647751.2368613081,-22500.0,25805.504420814774,8324.6551049631453,29515.197049635302,-14255.588367845528,-60379.935522595704,27091.353296534522,62466.062501565517,-38.057818468987534,14906.970875193885,-14906.970875193885,38.057818468987534,108468.52082869045,0.0
658523.2936376977,3647751.2368613081,-22500.0,26266.985140869889,12315.15091515665,18022.042890022483,-13650.438607545153,-40590.372527333988,16255.704144743879,44833.867493170343,5537.6434781779672,12435.689967981594,-12435.689967981594,-5537.6434781779672,77732.809422281352,0.0
663523.2936376977,3647751.2368613081,-22500.0,23516.885613489478,10372.610767003742,6830.2879250655396,-10383.846220224648,-24527.25362386095,9683.7184842219958,29940.325016773801,9335.9297534050747,5883.0361424822722,-5883.0361424822722,-9335.9297534050747,51864.969111467202,0.0
668523.2936376977,3647751.2368613081,-22500.0,19276.493039152316,6327.9633780762988,-1202.5862120938114,-6967.8612991394148,-13198.377966087108,5667.6481563003872,19271.998601968753,10745.526193914653,-383.82049269122035,383.82049269122035,-10745.526193914653,33380.696678657645,0.0
673523.2936376977,3647751.2368613081,-22500.0,14714.158404941092,2180.1633889895138,-5942.5518708519458,-4036.2267765228285,-5783.521339388426,3004.298332436596,12720.219433565126,10424.884874054704,-4949.073037219232,4949.073037219232,-10424.884874054704,22032.099075666862,0.0
678523.2936376977,3647751.2368613081,-22500.0,10384.638214781753,-1229.7492366305653,-8120.5690448856276,-1677.5947114556557,-1238.7035489147638,1172.4715121007355,9564.0181987686119,9075.2325282419024,-7677.5937474641451,7677.5937474641451,-9075.2325282419024,16565.525587390399,0.0
683523.2936376977,3647751.2368613081,-22500.0,6551.3351360250117,-3642.5334425339624,-8593.0883821918287,114.82967761173514,1322.7343670953308,-44.811127496849338,8495.5097174739149,7238.4337592137235,-8885.9662208658283,8885.9662208658283,-7238.4337592137235,14766.870435140134,0.0
688523.2936376977,3647751.2368613081,-22500.0,3350.4805818049031,-5101.0126760904914,-8089.4493572391493,1378.683380201375,2587.2329392703468,-785.47667326587487,8095.8887814559557,5306.106698575767,-9017.3500556586841,9017.3500556586841,-5306.106698575767,14300.618713772241,0.0
693523.2936376977,3647751.2368613081,-22500.0,825.41525186466072,-5790.5859313435503,-7132.0573368891428,2185.1001997497801,3055.3211841026873,-1173.5979255658094,7727.7349460312116,3526.5935855807802,-8488.74276933289,8488.74276933289,-3526.5935855807802,13940.299088186353,0.0
698523.2936376977,3647751.2368613081,-22500.0,-1057.3902347814758,-5932.6613515877507,-6045.023326018837,2627.3220147477623,3069.8627059942428,-1320.8722300762486,7261.7088746044756,2024.1431635554281,-7623.0556317390465,7623.0556317390465,-2024.1431635554281,13349.224743120454,0.0
703523.2936376977,3647751.2368613081,-22500.0,-2381.1240871457562,-5725.0700676120796,-5002.758740119848,2801.8030826725235,2851.4952704623024,-1317.9519070212664,6714.7668682147432,833.9555120830646,-6637.9916599394628,6637.9916599394628,-833.9555120830646,12532.486248928713,0.0
708523.2936376977,3647751.2368613081,-22500.0,-3249.8523157011114,-5319.802643613587,-4083.0901540760533,2794.0175829714885,2533.6940899628003,-1231.1984797501475,6129.6001927689622,-61.383725689997846,-5663.8073568244899,5663.8073568244899,61.383725689997846,11577.158021327485,0.0
713523.2936376977,3647751.2368613081,-22500.0,-3767.3763180962278,-4822.4483685351915,-3308.7398394563688,2672.0194980834717,2192.0028708950613,-1105.0506077586285,5543.0752094581003,-703.92639328589598,-4768.7161653932135,4768.7161653932135,703.92639328589598,10567.828777601231,0.0
718523.2936376977,3647751.2368613081,-22500.0,-4025.4797903458802,-4300.6672046272524,-2674.6002118065367,2485.8419851409108,1865.69907067227,-966.93491499818458,4980.3709870332177,-1142.6883091525924,-3981.4108167632439,3981.4108167632439,1142.6883091525924,9566.3886595274926,0.0
723523.2936376977,3647751.2368613081,-22500.0,-4099.4048336563883,-3794.4698162546752,-2163.7384170979999,2269.9558574252583,1572.568187478716,-832.36628784203208,4456.2387121498423,-1424.182805292776,-3307.6085179963429,3307.6085179963429,1424.182805292776,8612.0533554713602,0.0
728523.2936376977,3647751.2368613081,-22500.0,-4047.7018022087527,-3325.1877874883185,-1755.9381972277702,2046.7332769815175,1318.3664523769096,-709.14388786953509,3977.7594448387899,-1588.314560357959,-2740.9594723168439,2740.9594723168439,1588.314560357959,7726.5261885961481,0.0
733523.2936376977,3647751.2368613081,-22500.0,-3914.2105146900872,-2902.2696460021739,-1431.7997716194088,1829.7856260903998,1102.5795727097438,-600.39350959766341,3546.9101760019876,-1667.3231055056281,-2269.7002595831668,2269.7002595831668,1667.3231055056281,6919.4212225929004,0.0
738523.2936376977,3647751.2368613081,-22500.0,-3730.7686458466223,-2528.0253622994946,-1174.3982752416782,1626.7131938241469,921.76873694269875,-506.59862537985225,3162.5313930785678,-1686.2415599926535,-1880.437140978026,1880.437140978026,1686.2415599926535,6192.6105995660328,0.0
743523.2936376977,3647751.2368613081,-22500.0,-3519.8942711563272,-2200.7563629936822,-969.70009600524497,1441.1757326352813,771.42223954466317,-426.87493772310108,2821.7028255291598,-1663.9651611696113,-1560.129849051109,1560.129849051109,1663.9651611696113,5543.3459246189459,0.0
748523.2936376977,3647751.2368613081,-22500.0,-3297.1136147566676,-1916.7305959678795,-806.40787193896426,1274.3629892518459,646.92043400737771,-359.72889583394317,2520.6509680928575,-1614.4507045637747,-1297.011628102558,1297.011628102558,1614.4507045637747,4966.3641486978931,0.0
543523.2936376977,3652751.2368613081,-22500.0,-4078.2026220425573,1286.6193655326904,-455.01379094114458,-1305.4528130208944,402.17251273520975,-304.57724228458648,2499.0304372642404,-3027.0447016572439,1614.2041650348833,-1614.2041650348833,3027.0447016572439,4925.3635388907678,0.0
548523.2936376977,3652751.2368613081,-22500.0,-4499.00640223763,1516.8006481806995,-547.09279421428869,-1501.1550549698213,490.5786060244846,-363.08911098684183,2811.9539058988976,-3338.2852075582714,1833.3822935369135,-1833.3822935369135,3338.2852075582714,5546.4492607982593,0.0
553523.2936376977,3652751.2368613081,-22500.0,-4964.8306280132301,1794.906152364938,-665.31963540312995,-1730.1801379784099,601.36249143539965,-433.9250907766201,3174.5053763335918,-3679.7416484209593,2084.9981509975783,-2084.9981509975783,3679.7416484209593,6266.1604156280027,0.0
558523.2936376977,3652751.2368613081,-22500.0,-5477.4703247498292,2131.8725077652098,-818.62701402862842,-1998.0783520172167,740.78003991983451,-519.52577204727766,3595.8721356540946,-4050.6327419965669,2372.7871682067121,-2372.7871682067121,4050.6327419965669,7102.5070250134568,0.0
563523.2936376977,3652751.2368613081,-22500.0,-6036.7293822340807,2541.1172386767525,-1019.3991257059085,-2310.9236721624111,916.90712721615898,-622.53762523113983,4087.1289720836699,-4447.5563011107952,2699.9099180283501,-2699.9099180283501,4447.5563011107952,8076.9659108613987,0.0
568523.2936376977,3652751.2368613081,-22500.0,-6639.0368341891799,3038.9551177481803,-1284.9326329863102,-2675.0680378860866,1140.1312213331382,-745.56907425305963,4661.6764383851632,-4862.8820372878963,3068.0701866708714,-3068.0701866708714,4862.8820372878963,9215.1268462357857,0.0
573523.2936376977,3652751.2368613081,-22500.0,-7275.3309130521438,3644.933113471785,-1639.557211713271,-3096.6727739661292,1423.7230658423698,-890.69249702806383,5335.7970715033098,-5282.3252916861366,3475.9982838967244,-3475.9982838967244,5282.3252916861366,10547.459255917531,0.0
578523.2936376977,3652751.2368613081,-22500.0,-7927.8395039749903,4381.910467532949,-2117.7246214850879,-3580.9296154678868,1784.4568816467008,-1058.5404139167026,6129.3667406606537,-5681.318053951115,3916.9011344747641,-3916.9011344747641,5681.318053951115,12110.273981937082,0.0
583523.2936376977,3652751.2368613081,-22500.0,-8565.1228130664113,5275.5237452578294,-2768.5152013773613,-4130.8840871270431,2243.2058214497711,-1246.8235822504603,7066.7867226502585,-6019.5823375706332,4374.2144578411171,-4374.2144578411171,6019.5823375706332,13947.000891446904,0.0
588523.2936376977,3652751.2368613081,-22500.0,-9134.2114900760025,6352.267848309597,-3662.1839698636163,-4745.7913172116505,2825.3795933347983,-1448.1990315435269,8178.2985956379644,-6232.9335655908499,4814.5088017182907,-4814.5088017182907,6232.9335655908499,16109.923546366039,0.0
593523.2936376977,3652751.2368613081,-22500.0,-9547.535951371834,7634.4986512683363,-4899.5179138535996,-5418.8764604842254,3560.9971209635396,-1647.8725722701283,9501.9220358384282,-6220.5854843236366,5175.4653049013841,-5175.4653049013841,6220.5854843236366,18662.327080002236,0.0
598523.2936376977,3652751.2368613081,-22500.0,-9659.8822970690617,9128.3267979552784,-6624.5530340648038,-6133.711260328987,4483.9905986439599,-1822.5922906032924,11085.771971536951,-5824.6140461819168,5344.8421993422207,-5344.8421993422207,5824.6140461819168,21679.769131918103,0.0
603523.2936376977,3652751.2368613081,-22500.0,-9226.1141265727874,10794.387598192016,-9039.1941451239672,-6855.3442386733304,5629.3454846438153,-1945.2521309487634,12988.364460913463,-4795.2986431540794,5122.1857244238872,-5122.1857244238872,4795.2986431540794,25244.745758240693,0.0
608523.2936376977,3652751.2368613081,-22500.0,-7825.9277808390107,12476.739704615493,-12409.279059436531,-7501.8819845841508,7021.6148068482717,-2001.967228284075,15268.87190558343,-2733.6229468214642,4147.7411480836163,-4147.7411480836163,2733.6229468214642,29417.170273415413,0.0
613523.2936376977,3652751.2368613081,-22500.0,-4755.4132130744201,13734.590144283728,-17018.23732831216,-7855.9507542812753,8626.9075721043464,-2021.5730192173298,17950.308975173917,983.878494971642,1779.2116744014811,-1779.2116744014811,-983.878494971642,34142.506172974208,0.0
618523.2936376977,3652751.2368613081,-22500.0,1009.367571197284,13489.862059721407,-22919.23835004005,-7340.4780860542414,10168.653945088026,-2067.2781724548158,20943.66394595032,7193.551697688783,-3052.9918405568055,3052.9918405568055,-7193.551697688783,39066.682054380159,0.0
623523.2936376977,3652751.2368613081,-22500.0,10297.248610153783,9535.8452606725477,-29092.622468472684,-4667.7259300772339,10548.312639762191,-1992.3189119064627,24021.943796796048,16377.321407892185,-11675.864237333786,11675.864237333786,-16377.321407892185,43479.554532952388,0.0
628523.2936376977,3652751.2368613081,-22500.0,21616.61346132035,-1103.9001948238215,-31505.902790693319,1934.1449493972964,6630.4454883254857,-663.20568607285918,27349.699133266331,26448.649410745824,-23929.527492382298,23929.527492382298,-26448.649410745824,47766.086070913152,0.0
633523.2936376977,3652751.2368613081,-22500.0,28029.384959021947,-17797.467066930512,-21785.380743748101,11715.857557054745,-7015.7719843992245,4562.0996770600623,33361.42555365304,29353.177597239832,-33362.966170519656,33362.966170519656,-29353.177597239832,58076.705046206989,0.0
638523.2936376977,3652751.2368613081,-22500.0,22188.143059737595,-28704.529108567061,4792.1949466949418,16658.721413833133,-31301.530383831687,14352.592215834224,45322.594298363474,16265.297954334761,-26514.691724832373,26514.691724832373,-16265.297954334761,80445.350496073224,0.0
643523.2936376977,3652751.2368613081,-22500.0,12015.411144308051,-20756.883754628168,33510.578499764604,9301.2957388393988,-52601.740931227876,22068.372904453492,56763.283059929563,-3687.3396654181302,-2527.6425409212002,2527.6425409212002,3687.3396654181302,100994.70574341617,0.0
648523.2936376977,3652751.2368613081,-22500.0,10420.155363855523,-2637.4986107298346,44489.724580194073,-2926.3691380985229,-56924.588484457199,21906.641503171046,58250.852910556328,-12098.549262727418,18305.457866474193,-18305.457866474193,12098.549262727418,103291.44061332526,0.0
653523.2936376977,3652751.2368613081,-22500.0,14720.620080145005,10265.78969435344,38493.751703075264,-10243.644871045502,-47787.35478521102,17136.010949040894,50595.987847264063,-8560.4006197856543,24624.64479126842,-24624.64479126842,8560.4006197856543,89417.137183790939,0.0
658523.2936376977,3652751.2368613081,-22500.0,18235.776006194763,14697.690024572932,26039.996766493889,-12015.749314831879,-34721.794382665881,12268.060163754537,39454.013741828021,-1629.431236574932,20885.80208679994,-20885.80208679994,1629.431236574932,69578.034266160888,0.0
663523.2936376977,3652751.2368613081,-22500.0,19080.991991338145,13672.184873339864,13956.56214612558,-10926.948936099512,-22894.090566147188,8570.2959098683496,28795.853954397902,4007.6187802598733,13602.983340961171,-13602.983340961171,-4007.6187802598733,50737.283076681044,0.0
668523.2936376977,3652751.2368613081,-22500.0,17827.391339443566,10235.590156669088,4732.9522732247251,-8798.1955164752817,-13757.527500856355,5815.4704571578741,20240.439674247882,7321.7065334177751,6416.7373828197633,-6416.7373828197633,-7321.7065334177751,35676.274344368081,0.0
673523.2936376977,3652751.2368613081,-22500.0,15365.803092686907,6243.4801292870397,-1348.8907856488986,-6457.1816384140575,-7263.5705264311064,3696.4909510574471,14118.656162422041,8636.8840907193335,726.72680111160571,-726.72680111160571,-8636.8840907193335,24916.098088852323,0.0
678523.2936376977,3652751.2368613081,-22500.0,12368.989983529258,2630.07632095073,-4828.2891916980125,-4267.0993653556334,-2935.2004762199526,2076.4997980842686,10254.195377824695,8551.9538893420995,-3191.830510097343,3191.830510097343,-8551.9538893420995,18052.741037613669,0.0
683523.2936376977,3652751.2368613081,-22500.0,9290.2547430771065,-220.15977723895043,-6430.5749157133041,-2400.1458852748001,-238.86015355065118,895.01932506617561,8186.8490754244704,7618.4001279619915,-5534.4066087786614,5534.4066087786614,-7618.4001279619915,14256.334425291261,0.0
688523.2936376977,3652751.2368613081,-22500.0,6424.5882162441512,-2232.7418101508538,-6818.0685152558217,-925.58871181728694,1301.3324697206938,92.364827589320342,7168.0161148046955,6270.7228942907432,-6658.2981569312897,6658.2981569312897,-6270.7228942907432,12418.353337782077,0.0
693523.2936376977,3652751.2368613081,-22500.0,3942.4820994070133,-3496.4999094965924,-6505.1347918830133,157.83445605163482,2069.1194376208191,-406.13137821913114,6572.9253076508994,4816.1327333905183,-6935.4727372369098,6935.4727372369098,-4816.1327333905183,11498.935863884251,0.0
698523.2936376977,3652751.2368613081,-22500.0,1914.3658369191342,-4167.8172633478589,-5848.0833034201623,895.93323710821198,2351.4956593298666,-679.47918046292239,6102.3478962939826,3445.1494756905395,-6682.9938552451658,6682.9938552451658,-3445.1494756905395,10860.83999655598,0.0
703523.2936376977,3652751.2368613081,-22500.0,338.62811774629313,-4411.4847850954739,-5070.1925966200997,1354.9604992145041,2349.4861870300028,-798.56167122357067,5652.4294165380425,2255.7075678492374,-6139.3712611377387,6139.3712611377387,-2255.7075678492374,10239.594248277901,0.0
708523.2936376977,3652751.2368613081,-22500.0,-829.6927441339725,-4370.5314509154805,-4297.7123617836187,1603.713603175803,2195.8212501815042,-819.69755758770305,5200.3711250215283,1281.8608843340253,-5467.5289724937202,5467.5289724937202,-1281.8608843340253,9568.0271643001124,0.0
713523.2936376977,3652751.2368613081,-22500.0,-1655.3307416487664,-4155.890158385514,-3593.1973506470977,1703.2686767192774,1973.365150597574,-783.76660512496005,4750.84990561632,519.33199898089561,-4769.5337259512489,4769.5337259512489,-519.33199898089561,8854.6077106707507,0.0
718523.2936376977,3652751.2368613081,-22500.0,-2206.774615026909,-3847.1018221702398,-2980.9308548635531,1702.8669666944691,1730.9046367668491,-718.38246617680045,4314.6505583429389,-55.574917346722941,-4103.6021322363604,4103.6021322363604,55.574917346722941,8127.4113182335159,0.0
723523.2936376977,3652751.2368613081,-22500.0,-2547.1852661881103,-3497.7082885267209,-2464.1418370164479,1639.6249483771599,1495.1749083317013,-641.05079544927014,3901.2155578464299,-473.77114980011243,-3498.8284893944574,3498.8284893944574,473.77114980011243,7413.2042085171988,0.0
728523.2936376977,3652751.2368613081,-22500.0,-2730.3476636369905,-3141.6746737460621,-2035.7052973748275,1540.1110149414699,1279.318515749628,-562.17205400473802,3516.7581534737346,-766.42939221304073,-2966.2673619672942,2966.2673619672942,766.42939221304073,6731.534708481232,0.0
733523.2936376977,3652751.2368613081,-22500.0,-2799.7328608822613,-2799.1468778844132,-1684.328055367477,1422.5294027261218,1088.4969116641653,-487.44644044468174,3164.4015011578012,-961.57057611815674,-2506.5716535983115,2506.5716535983115,961.57057611815674,6094.4710190550031,0.0
738523.2936376977,3652751.2368613081,-22500.0,-2789.202646016764,-2480.987511630165,-1397.8668692772612,1298.8426846800326,923.44349603945398,-419.61988785717438,2844.9017585305778,-1082.7877631585504,-2114.9260770683977,2114.9260770683977,1082.7877631585504,5508.0822572287125,0.0
743523.2936376977,3652751.2368613081,-22500.0,-2724.4127676344433,-2192.090552984509,-1164.9431633680149,1176.5565250237582,782.62479451701029,-359.67249064106664,2557.410513676999,-1149.1319633291519,-1784.0644319599651,1784.0644319599651,1149.1319633291519,4974.1677589791789,0.0
543523.2936376977,3657751.2368613081,-22500.0,-3691.9294386797865,1462.8163394560358,-609.06429833272841,-1198.186258309418,461.20715842454916,-282.6562112229621,2374.5131498200376,-2652.4294129653235,1552.5550375266482,-1552.5550375266482,2652.4294129653235,4688.4383127929905,0.0
548523.2936376977,3657751.2368613081,-22500.0,-4027.1171682347394,1707.8599907752882,-733.36479636112654,-1365.4167013337001,557.78134842087343,-334.44144206429974,2657.798929060792,-2881.5061808247251,1741.6972291240077,-1741.6972291240077,2881.5061808247251,5253.4469561700134,0.0
553523.2936376977,3657751.2368613081,-22500.0,-4385.8093312851361,1999.1873219367496,-891.16004246623845,-1557.4403551988096,677.28467462206868,-396.28882178006467,2982.6144985216647,-3120.34855168884,1952.195574205572,-1952.195574205572,3120.34855168884,5901.7054613349501,0.0
558523.2936376977,3657751.2368613081,-22500.0,-4763.8904706290614,2345.6239293739882,-1092.9890463105964,-1776.9955364346022,825.5272859019625,-469.83957237942388,3355.7190011178386,-3362.6718400508371,2183.7415340704274,-2183.7415340704274,3362.6718400508371,6646.4150478531192,0.0
563523.2936376977,3657751.2368613081,-22500.0,-5153.5771370486991,2757.1933792930181,-1353.0279776360967,-2026.3532658092565,1009.7201171445961,-556.66592768286921,3785.0480396274252,-3598.0944426188216,2433.9506661595942,-2433.9506661595942,3598.0944426188216,7502.5497238055077,0.0
568523.2936376977,3657751.2368613081,-22500.0,-5541.5971782653287,3244.8252941174569,-1690.3900643349607,-2306.7072639509215,1238.6803389459535,-657.95262909257031,4279.9686984259033,-3810.2155829856474,2696.9331965191423,-2696.9331965191423,3810.2155829856474,8486.8256377970974,0.0
573523.2936376977,3657751.2368613081,-22500.0,-5906.5881255079257,3819.5926147844798,-2130.8548455713412,-2617.2025751530832,1522.9328793027662,-773.92561440046211,4851.4193545785474,-3973.906762893781,2961.0608921933363,-2961.0608921933363,3973.906762893781,9617.4792148345041,0.0
578523.2936376977,3657751.2368613081,-22500.0,-6215.4249895789135,4491.0942502902408,-2709.1107288194862,-2953.4557208495048,1874.5591346042706,-902.89934067044226,5511.5650997720513,-4051.5668059514483,3205.5243783261294,-3205.5243783261294,4051.5668059514483,10913.761251260197,0.0
583523.2936376977,3657751.2368613081,-22500.0,-6418.0546840822781,5264.2847829594384,-3471.5074545617972,-3305.3710845629575,2306.5121565098871,-1039.7992504028416,6273.0048641047333,-3988.041679589664,3395.0713455741302,-3395.0713455741302,3988.041679589664,12394.958663529647,0.0
588523.2936376977,3657751.2368613081,-22500.0,-6440.2956515011174,6133.5253627748853,-4479.0679922601339,-3654.0274137906567,2830.9110149634844,-1174.0955997739586,7148.220332528881,-3703.9569702090453,3472.0682729645118,-3472.0682729645118,3703.9569702090453,14078.685321761177,0.0
593523.2936376977,3657751.2368613081,-22500.0,-6173.8424203268933,7071.5785596107426,-5809.7780133291917,-3967.265206166388,3455.4371055934298,-1287.3723437990377,8149.2070640600468,-3087.3699597133464,3344.6771896345708,-3344.6771896345708,3087.3699597133464,15977.813657227065,0.0
598523.2936376977,3657751.2368613081,-22500.0,-5462.7670985379136,8009.3199562218952,-7557.2522003256227,-4193.1442224737038,4176.1775938061019,-1351.4552894010633,9286.5137549677929,-1984.3835010555272,2869.6891736477842,-2869.6891736477842,1984.3835010555272,18094.673408117123,0.0
603523.2936376977,3657751.2368613081,-22500.0,-4087.255183827649,8798.376172244758,-9817.7870347380267,-4248.9264076299078,4963.3318474124671,-1329.1015603800465,10566.821949048181,-191.93510637172039,1829.1721582581704,-1829.1721582581704,191.93510637172039,20409.568335309308,0.0
608523.2936376977,3657751.2368613081,-22500.0,-1753.1493294585007,9144.1343938614718,-12644.94593285054,-3999.8220349929861,5730.9720758083176,-1179.4644371511952,11988.331312816017,2534.912525953926,-94.731868639197955,94.731868639197955,-2534.912525953926,22860.057741434193,0.0
613523.2936376977,3657751.2368613081,-22500.0,1875.5963625177103,8498.4170478580527,-15921.402609795823,-3218.642964752331,6268.8741775285043,-864.91341774584203,13537.888647696627,6420.0961243142847,-3319.5976341603546,3319.5976341603546,-6420.0961243142847,25320.255359216975,0.0
618523.2936376977,3657751.2368613081,-22500.0,6989.6104251098586,5947.8926698221239,-19048.580252324813,-1534.6445189354843,6091.5130414822106,-334.73411516725611,15219.858919757033,11435.565274824434,-8233.7265811147718,8233.7265811147718,-11435.565274824434,27666.550081451795,0.0
623523.2936376977,3657751.2368613081,-22500.0,13081.859728943942,335.2314821987639,-20357.772467288909,1517.0855670430669,4169.3717740011471,568.61551283781682,17221.141388275821,16701.198626753696,-14666.286785357444,14666.286785357444,-16701.198626753696,30261.275044612656,0.0
628523.2936376977,3657751.2368613081,-22500.0,18043.838212597548,-8720.0149914593694,-16564.309077755934,5993.226041849528,-1241.1556378992641,2268.2527924948749,20325.680108972221,19562.185391388826,-20631.149602148333,20631.149602148333,-19562.185391388826,35229.573257132906,0.0
633523.2936376977,3657751.2368613081,-22500.0,18315.310126783243,-18426.875726268012,-3994.2854702609998,10339.77774545992,-11686.186133117877,5292.8192840695192,25945.125167106005,15877.887700663587,-21216.985432370864,21216.985432370864,-15877.887700663587,46107.048448899826,0.0
638523.2936376977,3657751.2368613081,-22500.0,12699.69489232788,-21982.946930996844,16310.806210039498,11099.99900988423,-25585.054654538468,9256.6284848674659,34068.055514117848,4455.0094884249229,-11546.328934734365,11546.328934734365,-4455.0094884249229,61810.136658198935,0.0
643523.2936376977,3657751.2368613081,-22500.0,6245.7507516393298,-15003.873271498904,34976.358635260964,6417.7061737330041,-36797.166251287752,12256.704152916029,40991.809538593203,-8146.7842716156556,5514.8618725105807,-5514.8618725105807,8146.7842716156556,74497.549452242922,0.0
648523.2936376977,3657751.2368613081,-22500.0,4720.5805080649197,-2273.2643639526395,42424.995820850381,-780.88682278392298,-40002.874791651302,12815.970159714936,42764.281836152993,-13696.900765956194,19810.686812706113,-19810.686812706113,13696.900765956194,77459.336778927114,0.0
653523.2936376977,3657751.2368613081,-22500.0,7645.5819375892715,8239.7073987942767,38403.954856101212,-6397.6691289774662,-35847.858937540936,11475.74078669646,39245.148590098703,-11481.295958944609,25177.906746675319,-25177.906746675319,11481.295958944609,70884.511589683825,0.0
658523.2936376977,3657751.2368613081,-22500.0,11432.318071293854,13308.513168728598,28611.515709174495,-9094.7294776814815,-28230.244135606135,9462.2949055636054,32805.550826803672,-5812.5960027539168,23028.244093050795,-23028.244093050795,5812.5960027539168,59187.677543904625,0.0
663523.2936376977,3657751.2368613081,-22500.0,13904.264037441953,13836.550481622957,18041.942991935135,-9522.9422659510437,-20254.125698325133,7430.5846303979106,25758.302303424309,-227.14772257023105,17260.583949800406,-17260.583949800406,227.14772257023105,46507.132985601056,0.0
668523.2936376977,3657751.2368613081,-22500.0,14630.616257810882,11751.659724134503,9168.253030883423,-8633.8884905385239,-13381.651539900555,5564.4832856551493,19439.415474801732,3833.7327750139757,10791.542625467036,-10791.542625467036,-3833.7327750139757,35180.279586109405,0.0
673523.2936376977,3657751.2368613081,-22500.0,13936.41173500016,8604.1207029364687,2698.3939911060811,-7117.3466486529878,-8038.8660316808018,3923.4006818573457,14390.989929810214,6178.1247570885507,5109.6097422351859,-5109.6097422351859,-6178.1247570885507,26114.357883484743,0.0
678523.2936376977,3657751.2368613081,-22500.0,12311.029924217301,5357.9308119100733,-1516.3715797668888,-5410.0013975734446,-4174.337564563898,2553.888595785198,10728.704191974095,7101.0978532709596,753.23516733242604,-753.23516733242604,-7101.0978532709596,19434.114952981723,0.0
683523.2936376977,3657751.2368613081,-22500.0,10200.871623668882,2519.0453278760001,-3938.8772745547699,-3777.0695496629091,-1552.4260414378678,1480.8457289445053,8333.4946955161467,7017.6996768507161,-2242.9793092375185,2242.9793092375185,-7017.6996768507161,14890.869184004247,0.0
688523.2936376977,3657751.2368613081,-22500.0,7953.547266550695,289.89372185305604,-5080.5180342094573,-2363.6388817728898,109.60034192014,694.46110555548921,6875.8126243917559,6316.9051099062453,-4074.1018055254422,4074.1018055254422,-6316.9051099062453,12042.188555907034,0.0
693523.2936376977,3657751.2368613081,-22500.0,5808.835205694596,-1309.7975611252298,-5386.2143799151854,-1228.3968463112592,1077.2898171959198,156.55911092054231,5974.3541575256731,5308.478197291176,-5011.5698543347416,5011.5698543347416,-5308.478197291176,10351.574496830754,0.0
698523.2936376977,3657751.2368613081,-22500.0,3908.3074224463794,-2355.9564418562968,-5196.5789207830721,-372.47171019386184,1571.2375581694273,-184.4624798587885,5360.4114025182162,4210.9702170778528,-5321.3854816825551,5321.3854816825551,-4210.9702170778528,9319.8538718118252,0.0
703523.2936376977,3657751.2368613081,-22500.0,2315.3647705342187,-2961.6519295669864,-4749.1452971053004,235.59182223567009,1759.96002834866,-380.60014945142342,4883.622421217673,3160.7421716888939,-5226.2444356880815,5226.2444356880815,-3160.7421716888939,8596.6791789808776,0.0
708523.2936376977,3657751.2368613081,-22500.0,1038.9621101043497,-3242.1637156656043,-4196.7156210805069,640.90791581265125,1764.0582759707004,-476.7000584148393,4471.0323879101552,2230.3859941938058,-4894.5883803018696,4894.5883803018696,-2230.3859941938058,7992.3028471424823,0.0
713523.2936376977,3657751.2368613081,-22500.0,55.356998866283533,-3297.6711840605267,-3629.9180144320635,890.07436044466965,1665.2374059976048,-507.75581941090724,4092.1389074164604,1448.5995157016184,-4444.255207383103,4444.255207383103,-1448.5995157016184,7425.8179375606551,0.0
718523.2936376977,3657751.2368613081,-22500.0,-675.1461585774174,-3207.3612103710261,-3097.4301084046479,1024.6970842524861,1516.1616190799043,-499.17910386733314,3736.7489894968908,817.10028883379459,-3952.1938998570613,3952.1938998570613,-817.10028883379459,6872.5842607111263,0.0
723523.2936376977,3657751.2368613081,-22500.0,-1196.9874043516613,-3029.8186178710466,-2621.5505410795217,1078.8590194653593,1349.1108809252328,-468.41051658291104,3403.0288523628128,323.07759286260966,-3465.2031249101492,3465.2031249101492,-323.07759286260966,6331.6365671786534,0.0
728523.2936376977,3657751.2368613081,-22500.0,-1552.7956906981278,-2806.1835768512747,-2209.0837727561548,1078.8979271183455,1182.7431624968624,-426.84775586729512,3091.7860132797123,-52.590153109618768,-3009.299642219828,3009.299642219828,52.590153109618768,5809.4857076111311,0.0
733523.2936376977,3657751.2368613081,-22500.0,-1780.1610835834917,-2564.0337326325453,-1858.4296828244665,1044.3050513982494,1026.9910131259116,-381.58854972231126,2804.0540705059689,-330.42187004049015,-2596.9614656466165,2596.9614656466165,330.42187004049015,5313.2149504555964,0.0
738523.2936376977,3657751.2368613081,-22500.0,-1910.5134615107402,-2320.9907469110531,-1563.9383042745778,989.01130283748967,886.42083588757464,-336.81348666951089,2540.264492067467,-529.70575028078599,-2232.3137270957827,2232.3137270957827,529.70575028078599,4848.0811196032391,0.0
743523.2936376977,3657751.2368613081,-22500.0,-1969.1909778071561,-2087.6761059699693,-1318.4372886310368,922.67239375175632,762.44301938027331,-294.80134925544019,2300.1113644494167,-667.31644736922351,-1914.6398398225951,1914.6398398225951,667.31644736922351,4417.0749876556674,0.0
543523.2936376977,3662751.2368613081,-22500.0,-3267.6395052705611,1575.8156437203138,-763.15741849776248,-1079.2216209766141,502.7055989979545,-258.17561738984887,2230.7910662187865,-2253.0297467519558,1437.5191042515205,-1437.5191042515205,2253.0297467519558,4415.2051510388401,0.0
548523.2936376977,3662751.2368613081,-22500.0,-3515.4381364847477,1820.1441315190596,-916.08389175392222,-1216.6175557999411,602.37870175047544,-302.78663910758348,2481.7559135212377,-2400.8811376382032,1587.3073192753222,-1587.3073192753222,2400.8811376382032,4918.8191608729812,0.0
553523.2936376977,3662751.2368613081,-22500.0,-3766.9295364969353,2104.9675865177956,-1107.6897088706496,-1370.4974749866221,723.93541967764656,-355.18167283144737,2766.1989114966186,-2540.4347986594885,1746.1167962086922,-1746.1167962086922,2540.4347986594885,5489.8658661645868,0.0
558523.2936376977,3662751.2368613081,-22500.0,-4013.4217281856918,2435.9084288725439,-1349.0112314520611,-1541.134892006113,872.22049410986745,-416.2596758123442,3089.1378830864487,-2661.4374288238896,1909.8039455701919,-1909.8039455701919,2661.4374288238896,6137.009650800017,0.0
563523.2936376977,3662751.2368613081,-22500.0,-4241.6762402569575,2818.2931885637181,-1654.3515735555125,-1727.6070292015575,1052.9050376760874,-486.62939003076804,3456.8968725821042,-2748.9236844510033,2071.0288777556289,-2071.0288777556289,2748.9236844510033,6869.2892736694694,0.0
568523.2936376977,3662751.2368613081,-22500.0,-4432.1140250995213,3256.2032653379215,-2042.1428251832663,-1927.0000795528792,1272.381516011234,-566.25332966449753,3876.6840259740002,-2781.4567206446682,2217.5984859464261,-2217.5984859464261,2781.4567206446682,7695.6466089734267,0.0
573523.2936376977,3662751.2368613081,-22500.0,-4556.45741086418,3750.7974116049454,-2535.8845707530977,-2133.238077573234,1537.3980046545494,-653.86213099770407,4354.6287784724182,-2728.8745231129928,2330.0746604391165,-2330.0746604391165,2728.8745231129928,8624.1418194430444,0.0
578523.2936376977,3662751.2368613081,-22500.0,-4574.743036314585,4297.45202134384,-3164.974366970725,-2335.4132214942242,1854.2064240021132,-746.04184845138968,4895.2749277415433,-2549.5571081835342,2378.4001082497525,-2378.4001082497525,2549.5571081835342,9660.7353896666791,0.0
583523.2936376977,3662751.2368613081,-22500.0,-4431.7353704011266,4881.010006145817,-3964.9797932757083,-2515.4909109009322,2226.8467459610802,-835.8978680767209,5502.1076438718392,-2187.411286765242,2317.2892098790908,-2317.2892098790908,2187.411286765242,10807.494149987237,0.0
588523.2936376977,3662751.2368613081,-22500.0,-4053.0456573865927,5468.0665591521702,-4976.3489589721194,-2645.2980151867455,2653.9491133322454,-911.27109632630095,6177.1346044907295,-1569.2035617637848,2080.2650195016249,-2080.2650195016249,1569.2035617637848,12060.117965682892,0.0
593523.2936376977,3662751.2368613081,-22500.0,-3341.867697683409,5994.7221539054653,-6239.4016406823066,-2682.7716052892888,3123.0485140183505,-952.68856864371094,6920.0855062446244,-603.77378996871653,1572.6947306806203,-1572.6947306806203,603.77378996871653,13404.804180312289,0.0
598523.2936376977,3662751.2368613081,-22500.0,-2178.7216187699278,6347.789684902119,-7781.1351377073424,-2567.5625825185498,3600.7773339512696,-931.66055106214912,7728.1096978645191,813.40853078224723,665.55113478728686,-665.55113478728686,-813.40853078224723,14815.059130871565,0.0
603523.2936376977,3662751.2368613081,-22500.0,-430.06891540388352,6337.7840859275593,-9584.8760490019049,-2216.2722097706237,4016.1832938268217,-810.48996062552567,8597.4258780256387,2782.8448233620338,-804.76952911470903,804.76952911470903,-2782.8448233620338,16251.148456592684,0.0
608523.2936376977,3662751.2368613081,-22500.0,2020.3932112724422,5666.1782866227031,-11526.14830710764,-1518.4801429517402,4232.5583424035322,-544.77898332048892,9531.0060624111211,5355.0888753811887,-3016.246543237125,3016.246543237125,-5355.0888753811887,17672.504326999348,0.0
613523.2936376977,3662751.2368613081,-22500.0,5189.0918086075053,3906.2526564678956,-13249.617352341786,-339.23594454581814,4001.3996052520019,-87.548629744323847,10563.170344599685,8427.0984575711045,-6086.4104070333187,6086.4104070333187,-8427.0984575711045,19096.852106498798,0.0
618523.2936376977,3662751.2368613081,-22500.0,8816.7063075718215,565.38747692177003,-13972.129970176791,1449.7382520069268,2898.2923239155225,611.91729529969382,11822.566800980207,11543.951786537185,-9876.6347924227703,9876.6347924227703,-11543.951786537185,20787.893960562054,0.0
623523.2936376977,3662751.2368613081,-22500.0,12103.666900491287,-4614.3473699744163,-12293.85873607599,3851.7649294666162,283.66104361226104,1622.6575089544065,13638.057334275885,13629.259314394723,-13608.144151846325,13608.144151846325,-13629.259314394723,23622.158975341004,0.0
628523.2936376977,3662751.2368613081,-22500.0,13608.388607320949,-10953.327603061991,-6393.2256612078791,6473.6685448173976,-4542.970133822585,3035.9042794552188,16547.76786248244,12939.955043060481,-15431.572246491132,15431.572246491132,-12939.955043060481,29119.448617012495,1.0
633523.2936376977,3662751.2368613081,-22500.0,11963.456836762663,-16081.179708953512,4711.589833410123,8249.5844260873127,-11716.071136173869,4865.7747433642462,20897.353260190193,7969.2633597394215,-12727.775075677999,12727.775075677999,-7969.2633597394215,37990.448013519403,0.0
638523.2936376977,3662751.2368613081,-22500.0,7592.8808662995143,-16623.035817206925,19011.685768535837,7788.3493563699449,-19873.781159868926,6826.5858798878216,26104.576457251802,-518.85337361381926,-4184.9922450322556,4184.9922450322556,518.85337361381926,48327.829824553999,0.0
643523.2936376977,3662751.2368613081,-22500.0,3352.6092196728787,-11180.258111817287,31234.353109396714,4655.4754367679252,-26248.64041086092,8319.2646108947902,30360.578777853018,-8696.3545086676422,7689.8264014564347,-7689.8264014564347,8696.3545086676422,56307.801712768007,0.0
648523.2936376977,3662751.2368613081,-22500.0,2031.4174299906663,-2309.1038557978804,36613.264016848159,114.76188937973615,-28602.190034798798,8884.1866121613275,31881.407622036244,-12624.12744322288,17725.435366150126,-17725.435366150126,12624.12744322288,58959.090591296103,0.0
653523.2936376977,3662751.2368613081,-22500.0,3774.5362852472299,5823.3078813102829,34559.986274869574,-3986.630342748233,-26868.864135143558,8550.5921373031742,30365.199237273217,-11600.394835198016,22433.791421619011,-22433.791421619011,11600.394835198016,56024.47322584613,0.0
658523.2936376977,3662751.2368613081,-22500.0,6838.7246621895647,10776.845741209145,27819.337113194211,-6616.8281631761547,-22573.345484189245,7632.1069175904904,26747.552446417933,-7617.9256448648039,21878.389068958368,-21878.389068958368,7617.9256448648039,49321.457245853184,0.0
663523.2936376977,3662751.2368613081,-22500.0,9580.3350049791479,12385.930834192668,19575.662356008488,-7703.7117589610716,-17386.124520669342,6419.9445192833909,22242.97747208361,-2959.6932138486445,18047.857709765667,-18047.857709765667,2959.6932138486445,41068.127841018715,0.0
668523.2936376977,3662751.2368613081,-22500.0,11222.572281074528,11595.222557284707,11922.034661164598,-7618.8419259848624,-12416.780184306257,5111.1535378334484,17766.807219250135,998.24452643504719,12967.410682633945,-12967.410682633945,-998.24452643504719,32895.752004639493,0.0
673523.2936376977,3662751.2368613081,-22500.0,11660.706374233967,9490.649461405179,5795.1313816331622,-6800.8574533758529,-8206.2707446354816,3844.3697757961777,13840.135013020821,3750.3360986186003,7982.3095449730517,-7982.3095449730517,-3750.3360986186003,25703.184351989537,0.0
678523.2936376977,3662751.2368613081,-22500.0,11115.213563272546,6913.5142639989072,1383.5885515720959,-5616.9267172952777,-4920.6085827551406,2717.3670624920155,10697.582708417918,5298.8068522579733,3774.6936859619482,-3774.6936859619482,-5298.8068522579733,19853.978450668379,0.0
683523.2936376977,3662751.2368613081,-22500.0,9906.5297032861126,4400.4516608698095,-1499.8106692509889,-4333.4624466555761,-2519.8996437834426,1785.3698557971422,8383.3563991290794,5869.2163490645689,574.88617127202497,-574.88617127202497,-5869.2163490645689,15391.667289650404,0.0
688523.2936376977,3662751.2368613081,-22500.0,8341.9019272412243,2236.4048332006882,-3181.615703458177,-3121.3511489633361,-869.13393789719544,1063.1897414392076,6778.3247530545923,5747.6787282568439,-1645.1797257920316,1645.1797257920316,-5747.6787282568439,12181.705200513401,0.0
693523.2936376977,3662751.2368613081,-22500.0,6667.0200931847876,529.98954091348264,-3999.5708829341324,-2072.8780963406489,195.39433012616681,535.8834958147097,5683.4766594877092,5199.5606121543733,-3036.7571649504866,3036.7571649504866,-5199.5606121543733,9990.8131353062472,0.0
698523.2936376977,3662751.2368613081,-22500.0,5052.9080914236056,-718.67922945202633,-4243.43850780088,-1222.8714374889928,829.50722900015182,172.3218435003582,4922.5693872238335,4435.5883778934631,-3789.9808587975995,3789.9808587975995,-4435.5883778934631,8542.2801838580544,0.0
703523.2936376977,3662751.2368613081,-22500.0,3601.8531723074052,-1566.1321226206878,-4136.0282664831439,-569.28382240931592,1164.2498390366761,-63.527249204885749,4367.9602630563422,3604.8350381448872,-4086.9212292712737,4086.9212292712737,-3604.8350381448872,7572.6176726699614,0.0
708523.2936376977,3662751.2368613081,-22500.0,2362.0568268408292,-2090.4777760138677,-3835.4442679874769,-90.041773522852054,1301.2176943003096,-205.48473675578259,3935.7458933358303,2801.6682203803039,-4080.0391021823016,4080.0391021823016,-2801.6682203803039,6877.7223608276536,0.0
713523.2936376977,3662751.2368613081,-22500.0,1344.1857544569209,-2370.5898494106164,-3446.4727118728961,245.02646410847191,1314.5385931854935,-281.80096572278956,3575.7527420250153,2078.1925912186816,-3886.313942408181,3886.313942408181,-2078.1925912186816,6326.7631577053908,0.0
718523.2936376977,3662751.2368613081,-22500.0,535.94711500342885,-2475.7209515974209,-3034.0811667034136,466.83871191272033,1255.6970573599551,-314.32454987496862,3260.5516683323081,1457.1078217560387,-3589.7283647002787,3589.7283647002787,-1457.1078217560387,5848.4436463452093,0.0
723523.2936376977,3662751.2368613081,-22500.0,-86.855458464714943,-2461.7958131815112,-2635.5590646962301,603.2054437479643,1158.9262036487164,-319.03124581057369,2976.265444962949,942.51833085626185,-3247.220494286069,3247.220494286069,-942.51833085626185,5409.275786846667,0.0
728523.2936376977,3662751.2368613081,-22500.0,-552.84118632337504,-2371.4281553350838,-2270.0607954805769,677.29116743102384,1046.0377324952394,-307.09617667467904,2716.2820820745978,527.96504757516345,-2895.2747924569076,2895.2747924569076,-527.96504757516345,4996.0986001941528,0.0
733523.2936376977,3662751.2368613081,-22500.0,-890.5115508745946,-2235.6657154136601,-1945.4953121466217,707.42152740439326,930.28384115993526,-286.04399808400206,2477.5110388916578,201.86605690332544,-2555.7871874098164,2555.7871874098164,-201.86605690332544,4605.2468459614438,0.0
738523.2936376977,3662751.2368613081,-22500.0,-1125.8299297206677,-2076.2795791765338,-1663.2036201669177,707.56017616025463,819.23255595131457,-260.76009858123734,2258.3711499118172,-49.085769021173519,-2240.7335028960088,2240.7335028960088,49.085769021173519,4236.7608956791928,0.0
543523.2936376977,3667751.2368613081,-22500.0,-2826.737170838227,1627.3917616921276,-906.58859307575744,-954.23349260142959,526.83214731572832,-232.24123680083994,2073.7536363994955,-1849.1451659240638,1281.8953702396279,-1281.8953702396279,1849.1451659240638,4116.565908895479,0.0
548523.2936376977,3667751.2368613081,-22500.0,-2991.1086140655889,1857.5313807799171,-1081.8742199680753,-1062.2198745172132,625.01104364082846,-269.62608072100937,2291.8418847596427,-1922.0403086895915,1387.5022294810922,-1387.5022294810922,1922.0403086895915,4556.7327315227676,0.0
553523.2936376977,3667751.2368613081,-22500.0,-3142.6444308739819,2119.4579337913365,-1298.2498296559825,-1179.1959701149126,742.76745332714177,-312.6483970155,2537.1232809951834,-1972.3666921106471,1490.1763553833205,-1490.1763553833205,1972.3666921106471,5049.1549061843034,0.0
558523.2936376977,3667751.2368613081,-22500.0,-3269.7873425265843,2415.151379080668,-1566.0857212291355,-1303.5103392685469,883.66644464326976,-361.57558788208365,2815.0153355400548,-1987.7274467450575,1582.7442394581008,-1582.7442394581008,1987.7274467450575,5598.6118872744755,0.0
563523.2936376977,3667751.2368613081,-22500.0,-3356.3698466258093,2744.9306338632932,-1898.1840936977071,-1431.8969356093353,1051.4912106359159,-416.2330234813877,3129.5287924018571,-1951.2259921979282,1654.2912994548308,-1654.2912994548308,1951.2259921979282,6209.2886031012586,0.0
568523.2936376977,3667751.2368613081,-22500.0,-3380.2102438626612,3106.0704859681623,-2310.0511283916171,-1558.6669492387653,1249.874908201007,-475.64768249278666,3482.3059781446295,-1840.2164147118083,1688.6236170395414,-1688.6236170395414,1840.2164147118083,6884.1333172475815,0.0
573523.2936376977,3667751.2368613081,-22500.0,-3311.5004024801374,3490.6329039479901,-2819.8836179482582,-1674.6012476073613,1481.5785054211292,-537.50085543415128,3874.7067858018104,-1624.9662105979971,1662.2511410836958,-1662.2511410836958,1624.9662105979971,7623.9532160978251,0.0
578523.2936376977,3667751.2368613081,-22500.0,-3111.1577492088518,3882.1495510998752,-3447.8915221105417,-1765.4942336181157,1747.1777139090611,-597.32646541261306,4307.6149576744565,-1267.4977713330131,1541.8821545290525,-1541.8821545290525,1267.4977713330131,8426.2259772634352,0.0
583523.2936376977,3667751.2368613081,-22500.0,-2729.5679945315319,4250.6983775036642,-4214.2441459836045,-1810.3571292902948,2042.8005638250834,-647.40864419920354,4780.7742283155512,-721.19866067887256,1281.607564076473,-1281.607564076473,721.19866067887256,9283.7263258227285,0.0
588523.2936376977,3667751.2368613081,-22500.0,-2106.6044485137731,4545.8766507824794,-5134.3423407587979,-1779.4113688332116,2356.3908566971086,-675.40134870449026,5292.4913920679901,67.633993186573491,820.37992172929944,-820.37992172929944,-67.633993186573491,10183.343191378506,0.0
593523.2936376977,3667751.2368613081,-22500.0,-1174.6504347416665,4687.3635056533849,-6209.1302055406968,-1632.2510893157109,2661.7764654980247,-662.85838240428768,5840.1391176229872,1154.140306650273,81.315001470391167,-81.315001470391167,-1154.140306650273,11106.149063321487,0.0
598523.2936376977,3667751.2368613081,-22500.0,132.18628500037838,4553.6503572307229,-7406.6729267503169,-1317.0137456629332,2909.6591425857359,-584.16082357741641,6422.5777612738657,2581.3248234910207,-1023.8001953939385,1023.8001953939385,-2581.3248234910207,12031.468352652118,0.0
603523.2936376977,3667751.2368613081,-22500.0,1857.2034067766974,3972.0611946899103,-8629.3496891080486,-772.19531080359388,3014.6471851330457,-406.69226415419979,7046.8093326380022,4352.4304001092369,-2577.969470351215,2577.969470351215,-4352.4304001092369,12951.351953929994,0.0
608523.2936376977,3667751.2368613081,-22500.0,3980.3354352224578,2719.6540878502128,-9660.3478218012879,65.68110827295277,2838.2219393621717,-93.250515083124924,7742.9478325049304,6380.9192444608016,-4617.9744198331809,4617.9744198331809,-6380.9192444608016,13909.164423949338,0.0
613523.2936376977,3667751.2368613081,-22500.0,6349.3217980893533,558.11827669000877,-10089.29724252402,1242.2395215877198,2170.7509897929885,392.96702595548766,8591.7038960304071,8411.9022545055013,-7050.3566206091155,7050.3566206091155,-8411.9022545055013,15082.856356223161,0.0
618523.2936376977,3667751.2368613081,-22500.0,8589.5817665659415,-2653.9633105175185,-9244.6627248674467,2742.1187540941,725.86888426912606,1081.9138300852944,9757.7051845334572,9928.8194726452475,-9510.4782626375872,9510.4782626375872,-9928.8194726452475,16905.639158039052,0.0
623523.2936376977,3667751.2368613081,-22500.0,10054.218391144843,-6724.724174642246,-6231.2517521249974,4411.4189780820525,-1815.8866943345108,1989.4260227741784,11484.493510799139,10122.22353817827,-11200.219471857316,11200.219471857316,-10122.22353817827,20071.33303348528,0.0
628523.2936376977,3667751.2368613081,-22500.0,9974.478325201344,-10814.365244834889,-264.84661189750483,5865.4623942728094,-5649.6941327921577,3102.6796880814227,13973.449522390625,8103.2549631649636,-10880.949855281131,10880.949855281131,-8103.2549631649636,25130.108996045259,0.0
633523.2936376977,3667751.2368613081,-22500.0,7974.4564507164514,-13357.617632066229,8575.7406351233258,6492.007075964284,-10550.518031275424,4346.1808285708839,17161.467500064857,3534.420643552849,-7354.4888741418545,7354.4888741418545,-3534.420643552849,31801.9521040818,0.0
638523.2936376977,3667751.2368613081,-22500.0,4713.4408364380834,-12729.705919066948,18604.909530853551,5719.2525463533466,-15628.266057932471,5545.2169704525968,20564.118073894362,-2612.1204861603192,-511.20634477314002,511.20634477314002,2612.1204861603192,38718.265059993071,0.0
643523.2936376977,3667751.2368613081,-22500.0,1820.4935613261291,-8534.6580122046526,26861.412006310617,3482.8862390769646,-19542.177463581585,6457.0864210535492,23291.355275361442,-8140.1516428323075,7922.9122694596599,-7922.9122694596599,8140.1516428323075,43966.393963179173,0.0
648523.2936376977,3667751.2368613081,-22500.0,758.6641566956805,-2204.8823435281274,30828.400716031778,409.2610028606897,-21239.095901601893,6892.682976149662,24477.04736707166,-11004.283524611677,15156.64841879228,-15156.64841879228,11004.283524611677,46105.872727651724,0.0
653523.2936376977,3667751.2368613081,-22500.0,1769.8866732833255,3979.4698209405692,29960.810631857603,-2578.8508308966248,-20549.103973268378,6811.740087000152,23863.636602202099,-10660.897033128051,19141.008576253884,-19141.008576253884,10660.897033128051,44858.34315477022,0.0
658523.2936376977,3667751.2368613081,-22500.0,4020.2135608474832,8356.6862511974541,25537.879219247821,-4805.7689785549474,-18081.490411556821,6300.9595654837003,21809.188401665269,-8013.0788689964929,19535.932791650092,-19535.932791650092,8013.0788689964929,40972.49267475817,0.0
663523.2936376977,3667751.2368613081,-22500.0,6440.5362582628804,10433.970691051625,19453.419952286153,-6038.7967345207235,-14709.176376840152,5499.2797603311728,18930.66913927357,-4430.7854532225756,17257.407958238517,-17257.407958238517,4430.7854532225756,35602.719100732007,0.0
668523.2936376977,3667751.2368613081,-22500.0,8299.2126293060501,10552.630233616241,13260.15816510343,-6370.0093949504253,-11170.531922453471,4548.688416234224,15801.755945293269,-991.6853079981629,13573.638405878424,-13573.638405878424,991.6853079981629,29789.779837100927,0.0
673523.2936376977,3667751.2368613081,-22500.0,9301.0382179628996,9368.3856054600401,7871.4799964335043,-6035.1748917920895,-7937.1295929083944,3572.8190474578319,12831.096955184861,1726.1505164108935,9536.1372778884652,-9536.1372778884652,-1726.1505164108935,24253.481023749133,0.0
678523.2936376977,3667751.2368613081,-22500.0,9460.7433987405038,7516.9728619855741,3655.058601737338,-5291.5039493703071,-5239.0647586649293,2665.0406661010084,10263.271172653027,3546.0626795246185,5814.4757249944541,-5814.4757249944541,-3546.0626795246185,19398.245470950758,0.0
683523.2936376977,3667751.2368613081,-22500.0,8951.5048714742043,5479.241267430868,629.88200891585393,-4357.850299971954,-3137.2257540464821,1882.7688353810611,8208.1146706290219,4530.5013030790369,2739.4015585254247,-2739.4015585254247,-4530.5013030790369,15393.455408513057,0.0
688523.2936376977,3667751.2368613081,-22500.0,7995.7362271404836,3561.3526948884673,-1363.3408395883298,-3393.884524011763,-1592.5094450570089,1249.7605115078886,6651.2170852394675,4850.7341788850254,405.41329348148884,-405.41329348148884,-4850.7341788850254,12254.701947453586,0.0
693523.2936376977,3667751.2368613081,-22500.0,6801.9415226518349,1923.767534934927,-2547.7566373469604,-2500.4423787224878,-517.90899534240452,764.39790839512511,5501.2630915665268,4703.8786217545876,-1232.2020683137123,1232.2020683137123,-4703.8786217545876,9903.7138585341327,0.0
698523.2936376977,3667751.2368613081,-22500.0,5535.686302359858,623.51441576044965,-3144.9074102219442,-1730.0434761675808,187.30549815675633,409.7765436823459,4657.6977525489801,4268.1870874444212,-2284.7832550650387,2284.7832550650387,-4268.1870874444212,8208.6801650310936,0.0
703523.2936376977,3667751.2368613081,-22500.0,4312.3343282391716,-346.40779458532626,-3343.7170777529259,-1100.6280978184748,618.06301927617824,162.36312577614169,4034.3658720079889,3684.3401417099399,-2883.088045125291,2883.088045125291,-3684.3401417099399,7014.6374567744733,0.0
708523.2936376977,3667751.2368613081,-22500.0,3201.803024064056,-1026.5176683383274,-3290.7929659361125,-608.4216195162528,854.44211920351745,-2.082975056883444,3562.6172864504451,3052.42114732236,-3150.5909877667859,3150.5909877667859,-3052.42114732236,6170.8274138192128,0.0
713523.2936376977,3667751.2368613081,-22500.0,2238.4355769266704,-1470.1318245265543,-3092.2367097895594,-238.04413908990563,959.2254826833331,-105.23221891677088,3191.7118544109144,2436.9339156404058,-3191.2043495594316,3191.2043495594316,-2436.9339156404058,5552.4516348974912,0.0
718523.2936376977,3667751.2368613081,-22500.0,1431.6826869677209,-1730.9612787467254,-2820.461617549046,30.516148017661195,979.04118647486155,-164.85653553286272,2887.0945280430005,1874.8027473336301,-3085.9607713925811,3085.9607713925811,-1874.8027473336301,5070.3050203510466,0.0
723523.2936376977,3667751.2368613081,-22500.0,775.37507948628661,-1856.7694034045394,-2522.205557105809,217.63878536432574,947.0453582535082,-194.68989088049528,2626.8720869426925,1383.4494013647459,-2894.5099167275434,2894.5099167275434,-1383.4494013647459,4668.1644300252456,0.0
728523.2936376977,3667751.2368613081,-22500.0,254.78834934277563,-1886.9469456668278,-2225.835402367421,341.81165044245211,885.9393333944405,-204.88585854639419,2397.908067618836,967.59237819109842,-2658.6735282204986,2658.6735282204986,-967.59237819109842,4314.0924033443816,0.0
733523.2936376977,3667751.2368613081,-22500.0,-148.47917434830578,-1852.3296231245381,-1947.2265126059995,418.68923090445873,810.71471430981728,-202.69068884658634,2192.5690800824386,624.37825115679266,-2406.4489992408853,2406.4489992408853,-624.37825115679266,3991.4872185843428,0.0
738523.2936376977,3667751.2368613081,-22500.0,-453.42790287366586,-1776.1185156679733,-1694.1424627205174,460.92773882153057,730.89650413424795,-193.12182251643645,2006.4332882066126,346.95659935411504,-2155.6610578699756,2155.6610578699756,-346.95659935411504,3692.408509903933,0.0
548523.2936376977,3672751.2368613081,-22500.0,-2477.5269586231057,1828.7003914696611,-1220.500979648275,-908.8164643693392,627.67412103739332,-236.31146016400433,2098.5981357518344,-1466.2220489420245,1160.1453475375627,-1160.1453475375627,1466.2220489420245,4180.6814021134433,0.0
553523.2936376977,3672751.2368613081,-22500.0,-2541.5629460318505,2055.7875117928534,-1450.8709440670993,-991.95562283291792,736.98404754772048,-270.47913343965206,2312.1857116125193,-1441.8362301037951,1207.7084896805404,-1207.7084896805404,1441.8362301037951,4596.7955131527888,0.0
558523.2936376977,3672751.2368613081,-22500.0,-2567.6727707224559,2302.9307591091283,-1730.5826388942091,-1074.8299192521031,864.90512797417807,-308.15132752941986,2550.7296489907612,-1372.2475836550279,1232.9680982158197,-1232.9680982158197,1372.2475836550279,5053.233112493579,0.0
563523.2936376977,3672751.2368613081,-22500.0,-2539.1266558627058,2565.9746444000366,-2069.6878628692371,-1152.7330791584295,1013.296805545114,-348.58023799850838,2814.4464736514224,-1240.9832146957046,1223.1590757471836,-1223.1590757471836,1240.9832146957046,5550.6673881291263,0.0
568523.2936376977,3672751.2368613081,-22500.0,-2434.3400592455419,2836.5797905914865,-2479.2474637369896,-1218.5194036763953,1183.1542252966954,-390.16808366688969,3103.9034740662214,-1027.3069866277485,1160.6628184141257,-1160.6628184141257,1027.3069866277485,6088.0981675374378,0.0
573523.2936376977,3672751.2368613081,-22500.0,-2226.1895435918118,3100.0357695419211,-2970.4609515404045,-1261.7287134197259,1373.6927836892603,-429.99516625320132,3419.245133721025,-705.9116507570302,1021.7031115477307,-1021.7031115477307,705.9116507570302,6662.1880216671361,0.0
578523.2936376977,3672751.2368613081,-22500.0,-1881.7967235452111,3332.2333487924266,-3552.7981693561296,-1267.5607807604397,1580.8624404811217,-463.17048489532385,3759.8901701111504,-247.30155787271269,775.09774227830508,-775.09774227830508,247.30155787271269,7266.6442854379738,0.0
583523.2936376977,3672751.2368613081,-22500.0,-1363.3854688179931,3495.6850760941793,-4230.4033068534391,-1215.820727601558,1795.0297653172786,-481.99830830698971,4124.585921973824,380.40279984899621,381.55027584717641,-381.55027584717641,-380.40279984899621,7892.0267026621204,0.0
588523.2936376977,3672751.2368613081,-22500.0,-631.23851030760568,3534.7220705210048,-4995.6419692485824,-1080.1253249100844,1997.5123837487756,-475.0214999171468,4512.100097918641,1207.0314002007512,-205.52283824805113,205.52283824805113,-1207.0314002007512,8526.8502412646649,0.0
593523.2936376977,3672751.2368613081,-22500.0,349.63082372018965,3370.5981071118608,-5818.162732979461,-827.94568681985572,2155.6617395760063,-426.13260880727512,4923.226979052547,2251.4542744946634,-1035.7587576881101,1035.7587576881101,-2251.4542744946634,9161.803705986662,0.0
598523.2936376977,3672751.2368613081,-22500.0,1596.7811868967797,2898.5932626336285,-6627.5056396439704,-422.51844955644606,2216.4023798820167,-314.1581582914331,5365.3078340166776,3505.6864596478317,-2150.9812275315535,2150.9812275315535,-3505.6864596478317,9800.6572462816057,0.0
603523.2936376977,3672751.2368613081,-22500.0,3088.9650101794741,1991.797469848022,-7287.7338328524984,171.72294429863527,2098.7594371876767,-113.56236027395221,5860.7914105119107,4909.3981807954115,-3562.7738888132012,3562.7738888132012,-4909.3981807954115,10483.559018517997,0.0
608523.2936376977,3672751.2368613081,-22500.0,4734.6655478361245,520.65214435697396,-7565.7531843624838,977.79119952521319,1687.4731899484575,202.94954642561478,6460.3917234704813,6314.282009148048,-5212.5364788979714,5212.5364788979714,-6314.282009148048,11327.793548099744,0.0
613523.2936376977,3672751.2368613081,-22500.0,6335.1054972720804,-1597.4865240320332,-7104.4074353810038,1986.0213875123734,833.03799829275329,659.38504846958381,7255.9030155227865,7445.4189578970991,-6911.1437452239288,6911.1437452239288,-7445.4189578970991,12574.815365016682,0.0
618523.2936376977,3672751.2368613081,-22500.0,7561.9488935517693,-4304.4402679779805,-5431.7678663189772,3123.7597983365731,-630.81799476894969,1269.091471554998,8375.58674983528,7885.3048237497751,-8270.5019865470531,8270.5019865470531,-7885.3048237497751,14584.963515213354,0.0
623523.2936376977,3672751.2368613081,-22500.0,7996.3669989111149,-7270.6518330783438,-2065.6147215158758,4220.8896561521324,-2835.0865490080687,2025.7350208797809,9937.4671045474461,7135.2465457276767,-8676.7816271698866,8676.7816271698866,-7135.2465457276767,17690.775631945071,0.0
628523.2936376977,3672751.2368613081,-22500.0,7290.2335986750777,-9801.8161127020612,3227.3587561285271,4996.0254628727234,-5776.3640120030705,2893.2384918086386,11961.6772187224,4820.6906139490748,-7406.1156809893018,7406.1156809893018,-4820.6906139490748,21935.879953849704,0.0
633523.2936376977,3672751.2368613081,-22500.0,5445.2213000734755,-10943.873167227519,10061.759984909246,5110.6618558120153,-9196.3044642742607,3796.698117606396,14295.735237345234,1027.3563105582762,-3973.3724184828907,3973.3724184828907,-1027.3563105582762,26888.998681054683,0.0
638523.2936376977,3672751.2368613081,-22500.0,3023.0730924016702,-9910.2634338783209,17224.397006194496,4321.1171769762532,-12537.594959364025,4622.966589619592,16609.414728078737,-3454.7891058555947,1390.9777167233874,-1390.9777167233874,3454.7891058555947,31681.960819662483,0.0
643523.2936376977,3672751.2368613081,-22500.0,987.74955437118138,-6642.4201159176391,22993.945331886243,2658.4123462496782,-15092.90449758234,5244.1489740859452,18439.766880982737,-7328.512004791467,7546.8763109613365,-7546.8763109613365,7328.512004791467,35294.141607318736,0.0
648523.2936376977,3672751.2368613081,-22500.0,161.94854865254581,-1994.0159607021285,25957.65741815796,472.98237395841971,-16315.101002704172,5561.105963318154,19338.127418282111,-9451.5450807912584,12889.782622539957,-12889.782622539957,9451.5450807912584,36965.408183562897,0.0
653523.2936376977,3672751.2368613081,-22500.0,752.17147050013477,2716.8273309408528,25700.605970881272,-1727.8010376230877,-16061.402653470095,5538.2718817541199,19119.447791220075,-9437.8043202504668,16169.647129566729,-16169.647129566729,9437.8043202504668,36481.923409408701,0.0
658523.2936376977,3672751.2368613081,-22500.0,2351.2960053181691,6392.473083669197,22822.287760697607,-3514.5275394680507,-14588.786657517352,5206.7073453484018,17915.94074917589,-7700.3358490780356,17000.135276232562,-17000.135276232562,7700.3358490780356,34160.016271053282,0.0
663523.2936376977,3672751.2368613081,-22500.0,4299.2165370448893,8529.9306232444596,18426.209197667918,-4667.2446633287282,-12360.982527830924,4642.8174864512685,16042.945650254434,-5043.3966473988694,15767.338104792972,-15767.338104792972,5043.3966473988694,30607.944554796701,0.0
668523.2936376977,3672751.2368613081,-22500.0,6028.9913207625859,9173.3924791139925,13584.44621505199,-5168.7282870949393,-9844.9656942849888,3941.8103770286466,13848.53882288328,-2233.5883843679421,13220.682671329652,-13220.682671329652,2233.5883843679421,26468.500487147285,0.0
673523.2936376977,3672751.2368613081,-22500.0,7214.9639140678655,8672.916259707923,9059.068368210008,-5129.6707537967022,-7396.7378645191002,3195.7554389621996,11624.626645336857,212.99014753634765,10109.749648729718,-10109.749648729718,-212.99014753634765,22264.338904068947,0.0
678523.2936376977,3672751.2368613081,-22500.0,7761.4138683015772,7461.0098924063332,5261.262077102293,-4711.846955484697,-5233.4471120779681,2478.7717001476772,9579.2920446822427,2050.9526948457597,7001.3564381519654,-7001.3564381519654,-2050.9526948457597,18349.961227235821,0.0
683523.2936376977,3672751.2368613081,-22500.0,7727.0194330569057,5920.4361807943351,2327.4866282339863,-4075.3709001058119,-3452.9995629945511,1840.1493617724714,7834.9912331912665,3237.0892137430719,4241.6489380948578,-4241.6489380948578,-3237.0892137430719,14925.618957279385,0.0
688523.2936376977,3672751.2368613081,-22500.0,7246.8015048689485,4332.3209886301684,221.29104439551568,-3351.2736880570301,-2069.4450948287645,1304.6677835948535,6425.0519164135294,3846.9186184673677,1991.0037454376647,-1991.0037454376647,-3846.9186184673677,12073.448480830997,0.0
693523.2936376977,3672751.2368613081,-22500.0,6474.8245456698669,2872.7657313798341,-1181.0035040025757,-2632.5932242458184,-1047.2434298960368,877.59178326514404,5317.9341409720546,4007.6543267540092,280.68318873062526,-280.68318873062526,-4007.6543267540092,9794.3561625719849,0.0
698523.2936376977,3672751.2368613081,-22500.0,5550.3783953847224,1631.7777044460556,-2031.6299376908012,-1976.5117190537251,-327.79132921068515,551.33680689238167,4462.3880018317477,3854.3611153349107,-934.12509154678764,934.12509154678764,-3854.3611153349107,8037.7064395467769,0.0
703523.2936376977,3672751.2368613081,-22500.0,4582.7565924755691,638.41323897836048,-2477.1615055633442,-1411.6355637540576,152.93514799019806,311.59076254983188,3807.0970980847987,3506.1548288381923,-1734.0221531375123,1734.0221531375123,-3506.1548288381923,6723.2616280694519,0.0
708523.2936376977,3672751.2368613081,-22500.0,3648.2334983439405,-116.09705896771533,-2642.2048319345167,-946.50159162853845,454.30526968102606,141.85606468132556,3304.8924023632599,3056.6123548575806,-2208.88227202297,2208.88227202297,-3056.6123548575806,5758.0254679489699,0.0
713523.2936376977,3672751.2368613081,-22500.0,2793.7153501819653,-660.46156668246965,-2624.4593760499324,-577.16892432415113,626.42241895469328,26.276287978148702,2915.1709028416035,2572.837730448608,-2442.7337093995961,2442.7337093995961,-2572.837730448608,5050.3547825363394,0.0
718523.2936376977,3672751.2368613081,-22500.0,2043.1159424506968,-1031.1046217211699,-2496.0210790148212,-293.04672626459808,708.96012154312427,-48.929076332523614,2605.5597500154267,2098.9256149943244,-2506.7477424756994,2506.7477424756994,-2098.9256149943244,4520.9922584390561,0.0
723523.2936376977,3672751.2368613081,-22500.0,1404.0448583856451,-1264.7331022157866,-2307.4625932374788,-80.88683097664601,731.87699939528056,-94.974778880510783,2352.1026434503628,1661.0075788077691,-2457.3206553595733,2457.3206553595733,-1661.0075788077691,4109.0064744472902,0.0
728523.2936376977,3672751.2368613081,-22500.0,873.59474864221795,-1394.4136477680509,-2092.6198087307334,72.7578615891439,716.95028573123591,-120.56877175450603,2138.1576577965884,1272.2779863253122,-2336.9411525299879,2336.9411525299879,-1272.2779863253122,3772.1333643170274,0.0
733523.2936376977,3672751.2368613081,-22500.0,442.8056577195776,-1447.9574474429123,-1873.025990928739,180.19975078824706,679.49857389162457,-132.23510207715429,1952.7006327453173,937.25616039280749,-2176.3001727013507,2176.3001727013507,-937.25616039280749,3483.4413450838529,0.0
548523.2936376977,3677751.2368613081,-22500.0,-1993.0884798870004,1745.4024111321501,-1325.4157936080699,-761.76657184951216,613.29455289786529,-203.9698819400983,1914.9124602755492,-1049.2395771194219,921.83472565135503,-921.83472565135503,1049.2395771194219,3802.72676369497,0.0
553523.2936376977,3677751.2368613081,-22500.0,-1985.0429261957981,1930.4592765279708,-1558.7713387272297,-815.33249632333764,710.88988667251363,-230.11356136006955,2097.4615083638514,-966.79002249397888,919.54592197480895,-919.54592197480895,966.79002249397888,4147.7489801340425,0.0
558523.2936376977,3677751.2368613081,-22500.0,-1931.3120485673976,2122.243012113533,-1836.1333661561048,-862.99844682101286,822.21915839213784,-257.80741754565901,2296.9380922753417,-834.69458416206589,886.38371975228506,-886.38371975228506,834.69458416206589,4519.3553704227243,0.0
563523.2936376977,3677751.2368613081,-22500.0,-1816.4465926997218,2313.1996492886296,-2164.1059203679101,-899.42790955298005,947.42189154998619,-285.93698448375005,2513.6034267528698,-638.62367965677549,809.39018512701773,-809.39018512701773,638.62367965677549,4916.0794214453344,0.0
568523.2936376977,3677751.2368613081,-22500.0,-1621.7039696449842,2491.1839902585357,-2548.6812318877514,-917.11947334122021,1085.2899695297931,-312.56669391903756,2747.3879760484469,-361.76575958953902,671.77384512284891,-671.77384512284891,361.76575958953902,5334.9365598997456,0.0
573523.2936376977,3677751.2368613081,-22500.0,-1325.2010770559498,2637.6210145447517,-2993.7785496071597,-905.82972892954831,1232.3175916041803,-334.56145380694943,2997.8327838709715,14.614944369822325,452.40994398911937,-452.40994398911937,-14.614944369822325,5771.2228241595012,0.0
578523.2936376977,3677751.2368613081,-22500.0,-902.82208001675463,2725.2475994187485,-3498.7117819626237,-852.02001865348132,1381.2864664094825,-347.09959531017716,3264.2703134575577,509.67767023446243,125.81897567117005,-125.81897567117005,-509.67767023446243,6218.7345800971789,0.0
583523.2936376977,3677751.2368613081,-22500.0,-330.45343338109052,2715.6150394923338,-4054.0241670649357,-738.50598356341027,1519.2446067534377,-343.0974796660829,3546.4486607947192,1139.9154771700764,-336.78425532761372,336.78425532761372,-1139.9154771700764,6670.999834869368,0.0
588523.2936376977,3677751.2368613081,-22500.0,411.63555713836308,2556.8919849304602,-4634.9777517456787,-544.64521894060863,1624.7737884647315,-312.62326939576315,3845.9935234267755,1913.5784697337288,-964.36758871238476,964.36758871238476,-1913.5784697337288,7124.6387421784357,0.0
593523.2936376977,3677751.2368613081,-22500.0,1331.2454372585119,2183.1790043282044,-5191.9788164698821,-247.62071197849474,1664.5838122974526,-242.47785162314094,4169.2948231804467,2821.5400390029081,-1779.3345087934886,1779.3345087934886,-2821.5400390029081,7586.7375912191401,0.0
598523.2936376977,3677751.2368613081,-22500.0,2412.5777427107851,1517.6670603004661,-5637.6627226708233,174.34784733558092,1589.8248483920829,-116.25969105319746,4532.413837287364,3823.7252425161319,-2785.0526913672261,2785.0526913672261,-3823.7252425161319,8088.7206316131696,0.0
603523.2936376977,3677751.2368613081,-22500.0,3600.3380810454355,483.56903394081269,-5831.9044172455951,735.79485892862419,1333.2310573196762,84.623550235474426,4967.848014869247,4831.3875840790024,-3945.4841291971866,3945.4841291971866,-4831.3875840790024,8707.7315996183806,0.0
608523.2936376977,3677751.2368613081,-22500.0,4782.0860769719247,-971.69720244864038,-5569.6922886448883,1433.7831802162752,809.46027051773228,378.48225787521056,5530.3758258802036,5688.7360643026377,-5156.3410756594976,5156.3410756594976,-5688.7360643026377,9588.0852078574717,0.0
613523.2936376977,3677751.2368613081,-22500.0,5776.8037900548397,-2833.9862023101682,-4583.6413654165108,2233.5116633953758,-77.211442559523135,779.07938653994506,6294.5455822964668,6163.9068419967507,-6212.6877336362259,6212.6877336362259,-6163.9068419967507,10936.88551211224,0.0
618523.2936376977,3677751.2368613081,-22500.0,6346.1247679367689,-4963.1956400754607,-2581.9631516986751,3052.2403276104487,-1412.0371497823826,1289.7656591195416,7334.2140451161458,5968.7598268904458,-6789.8957369467989,6789.8957369467989,-5968.7598268904458,12960.088554321419,0.0
623523.2936376977,3677751.2368613081,-22500.0,6250.8969700826838,-7037.9548847780388,653.88577794274136,3749.3690234567648,-3230.9771737856931,1896.9934236556037,8683.4560432387771,4833.0138569952096,-6471.907549036051,6471.907549036051,-4833.0138569952096,15748.12798693663,0.0
628523.2936376977,3677751.2368613081,-22500.0,5364.4527431518081,-8554.8347982615524,5108.6994605096443,4137.3958304095768,-5467.6244800234545,2565.0510208336082,10296.010591769187,2643.3282849756251,-4867.770739990011,4867.770739990011,-2643.3282849756251,19177.606315110086,0.0
633523.2936376977,3677751.2368613081,-22500.0,3806.881787965483,-8946.6284091158668,10370.272187378529,4029.3037319550722,-7909.0055448866133,3234.78100470648,12029.271594239564,-397.53643884707253,-1820.8398384300908,1820.8398384300908,397.53643884707253,22883.394964957279,0.0
638523.2936376977,3677751.2368613081,-22500.0,1998.6442170722453,-7828.8966357668096,15599.744843581517,3319.4132275182442,-10202.901473964739,3829.7253322971337,13665.599911894904,-3711.4387567233225,2382.8737957946323,-2382.8737957946323,3711.4387567233225,26318.54960645469,0.0
643523.2936376977,3677751.2368613081,-22500.0,532.30645328707919,-5251.4930694273853,19754.161950483027,2057.4062915669415,-11947.666448801268,4271.5355627466088,14947.031856606211,-6503.0127476899188,6986.090067209313,-6986.090067209313,6503.0127476899188,28900.867504472491,0.0
648523.2936376977,3677751.2368613081,-22500.0,-103.31867210016563,-1751.7584197125179,21996.321200910486,456.47342943209685,-12835.933386687302,4500.7185897475474,15626.775510012354,-8095.9034455449128,11014.095786872169,-11014.095786872169,8095.9034455449128,30198.647495497884,0.0
653523.2936376977,3677751.2368613081,-22500.0,245.16903128653806,1868.142250836961,22030.061372243428,-1183.2832051608079,-12766.025407813813,4493.0482632838239,15578.816051972648,-8223.8825612652308,13676.816996031945,-13676.816996031945,8223.8825612652308,30061.120712775253,0.0
658523.2936376977,3677751.2368613081,-22500.0,1372.7929974156762,4882.6124499577727,20141.865663044315,-2586.8973958538563,-11853.280812954048,4263.7081944602069,14847.784055654745,-7078.9700926787054,14645.635707599064,-14645.635707599064,7078.9700926787054,28626.426733219076,0.0
663523.2936376977,3677751.2368613081,-22500.0,2876.5777180336986,6873.863801002848,16978.474987520891,-3583.156119916594,-10352.67203832081,3859.1817430984788,13598.983445253059,-5135.0763952675634,14061.735770690371,-14061.735770690371,5135.0763952675634,26225.425168213838,0.0
668523.2936376977,3677751.2368613081,-22500.0,4351.5497911022467,7764.7609578556003,13256.659170571071,-4121.7740831322762,-8555.9603167695641,3342.59992013489,12043.156497258668,-2914.028852464593,12354.892852458504,-12354.892852458504,2914.028852464593,23254.219738861575,0.0
673523.2936376977,3677751.2368613081,-22500.0,5512.4167245886638,7718.511033747036,9561.9665398073175,-4245.9929241297787,-6715.3177068433588,2778.6761781087057,10380.341307727071,-826.92589439228868,10031.877849335437,-10031.877849335437,826.92589439228868,20075.873350549307,0.0
678523.2936376977,3677751.2368613081,-22500.0,6224.0081417751126,7007.494243911141,6272.9125110264276,-4050.3325495657991,-5008.4693579961313,2222.3076235661247,8772.0204898787379,880.60697676243944,7532.3419240727326,-7532.3419240727326,-880.60697676243944,16970.459724652719,0.0
683523.2936376977,3677751.2368613081,-22500.0,6474.7164347688586,5912.3641010610281,3573.0536466726726,-3643.6640069172381,-3536.116159797657,1712.5890453517131,7329.4077518009472,2112.7950416327312,5167.7842869132701,-5167.7842869132701,-2112.7950416327312,14124.049661269901,0.0
688523.2936376977,3677751.2368613081,-22500.0,6330.5440895800593,4666.2813676864744,1501.6011996025607,-3125.0817069625405,-2336.4524507145638,1271.9124487662768,6103.080639488936,2879.3235735945186,3118.6938654596856,-3118.6938654596856,-2879.3235735945186,11639.526743530583,0.0
693523.2936376977,3677751.2368613081,-22500.0,5892.4889864553761,3435.5089967778358,9.2303879259910566,-2572.2352991063449,-1404.9102849602718,908.51609589654709,5092.6938094245925,3249.1853705349308,1460.1832369890467,-1460.1832369890467,-3249.1853705349308,9555.594402069908,0.0
698523.2936376977,3677751.2368613081,-22500.0,5266.0869940995608,2322.0475112399686,-996.45421262889465,-2038.6898806919205,-712.35126734742539,620.54457350711539,4276.6131710533045,3314.6728797070818,195.34495423230305,-195.34495423230305,-3314.6728797070818,7866.0283572765748,0.0
703523.2936376977,3677751.2368613081,-22500.0,4543.7968382720474,1376.4098785837725,-1619.8479673710638,-1556.5134254622615,-218.91625725872672,400.12622965077878,3627.490445464512,3168.0509405631988,-714.62711145698859,714.62711145698859,-3168.0509405631988,6535.7399852929275,0.0
708523.2936376977,3677751.2368613081,-22500.0,3797.4817619887253,612.86854499947913,-1959.1763186492751,-1141.0879507168702,116.85052804027647,236.65906652501749,3116.3083072338322,2889.1026626182775,-1327.7013043568286,1327.7013043568286,-2889.1026626182775,5513.0901148282337,0.0
713523.2936376977,3677751.2368613081,-22500.0,3077.4781609286629,23.13527776722319,-2097.8564590664,-796.2123841552982,332.83871027933793,119.06473461014538,2714.7120567228376,2540.3900862985865,-1706.0104386993,1706.0104386993,-2540.3900862985865,4739.3387757066721,0.0
718523.2936376977,3677751.2368613081,-22500.0,2415.2289765878681,-413.09082565477632,-2101.985284475812,-518.49915687364137,461.04995775850625,37.110192590810293,2397.1133609711455,2167.2087437665082,-1907.2415240560076,1907.2415240560076,-2167.2087437665082,4156.2433703989982,0.0
723523.2936376977,3677751.2368613081,-22500.0,1827.3295625464139,-720.85465518346825,-2021.2464991603476,-300.70998846897237,527.06978850377209,-17.969097364852363,2142.0994502070762,1799.9151105067144,-1980.5956895711583,1980.5956895711583,-1799.9151105067144,3711.9367016199062,0.0
728523.2936376977,3677751.2368613081,-22500.0,1319.6819430025746,-925.43753434184976,-1891.3765668289404,-134.04805434641267,550.52404704312573,-53.300412392272982,1932.9182284791887,1457.0953235111658,-1965.6538596439193,1965.6538596439193,-1457.0953235111658,3364.4748977060876,0.0
553523.2936376977,3682751.2368613081,-22500.0,-1486.9869372490141,1760.9859318052661,-1620.0299227032453,-653.89174941657836,669.26132955733158,-192.60341173018321,1891.8192553269262,-557.56442720298492,642.50980362400583,-642.50980362400583,557.56442720298492,3714.1631080644361,0.0
558523.2936376977,3682751.2368613081,-22500.0,-1374.7849030709633,1896.2612219278669,-1882.7696301928552,-673.08383337839837,762.23014763970673,-211.7925761482006,2056.2161870689624,-384.53199423478043,562.71388151059421,-562.71388151059421,384.53199423478043,4011.3478750723871,0.0
563523.2936376977,3682751.2368613081,-22500.0,-1201.1590051490807,2016.9199023246811,-2184.952800211121,-677.28327649780169,862.96806025741932,-229.73268441590938,2232.253365866588,-150.9937251991519,435.40919724730759,-435.40919724730759,150.9937251991519,4322.1961686898658,0.0
568523.2936376977,3682751.2368613081,-22500.0,-951.40444986260923,2108.9248766872888,-2527.6852249403187,-659.42298554730814,968.65058152906443,-244.38416446855348,2419.6493036028987,155.04926698757129,246.2223130230301,-246.2223130230301,-155.04926698757129,4643.3890128569374,0.0
573523.2936376977,3682751.2368613081,-22500.0,-609.85215816568927,2152.5696295328862,-2908.4304147820876,-610.40916877683196,1073.9961871564799,-252.68623175394026,2618.1456867806355,545.26840953188912,-21.557498034451157,21.557498034451157,-545.26840953188912,4971.0032039072366,0.0
578523.2936376977,3682751.2368613081,-22500.0,-161.43067390118247,2121.152848094051,-3318.340199704352,-518.96766502869173,1170.0760380779832,-250.21922347211799,2828.0030738627897,1028.9379396239208,-386.07410616190288,386.07410616190288,-1028.9379396239208,5301.57977157189,0.0
583523.2936376977,3682751.2368613081,-22500.0,405.54033144783443,1979.9675921481494,-3738.3264523005832,-371.81290716931295,1242.7617460581937,-230.84573214004223,3051.0154242357976,1609.475850228531,-864.76177519414,864.76177519414,-1609.475850228531,5634.5753927799069,0.0
588523.2936376977,3682751.2368613081,-22500.0,1094.8522610237023,1686.2840232345388,-4133.6053061391367,-154.4323310813943,1270.8549822855907,-186.40869757000993,3292.3320545573833,2279.1192594920963,-1470.1982299260399,1470.1982299260399,-2279.1192594920963,5977.1904967858854,0.0
593523.2936376977,3682751.2368613081,-22500.0,1895.8286211740094,1191.5170169034834,-4446.7341055231127,147.09400374413076,1224.1264539413635,-106.63380562133722,3563.3244701958065,3011.4189304580404,-2202.9997621532248,2202.9997621532248,-3011.4189304580404,6352.6938562512623,0.0
598523.2936376977,3682751.2368613081,-22500.0,2774.7586872990091,447.40409301227538,-4589.907960625982,542.72830008993424,1061.8215725611287,20.533755642775908,3885.2686504730373,3751.8410251349724,-3040.8793692346944,3040.8793692346944,-3751.8410251349724,6812.245574002729,0.0
603523.2936376977,3682751.2368613081,-22500.0,3665.5969316922756,-581.43918944008249,-4438.8493970832624,1033.1035568642453,732.72782325613116,207.85899376717546,4292.3606727293136,4408.1755848274051,-3923.7651597027643,3923.7651597027643,-4408.1755848274051,7445.9213040477807,0.0
608523.2936376977,3682751.2368613081,-22500.0,4463.3875963097071,-1896.4811135378354,-3833.2496233067709,1602.0920485516217,178.59085734819459,466.72626803131561,4830.5968190404519,4845.0266361628283,-4737.0896193873532,4737.0896193873532,-4845.0266361628283,8380.5933272999482,0.0
613523.2936376977,3682751.2368613081,-22500.0,5027.0535488079659,-3436.0561093820129,-2592.0727268572296,2208.3163315780348,-656.73972345690265,803.91853428864306,5548.2106499229321,4890.2368867307678,-5299.7703288611328,5299.7703288611328,-4890.2368867307678,9749.4976596279448,0.0
618523.2936376977,3682751.2368613081,-22500.0,5200.882342510572,-5044.6379859287263,-553.94883392314273,2778.5525710207407,-1810.3027201218251,1217.567015312902,6476.8117626234143,4363.8669052578825,-5369.7291257265879,5369.7291257265879,-4363.8669052578825,11636.122371609128,0.0
623523.2936376977,3682751.2368613081,-22500.0,4862.0946428991938,-6457.9335574331053,2351.8199752681385,3208.4975110112737,-3275.4279719247947,1693.1701396183889,7609.3931504192806,3137.4843044691856,-4684.3549920533442,4684.3549920533442,-3137.4843044691856,14020.41590107736,0.0
628523.2936376977,3682751.2368613081,-22500.0,3989.2194819999895,-7330.5980586889818,6016.028002513649,3377.7149618777121,-4975.6174141004612,2201.1789097943865,8885.6263136671714,1216.2908514517319,-3047.0311814584356,3047.0311814584356,-1216.2908514517319,16752.290663464257,0.0
633523.2936376977,3682751.2368613081,-22500.0,2721.6762811785379,-7327.0829047808011,10084.620722344949,3182.1850560132834,-6750.9163301485933,2697.9228167206184,10193.371436894478,-1191.5191053932856,-443.63546943714869,443.63546943714869,1191.5191053932856,19558.894684327217,0.0
638523.2936376977,3682751.2368613081,-22500.0,1361.4845264741637,-6259.8136660495275,13980.581627019546,2577.0964619499346,-8374.2220769053474,3131.1885911925833,11388.497252462605,-3675.5624459185174,2869.004097678554,-2869.004097678554,3675.5624459185174,22088.555017957027,0.0
643523.2936376977,3682751.2368613081,-22500.0,285.11365124708146,-4206.0669308611159,17047.216034900466,1609.0569984681251,-9604.3362178454408,3450.1668559813847,12317.76837651102,-5731.1621258532268,6379.0187105970781,-6379.0187105970781,5731.1621258532268,23989.637453518793,0.0
648523.2936376977,3682751.2368613081,-22500.0,-204.23149145489322,-1518.9083097249081,18765.404352427096,414.71007919346505,-10258.244144218193,3617.0570888333759,12837.466425519591,-6939.199760913003,9467.2198052141121,-9467.2198052141121,6939.199760913003,25001.855873463639,0.0
653523.2936376977,3682751.2368613081,-22500.0,2.7578038594983147,1291.8842065783701,18927.648066771028,-819.1609841260356,-10266.506301420455,3615.9850706863131,12862.65653409999,-7117.0941280736461,11618.475007629446,-11618.475007629446,7117.0941280736461,25020.998715079462,0.0
658523.2936376977,3682751.2368613081,-22500.0,799.82612504045096,3740.4320194810762,17673.48055153013,-1913.4803630627168,-9683.7484097859597,3455.7420695936908,12404.268170835596,-6355.0225404084449,12577.559371335206,-12577.559371335206,6355.0225404084449,24108.935305060368,0.0
663523.2936376977,3682751.2368613081,-22500.0,1939.5141804151215,5504.6906149608803,15388.584269979216,-2743.0313600245281,-8655.3541403442086,3165.8080023662142,11551.721573856721,-4936.4139293673688,12377.767975873383,-12377.767975873383,4936.4139293673688,22452.433199094779,0.0
668523.2936376977,3682751.2368613081,-22500.0,3142.5270488339943,6471.4414469821295,12547.420319489973,-3254.2574245353944,-7364.4613177836445,2787.9215370160209,10434.202051522667,-3210.4486714410159,11261.50691258103,-11261.50691258103,3210.4486714410159,20298.470345256486,0.0
673523.2936376977,3682751.2368613081,-22500.0,4182.7407231252373,6700.2384653095369,9580.9134726953944,-3457.1117456108659,-5984.7900047051089,2366.5572466386175,9186.749915043918,-1486.1118049200741,9561.6615044721202,-9561.6615044721202,1486.1118049200741,17894.983910237839,0.0
678523.2936376977,3682751.2368613081,-22500.0,4924.8437022511416,6351.9736299143069,6805.5275799094588,-3403.3890579292829,-4652.2416735380812,1941.145557656796,7929.1676182601041,22.064012066086434,7601.9830984005539,-7601.9830984005539,-22.064012066086434,15452.273471996568,0.0
683523.2936376977,3682751.2368613081,-22500.0,5322.4377029563439,5620.7246527367379,4408.5681405025025,-3163.4691452742018,-3455.5463158911216,1541.4901707349395,6753.740237659963,1201.9692149502466,5639.7305371733109,-5639.7305371733109,-1201.9692149502466,13126.236244271156,0.0
688523.2936376977,3682751.2368613081,-22500.0,5395.2891416653465,4686.908585075199,2467.4706783265688,-2808.291910217763,-2439.9915241528251,1186.4396259418093,5713.2143571071747,2024.9979015382444,3847.1059151599065,-3847.1059151599065,-2024.9979015382444,11017.500188612436,0.0
693523.2936376977,3682751.2368613081,-22500.0,5201.6516615025712,3693.5609714762181,981.94483246974244,-2398.5324001046974,-1617.4650040131023,884.95076286433903,4821.950119777759,2518.0483295122476,2317.6360696481343,-2317.6360696481343,-2518.0483295122476,9179.2837520761404,0.0
698523.2936376977,3682751.2368613081,-22500.0,4814.6985838535165,2740.0321356573918,-94.454860586055048,-1980.0746819873521,-977.81092885388671,638.3966357744323,4075.0238362508262,2737.3651276335918,1084.0124415475225,-1084.0124415475225,-2737.3651276335918,7628.4294975411512,0.0
703523.2936376977,3682751.2368613081,-22500.0,4306.3023233788826,1885.9779328576326,-829.44026677734598,-1583.8107997336047,-498.71003418237166,443.15527875083092,3460.2406300883063,2748.8743227616319,138.17876241464182,-138.17876241464182,-2748.8743227616319,6356.2466569469543,0.0
708523.2936376977,3682751.2368613081,-22500.0,3737.9587320118148,1159.8796481175787,-1295.1526028224644,-1227.8050824363413,-153.01218171308204,292.87891894388105,2961.5551513485352,2615.706239270809,-551.22306705228129,551.22306705228129,-2615.706239270809,5337.6053534955099,0.0
713523.2936376977,3682751.2368613081,-22500.0,3157.1857225647723,568.37244256989982,-1558.3470771788823,-920.34626699687396,86.498377180174231,180.19211193974766,2560.9719546950732,2391.6979126136744,-1025.8327160791532,1025.8327160791532,-2391.6979126136744,4537.9873170095034,0.0
718523.2936376977,3682751.2368613081,-22500.0,2597.4541781383891,104.42690456526483,-1675.7543494389763,-662.97409519670896,244.43293647502031,97.80189246967187,2240.3415243851973,2119.097431966502,-1328.9787778893265,1328.9787778893265,-2119.097431966502,3918.8771957678478,0.0
723523.2936376977,3682751.2368613081,-22500.0,2080.0125504402235,-246.35341633250863,-1692.7976185310447,-453.0268952525193,341.62048515963249,39.121213991078434,1982.8359245152333,1828.8183000763242,-1500.7084609450462,1500.7084609450462,-1828.8183000763242,3441.9939306585197,0.0
553523.2936376977,3687751.2368613081,-22500.0,-1054.5366164389159,1564.0197263813759,-1636.7056858341034,-510.32594787740413,616.82213111790531,-158.62372642704472,1697.9836453005648,-217.87329331015982,388.79399263622145,-388.79399263622145,217.87329331015982,3305.1978703791519,0.0
558523.2936376977,3687751.2368613081,-22500.0,-903.47045237093437,1645.9778139904879,-1875.3930484511125,-507.61960059308916,691.19856407148961,-170.82497799301532,1832.4090908132482,-22.834235317589872,275.1101811886823,-275.1101811886823,22.834235317589872,3539.4216829095835,0.0
563523.2936376977,3687751.2368613081,-22500.0,-695.12525315350331,1703.1442782155889,-2141.4744683080726,-488.21935625068249,768.13023173246938,-180.65791687130044,1974.7925882733045,225.42883582814125,114.48573808636979,-114.48573808636979,-225.42883582814125,3779.9404751592438,0.0
568523.2936376977,3687751.2368613081,-22500.0,-419.13710965809832,1721.2483043434011,-2431.9160099705,-445.96740392246994,843.77993018887207,-186.14848408147677,2125.113792313452,534.1194707592017,-104.18365825543654,104.18365825543654,-534.1194707592017,4024.320918395058,0.0
573523.2936376977,3687751.2368613081,-22500.0,-65.840599211400374,1681.5664498359529,-2739.1932746154507,-373.37967651177007,911.96533029147736,-184.49874609406299,2283.8465318918579,908.51217697483753,-392.55442729395435,392.55442729395435,-908.51217697483753,4270.8261289337306,0.0
578523.2936376977,3687751.2368613081,-22500.0,371.95628684211425,1560.4506403074795,-3048.8782784716536,-261.77130883958779,963.25648863389563,-171.87253254829682,2452.6500434167574,1349.7931206834303,-761.39892168749361,761.39892168749361,-1349.7931206834303,4520.1427998072404,0.0
583523.2936376977,3687751.2368613081,-22500.0,896.2544533235324,1329.4855479780394,-3336.4341488118239,-101.72787863428702,983.91567872067276,-143.20019881576536,2635.5272623879737,1851.8921770856516,-1218.0371246380785,1218.0371246380785,-1851.8921770856516,4778.5292985575361,0.0
588523.2936376977,3687751.2368613081,-22500.0,1500.0460164592839,956.8945006970423,-3563.2822814162137,115.86469925845297,954.80126499639687,-92.070635540897229,2840.5385263587614,2397.1897260163037,-1762.1819236300821,1762.1819236300821,-2397.1897260163037,5062.8915746797693,0.0
593523.2936376977,3687751.2368613081,-22500.0,2162.4827490655398,411.09561300859048,-3672.5857670302394,397.97630273522344,850.51701907424626,-10.821284751400029,3081.9015946718373,2951.2888511804799,-2379.810339348845,2379.810339348845,-2951.2888511804799,5407.6047274402308,0.0
598523.2936376977,3687751.2368613081,-22500.0,2843.6599586813277,-332.48218146813252,-3585.8985737405123,746.54374491636486,639.32817951665561,109.01996270704117,3381.6836802405769,3457.6911477331414,-3035.0512369734815,3035.0512369734815,-3457.6911477331414,5870.6718836754235,0.0
603523.2936376977,3687751.2368613081,-22500.0,3480.603096208305,-1280.3416177326301,-3202.9435337351038,1154.4815881739416,284.66804877691408,275.76690100478316,3769.3800772118093,3834.3212464849885,-3661.0336188348465,3661.0336188348465,-3834.3212464849885,6533.0324751463759,0.0
608523.2936376977,3687751.2368613081,-22500.0,3987.3889283610142,-2405.5853087946193,-2408.1760922060562,1600.9782637186208,-250.67654533974496,495.95004866041654,4277.2759014655894,3975.3523717498297,-4152.4397994672972,4152.4397994672972,-3975.3523717498297,7483.4554478555801,0.0
613523.2936376977,3687751.2368613081,-22500.0,4263.5666876039277,-3630.6702946987803,-1088.7431218085981,2047.2540079897901,-996.64494762600862,772.05521208809603,4930.8721985296133,3763.0811219182406,-4365.0746969246948,4365.0746969246948,-3763.0811219182406,8789.1508293186671,0.0
618523.2936376977,3687751.2368613081,-22500.0,4214.9111404208106,-4814.7222754895765,832.60461650436173,2435.0247547779018,-1963.9491069897542,1099.9328151285169,5736.746914446815,3094.2242213276586,-4130.1097121318071,4130.1097121318071,-3094.2242213276586,10464.762424500706,0.0
623523.2936376977,3687751.2368613081,-22500.0,3786.8973213887698,-5756.4619946273233,3351.5369767760826,2690.7448046209688,-3129.7342032030601,1466.550930405791,6672.3811575605014,1920.553462555361,-3290.0200015104374,3290.0200015104374,-1920.553462555361,12453.110239817914,0.0
628523.2936376977,3687751.2368613081,-22500.0,3002.8242688881614,-6224.8580462099253,6335.9022901141543,2738.2505136577402,-4425.5828599594661,1849.0701716091944,7682.2374360058075,293.88467345670745,-1755.8472380386115,1755.8472380386115,-293.88467345670745,14621.357040310688,0.0
633523.2936376977,3687751.2368613081,-22500.0,1987.7966615649698,-6021.1465452445964,9504.3652127673195,2519.4206564279984,-5735.3434235180803,2216.2124559553145,8682.9733824696686,-1606.7655305289691,430.15821798579157,-430.15821798579157,1606.7655305289691,16772.645129211302,0.0
638523.2936376977,3687751.2368613081,-22500.0,956.15360557015867,-5056.1212167518943,12457.2955615997,2017.0679503370213,-6909.672729283956,2532.3999508212214,9577.8168286735872,-3491.8717199991779,3058.7510288571357,-3058.7510288571357,3491.8717199991779,18675.162440015953,0.0
643523.2936376977,3687751.2368613081,-22500.0,153.7405971779026,-3406.1076519304092,14767.419041492192,1269.5081093033339,-7797.6541281201653,2764.1137375428607,10270.974036332584,-5031.763530967597,5777.3443657941662,-5777.3443657941662,5031.763530967597,20106.625329640276,0.0
648523.2936376977,3687751.2368613081,-22500.0,-224.83944361137648,-1310.8058958887029,16100.70527429331,367.25227774641309,-8285.5409309192746,2886.7824761283887,10674.199096351742,-5957.3212250668785,8178.3988168176111,-8178.3988168176111,5957.3212250668785,20902.547764859239,0.0
653523.2936376977,3687751.2368613081,-22500.0,-102.43516711692126,894.22140610451413,16311.741303404749,-569.23871508267598,-8326.1535964884788,2889.9347587769148,10729.564350198852,-6142.6809363745306,9916.9377823746781,-9916.9377823746781,6142.6809363745306,20990.656826329312,0.0
658523.2936376977,3687751.2368613081,-22500.0,464.64223131196172,2878.1345235367089,15469.085808331558,-1421.2444132740695,-7946.3231525676574,2778.8642488361133,10435.407177909041,-5629.9037482636122,10801.326329176482,-10801.326329176482,5629.9037482636122,20398.732164140234,0.0
663523.2936376977,3687751.2368613081,-22500.0,1322.4932291369369,4399.9331690809731,13807.614642218377,-2099.1258319204103,-7231.6251839940032,2572.44220845974,9841.5764255191316,-4591.6854560071733,10820.310842773702,-10820.310842773702,4591.6854560071733,19235.937623117436,0.0
668523.2936376977,3687751.2368613081,-22500.0,2281.0288819567913,5346.847227374361,11641.886663415507,-2556.0257599989277,-6298.2694525625584,2298.1657626088772,9028.6953722481376,-3260.9414568257102,10108.791620040462,-10108.791620040462,3260.9414568257102,17658.88612970812,0.0
673523.2936376977,3687751.2368613081,-22500.0,3169.7229589165299,5725.389982110426,9282.3303875166494,-2786.944322332814,-5264.6777390544094,1986.2714356766737,8087.7791633414308,-1863.0952282337494,8882.2165980456157,-8882.2165980456157,1863.0952282337494,15836.364609775999,0.0
678523.2936376977,3687751.2368613081,-22500.0,3870.1180687923061,5624.4712225621906,6979.9306855121258,-2818.1651369663687,-4231.184222308756,1664.6315825539857,7105.7789889788064,-572.73340915830067,7371.7983408916489,-7371.7983408916489,572.73340915830067,13922.381564957592,0.0
683523.2936376977,3687751.2368613081,-22500.0,4323.7481144653539,5172.45108562515,4904.1112465651668,-2693.4267952998775,-3270.2723998669057,1355.4438056419795,6155.8362115306727,501.91256543543932,5779.2204909313532,-5779.2204909313532,-501.91256543543932,12040.796706739979,0.0
688523.2936376977,3687751.2368613081,-22500.0,4523.3318641591604,4502.232062983685,3145.573655152451,-2461.5690891615768,-2425.5522375192108,1073.9068116542849,5286.3582193250713,1314.1589213763427,4254.6860057423919,-4254.6860057423919,-1314.1589213763427,10280.196299328007,0.0
693523.2936376977,3687751.2368613081,-22500.0,4496.6792858984691,3729.397773904861,1732.4571963921103,-2167.8800056987702,-1716.0917522379707,828.48587199807469,4517.3819510427074,1863.8405384813786,2893.4023770804724,-2893.4023770804724,-1863.8405384813786,8695.7525580167348,0.0
698523.2936376977,3687751.2368613081,-22500.0,4290.2752248115121,2942.4031359449045,650.3527689394997,-1849.4013385130654,-1142.9436588381159,622.1302937438744,3852.6451176188057,2180.0272754682683,1743.0295424361591,-1743.0295424361591,-2180.0272754682683,7314.7511790808076,0.0
703523.2936376977,3687751.2368613081,-22500.0,3956.1930150285366,2201.3286446642555,-139.50841779547557,-1533.3963321261024,-695.69604010137107,453.84498536237811,3288.93430310237,2306.0666715023408,815.63731166241018,-815.63731166241018,-2306.0666715023408,6143.295156886139,0.0
708523.2936376977,3687751.2368613081,-22500.0,3543.4158425786941,1541.496727811156,-686.32838905936967,-1237.8656374200718,-357.9038347830795,320.19712649775283,2818.7601139733902,2288.7243487069918,99.909993179863477,-99.909993179863477,-2288.7243487069918,5172.6531243115205,0.0
713523.2936376977,3687751.2368613081,-22500.0,3093.1598169913559,979.07695715232489,-1040.4226133448128,-973.11446092922051,-111.03031414661282,216.53938011575261,2431.7504846774518,2171.4461461672599,-428.59275825003442,428.59275825003442,-2171.4461461672599,4384.5541013752445,0.0
718523.2936376977,3687751.2368613081,-22500.0,2637.1877827079011,516.84529754384369,-1247.8130851957073,-743.65083370532102,63.021778684037827,137.88454470564511,2116.0428439461248,1990.9489677706956,-799.85697840528974,799.85697840528974,-1990.9489677706956,3755.303619717612,0.0
723523.2936376977,3687751.2368613081,-22500.0,2198.0310560974981,149.14547997244026,-1347.6929465686858,-549.98331711772096,180.50482482153913,79.45903577648231,1859.524627368573,1776.1258583773138,-1044.4078861487205,1044.4078861487205,-1776.1258583773138,3258.919834823279,0.0
558523.2936376977,3692751.2368613081,-22500.0,-516.06707807540386,1388.8224316766352,-1822.0344965325367,-367.09601561071577,614.56850589000089,-135.17684462058315,1628.1942441622539,255.42562099719271,30.715230899440272,-30.715230899440272,-255.42562099719271,3109.9684150205426,0.0
563523.2936376977,3692751.2368613081,-22500.0,-292.42593331463524,1392.2159913908836,-2046.070682275654,-331.60285660512108,669.68323553197331,-138.81491323891697,1743.6672336034128,501.03412065918724,-147.90151348426957,147.90151348426957,-501.03412065918724,3295.2010228850731,0.0
568523.2936376977,3692751.2368613081,-22500.0,-12.033632955321348,1351.0019086833963,-2279.66637080685,-274.21584195235863,718.89214210209286,-137.63075662622614,1865.4685509684473,793.58588128681936,-377.40467657447448,377.40467657447448,-793.58588128681936,3482.060297222632,0.0
573523.2936376977,3692751.2368613081,-22500.0,329.68393557913828,1248.7927038881912,-2511.9804095543768,-189.16520659573973,755.81119766476468,-129.18948652794771,1995.0193430756742,1133.2459716655585,-664.60310440135254,664.60310440135254,-1133.2459716655585,3671.6765384422069,0.0
578523.2936376977,3692751.2368613081,-22500.0,733.86065413903054,1066.270186639252,-2725.5318685443913,-70.233260087681018,771.37309181545027,-110.30090123410226,2135.3802407937037,1515.4028620264189,-1013.8772063893531,1013.8772063893531,-1515.4028620264189,3869.1553329530279,0.0
583523.2936376977,3692751.2368613081,-22500.0,1195.9139902763859,782.08672948051094,-2893.893256269489,88.653664062286552,753.19272393690608,-76.936651795516454,2292.3020982144872,1928.1366446339937,-1424.6850108040096,1424.6850108040096,-1928.1366446339937,4086.7362898924407,0.0
588523.2936376977,3692751.2368613081,-22500.0,1702.7210860152261,374.95832322752233,-2979.2675214564242,292.39423453393636,685.06063176747216,-24.239453052572316,2475.4708171465954,2349.1976021775436,-1888.0051975649565,1888.0051975649565,-2349.1976021775436,4347.8717851099191,0.0
593523.2936376977,3692751.2368613081,-22500.0,2229.5669719037601,-172.49793288952105,-2930.5356342590444,543.12100899075278,546.81974891162736,53.299071936854567,2699.5119076896613,2742.9191801140637,-2381.721851862641,2381.721851862641,-2742.9191801140637,4690.8718412893177,0.0
598523.2936376977,3692751.2368613081,-22500.0,2737.626217019148,-867.68421906391029,-2682.8745322589598,838.00233123752571,315.02382225967187,161.397147805667,2983.8815600062062,3057.9970239254349,-2865.3906457965199,2865.3906457965199,-3057.9970239254349,5168.8900597024576,0.0
603523.2936376977,3692751.2368613081,-22500.0,3173.350544734692,-1699.6023110335739,-2160.6677968666613,1166.5788944274793,-35.095915350184349,305.18858777074348,3350.5530250594543,3227.7448097063766,-3275.6133948040492,3275.6133948040492,-3227.7448097063766,5842.2285441765825,0.0
608523.2936376977,3692751.2368613081,-22500.0,3471.7380787409393,-2628.9702550487236,-1285.9228093901779,1508.115740275291,-525.80641183298314,488.03428639803366,3818.9863020541407,3175.0773973498872,-3524.3750336337635,3524.3750336337635,-3175.0773973498872,6762.3579337728688,0.0
613523.2936376977,3692751.2368613081,-22500.0,3565.6199717694858,-3579.4533512514263,5.7851534752896292,1829.9287825516296,-1170.8850539890414,710.01383517479803,4399.2920898034445,2824.5635095163148,-3503.8570320239,3503.8570320239,-2824.5635095163148,7953.4719806173516,0.0
618523.2936376977,3692751.2368613081,-22500.0,3402.0398195385937,-4434.7191577532858,1741.5738603077782,2088.1040429736136,-1967.8613132135338,966.3511550009548,5085.6935561508299,2122.556225730531,-3101.5399288363551,3101.5399288363551,-2122.556225730531,9399.1233798147368,0.0
623523.2936376977,3692751.2368613081,-22500.0,2963.8151642425628,-5047.4258419244015,3883.4517395507874,2232.1261774248055,-2890.1057409746709,1246.2320112279465,5852.4488602121701,1062.8839459652897,-2227.4550022566227,2227.4550022566227,-1062.8839459652897,11036.765553995787,0.0
628523.2936376977,3692751.2368613081,-22500.0,2289.6351893663409,-5264.7468402674285,6305.8970563368011,2214.1518325443153,-3881.812205364397,1532.5936903845384,6653.7906092755902,-289.85513139787508,-850.02269071953083,850.02269071953083,289.85513139787508,12759.679815790059,0.0
633523.2936376977,3692751.2368613081,-22500.0,1481.9629586432218,-4968.7586755807752,8792.5675497602606,2001.7364159985536,-4859.6539525502749,1803.3875610640614,7428.9663415971991,-1791.9257342900214,970.98281469782387,-970.98281469782387,1791.9257342900214,14426.839191938128,0.0
638523.2936376977,3692751.2368613081,-22500.0,692.86375480084052,-4120.0250316477686,11063.661847874357,1590.2503228385106,-5723.7059994531401,2034.4539198129746,8112.0569868835028,-3238.4032411138328,3071.5350364836809,-3071.5350364836809,3238.4032411138328,15881.841665555199,0.0
643523.2936376977,3692751.2368613081,-22500.0,86.647888477239718,-2785.0016043372334,12833.450773084545,1009.6078681612365,-6376.5945569166824,2203.5514889464202,8640.8761955863029,-4408.6255953198088,5204.4622132375316,-5204.4622132375316,4408.6255953198088,16979.046265693407,0.0
648523.2936376977,3692751.2368613081,-22500.0,-208.25859793925704,-1130.597626625361,13880.368989619483,321.14088692559255,-6745.2852557702963,2294.5238776280344,8958.6019116617827,-5124.779168909763,7093.7974682747117,-7093.7974682747117,5124.779168909763,17610.603173170624,0.0
653523.2936376977,3692751.2368613081,-22500.0,-137.23847757484168,615.90254891411473,14101.683550186135,-395.39727692748369,-6797.4849510063759,2300.3577540147671,9024.754224223856,-5299.2430244301831,8503.1420886253309,-8503.1420886253309,5299.2430244301831,17725.81346710791,0.0
658523.2936376977,3692751.2368613081,-22500.0,269.48520417209778,2225.3231496419098,13530.709840444921,-1059.9786702232552,-6546.571745288843,2224.1973868338464,8833.4060355305846,-4950.8758926364899,9290.1967767245824,-9290.1967767245824,4950.8758926364899,17336.63057721491,0.0
663523.2936376977,3692751.2368613081,-22500.0,914.76505091809963,3519.1519320533316,12313.491278230222,-1608.7763360726067,-6044.2468349509036,2078.1081821846087,8413.0710739988754,-4186.9260998551508,9427.7609175104662,-9427.7609175104662,4186.9260998551508,16508.792543706357,0.0
668523.2936376977,3692751.2368613081,-22500.0,1669.5044443666625,4398.3673167101706,10660.085453935053,-2003.8167882753255,-5365.1827273802428,1880.1478010720768,7815.0320868058161,-3163.3862956269659,8989.5543087943752,-8989.5543087943752,3163.3862956269659,15343.383550127437,0.0
673523.2936376977,3692751.2368613081,-22500.0,2408.3206263620395,4844.8956769143051,8792.0997681942881,-2234.4233961484974,-4589.9548824731182,1650.7531978342611,7100.9219143496139,-2042.3920090860797,8114.0162486438094,-8114.0162486438094,2042.3920090860797,13955.741874187777,0.0
678523.2936376977,3692751.2368613081,-22500.0,3034.2968060035255,4903.5213219916759,6902.7450506729165,-2312.330994028674,-3791.2963694139817,1409.4430511170733,6333.2007308157717,-960.51792471015779,6963.3850873452002,-6963.3850873452002,960.51792471015779,12457.39445582832,0.0
683523.2936376977,3692751.2368613081,-22500.0,3489.3137112395661,4655.9728201115204,5135.6107246530573,-2263.7507366076338,-3025.9836636871628,1172.4977152437832,5568.3700162655769,-12.984573893815195,5690.7405217696833,-5690.7405217696833,12.984573893815195,10943.938037404265,0.0
688523.2936376977,3692751.2368613081,-22500.0,3752.5449803649199,4196.6432748187663,3580.179657311246,-2121.3226093866529,-2332.1814316954537,951.81980131220132,4848.3681904413143,748.24858138251011,4420.1516785595395,-4420.1516785595395,-748.24858138251011,9489.1362774208283,0.0
693523.2936376977,3692751.2368613081,-22500.0,3832.118711165273,3614.8847289684782,2278.3559972144062,-1917.7445181006067,-1730.7356857422503,754.82201325583014,4194.3791360402056,1307.6263797796914,3239.2131391823846,-3239.2131391823846,-1307.6263797796914,8143.9725952547778,0.0
698523.2936376977,3692751.2368613081,-22500.0,3754.5857955436713,2984.8959137135266,1236.0809955033089,-1681.6986754793047,-1228.6027187711029,585.00437064595735,3614.0063690821753,1675.4918978081892,2200.4008805113926,-2200.4008805113926,-1675.4918978081892,6938.8790793839471,0.0
703523.2936376977,3692751.2368613081,-22500.0,3555.2723981269223,2361.9445972341978,435.68517679860463,-1435.902649982128,-822.93044677444698,442.86498825929641,3108.9272050404247,1877.5599706273517,1327.2539008976621,-1327.2539008976621,-1877.5599706273517,5887.5221949184124,0.0
708523.2936376977,3692751.2368613081,-22500.0,3270.9699323748623,1782.8621129104761,-153.4858956633972,-1196.7388549571242,-504.84103694398868,326.86464620461112,2676.9603352008585,1946.3035109752514,622.20651506639979,-622.20651506639979,-1946.3035109752514,4990.9550356872569,0.0
713523.2936376977,3692751.2368613081,-22500.0,2935.2519989381281,1268.8565548727715,-567.12202291336268,-974.85598604846473,-262.45733916463661,234.27511736867015,2312.9516903662379,1914.8826032470688,74.064487473529994,-74.064487473529994,-1914.8826032470688,4241.4317931402657,0.0
718523.2936376977,3692751.2368613081,-22500.0,2576.0498750707366,829.17421580244309,-840.68158390703468,-776.23206308780573,-83.058949878723411,161.83542608860577,2009.7727207544876,1813.458239335358,-335.86922711750742,335.86922711750742,-1813.458239335358,3625.5561596950674,0.0
563523.2936376977,3697751.2368613081,-22500.0,17.628348830487688,1098.621081431593,-1912.1238325655902,-205.08547254331418,572.8034628930177,-103.88264714062032,1539.5280257370414,689.94007366244909,-352.16395168556738,352.16395168556738,-689.94007366244909,2869.7767701260955,0.0
568523.2936376977,3697751.2368613081,-22500.0,287.19321040383852,1012.9462998326499,-2089.0694656120486,-139.79120009024916,599.83539054287701,-98.100502273547832,1640.1735576109152,954.5300505593716,-578.11707603921309,578.11707603921309,-954.5300505593716,3015.9126855499662,0.0
573523.2936376977,3697751.2368613081,-22500.0,602.67629726249891,867.71354263713886,-2250.4804958701825,-50.451977118755103,611.74346885552575,-85.392866077380901,1749.1338018668062,1249.4207198192316,-848.77065736479301,848.77065736479301,-1249.4207198192316,3168.5770385909091,0.0
578523.2936376977,3697751.2368613081,-22500.0,961.058911095658,648.25463605679283,-2377.9162868967251,67.042627318158623,600.34930853324795,-63.196969140151751,1870.5501269651154,1566.4064972038116,-1163.5575059965538,1163.5575059965538,-1566.4064972038116,3336.6652122156738,0.0
583523.2936376977,3697751.2368613081,-22500.0,1353.921232688185,339.88917578965783,-2445.6477680387779,216.14620456356062,555.07981222783087,-28.413482688498014,2011.1409768216824,1890.7473340664267,-1516.534743234233,1516.534743234233,-1890.7473340664267,3536.4346477736758,0.0
588523.2936376977,3697751.2368613081,-22500.0,1765.5989801079288,-69.843998378439125,-2419.4702895804649,398.75693801760383,462.85396542343591,22.523891068565383,2180.823921875115,2199.3179520302297,-1893.664045925447,1893.664045925447,-2199.3179520302297,3793.7557627404394,0.0
593523.2936376977,3697751.2368613081,-22500.0,2171.5771361097081,-587.71980343671112,-2256.3367724376317,613.97740093632422,308.36589102863678,93.446757641232665,2392.7317816853638,2459.1757381151797,-2269.7148511324008,2269.7148511324008,-2459.1757381151797,4144.3554458699009,0.0
598523.2936376977,3697751.2368613081,-22500.0,2537.7924235592254,-1210.0340162924315,-1905.6665295437961,856.58162322610838,75.028799686238457,188.0656057900525,2662.0321483861426,2627.3351205797853,-2605.365922869134,2605.365922869134,-2627.3351205797853,4629.8228990037842,0.0
603523.2936376977,3697751.2368613081,-22500.0,2821.824884720616,-1916.8154797946879,-1313.4486474195364,1115.3894866036621,-253.1272603058249,309.35945069949486,3003.2099157044654,2652.8654399534148,-2845.6074283652747,2845.6074283652747,-2652.8654399534148,5288.6939818819774,0.0
608523.2936376977,3697751.2368613081,-22500.0,2977.1115888962722,-2666.1195632040644,-430.26002411658908,1371.9676219214061,-688.387988391264,458.74533513677738,3426.1467703857743,2482.5601656538047,-2921.1208133984073,2921.1208133984073,-2482.5601656538047,6145.2778882159009,0.0
613523.2936376977,3697751.2368613081,-22500.0,2961.0285945679452,-3390.4819579472723,776.25792198692216,1600.3195395670912,-1235.1594344741193,635.10995974173045,3932.0090193598521,2071.0413131996393,-2754.6451639836032,2754.6451639836032,-2071.0413131996393,7200.5242629126578,0.0
618523.2936376977,3697751.2368613081,-22500.0,2746.6116121898676,-3998.5124528476003,2305.4371857514225,1768.3714862836509,-1885.1833303941803,833.89270627958149,4510.0936080629363,1394.877388110086,-2273.8786589226174,2273.8786589226174,-1394.877388110086,8427.1438243416924,0.0
623523.2936376977,3697751.2368613081,-22500.0,2335.7074798443359,-4384.6416282882028,4107.5905177936829,1841.9070543387911,-2613.3782332337514,1046.5109154478851,5136.4908553427304,468.00342576872288,-1430.6229608068597,1430.6229608068597,-468.00342576872288,9768.7384852243449,0.0
628523.2936376977,3697751.2368613081,-22500.0,1768.997076780719,-4448.2521068156511,6074.1208165943117,1790.9631837939251,-3376.1148789506847,1260.4566102301942,5775.1887459720101,-646.9302826020828,-222.53576616173837,222.53576616173837,646.9302826020828,11142.709557308332,0.0
633523.2936376977,3697751.2368613081,-22500.0,1127.065694723568,-4119.4753032943609,8040.9447045662755,1597.5858286318103,-4113.7747004888306,1460.3098369540155,6382.1171934820522,-1838.0263278012628,1289.8872313623267,-1289.8872313623267,1838.0263278012628,12447.701135671294,0.0
638523.2936376977,3697751.2368613081,-22500.0,518.33773143858411,-3384.0467412469502,9809.7971625199862,1262.6530637332241,-4758.4666656968411,1629.6766032806077,6911.7931475440164,-2959.2020355624736,2980.1196396300875,-2980.1196396300875,2959.2020355624736,13575.991409474887,0.0
643523.2936376977,3697751.2368613081,-22500.0,54.85317481808584,-2296.8917246201013,11185.143155480906,808.9928170116907,-5245.8283510354449,1753.7311110444891,7322.739586278105,-3859.6593990937181,4672.1261999396283,-4672.1261999396283,3859.6593990937181,14429.387561753487,0.0
648523.2936376977,3697751.2368613081,-22500.0,-176.62549927716663,-976.62605251582647,12016.252215125309,278.90418399365785,-5527.741380300763,1821.7560801937011,7576.7891175316327,-4419.093165575463,6174.6231948627283,-6174.6231948627283,4419.093165575463,14935.069666516858,0.0
653523.2936376977,3697751.2368613081,-22500.0,-137.11826814505432,419.12605895880364,12229.720096038789,-273.69707473778686,-5581.841666401112,1828.983861699583,7644.7629015310513,-4575.7843804500662,7322.3442929177763,-7322.3442929177763,4575.7843804500662,15056.971171385447,0.0
658523.2936376977,3697751.2368613081,-22500.0,157.13236050841843,1728.9835251906791,11840.998693681386,-794.03186566001273,-5414.733713637228,1777.228133244038,7519.7654315632644,-4337.2916633462173,8009.7174421303771,-8009.7174421303771,4337.2916633462173,14799.530256724309,0.0
663523.2936376977,3697751.2368613081,-22500.0,643.86793597962014,2820.853656503391,10942.645361433366,-1236.5710161608608,-5058.3193644850944,1674.1851462769814,7218.4556005136674,-3771.4331482017301,8206.1244054469717,-8206.1244054469717,3771.4331482017301,14203.313573037498,0.0
668523.2936376977,3697751.2368613081,-22500.0,1235.0948448210665,3612.5607950574272,9676.3134318439061,-1571.6237991209093,-4561.1919142093284,1531.6991168125189,6774.0634344325099,-2983.4946358281823,7950.5951498519889,-7950.5951498519889,2983.4946358281823,13334.678453601051,0.0
673523.2936376977,3697751.2368613081,-22500.0,1839.7288230152944,4076.57418257165,8199.8848309476125,-1787.2771244276882,-3978.3201658026637,1363.5468065766515,6228.6399635231428,-2089.4763064609324,7331.7722562619238,-7331.7722562619238,2089.4763064609324,12272.99757403104,0.0
678523.2936376977,3697751.2368613081,-22500.0,2381.3925645715503,4231.7561412680507,6659.6551818967919,-1887.3326893388592,-3361.9633193287286,1183.3232467454839,5626.848915592579,-1193.852623389274,6462.4034952192942,-6462.4034952192942,1193.852623389274,11098.75229601484,0.0
683523.2936376977,3697751.2368613081,-22500.0,2808.0365072740483,4128.1935882300813,5172.7502174307192,-1886.8692999210671,-2755.5179799793809,1002.8434371243033,5011.5925526515184,-376.14211421877417,5456.3628844060404,-5456.3628844060404,376.14211421877417,9884.5723194591119,0.0
688523.2936376977,3697751.2368613081,-22500.0,3093.7318623911483,3831.0217179930187,3820.2211846742621,-1807.1673844585991,-2190.6562259859847,831.23626257403134,4418.1497370905981,313.55223908734615,4412.6320095217507,-4412.6320095217507,-313.55223908734615,8689.9378679293059,0.0
693523.2936376977,3697751.2368613081,-22500.0,3235.0240293523275,3407.098210938866,2648.3211109337435,-1671.2487310131635,-1687.1674898935487,674.68697501895849,3866.9402513258237,852.34721428440616,3407.1056952910008,-3407.1056952910008,-852.34721428440616,7559.17739975122,0.0
698523.2936376977,3697751.2368613081,-22500.0,3244.6634753204212,2916.1053781198157,1674.5663521302001,-1500.6561587610411,-1254.5442012008757,536.66076367476933,3366.7731597030102,1238.7322589444345,2490.8518372648705,-2490.8518372648705,-1238.7322589444345,6521.9029663944521,0.0
703523.2936376977,3697751.2368613081,-22500.0,3144.9620220209663,2405.9739290420989,895.59123022276981,-1313.5726675583551,-894.37472173764013,418.40185162824844,2921.5987314589388,1485.624526807881,1692.591772853074,-1692.591772853074,-1485.624526807881,5594.9105481334491,0.0
708523.2936376977,3697751.2368613081,-22500.0,2962.131607657594,1911.6588303658582,294.76024467680566,-1124.066482885052,-602.84636269298858,319.52929799244703,2532.2896278883127,1613.989574624291,1023.27129989268,-1023.27129989268,-1613.989574624291,4784.7237398381058,0.0
713523.2936376977,3697751.2368613081,-22500.0,2722.1659032089269,1456.0750418151042,-151.53644380669721,-942.12756864190794,-372.94311500994985,238.60544951743904,2197.0713222810764,1647.8359156980111,481.13887884505198,-481.13887884505198,-1647.8359156980111,4090.2029963964906,0.0
563523.2936376977,3702751.2368613081,-22500.0,248.02850555391544,831.55602976302487,-1752.4280679110389,-105.33406787943682,481.12892782643627,-75.270069334593742,1361.6269899398039,807.53792712001143,-502.6586716130447,502.6586716130447,-807.53792712001143,2502.3590742666393,0.0
568523.2936376977,3702751.2368613081,-22500.0,497.15455759372099,715.09390170725692,-1876.3168892009992,-37.464740803042154,490.34922984332434,-66.545585790638924,1447.1045745309539,1037.9885577015948,-714.93872511984307,714.93872511984307,-1037.9885577015948,2621.6052624938343,0.0
573523.2936376977,3702751.2368613081,-22500.0,778.56501206370456,543.59028340896521,-1974.3796796150366,50.536103636807219,483.18912266418323,-51.491984018638917,1542.0134112846849,1284.6835092165652,-959.42581514283177,959.42581514283177,-1284.6835092165652,2752.6616497086857,0.0
578523.2936376977,3702751.2368613081,-22500.0,1086.7516552434033,306.7211185607631,-2028.7359339495392,161.11527178925536,452.61175474461635,-28.108786339373157,1651.0929653755898,1537.6379627791457,-1232.1120947996556,1232.1120947996556,-1537.6379627791457,2906.9783248094177,0.0
583523.2936376977,3702751.2368613081,-22500.0,1411.5682494938271,-4.5472307222334027,-2015.9701160336526,295.8231081678415,389.95918272570026,5.9240610859409939,1781.206252671305,1781.4903988006865,-1523.8455446957512,1523.8455446957512,-1781.4903988006865,3102.3790719373969,0.0
588523.2936376977,3702751.2368613081,-22500.0,1737.1917428411255,-395.91764725575985,-1906.8291082840028,454.59712904045892,285.06967091962275,53.153191174486992,1941.3967092557687,1994.56957390038,-1818.4437381964985,1818.4437381964985,-1994.56957390038,3363.3650354694096,0.0
593523.2936376977,3702751.2368613081,-22500.0,2041.530756972094,-866.94921606707044,-1666.8096435515185,634.8649206208604,126.73984459186158,116.1621357898584,2142.2759651452543,2148.573053485602,-2090.8566508793283,2090.8566508793283,-2148.573053485602,3719.0136873104534,0.0
598523.2936376977,3702751.2368613081,-22500.0,2296.5836495252456,-1407.5959706591766,-1258.2198146585447,830.5504386288809,-96.310810845672151,197.25856622777144,2394.5187964613488,2209.429754292019,-2305.9157020406178,2305.9157020406178,-2209.429754292019,4197.8987667410729,0.0
603523.2936376977,3702751.2368613081,-22500.0,2470.3562007407386,-1994.5618320492842,-644.34190440019984,1031.1710369983859,-393.83592745117426,298.0269980470909,2706.5756321206359,2140.0210585717582,-2418.5010706573153,2418.5010706573153,-2140.0210585717582,4821.2343690347889,0.0
608523.2936376977,3702751.2368613081,-22500.0,2530.8893275406153,-2588.4200100622556,203.86780883992549,1221.3382543569724,-771.77877366427765,418.76839393522522,3082.0960320260069,1905.3374524708779,-2376.1860268916398,2376.1860268916398,-1905.3374524708779,5596.6790501732094,0.0
613523.2936376977,3702751.2368613081,-22500.0,2452.5568886178503,-3132.9506724502007,1298.6980702196934,1381.0772484367769,-1229.4731986843453,557.89775310171831,3517.694182986098,1480.1722700855171,-2125.3557572567488,2125.3557572567488,-1480.1722700855171,6514.4478005839392,0.0
618523.2936376977,3702751.2368613081,-22500.0,2223.9786840922684,-3558.4103498269264,2625.4454797120516,1487.3843039855653,-1756.8035391798871,711.43077546924371,4001.5601460385083,858.50169387594474,-1621.1909560327688,1621.1909560327688,-858.50169387594474,7545.7987919292163,0.0
623523.2936376977,3702751.2368613081,-22500.0,1855.7277933572705,-3790.0421560424134,4133.6376276596611,1517.2515792279894,-2332.1425860408467,872.73776758697284,4513.2615428418349,62.370408084646499,-840.55825079457281,840.55825079457281,-62.370408084646499,8643.5171124560184,0.0
628523.2936376977,3702751.2368613081,-22500.0,1384.9500301915857,-3761.72236017559,5733.4523674426218,1451.9480758474367,-2922.0922260493126,1032.7445479557248,5025.0435394893293,-853.07894650872629,205.04528491023564,-205.04528491023564,853.07894650872629,9744.5924267826413,0.0
633523.2936376977,3702751.2368613081,-22500.0,873.83222624822008,-3432.3295448464019,7301.0045779206566,1281.73635932602,-3483.9066893208287,1180.6940606721198,5504.8968530364482,-1801.9542098121581,1461.0097740429521,-1461.0097740429521,1801.9542098121581,10775.642662177994,0.0
638523.2936376977,3702751.2368613081,-22500.0,400.26861415156452,-2800.088745344055,8694.107178777942,1009.6661115720292,-3970.8142837497862,1305.4348879701733,5921.1139231099723,-2679.1985531049122,2830.2930237283135,-2830.2930237283135,2679.1985531049122,11661.116898231438,0.0
643523.2936376977,3702751.2368613081,-22500.0,42.025301550729196,-1909.3079685163814,9776.278443656136,652.99064034800097,-4339.4133317104515,1397.025045603626,6245.491533760839,-3379.8754188613016,4185.7213327839991,-4185.7213327839991,3379.8754188613016,12333.243016344873,0.0
648523.2936376977,3702751.2368613081,-22500.0,-141.08290190144177,-845.73365128418334,10442.744878504551,241.32419613080677,-4557.3136618833378,1448.2906817713815,6451.355756644507,-3820.917846239191,5392.0663431456132,-5392.0663431456132,3820.917846239191,12741.651947588041,0.0
653523.2936376977,3702751.2368613081,-22500.0,-120.95240831387693,279.10829440839785,10640.412411093048,-188.23203868701776,-4608.8290873343121,1455.948903452191,6516.9634611427009,-3958.3120299116626,6331.7347440242456,-6331.7347440242456,3958.3120299116626,12860.322512023826,0.0
658523.2936376977,3702751.2368613081,-22500.0,93.80596216129517,1349.8199126773181,10375.591118264474,-597.64247550547964,-4497.0734860078537,1421.0080773471454,6435.7416201860278,-3794.1461582919728,6926.0835678789408,-6926.0835678789408,3794.1461582919728,12690.119985050602,0.0
663523.2936376977,3702751.2368613081,-22500.0,462.7057264705316,2268.3031980748383,9707.94443905763,-954.25934740407206,-4242.0782842316103,1348.375918486287,6217.6075266379012,-3372.0249297467176,7146.2384486203573,-7146.2384486203573,3372.0249297467176,12256.579196745637,0.0
668523.2936376977,3702751.2368613081,-22500.0,925.36357922515799,2968.2478702248618,8734.031459783906,-1235.271658798315,-3875.8549721973191,1245.8300723415155,5884.4776726759846,-2763.6926325600148,7011.6412115996955,-7011.6412115996955,2763.6926325600148,11603.943562314558,0.0
673523.2936376977,3702751.2368613081,-22500.0,1415.9048695090726,3420.2871158712001,7566.5741012526769,-1429.4906906717918,-3436.0983911030967,1122.6585019179715,5465.3055408075061,-2052.1440903513344,6578.9227019951068,-6578.9227019951068,2052.1440903513344,10787.313199775266,0.0
678523.2936376977,3702751.2368613081,-22500.0,1875.4023436822774,3628.710981973195,6315.4036657050383,-1536.6334134261397,-2960.2324757830779,988.30613123418402,4991.9878776798396,-1316.3290424509923,5926.0617224736752,-5926.0617224736752,1316.3290424509923,9864.8135122580334,0.0
683523.2936376977,3702751.2368613081,-22500.0,2259.7934039203492,3622.8212571167301,5073.870659131042,-1564.9032626597088,-2480.9566212491891,851.2883141792895,4496.6180404888928,-620.61802599051498,5136.7380597764404,-5136.7380597764404,620.61802599051498,8891.1903050193214,0.0
688523.2936376977,3702751.2368613081,-22500.0,2542.8171093236601,3446.4536514586612,3911.8461378987058,-1527.8568963676857,-2023.7249064420346,718.50265648368566,4008.2215582636236,-9.8671288466057376,4288.1525730040721,-4288.1525730040721,9.8671288466057376,7913.4985335351803,0.0
693523.2936376977,3702751.2368613081,-22500.0,2714.9689533777641,3148.3980122363191,2874.4557952307719,-1441.382434283051,-1606.0049594280583,594.94453997447476,3545.9491351112192,490.78456059451355,3443.5823511506183,-3443.5823511506183,-490.78456059451355,6968.9160885720084,0.0
698523.2936376977,3702751.2368613081,-22500.0,2780.0678424045363,2775.2065239705221,1984.7331844411035,-1321.2931240518867,-1237.8386202281315,483.74918006657765,3118.582636291902,873.03096606480358,2649.3821111413349,-2649.3821111413349,-873.03096606480358,6084.3067361470739,0.0
703523.2936376977,3702751.2368613081,-22500.0,2750.9370337543178,2366.7705091574394,1248.2831359444249,-1181.721483624633,-923.14886057535057,386.44440839480154,2730.725119449628,1141.0877818243723,1935.3114175557614,-1935.3114175557614,-1141.0877818243723,5276.9874390716914,0.0
708523.2936376977,3702751.2368613081,-22500.0,2645.2807343646591,1954.3365058152217,658.45062756530638,-1034.2719227937944,-661.32059045900223,303.30478066527832,2384.783608660869,1307.2194822958379,1316.873379313636,-1316.873379313636,-1307.2194822958379,4556.1738818443255,0.0
568523.2936376977,3707751.2368613081,-22500.0,635.74839047978412,460.33301676940954,-1654.7638632103003,38.137437938945531,392.46138089772523,-41.841575245250638,1283.1493373468975,1063.1285976284262,-798.24311025029374,798.24311025029374,-1063.1285976284262,2292.5328971413269,0.0
573523.2936376977,3707751.2368613081,-22500.0,880.1852950481009,276.00126338249623,-1698.7900026656755,121.21861195391958,371.48153297152118,-25.835035063817749,1368.6548081698697,1262.6816718724615,-1011.5958342693832,1011.5958342693832,-1262.6816718724615,2412.8800032417207,0.0
578523.2936376977,3707751.2368613081,-22500.0,1138.8649278819562,36.266805692161434,-1693.9468637485336,221.85937061012208,328.18346184852732,-2.6992648956660417,1469.5889523840181,1457.022268776135,-1239.9415938623481,1239.9415938623481,-1457.022268776135,2562.9823809947907,0.0
583523.2936376977,3707751.2368613081,-22500.0,1401.3628363613398,-263.48704191243905,-1619.9465426479944,340.32228634932318,255.70965967126824,29.261136814407291,1592.2924859843858,1631.5752720449987,-1472.6370886536974,1472.6370886536974,-1631.5752720449987,2759.9503679353593,0.0
588523.2936376977,3707751.2368613081,-22500.0,1653.0841192344944,-624.17922326182577,-1452.8268336609765,475.38215154404048,146.41251458619209,71.818469644263274,1744.2884302137977,1767.3294327116889,-1693.3297063942066,1693.3297063942066,-1767.3294327116889,3024.3821109357004,0.0
593523.2936376977,3707751.2368613081,-22500.0,1875.3001219575297,-1040.917815867738,-1166.0120740536424,623.71592878925776,-7.6442334793354689,126.66010833538068,1933.4294521432118,1841.167038919617,-1879.0457655918913,1879.0457655918913,-1841.167038919617,3377.4148770250263,0.0
598523.2936376977,3707751.2368613081,-22500.0,2046.0123081297925,-1500.6765409362044,-732.53578091871839,779.30319185473979,-213.829421852455,195.14849840760206,2166.5410958099164,1827.1898116946281,-1999.9764189198004,1999.9764189198004,-1827.1898116946281,3836.4712855311213,0.0
603523.2936376977,3707751.2368613081,-22500.0,2141.9767348813084,-1980.2047048736522,-128.71805100158963,932.98624026298205,-477.68742142105395,278.00488698640447,2447.8002594114541,1699.3954105046196,-2020.5236392448337,2020.5236392448337,-1699.3954105046196,4411.0670495081058,0.0
608523.2936376977,3707751.2368613081,-22500.0,2142.0885231430457,-2444.8901319339529,660.64090947929458,1072.4018964717377,-801.3183079588282,374.94141204781079,2777.2043402813551,1435.8885734297614,-1902.2049141305997,1902.2049141305997,-1435.8885734297614,5099.8523429526922,0.0
613523.2936376977,3707751.2368613081,-22500.0,2031.9864831301716,-2849.5062434965516,1635.9576526431231,1182.5276826740826,-1181.5750934796847,484.29673387419075,3149.438113109637,1024.4096573128318,-1608.8241032848464,1608.8241032848464,-1024.4096573128318,5889.1242467635211,0.0
618523.2936376977,3707751.2368613081,-22500.0,1809.1900368568065,-3141.7478227413085,2776.5393190273953,1247.0395056681311,-1608.4359285925295,602.7612474326063,3553.3402900456754,468.33374574841417,-1113.7851007155948,1113.7851007155948,-468.33374574841417,6752.5204347309582,0.0
623523.2936376977,3707751.2368613081,-22500.0,1487.4519217485715,-3269.0077090454629,4036.0393057106439,1250.5213152805525,-2064.0718113729399,725.29817428043668,3972.1370355066538,-208.41498704536616,-408.54890872945862,408.54890872945862,208.41498704536616,7651.8242025499512,0.0
628523.2936376977,3707751.2368613081,-22500.0,1098.5833171074369,-3187.8705651598139,5341.8895553959364,1181.2890718197591,-2523.1759955120642,845.35637249572528,4384.6259174231845,-959.55068751273416,489.7847736336912,-489.7847736336912,959.55068751273416,8539.1703542190462,0.0
633523.2936376977,3707751.2368613081,-22500.0,690.1812994847229,-2874.4991155612342,6600.5186192776764,1034.2659138626395,-2954.9542951463327,955.42210887806311,4767.4744832085462,-1719.5042803888787,1534.4652960731646,-1534.4652960731646,1719.5042803888787,9360.9505587439216,0.0
638523.2936376977,3707751.2368613081,-22500.0,318.70098919383639,-2333.0040126080794,7708.7605276854811,813.1120786302223,-3326.7658875284333,1047.8717662070519,5098.4248527640993,-2412.0038508566186,2651.0931066382009,-2651.0931066382009,2412.0038508566186,10063.316813342082,0.0
643523.2936376977,3707751.2368613081,-22500.0,38.989976859589639,-1598.7265872219032,8569.6898512988664,530.83230142153218,-3608.8309544183608,1115.9865618159295,5358.0248689509881,-2962.8389780742946,3746.5884531644424,-3746.5884531644424,2962.8389780742946,10598.553619771894,0.0
648523.2936376977,3707751.2368613081,-22500.0,-106.96974160555554,-734.57839113213345,9109.1080077260285,208.44358334890885,-3778.94007468781,1154.9177689968258,5526.8544521430822,-3313.6232561735978,4723.7021580967585,-4723.7021580967585,3313.6232561735978,10931.108015532292,0.0
653523.2936376977,3707751.2368613081,-22500.0,-98.695865814088705,179.14678872423428,9288.1342051809443,-128.11751982444918,-3825.94921185672,1162.3786077186073,5588.1899537827694,-3432.5785792366851,5497.4290922764221,-5497.4290922764221,3432.5785792366851,11041.946429281435,0.0
658523.2936376977,3707751.2368613081,-22500.0,59.412419011552018,1058.7481252396681,9108.4299297824928,-452.0831257460722,-3751.1617156708826,1138.903270440677,5536.270886521399,-3319.2296761348452,6008.805604795617,-6008.805604795617,3319.2296761348452,10930.293211000895,0.0
663523.2936376977,3707751.2368613081,-22500.0,340.66091527207692,1830.9338677225785,8609.0349045497696,-739.87643592447796,-3567.3442219588724,1087.6280189160607,5377.1201893679281,-3002.0423624227187,6232.5207591529797,-6232.5207591529797,3002.0423624227187,10612.483555178487,0.0
668523.2936376977,3707751.2368613081,-22500.0,703.26534307940062,2442.9446143692612,7856.4948358662623,-974.11343723373216,-3295.8340561173009,1013.6776140883554,5125.4419451379408,-2530.4139686111539,6177.0538028292995,-6177.0538028292995,2530.4139686111539,10118.438133001444,0.0
673523.2936376977,3707751.2368613081,-22500.0,1099.5746034813583,2867.1238188540165,6931.6557155555201,-1145.0571064704031,-2962.6516893190933,923.32810242701305,4801.3750909721439,-1963.9182244573435,5878.4834068857417,-5878.4834068857417,1963.9182244573435,9486.7642651562419,0.0
678523.2936376977,3707751.2368613081,-22500.0,1484.6523587882243,3100.0408874023183,5916.6912644663826,-1250.5123064004267,-2594.6041895325989,823.14057093580732,4427.74495824322,-1361.8698274164528,5390.6432856179017,-5390.6432856179017,1361.8698274164528,8759.5906858902235,0.0
683523.2936376977,3707751.2368613081,-22500.0,1822.4095452296658,3157.698693901666,4884.9679129094038,-1294.5446256843686,-2216.1354597215181,719.22772086233977,4028.2413502150894,-775.39989506783627,4774.5910056202338,-4774.5910056202338,775.39989506783627,7978.0525340413087,0.0
688523.2936376977,3707751.2368613081,-22500.0,2088.6449786699973,3068.8847799112191,3894.9007247580321,-1285.5780193892156,-1847.2970115412247,616.74733290995073,3626.0492916270177,-242.95301912925061,4089.6620202396198,-4089.6620202396198,242.95301912925061,7178.9608395398845,0.0
693523.2936376977,3707751.2368613081,-22500.0,2271.3106609205934,2868.4893514955575,2987.6768974117831,-1234.392198279035,-1502.8575462401068,519.64374543102531,3239.0281973480128,210.98579196674632,3387.2826066168045,-3387.2826066168045,-210.98579196674632,6392.8053929992129,0.0
698523.2936376977,3707751.2368613081,-22500.0,2368.8442619482526,2591.9869368246323,2187.9623980211081,-1152.3893420843069,-1192.3369921502838,430.60575759631297,2875.742174776814,574.76740148853605,2707.7233868520675,-2707.7233868520675,-574.76740148853605,5642.9681456530261,0.0
703523.2936376977,3707751.2368613081,-22500.0,2387.5125233847643,2271.5958498542104,1506.4415687682147,-1050.3144457191415,-920.6506783238234,351.17896606006747,2540.5047297197548,847.07626983672515,2079.3124988751515,-2079.3124988751515,-847.07626983672515,4945.8572024335353,0.0
573523.2936376977,3712751.2368613081,-22500.0,926.86701978933854,60.992266386344411,-1434.4511757470882,168.20873629923298,276.5063278886422,-6.8714781263908362,1223.8570672647156,1202.5302726652392,-1019.3334290247082,1019.3334290247082,-1202.5302726652392,2137.3458898190615,0.0
578523.2936376977,3712751.2368613081,-22500.0,1139.7231945232134,-171.48320687157749,-1383.7011458002241,257.61122436545696,225.5976350521704,15.111781898975901,1319.0021649763648,1345.7903428856184,-1204.6979476799224,1204.6979476799224,-1345.7903428856184,2287.912235427184,0.0
583523.2936376977,3712751.2368613081,-22500.0,1347.7578884694567,-450.82465614521902,-1265.5192159428702,359.74817325502198,148.90556808136239,44.292278740080292,1435.540128905729,1463.1109377732334,-1383.8030057791163,1383.8030057791163,-1463.1109377732334,2487.2527910852682,0.0
588523.2936376977,3712751.2368613081,-22500.0,1538.2686969120041,-774.82333193087265,-1060.9511409394852,472.79679458955752,40.833291201270328,81.872477398212226,1579.2648375969939,1538.5722508466513,-1541.3321102260536,1541.3321102260536,-1538.5722508466513,2751.0372326105412,0.0
593523.2936376977,3712751.2368613081,-22500.0,1696.0412070182626,-1136.1841688411314,-750.22497654898359,593.26360122652295,-104.06416373057837,128.91549065455379,1755.5420833871035,1553.9983290364964,-1657.2759096735169,1657.2759096735169,-1553.9983290364964,3093.1555336143779,0.0
598523.2936376977,3712751.2368613081,-22500.0,1804.3730173833417,-1521.0745299528653,-314.81387727464539,715.65249683186391,-290.37775953898688,186.16776423746015,1968.2815195024905,1490.3696324077596,-1707.2964729671944,1707.2964729671944,-1490.3696324077596,3522.88211069421,0.0
603523.2936376977,3712751.2368613081,-22500.0,1846.9020885640714,-1908.0743682861525,259.5590895251994,832.30071946289672,-520.90636136512205,253.84155055883869,2218.9008237064909,1330.1514588231214,-1664.0989305941855,1664.0989305941855,-1330.1514588231214,4042.6740335845361,0.0
608523.2936376977,3712751.2368613081,-22500.0,1810.2533571085953,-2268.0267786029981,979.0860593835672,933.51676295006598,-795.54630699136783,331.3789184414378,2505.4724401156386,1060.5216528441347,-1500.1083328487284,1500.1083328487284,-1060.5216528441347,4646.8909430391213,0.0
613523.2936376977,3712751.2368613081,-22500.0,1687.2676678679966,-2565.3455576956744,1837.6486968551628,1008.1532513806093,-1110.162539944419,417.23703051138835,2822.1839277696263,677.19011217594652,-1191.5480220090201,1191.5480220090201,-677.19011217594652,5321.2851651698556,0.0
618523.2936376977,3712751.2368613081,-22500.0,1480.2388839457387,-2761.2134446240611,2813.0435756832303,1044.6951233938535,-1455.6922611017299,508.75009974026148,3159.2019018914129,188.11893942163766,-723.62179465651525,723.62179465651525,-188.11893942163766,6043.1073342821746,0.0
623523.2936376977,3712751.2368613081,-22500.0,1203.2655914234845,-2818.7266947194848,3864.8394092041863,1032.8288966514503,-1817.7987059989121,602.12884281999709,3503.0376780645784,-383.90086804805082,-95.965959622010956,95.965959622010956,383.90086804805082,6781.9137375410228,0.0
628523.2936376977,3712751.2368613081,-22500.0,882.69503924359105,-2709.4177587118597,4935.1246542202607,965.29382076641491,-2177.3823958166886,692.64827718743766,3837.5406681464187,-1000.9918318600402,672.98295778728186,-672.98295778728186,1000.9918318600402,7501.3097010209567,0.0
633523.2936376977,3712751.2368613081,-22500.0,554.87467551075122,-2419.8685142792583,5953.0019411443236,839.64318923799124,-2512.1202409548387,775.03988215181278,4145.6407674227048,-1613.135171827575,1544.2922883647634,-1544.2922883647634,1613.135171827575,8161.7588875943593,0.0
638523.2936376977,3712751.2368613081,-22500.0,261.10496749234574,-1956.6377740564235,6842.7746397304063,659.44816449675761,-2798.9526055697347,844.0553129950091,4411.6783550259406,-2164.4183772501974,2460.7756735898865,-2460.7756735898865,2164.4183772501974,8724.3187136078977,0.0
643523.2936376977,3712751.2368613081,-22500.0,40.639512200842248,-1347.7904060149949,7534.5423210286008,434.52341013361757,-3017.1267490683385,895.11287425942942,4622.0731903351634,-2601.588426733153,3353.4829672503065,-3353.4829672503065,2601.588426733153,9154.8115154795341,0.0
648523.2936376977,3712751.2368613081,-22500.0,-76.57808629574734,-640.09757930629746,7974.8810024600225,179.97421915341607,-3151.1597027382568,924.90052514003628,4762.0086685580809,-2882.9447891322798,4151.4067336255721,-4151.4067336255721,2882.9447891322798,9427.6910273458489,0.0
653523.2936376977,3712751.2368613081,-22500.0,-75.457389838811039,107.73377290384431,8134.9840883442603,-85.803806788904993,-3193.0393683573925,931.80930833619607,4818.2985967423847,-2985.268796547678,4792.2166552605022,-4792.2166552605022,2985.268796547678,9528.8634679338393,0.0
658523.2936376977,3712751.2368613081,-22500.0,41.93346199572305,834.18580142598103,8014.2181387818791,-343.73044850824471,-3143.1396209106133,916.10146648370892,4786.1553396034533,-2906.9808127897522,5231.3645016870887,-5231.3645016870887,2906.9808127897522,9456.8708475840576,0.0
663523.2936376977,3712751.2368613081,-22500.0,257.7652783618953,1484.1016327806626,7638.4620149661359,-576.64211639341499,-3009.7020563954907,879.78918578773994,4669.3250607830696,-2666.9208398683854,5447.4441932157097,-5447.4441932157097,2666.9208398683854,9222.2973819313811,0.0
668523.2936376977,3712751.2368613081,-22500.0,542.8575127373108,2015.7720304511317,7054.0763000274392,-771.32592293663492,-2807.111335456194,826.26707403033799,4477.8390341823761,-2299.4636835328693,5442.9105679475051,-5442.9105679475051,2299.4636835328693,8845.6437436046872,0.0
673523.2936376977,3712751.2368613081,-22500.0,862.63705937024815,2404.6677347609457,6319.3929632156196,-919.64097643510036,-2553.4643021736611,759.79353939743839,4225.8609849735067,-1847.5951775858596,5240.6393609958905,-5240.6393609958905,1847.5951775858596,8354.2200663124604,0.0
678523.2936376977,3712751.2368613081,-22500.0,1183.0320338230592,2643.6564070465124,5495.8830547043617,-1018.6649420689164,-2268.0121427886024,684.934899567608,3929.8148478874705,-1355.8015783742967,4877.788853083357,-4877.788853083357,1355.8015783742967,7778.7166708337372,0.0
683523.2936376977,3712751.2368613081,-22500.0,1475.0690267517728,2740.442901270168,4640.7449154323403,-1070.0438934460014,-1968.9598432430796,606.07235988776245,3607.0605623091119,-864.24316285111763,4398.7491660391397,-4398.7491660391397,864.24316285111763,7150.0414764398593,0.0
688523.2936376977,3712751.2368613081,-22500.0,1717.5836030459068,2713.4184965831046,3801.8698648444724,-1078.8533999278268,-1671.9071011751023,527.03670460261048,3275.3946157842433,-404.98526613156196,3848.7010216457466,-3848.7010216457466,404.98526613156196,6496.815030170711,0.0
693523.2936376977,3712751.2368613081,-22500.0,1898.053390754377,2587.0962561536016,3015.3580227018178,-1052.2919753786246,-1389.0058520499458,450.89377857793306,2951.0355390509594,-0.37938718556483764,3268.7256972167288,-3268.7256972167288,0.37938718556483764,5843.6911975886924,0.0
698523.2936376977,3712751.2368613081,-22500.0,2011.9657470792718,2388.0186278072238,2305.2059063416891,-998.46298286919682,-1128.753930791004,379.87131520851881,2642.9013576116022,336.78654929409231,2692.8007698789174,-2692.8007698789174,-336.78654929409231,5210.4949717135623,0.0
583523.2936376977,3717751.2368613081,-22500.0,1268.4677758671971,-580.1513091055358,-955.50131697318579,361.89314305970959,65.633258610627905,53.203890879757331,1303.7050869323639,1290.9626615830734,-1273.2583431890489,1273.2583431890489,-1290.9626615830734,2266.2182718056742,0.0
588523.2936376977,3717751.2368613081,-22500.0,1409.6143681291264,-865.72425618616592,-729.57247162814667,455.38069680608993,-37.614313839557575,85.911337305803301,1438.5940566417646,1320.9449582573038,-1378.6735376924048,1378.6735376924048,-1320.9449582573038,2524.1744504000549,0.0
593523.2936376977,3717751.2368613081,-22500.0,1517.9512602086852,-1174.4089083740182,-411.55649761450451,552.25719591618565,-170.76310339615378,125.85181482500485,1601.158284463723,1295.4451495903404,-1440.2117722216713,1440.2117722216713,-1295.4451495903404,2848.6887105791488,0.0
598523.2936376977,3717751.2368613081,-22500.0,1581.1443111452484,-1492.8538454274822,10.699785783978186,647.74535515638979,-336.49272186221805,173.3836468658761,1793.2813506170767,1200.9250219233738,-1438.5422324383792,1438.5422324383792,-1200.9250219233738,3243.6889600105974,0.0
603523.2936376977,3717751.2368613081,-22500.0,1588.015506324444,-1802.2464969781124,544.93585183752248,735.60997339297194,-535.87784685759573,228.43722644370166,2014.7355625909543,1026.0516066788703,-1353.1990936940381,1353.1990936940381,-1026.0516066788703,3707.7565223508909,0.0
608523.2936376977,3717751.2368613081,-22500.0,1530.5206156496026,-2078.6677410371894,1191.7420533033471,808.37508019917664,-767.64680507792116,290.36685357481394,2262.7283253009614,764.07013249920612,-1164.8429691031115,1164.8429691031115,-764.07013249920612,4233.6094712521253,0.0
613523.2936376977,3717751.2368613081,-22500.0,1405.9467065359436,-2294.5116454096656,1941.8064813332073,857.83705782057507,-1027.4929137709216,357.82783225461998,2531.6684355003918,415.36631982978236,-858.34569006435061,858.34569006435061,-415.36631982978236,4807.9697385096506,0.0
618523.2936376977,3717751.2368613081,-22500.0,1218.897744554831,-2421.1486536594625,2773.7512200283227,875.89762307892397,-1307.6070062337071,428.71371093673866,2813.2051935076433,-10.295123365077558,-426.382993728717,426.382993728717,10.295123365077558,5411.798326255619,0.0
623523.2936376977,3717751.2368613081,-22500.0,982.48516365523949,-2432.7292968294519,3653.3073493758716,855.66137973442085,-1596.620937722259,500.18835017100912,3096.6068008594821,-492.53150135449664,127.09684720898323,-127.09684720898323,492.53150135449664,6021.0140620309085,0.0
628523.2936376977,3717751.2368613081,-22500.0,718.13543724271733,-2310.6404394683468,4534.5324093297304,792.64704835623365,-1880.1237912503916,568.83809883514959,3369.5706437685431,-1000.7733010008266,784.41087042785273,-784.41087042785273,1000.7733010008266,6607.8434921424996,0.0
633523.2936376977,3717751.2368613081,-22500.0,453.63780687980517,-2047.7380227142417,5363.4539068543245,685.87307536011326,-2141.8170975173725,630.9478716999115,3619.582051314816,-1496.7841926609283,1513.6159544685204,-1513.6159544685204,1496.7841926609283,7142.8477008045038,0.0
638523.2936376977,3717751.2368613081,-22500.0,219.49434802835228,-1651.2671400963964,6083.9322433108036,538.54048267942403,-2365.2187474345528,682.87449444269112,3835.6785635966166,-1939.1794866274433,2270.5683585532884,-2270.5683585532884,1939.1794866274433,7597.4861056240006,0.0
643523.2936376977,3717751.2368613081,-22500.0,44.180135925492991,-1143.5022318880624,6644.8494277221071,358.08296623479242,-2535.6592401417065,721.46234467437159,4008.2189983776443,-2289.2293954834004,3003.6162646763714,-3003.6162646763714,2289.2293954834004,7946.8985179285628,0.0
648523.2936376977,3717751.2368613081,-22500.0,-50.633372929224059,-559.63532165670074,7007.1701135321628,155.4875331373722,-2642.1841233386403,744.42475477888013,4125.2798764434247,-2516.7178983813797,3660.2015271307596,-3660.2015271307596,2516.7178983813797,8172.445073400776,0.0
653523.2936376977,3717751.2368613081,-22500.0,-53.709790821985465,56.810566702932356,7149.3079548846727,-56.022662244149842,-2678.9651334858627,750.61831678026647,4176.331107662807,-2604.4833249441008,4194.0183479387242,-4194.0183479387242,2604.4833249441008,8263.5633484614409,0.0
658523.2936376977,3717751.2368613081,-22500.0,34.163861430031218,660.06121885130483,7069.5771314525828,-262.68050376085426,-2645.9149824443894,740.15353577743122,4157.5680460653166,-2550.5691236636271,4571.1330321232035,-4571.1330321232035,2550.5691236636271,8218.587228893155,0.0
663523.2936376977,3717751.2368613081,-22500.0,200.93556624379048,1208.2809575447277,6785.3318591559364,-451.88416885617136,-2548.4163017468777,714.32883737749421,4071.3924294052485,-2367.6020449010875,4773.7816447452669,-4773.7816447452669,2367.6020449010875,8044.4493848872944,0.0
668523.2936376977,3717751.2368613081,-22500.0,426.03211800574485,1668.5596002447039,6329.2098858814543,-613.58473037625879,-2396.2729058344894,675.40775313510585,3924.7572085884594,-2079.757448621951,4801.2210114416002,-4801.2210114416002,2079.757448621951,7755.365295191521,0.0
673523.2936376977,3717751.2368613081,-22500.0,684.24899196951128,2019.8430681550624,5743.5852230083337,-741.1275374432031,-2202.1716662949038,626.29558871031827,3727.7380779051773,-1718.250941605605,4667.8338318898004,-4667.8338318898004,1718.250941605605,7370.8368406959707,0.0
678523.2936376977,3717751.2368613081,-22500.0,949.79948563058178,2253.5837524395001,5074.534052524391,-831.48031040484489,-1979.9943106039143,570.18131352745445,3492.2512239788189,-1316.480614610821,4399.2836462348832,-4399.2836462348832,1316.480614610821,6913.3566028548457,0.0
683523.2936376977,3717751.2368613081,-22500.0,1199.7010813849497,2372.4533716662954,4366.4675986260172,-884.92675407251386,-1743.2880009331889,510.20654207094213,3231.0453122203189,-905.79354838881068,4027.7997722741384,-4027.7997722741384,905.79354838881068,6406.1947644751062,0.0
688523.2936376977,3717751.2368613081,-22500.0,1416.0230599644144,2387.7898777222726,3658.1622341570901,-904.39412933704864,-1504.0987128689762,449.20543106681947,2957.3322828689138,-512.47508262738688,3587.5918923809522,-3587.5918923809522,512.47508262738688,5871.5424397859088,0.0
693523.2936376977,3717751.2368613081,-22500.0,1586.8902433623596,2316.5259787320174,2980.4451244637312,-894.61069990804333,-1272.2506732127288,389.53573542965063,2684.7463850891527,-156.14475174210156,3111.1002768969906,-3111.1002768969906,156.14475174210156,5329.1613142508813,0.0
588523.2936376977,3722751.2368613081,-22500.0,1278.0440785541307,-911.86140739716143,-454.10737104897532,429.19871112086525,-94.322257643723532,85.88608183268687,1316.6264326441792,1121.3149488131198,-1216.2154464902333,1216.2154464902333,-1121.3149488131198,2330.3196081176307,0.0
593523.2936376977,3722751.2368613081,-22500.0,1349.1641161005641,-1172.5696442521489,-140.34008170474542,506.5194488841309,-214.68756610171042,119.55548874140712,1465.1389884586065,1068.4224475206063,-1236.5101381580141,1236.5101381580141,-1068.4224475206063,2632.8254292529787,0.0
598523.2936376977,3722751.2368613081,-22500.0,1380.3683865433491,-1433.6655974799394,259.50692366074662,580.53340585446381,-360.49982023716893,158.84558592472663,1637.2308813877396,956.53636090198688,-1198.4416409323803,1198.4416409323803,-956.53636090198688,2991.0565259562095,0.0
603523.2936376977,3722751.2368613081,-22500.0,1364.2644791612481,-1679.1288158086008,748.78129317950106,646.26118749562909,-531.79839849123221,203.54538102238456,1831.7773650028457,778.7284524203485,-1086.9505576550207,1086.9505576550207,-778.7284524203485,3401.6900514300032,0.0
608523.2936376977,3722751.2368613081,-22500.0,1296.3858023462963,-1889.6782789291838,1324.7831884805178,697.99604942459075,-726.77490257565228,253.01868849802312,2045.7292229170273,532.17039827839824,-888.76203029008286,888.76203029008286,-532.17039827839824,3857.1884800019666,0.0
613523.2936376977,3722751.2368613081,-22500.0,1176.6531456762852,-2044.0931369047055,1977.0194136087957,729.73026832583753,-941.3651406706889,306.13647362665006,2274.0340330645795,219.81165112559017,-594.65723621181758,594.65723621181758,-219.81165112559017,4345.8131176923926,0.0
618523.2936376977,3722751.2368613081,-22500.0,1010.5574368112854,-2121.3313947194588,2686.0302646437754,735.77538097168463,-1169.0262801018496,361.25391771131825,2509.7446278461598,-148.32052321927628,-201.92626285730265,201.92626285730265,148.32052321927628,4851.8861160474726,0.0
623523.2936376977,3722751.2368613081,-22500.0,809.69427987572851,-2103.3002390490083,3423.2556181230007,711.52370641250582,-1400.8117232817767,416.25212570546279,2744.3661874134227,-554.6245132377893,283.45117238293994,-283.45117238293994,554.6245132377893,5356.3998071277256,0.0
628523.2936376977,3722751.2368613081,-22500.0,591.31728239487927,-1977.8964754499302,4152.3232966154792,654.24200768208209,-1625.8257289701512,468.65613800770558,2968.5176771914562,-974.60682098309246,845.46297312883632,-845.46297312883632,974.60682098309246,5838.0523963146252,0.0
633523.2936376977,3722751.2368613081,-22500.0,376.74160810993726,-1741.7308398404959,4831.9104709847597,563.74452748885153,-1832.0764605186362,515.82809697261666,3173.0389685108089,-1378.9264926897342,1458.102554534926,-1458.102554534926,1378.9264926897342,6274.7140139946423,0.0
638523.2936376977,3722751.2368613081,-22500.0,188.70764471755564,-1401.865929875418,5419.9557253119738,442.78058992117406,-2007.6513509131253,555.21628866516141,3350.384126991732,-1736.6614702074075,2087.1151582782509,-2087.1151582782509,1736.6614702074075,6645.2108676533353,0.0
643523.2936376977,3722751.2368613081,-22500.0,48.131844323954333,-976.01178767355088,5878.5981809800496,297.00870239475148,-2142.0435617855142,584.62449685225056,3493.4585819927547,-2019.2935404360205,2693.3993739328535,-2693.3993739328535,2019.2935404360205,6931.2084889545295,0.0
648523.2936376977,3722751.2368613081,-22500.0,-29.089569654593785,-490.94204326556257,6178.9320509414201,134.51146145813385,-2227.3960797426357,602.45668241130647,3592.1384600047709,-2204.6364362972549,3237.5658749963045,-3237.5658749963045,2204.6364362972549,7118.9158219873061,0.0
653523.2936376977,3722751.2368613081,-22500.0,-34.504229361579227,20.667289661120876,6304.6063785307551,-35.086061524536611,-2259.4217391772136,607.89226116964255,3638.0615788654959,-2279.8649085427974,3684.7964429146791,-3684.7964429146791,2279.8649085427974,7200.3269672054639,0.0
658523.2936376977,3722751.2368613081,-22500.0,31.790067073286842,524.36276703778162,6253.5427986650229,-201.73441611093489,-2237.823870214555,600.96071219145506,3628.3321590572332,-2243.0007682665641,4009.0299197166837,-4009.0299197166837,2243.0007682665641,7173.803004051003,0.0
663523.2936376977,3722751.2368613081,-22500.0,161.55561848320565,988.15585233539286,6037.4924344155061,-356.09994761474979,-2166.1530782321511,582.50500411150131,3564.5389794508178,-2102.6016294703959,4195.6670363232779,-4195.6670363232779,2102.6016294703959,7043.9189955609081,0.0
668523.2936376977,3722751.2368613081,-22500.0,340.14851773249103,1386.0576051655685,5679.6638672022054,-490.5191844366351,-2051.1615964760731,554.04589976805119,3451.5722636897754,-1875.8467300599775,4242.3783617797062,-4242.3783617797062,1875.8467300599775,6820.6417478608273,0.0
673523.2936376977,3722751.2368613081,-22500.0,549.08601410644815,1700.3342352236355,5211.0626345134378,-599.62173482833168,-1901.8176451511974,517.57863887948236,3296.6809130016622,-1585.5657453147394,4158.0785147342449,-4158.0785147342449,1585.5657453147394,6518.0276653198662,0.0
678523.2936376977,3722751.2368613081,-22500.0,768.83817165789696,1922.2730304300658,4666.3436388032342,-680.56402905986795,-1728.1825069640538,475.34067671927932,3108.5936947601558,-1256.9022182010438,3960.5050645123829,-3960.5050645123829,1256.9022182010438,6152.6697516376107,0.0
683523.2936376977,3722751.2368613081,-22500.0,981.29911696435522,2051.6050862786278,4079.9432909501843,-732.90552205056781,-1540.3494285602192,429.58939547875809,2896.7593847013313,-914.25525010442948,3673.062142672532,-3673.062142672532,914.25525010442948,5742.1478853350445,0.0
688523.2936376977,3722751.2368613081,-22500.0,1171.5785862553635,2094.9602163191757,3483.0153879219729,-758.21819677367819,-1347.5829016455962,382.41824630309407,2670.9175027580995,-578.93693000705639,3321.5736769558034,-3321.5736769558034,578.93693000705639,5303.6597589299527,0.0
598523.2936376977,3727751.2368613081,-22500.0,1202.8854926002568,-1356.1284279168783,445.73265764423064,516.84271330206195,-368.8041398356612,143.87252037169648,1497.1540831016182,752.81336540416191,-988.03590809346269,988.03590809346269,-752.81336540416191,2760.3687810191686,0.0
603523.2936376977,3727751.2368613081,-22500.0,1172.6885337221322,-1549.587686391287,889.01621670322152,565.67177162797338,-515.34986670159572,180.15063344473032,1667.4135964894238,579.47522824369139,-861.94685988796141,861.94685988796141,-579.47522824369139,3121.6056844921854,0.0
608523.2936376977,3727751.2368613081,-22500.0,1101.1338324424805,-1708.6037949925819,1398.7675705687848,601.95127149600398,-679.14765089166713,219.7292731762434,1851.7372775214915,352.20703209364524,-663.53153535739693,663.53153535739693,-352.20703209364524,3515.1866170423241,0.0
613523.2936376977,3727751.2368613081,-22500.0,989.61328727782825,-1816.9576969940579,1964.4689993792865,621.29300140901876,-856.55862425937903,261.68220795362413,2045.7149989683599,75.206149924055836,-387.53960871701929,387.53960871701929,-75.206149924055836,3931.0245376409202,0.0
618523.2936376977,3727751.2368613081,-22500.0,843.71725321904194,-1859.2121912345758,2568.9757689010171,619.7019507173452,-1042.1930426118204,304.73404362921042,2243.6346312680753,-242.03450365810789,-34.018170322044469,34.018170322044469,242.03450365810789,4356.3179029757812,0.0
623523.2936376977,3727751.2368613081,-22500.0,673.41039991536593,-1822.7125781223749,3188.7182243422117,594.10259309259413,-1229.0341808534797,347.30086777058631,2438.7854556225971,-584.62531604286096,390.33439247498058,-390.33439247498058,584.62531604286096,4776.0526473454702,0.0
628523.2936376977,3727751.2368613081,-22500.0,492.51933535948621,-1699.6640236499297,3794.8897262621376,542.86074059962687,-1408.8146207585803,387.57964740756927,2624.0101777704231,-933.00317185367487,871.47673964143371,-871.47673964143371,933.00317185367487,5173.79501846112,0.0
633523.2936376977,3727751.2368613081,-22500.0,317.46697267607556,-1488.8945741550754,4355.6558274799745,466.20304870384973,-1572.6410289473283,423.68308366852909,2792.666819178844,-1264.5442048428204,1388.3089546819147,-1388.3089546819147,1264.5442048428204,5532.7558050378066,0.0
638523.2936376977,3727751.2368613081,-22500.0,165.36434212028715,-1196.8901409369162,4839.1947624697232,366.43612691658603,-1711.8108891860277,453.80693000822214,2939.7423131235587,-1555.9306442581269,1914.0950052823641,-1914.0950052823641,1555.9306442581269,5837.0465200860608,0.0
643523.2936376977,3727751.2368613081,-22500.0,51.756038273414397,-837.77672657906862,5217.1352314202968,247.89231487909842,-1818.7062103439673,476.40654539501173,3059.5851799819588,-1785.9207326819321,2418.9415009742211,-2418.9415009742211,1785.9207326819321,6072.9751800168196,0.0
648523.2936376977,3727751.2368613081,-22500.0,-11.552835678564655,-432.13280746554238,5467.8073046998707,116.58192477440842,-1887.6192493861431,490.35551910196784,3143.275479945637,-1938.0232492182536,2872.98798526992,-2872.98798526992,1938.0232492182536,6230.2064595513139,0.0
653523.2936376977,3727751.2368613081,-22500.0,-18.141992914791768,-4.7767022497154725,5578.7023316864252,-20.40593017421094,-1915.3640522988273,495.05965063776949,3184.3461152036452,-2002.5540412951846,3249.7618473285943,-3249.7618473285943,2002.5540412951846,6302.6112548530627,0.0
658523.2936376977,3727751.2368613081,-22500.0,32.245368340318173,418.07883057899249,5547.6860057734975,-155.65401525264883,-1901.5658725230076,490.50725287440554,3180.6716758776524,-1977.6733840903171,3529.0829020872206,-3529.0829020872206,1977.6733840903171,6288.6791701501479,0.0
663523.2936376977,3727751.2368613081,-22500.0,133.92082636201002,811.77646802569575,5382.7829840170043,-282.18849728846533,-1848.5881639761926,477.24932407053319,3133.3333180844311,-1869.2400833807269,3699.008009568438,-3699.008009568438,1869.2400833807269,6191.446777146667,0.0
668523.2936376977,3727751.2368613081,-22500.0,276.36232354071745,1155.7405241901324,5100.6550304423199,-394.14131819988188,-1761.1284615719849,456.3159110637713,3045.8150115149729,-1689.5848105198536,3756.5307254364361,-3756.5307254364361,1689.5848105198536,6017.9735479675974,0.0
673523.2936376977,3727751.2368613081,-22500.0,445.92777719078117,1435.1958844678734,4724.1581283643518,-487.20863573256173,-1645.579571511905,429.08727165966394,2923.3875908632558,-1455.5289355842895,3707.0455966346881,-3707.0455966346881,1455.5289355842895,5778.4825798241545,0.0
678523.2936376977,3727751.2368613081,-22500.0,627.79004993317346,1641.9057900639298,4279.4718889338119,-558.85988419013734,-1509.2766007168957,397.14199951685714,2772.5071552946029,-1186.0776021469628,3562.8170295435975,-3562.8170295435975,1186.0776021469628,5485.3000489103733,0.0
608523.2936376977,3732751.2368613081,-22500.0,938.5198024365136,-1539.5175241445575,1429.5735255826562,519.09808987428062,-628.88778306537813,190.47586743781088,1678.3300509863884,213.5637404884483,-481.13067996501422,481.13067996501422,-213.5637404884483,3205.1932672315784,0.0
613523.2936376977,3732751.2368613081,-22500.0,836.70103416377822,-1613.4975807298599,1919.6730768111636,529.84972404086136,-775.84683590476311,223.73520119532913,1843.4207333573847,-30.486314928973542,-225.96890085307288,225.96890085307288,30.486314928973542,3559.5703217323321,0.0
618523.2936376977,3732751.2368613081,-22500.0,709.41016722343295,-1631.2090917249539,2435.7574570741217,523.57045807474105,-927.77979556633932,257.53209587114759,2010.1691508756337,-303.41056470654109,90.202278069572372,-90.202278069572372,303.41056470654109,3918.1373972888496,0.0
623523.2936376977,3732751.2368613081,-22500.0,565.06452360562491,-1583.8121866727101,2958.4813126690101,498.2123711332215,-1079.1880372856638,290.67996254996541,2173.2766394799364,-592.76884589359634,460.69422536003458,-460.69422536003458,592.76884589359634,4269.0066428008276,0.0
628523.2936376977,3732751.2368613081,-22500.0,414.72606408604571,-1466.3658382210776,3464.9839454868261,452.83068661648218,-1223.7694997633432,321.8576748057007,2327.29111180786,-882.94448563632943,873.42498199592944,-873.42498199592944,882.94448563632943,4599.4193969993239,0.0
633523.2936376977,3732751.2368613081,-22500.0,271.11498814116158,-1278.9754011766531,3930.582519610653,387.84681300317021,-1354.8761099276921,349.70414470522161,2467.5187234735599,-1156.3979577133889,1311.2891640920582,-1311.2891640920582,1156.3979577133889,4896.525493031827,0.0
638523.2936376977,3732751.2368613081,-22500.0,147.22215746078052,-1027.4056475301588,4330.9780860089522,305.17039458298319,-1466.0849793566993,372.93128300623948,2590.821108566699,-1395.3891924818226,1753.2916396895362,-1753.2916396895362,1395.3891924818226,5148.2750402338279,0.0
643523.2936376977,3732751.2368613081,-22500.0,54.726791749526832,-722.96967352547733,4644.6785681724687,208.1393549415765,-1551.8087918970366,390.44122712771156,2692.0556512468343,-1583.9253236896536,2176.3651926237371,-2176.3651926237371,1583.9253236896536,5344.3242250578696,0.0
648523.2936376977,3732751.2368613081,-22500.0,2.4966591159170162,-381.63566042138655,4855.2545736277762,101.26886618147716,-1607.8520108355667,401.43043532998246,2763.3620197935152,-1709.608808401551,2557.6325986726424,-2557.6325986726424,1709.608808401551,5476.8372481484021,0.0
653523.2936376977,3732751.2368613081,-22500.0,-4.5459119360727875,-22.45697035180417,4953.0457848947262,-10.161412162205586,-1631.8234627414079,405.46468990009834,2799.9434004324385,-1765.0547342637938,2876.7568088452399,-2876.7568088452399,1765.0547342637938,5541.0761699268987,0.0
658523.2936376977,3732751.2368613081,-22500.0,34.021607982473192,334.42170778916153,4936.0281577843107,-120.619230647286,-1623.338186254402,402.51350596917854,2800.2755803552332,-1748.6240827794477,3117.9863579836451,-3117.9863579836451,1748.6240827794477,5535.6974293114226,0.0
663523.2936376977,3732751.2368613081,-22500.0,114.23421307276021,669.84221242340811,4809.7197297963721,-224.84860421918276,-1583.9816488285505,392.93943710318791,2765.1078161128694,-1664.3640739620387,3271.5645730158512,-3271.5645730158512,1664.3640739620387,5462.7222647102062,0.0
668523.2936376977,3732751.2368613081,-22500.0,228.46200863566096,967.45541904189599,4586.1919015568837,-318.33423987855258,-1517.0538812247385,377.44617400665982,2696.9501644500365,-1521.211151354883,3334.3109948592978,-3334.3109948592978,1521.211151354883,5327.199152850987,0.0
628523.2936376977,3737751.2368613081,-22500.0,352.83015205038828,-1270.1152300716476,3163.1299996991265,379.71205235709959,-1065.9202575819525,268.44180330223691,2071.0032828638105,-829.0207591716977,859.14132116281223,-859.14132116281223,829.0207591716977,4101.5537297950314,0.0
633523.2936376977,3737751.2368613081,-22500.0,234.35971609040266,-1103.8400560767218,3552.0161662382138,324.53274442311215,-1171.5976416609733,290.08455586276716,2188.62380443238,-1055.8503477316858,1231.6980955691938,-1231.6980955691938,1055.8503477316858,4349.0631084768384,0.0
638523.2936376977,3737751.2368613081,-22500.0,132.77540328030335,-886.45172995572887,3885.7560162450518,255.68718783651772,-1261.1467953086017,308.13763656704458,2293.1297170364969,-1253.1618151609709,1605.3006961986075,-1605.3006961986075,1253.1618151609709,4558.7800860568432,0.0
643523.2936376977,3737751.2368613081,-22500.0,56.942405854642573,-627.05194511926209,4147.9030113437902,175.76386945635289,-1330.4250018286921,321.81257484840359,2379.1759355879885,-1408.7922946997478,1961.9922997072495,-1961.9922997072495,1408.7922946997478,4722.8058133581098,0.0
648523.2936376977,3737751.2368613081,-22500.0,13.593321716609999,-338.14240171740005,4325.870522277487,88.187776919170133,-1376.3142400302868,330.53012709142712,2440.1517649442981,-1513.3230856556324,2284.0728703750833,-2284.0728703750833,1513.3230856556324,4835.1358821323556,0.0
633523.2936376977,3517751.2368613081,-27500.0,139.22919880495735,765.25573099790222,4298.8375373961362,304.0542400032063,1681.900683787155,490.0999672521956,2610.0538125392159,-1027.0504954658447,3229.9196872216271,-3229.9196872216271,1027.0504954658447,5146.5068276322372,0.0
638523.2936376977,3517751.2368613081,-27500.0,44.809964020265298,461.03866264150048,4461.9378274567289,191.95599192636845,1735.715789969438,502.90913920011326,2658.042037154125,-1205.921214161106,3165.6812072457415,-3165.6812072457415,1205.921214161106,5242.4927229182567,0.0
643523.2936376977,3517751.2368613081,-27500.0,-11.966246333040328,127.79159920294522,4527.0513390041469,70.344033414957636,1756.2240271311089,507.06603724791381,2672.7338564314214,-1334.7494845278597,3013.0702089537444,-3013.0702089537444,1334.7494845278597,5275.6974815542135,0.0
648523.2936376977,3517751.2368613081,-27500.0,-25.199385426208874,-217.22257818299784,4485.374367586237,-55.109834151487739,1740.6813476366071,501.93773661975024,2652.4735593613163,-1403.3983398315922,2776.0428588450659,-2776.0428588450659,1403.3983398315922,5242.7131476719842,0.0
653523.2936376977,3517751.2368613081,-27500.0,7.0088934435932382,-554.74704893553019,4334.875834853081,-178.12231034096811,1688.4854319771166,487.41657920784399,2597.5304409181431,-1406.1817666886814,2464.9152108253761,-2464.9152108253761,1406.1817666886814,5143.2915496495898,0.0
658523.2936376977,3517751.2368613081,-27500.0,82.084973678267772,-865.44914305012264,4080.9075104111153,-292.38679149313555,1601.3581898271998,463.96000287803236,2510.7699474348101,-1342.7355395809273,2095.6447281289047,-2095.6447281289047,1342.7355395809273,4980.5502373479567,0.0
663523.2936376977,3517751.2368613081,-27500.0,193.15723172004047,-1131.9587362688712,3735.9055352202222,-392.19715109593676,1483.2557044218324,432.56654695256242,2398.9543828206506,-1218.1878641427629,1688.3311439760796,-1688.3311439760796,1218.1878641427629,4760.8618367602958,0.0
668523.2936376977,3517751.2368613081,-27500.0,329.87518533730128,-1340.6835652338684,3318.1866235167558,-473.00688941783812,1340.006274361356,394.68862466268911,2270.6161510068123,-1042.5677184668191,1265.154105187172,-1265.154105187172,1042.5677184668191,4493.4260376627717,0.0
673523.2936376977,3517751.2368613081,-27500.0,479.73154499209102,-1483.090268073126,2850.0261813544603,-531.8321069353774,1178.7302717760115,352.09425866185927,2129.6173411443638,-829.5495650526326,848.08971225293851,-848.08971225293851,829.5495650526326,4189.5760496359817,0.0
678523.2936376977,3517751.2368613081,-27500.0,629.63726400353653,-1556.2547394126052,2355.3491461261565,-567.43923715631126,1007.137842891713,306.70023329799659,1979.2070083190695,-594.77176543631322,456.78832483635398,-456.78832483635398,594.77176543631322,3861.9158854312145,0.0
683523.2936376977,3517751.2368613081,-27500.0,767.45713193092888,-1562.6419827951552,1857.4178855434836,-580.30262862963275,832.81650276976188,260.40201018632041,1824.2482026889822,-354.03969113792681,106.93991855436923,-106.93991855436923,354.03969113792681,3523.3993283397804,0.0
618523.2936376977,3522751.2368613081,-27500.0,670.17890661661386,1605.7197220692287,3640.1682964376837,654.42178301690035,1549.3261023759151,486.08358999513575,2560.1811349673817,-260.18269772109215,3222.1812362934525,-3222.1812362934525,260.18269772109215,5061.8706424236643,0.0
623523.2936376977,3522751.2368613081,-27500.0,494.048273133988,1445.9065779291334,4073.4931123146257,586.33016657122619,1703.2662260122274,526.86613746196599,2713.7886550027438,-549.78954610662618,3438.6555464929133,-3438.6555464929133,549.78954610662618,5357.4869885858416,0.0
628523.2936376977,3522751.2368613081,-27500.0,322.95495129915821,1215.3271283128577,4456.579432163725,493.59978027930543,1837.8961741158414,562.00184181569341,2843.5272355220891,-835.20337102649501,3577.8332188940312,-3577.8332188940312,835.20337102649501,5608.1578118093812,0.0
633523.2936376977,3522751.2368613081,-27500.0,171.15199102896153,918.50206080952091,4764.2507679306618,378.07789122747943,1944.8285426539521,589.35873640284001,2942.7748560722957,-1097.9317417344639,3623.5431497105492,-3623.5431497105492,1097.9317417344639,5801.5023338086221,0.0
638523.2936376977,3522751.2368613081,-27500.0,52.729887182454341,566.20281132918149,4972.9201436025241,243.64313404212197,2016.2936846028822,606.99123489582519,3005.7545712740539,-1318.8554139643595,3564.5656960437154,-3564.5656960437154,1318.8554139643595,5926.5985174539728,0.0
643523.2936376977,3522751.2368613081,-27500.0,-20.223458328833207,175.28130903464395,5063.3118347634809,96.125780232364917,2046.0031050060459,613.35205715491531,3028.0996101384308,-1480.3682435479896,3396.6297249327763,-3396.6297249327763,1480.3682435479896,5975.0500200403803,0.0
648523.2936376977,3522751.2368613081,-27500.0,-39.463277751100819,-232.43778302340277,5023.0788905282789,-57.061664998273905,2029.9701654032397,607.49014373783189,3007.4333201151203,-1568.6630672414285,3123.7562174336626,-3123.7562174336626,1568.6630672414285,5941.955877068779,0.0
653523.2936376977,3522751.2368613081,-27500.0,-2.0584317769256995,-632.17033519214965,4848.8276150533184,-207.57000280026384,1967.1400555186151,589.19960025120463,2943.9848669820476,-1575.7513084918585,2758.5837965549836,-2758.5837965549836,1575.7513084918585,5826.6328245809573,0.0
658523.2936376977,3522751.2368613081,-27500.0,88.859981008362013,-998.84378159388768,4547.094360226075,-346.95842143287757,1859.6919502718058,559.08791111165431,2841.5236491463038,-1500.7880572559793,2321.4724539769695,-2321.4724539769695,1500.7880572559793,5632.9522766171422,0.0
663523.2936376977,3522751.2368613081,-27500.0,224.2973433155673,-1309.9862997570008,4133.9916763774936,-467.60603835416794,1712.9287658064709,518.54429050909687,2708.6392054586763,-1350.3788345443945,1838.4363027816044,-1838.4363027816044,1350.3788345443945,5369.2093300686975,0.0
668523.2936376977,3522751.2368613081,-27500.0,390.55697114853967,-1548.3022046253529,3633.5141787392809,-563.52978555833079,1534.7513464675169,469.60839417804539,2555.1886081905291,-1137.755828108787,1338.2292568897867,-1338.2292568897867,1137.755828108787,5047.5203704683427,0.0
673523.2936376977,3522751.2368613081,-27500.0,571.14692131299887,-1703.4500154660802,3074.7881352243699,-630.96240979167521,1334.8009280184369,414.75943452916147,2386.2727679562304,-880.97046911401048,849.10962075011753,-849.10962075011753,880.97046911401048,4682.8262445740365,0.0
678523.2936376977,3522751.2368613081,-27500.0,749.0379788057445,-1772.7239532393503,2488.7802745651811,-668.59748689540993,1123.4240429718648,356.66212650258046,2206.8613341388432,-600.47512595722105,395.87594988485063,-395.87594988485063,600.47512595722105,4291.6498125787721,0.0
683523.2936376977,3522751.2368613081,-27500.0,908.8173853815656,-1760.5989731311859,1905.0670526407944,-677.4841540237727,910.64166488345734,297.91236119391931,2023.4694974274219,-316.58225220088923,-2.3294054997487308,2.3294054997487308,316.58225220088923,3890.7862406026084,0.0
688523.2936376977,3522751.2368613081,-27500.0,1038.3504182154668,-1677.3482730070225,1349.189721204641,-660.62831634605175,705.2843119042102,240.82128115327643,1842.7819084451298,-47.265172310519375,-333.16989135262327,333.16989135262327,47.265172310519375,3496.0886836051641,0.0
693523.2936376977,3522751.2368613081,-27500.0,1129.7236186224568,-1537.1070346799258,840.92998680446544,-622.40822999526949,514.40179644661339,187.26409157420971,1670.7263836512966,193.37418725782635,-591.19383079528461,591.19383079528461,-193.37418725782635,3121.4665077960531,0.0
698523.2936376977,3522751.2368613081,-27500.0,1179.435337061901,-1355.799008136667,393.59811641215219,-567.92884555847911,342.98395596151221,138.60368373716224,1511.9738798119179,395.84262839366204,-777.03785109945659,777.03785109945659,-395.84262839366204,2778.1401636156752,0.0
613523.2936376977,3527751.2368613081,-27500.0,1014.5773007367355,1937.1007807360343,3360.1109818261616,832.0258723580796,1546.09188044754,517.52400946173259,2642.4252033207972,161.59798966637459,3178.3209476677248,-3178.3209476677248,-161.59798966637459,5236.3656507959477,0.0
618523.2936376977,3527751.2368613081,-27500.0,819.88889721267674,1858.1721688375369,3905.9757543284968,789.0037609195108,1750.7787988207003,574.73008764509279,2849.9102694656431,-158.60009799861587,3522.3835030537821,-3522.3835030537821,158.60009799861587,5635.8040908327403,0.0
623523.2936376977,3527751.2368613081,-27500.0,610.77260082136013,1694.5589803397741,4429.4967102574083,714.82975077421622,1944.5735959885919,628.10059551655843,3039.630398747498,-500.02728706571634,3802.4035343863607,-3802.4035343863607,500.02728706571634,6000.7014418525987,0.0
628523.2936376977,3527751.2368613081,-27500.0,403.14460198356653,1442.7536087008093,4900.0475379452173,608.77152987976649,2116.6897387762492,674.73486350570386,3202.2981879565723,-842.99164440732943,3993.3370699914294,-3993.3370699914294,842.99164440732943,6314.4382841985844,0.0
633523.2936376977,3527751.2368613081,-27500.0,215.31981983727346,1106.501779741074,5285.027369387888,472.59287225192264,2255.8289806859007,711.64861398994003,3329.0551663562942,-1164.075783745868,4072.9157263117668,-4072.9157263117668,1164.075783745868,6560.5943998869479,0.0
638523.2936376977,3527751.2368613081,-27500.0,65.985694970585769,697.93759374706713,5553.0733899938314,310.88487238888348,2351.2607802238927,736.0555787403481,3412.0359595613031,-1438.3004503096599,4024.8138118169509,-4024.8138118169509,1438.3004503096599,6724.3567308528736,0.0
643523.2936376977,3527751.2368613081,-27500.0,-28.361964407938693,237.64269831172425,5677.8685994630787,131.0450581167772,2394.0766166960584,745.68688733646593,3445.1548932592978,-1642.05127921494,3841.6299936116238,-3841.6299936116238,1642.05127921494,6794.0464213144078,0.0
648523.2936376977,3527751.2368613081,-27500.0,-56.099529461576239,-246.66348271038424,5641.953743512674,-57.1812178685744,2378.4290651477172,739.10004204537427,3424.9543636398189,-1756.3518667759913,3527.0394511968811,-3527.0394511968811,1756.3518667759913,6762.5569194678228,0.0
653523.2936376977,3527751.2368613081,-27500.0,-12.704099112033429,-722.82345848953719,5439.7894048204616,-242.59761193795691,2302.5182577016299,715.91951037237641,3351.5099759879781,-1769.8634333491409,3096.5099380837673,-3096.5099380837673,1769.8634333491409,6628.4625154502446,0.0
658523.2936376977,3527751.2368613081,-27500.0,98.041386025591748,-1157.9977732481361,5079.3337877669583,-413.78417410040197,2169.0971481089759,676.95430839963535,3229.6799906877445,-1680.9287008609474,2576.2091059876821,-2576.2091059876821,1680.9287008609474,6396.5737307093113,0.0
663523.2936376977,3527751.2368613081,-27500.0,264.25390740634509,-1522.8157736153069,4581.6495769184121,-560.44845951729997,1985.3451416089811,624.15781274993446,3070.2681020030295,-1498.1188715572785,2000.130082057884,-2000.130082057884,1498.1188715572785,6077.7944756469087,0.0
668523.2936376977,3527751.2368613081,-27500.0,467.61759827248846,-1795.0844495971533,3978.4894461295289,-674.640979746536,1762.0935840305124,560.42744116484812,2885.1606450543632,-1239.0754888982235,1405.9157991357163,-1405.9157991357163,1239.0754888982235,5688.2614768713947,0.0
673523.2936376977,3527751.2368613081,-27500.0,686.17351828892072,-1962.2877356755175,3308.3040768321403,-751.59570098393215,1512.5393350173697,489.27799181704012,2681.4639111842243,-927.87074265171714,830.2106865836804,-830.2106865836804,927.87074265171714,5247.890602620997,0.0
678523.2936376977,3527751.2368613081,-27500.0,897.6014268605926,-2022.4142182405744,2611.4891156802896,-790.0469776473908,1250.6972998718252,414.44972971330174,2466.3901855848394,-591.48065213867881,304.47140961069988,-304.47140961069988,591.48065213867881,4778.5610822434146,0.0
683523.2936376977,3527751.2368613081,-27500.0,1082.2691897102545,-1983.0838553365868,1925.8227718297405,-792.00482180236997,989.88983768203241,339.52326355755605,2248.6088073601627,-256.15146127138229,-147.99736694195974,147.99736694195974,256.15146127138229,4302.2233160003161,0.0
688523.2936376977,3527751.2368613081,-27500.0,1225.4603230995735,-1859.350672474661,1282.8941134095712,-762.09495757252989,741.5291076299028,267.60438758228474,2036.6506978230561,55.62383025012636,-513.39288568685981,513.39288568685981,-55.62383025012636,3839.1818302313222,0.0
693523.2936376977,3527751.2368613081,-27500.0,1318.4737394185026,-1670.8013417341945,705.98070759564166,-706.64918511355177,514.34815032720735,201.11832337689756,1837.7811409040282,327.05453096782958,-787.18439626660665,787.18439626660665,-327.05453096782958,3406.7155847995896,0.0
698523.2936376977,3527751.2368613081,-27500.0,1358.6085286144221,-1438.6030838239424,209.43729870078957,-632.74841027199966,314.11557648779308,141.72421202072641,1657.3848266599127,547.79479888875881,-972.67320505968587,972.67320505968587,-547.79479888875881,3018.0867193497952,0.0
703523.2936376977,3527751.2368613081,-27500.0,1348.2879281549863,-1183.0103183906062,-200.66421478592915,-547.38346728390809,143.7658345402086,90.335668977819012,1498.6924130268437,713.63603238750045,-1078.8738318498681,1078.8738318498681,-713.63603238750045,2681.9061964369057,0.0
708523.2936376977,3527751.2368613081,-27500.0,1293.6911731239616,-921.61279745944751,-525.07302087942469,-456.83336184348695,3.8189660140407318,47.21789490520468,1362.78311256334,825.47676154287228,-1118.2362827708453,1118.2362827708453,-825.47676154287228,2401.8330957422727,0.0
603523.2936376977,3532751.2368613081,-27500.0,1557.6992289968773,2077.419018284857,2297.5703103606079,973.00616623307087,1229.9008994002093,459.25919284278177,2416.2270818376405,926.58386572836457,2465.5143006625658,-2465.5143006625658,-926.58386572836457,4784.5464514038331,0.0
608523.2936376977,3532751.2368613081,-27500.0,1418.6264011266344,2178.7347588907232,2889.1266796496016,997.5253467319875,1470.0710690170365,531.56231000242974,2665.7411749971261,670.95791727759934,2940.7630220635965,-2940.7630220635965,-670.95791727759934,5287.9896471873717,0.0
613523.2936376977,3532751.2368613081,-27500.0,1233.2023657946932,2208.7089964787669,3521.0136659136983,992.94139593357818,1721.9795103188783,606.13717647404178,2923.0955817188251,354.94761501578364,3407.2116733766297,-3407.2116733766297,-354.94761501578364,5792.2812919589351,0.0
618523.2936376977,3532751.2368613081,-27500.0,1009.6928046013554,2149.8858915098986,4169.3821708526739,953.38075479587042,1976.3010093186742,680.21358820510034,3175.925435216559,-12.092490070789154,3836.989549504046,-3836.989549504046,12.092490070789154,6280.3960934302713,0.0
623523.2936376977,3532751.2368613081,-27500.0,762.15305397742975,1988.4492858315646,4802.4877818001132,874.44215995135039,2221.0517965636395,750.34299325235372,3411.0364985905412,-413.61062511091905,4198.2573331113053,-4198.2573331113053,413.61062511091905,6732.5413476783506,0.0
628523.2936376977,3532751.2368613081,-27500.0,510.07910863111766,1717.0889086199111,5381.9547353212893,754.15579064980432,2442.102255906007,812.55946154951982,3615.9647770980914,-825.90649696383252,4457.8738503444038,-4457.8738503444038,825.90649696383252,7127.1344832152363,0.0
633523.2936376977,3532751.2368613081,-27500.0,276.9599239687202,1337.7522675068005,5865.5300995433136,593.87631183347685,2624.1857580683568,862.66787024408359,3778.7599423189686,-1219.4218523266468,4585.1647962267307,-4585.1647962267307,1219.4218523266468,7442.2955956463002,0.0
638523.2936376977,3532751.2368613081,-27500.0,87.655706918797492,863.64205131413235,6211.3246790324401,398.90064665455105,2752.3881410532176,896.65020015843641,3888.615683168638,-1561.4498286801054,4556.4061806094696,-4556.4061806094696,1561.4498286801054,7657.7868007921643,0.0
643523.2936376977,3532751.2368613081,-27500.0,-35.170162514086208,319.75930135365701,6383.1449169620719,178.58903709233047,2813.9759346086257,911.14915176847649,3936.9557994632237,-1820.1209897020017,4359.2872165169165,-4359.2872165169165,1820.1209897020017,7757.2105183332797,0.0
648523.2936376977,3532751.2368613081,-27500.0,-74.97976484413725,-258.55442118611148,6356.084615769596,-54.177877223275352,2800.2836760988594,903.95512405230511,3918.6769534861214,-1969.113166982952,3996.3639263647874,-3996.3639263647874,1969.113166982952,7730.1637875622409,0.0
653523.2936376977,3532751.2368613081,-27500.0,-24.776678908313635,-829.22765327609864,6121.2125405929874,-284.24427459808481,2708.2799876176532,874.40001781597005,3833.4744222743275,-1992.1554916890555,3486.4923392445498,-3486.4923392445498,1992.1554916890555,7573.965495924419,0.0
658523.2936376977,3532751.2368613081,-27500.0,110.92891083853317,-1348.7920282562598,5688.1488085714636,-495.98099458337049,2541.4224448985224,823.56198812955085,3687.4853726088454,-1886.2273092332166,2863.5534295040111,-2863.5534295040111,1886.2273092332166,7294.5809810979463,0.0
663523.2936376977,3532751.2368613081,-27500.0,316.28542914792723,-1778.4320875226372,5084.6850361266279,-675.31906617237496,2309.5321318221722,754.21777674870793,3494.3341641434081,-1662.5317557757878,2172.4234630988944,-2172.4234630988944,1662.5317557757878,6906.4917806135318,0.0
668523.2936376977,3532751.2368613081,-27500.0,566.5225958851255,-2089.4144945719977,4353.3018875175285,-811.58716936977612,2027.6386152682383,670.53320374174893,3269.0407940700784,-1344.8544364752845,1462.9045879005837,-1462.9045879005837,1344.8544364752845,6431.4528255567147,0.0
673523.2936376977,3532751.2368613081,-27500.0,832.0990250882204,-2266.6511195748026,3545.2814000479984,-898.75262690418663,1714.0162838352649,577.54881223807104,3021.7287231087853,-965.64573385639642,782.9408145636371,-782.9408145636371,965.64573385639642,5896.3329088654536,0.0
678523.2936376977,3532751.2368613081,-27500.0,1083.5406262999652,-2309.666698320053,2713.7447097354238,-935.82353654129338,1387.8352484379632,480.56616796276791,2762.6103644570426,-560.80026660524709,172.62419776203441,-172.62419776203441,560.80026660524709,5330.4176996072074,0.0
683523.2936376977,3532751.2368613081,-27500.0,1295.8005342206829,-2230.9848948695012,1907.1421136774372,-926.4002024839217,1066.9205709277223,384.55802580790265,2503.1960398125507,-164.39968096977958,-339.81560347027431,339.81560347027431,164.39968096977958,4762.6330105491943,0.0
688523.2936376977,3532751.2368613081,-27500.0,1451.231766010568,-2052.6156593882192,1164.4298700929442,-877.57673132613559,766.03150276861879,293.70610268179939,2254.359816564418,195.45600566420717,-739.49894222400769,739.49894222400769,-195.45600566420717,4219.0839191991545,0.0
693523.2936376977,3532751.2368613081,-27500.0,1540.776259730455,-1801.6876095286266,512.54899216947092,-798.5164808206431,495.8823628217034,211.12570189132464,2024.9157193024171,499.07308341696103,-1024.0400415999168,1024.0400415999168,-499.07308341696103,3721.1365670324922,0.0
698523.2936376977,3532751.2368613081,-27500.0,1563.5029676981803,-1506.2507578568441,-33.840119951417677,-699.03185367256003,262.91734344506222,138.78454272568396,1820.8625846649679,735.75397955738845,-1201.0382616973327,1201.0382616973327,-735.75397955738845,3284.0905323351667,0.0
703523.2936376977,3532751.2368613081,-27500.0,1524.9888969617098,-1191.9759327372742,-470.89907962502156,-588.41632956314709,69.68877370641718,77.582078798426281,1645.1312402104577,902.91004993420722,-1284.8011200572082,1284.8011200572082,-902.91004993420722,2916.3991883234662,0.0
708523.2936376977,3532751.2368613081,-27500.0,1435.1579612291032,-880.07120898530923,-803.1648070941618,-474.65300513157013,-84.389882175670522,27.533825025767094,1497.7561374482157,1004.2753142315544,-1293.0846082766045,1293.0846082766045,-1004.2753142315544,2619.4665013792337,0.0
713523.2936376977,3532751.2368613081,-27500.0,1306.1171346801882,-586.38528693354885,-1040.8078646610572,-364.01163367164247,-202.14358557839122,-11.99697647128246,1376.4161010957789,1047.8007626380365,-1244.3772547947094,1244.3772547947094,-1047.8007626380365,2388.2230660506698,0.0
598523.2936376977,3537751.2368613081,-27500.0,1921.1360073730873,2068.3713194728257,1648.3410417774185,1057.9305848809399,1053.1798740978588,438.88372149451595,2357.8910817611049,1410.3284993528218,1961.4026547771177,-1961.4026547771177,-1410.3284993528218,4624.5899953902326,0.0
603523.2936376977,3537751.2368613081,-27500.0,1843.9475574613634,2278.4334923334359,2243.5147676321762,1128.4945230852741,1314.1872505231245,522.93546996661723,2633.2615296597905,1223.1671806286643,2494.7095428891898,-2494.7095428891898,-1223.1671806286643,5196.9319407056209,0.0
608523.2936376977,3537751.2368613081,-27500.0,1704.7441195810466,2433.9370479605973,2916.020542311162,1173.8720668896576,1602.1156854631245,613.78956363018904,2926.4555642072692,956.52520794913971,3056.9411433229529,-3056.9411433229529,-956.52520794913971,5795.275619390578,0.0
613523.2936376977,3537751.2368613081,-27500.0,1504.4585829190751,2510.6161254174667,3649.8385285583631,1185.1610044594561,1909.7477298092979,709.02304091254598,3233.4656984441654,610.65328126452391,3622.5164959570693,-3622.5164959570693,-610.65328126452391,6403.6468714425519,0.0
618523.2936376977,3537751.2368613081,-27500.0,1250.7945834806192,2484.3557523366439,4418.4258290240359,1153.8148531088991,2226.0248606877826,805.14722768202284,3541.6799566349405,193.77315185443172,4157.8092214012431,-4157.8092214012431,-193.77315185443172,7001.4021782542641,0.0
623523.2936376977,3537751.2368613081,-27500.0,959.34139073728738,2334.4834051834678,5184.1141492522429,1072.837460904859,2535.9487857538375,897.6202786908118,3833.9007156985135,-276.27642969131239,4622.5840429665222,-4622.5840429665222,276.27642969131239,7563.6472499220763,0.0
628523.2936376977,3537751.2368613081,-27500.0,653.62966664938597,2047.8005382028257,5899.1277185168874,938.19651961856312,2821.0691128250123,981.02423900854251,4093.2906892503302,-771.4746527107668,4973.1456160810976,-4973.1456160810976,771.4746527107668,8062.3496268596846,0.0
633523.2936376977,3537751.2368613081,-27500.0,363.63899737278444,1622.7645511802441,6508.7503927741564,750.24414690910896,3060.7211643447235,1049.4435947278682,4303.6016041884413,-1254.7549893397904,5167.2686588317229,-5167.2686588317229,1254.7549893397904,8468.2413584308451,0.0
638523.2936376977,3537751.2368613081,-27500.0,122.49273523206342,1072.8899827821267,6956.8333095412581,514.82618584382215,3234.0570143752175,1097.0472325268972,4449.852309275494,-1683.2719400483413,5170.5043402856436,-5170.5043402856436,1683.2719400483413,8753.4748116477695,0.0
643523.2936376977,3537751.2368613081,-27500.0,-38.479181917561931,428.2372327711866,7193.2464655417225,243.70584161512681,3322.7118276437632,1118.822613268409,4519.8172051029496,-2013.7783968640224,4962.868000546091,-4962.868000546091,2013.7783968640224,8894.8015646309905,0.0
648523.2936376977,3537751.2368613081,-27500.0,-95.525504644939616,-266.01813287787166,7182.1300092973361,-46.020232782613249,3313.7019096754611,1111.3495630374071,4505.8525796679451,-2209.4226915280265,4544.3931660413073,-4544.3931660413073,2209.4226915280265,8876.8298272945249,0.0
653523.2936376977,3537751.2368613081,-27500.0,-37.769761535905069,-954.37321066831976,6909.1546249224111,-333.6409963350427,3201.9439736347977,1073.4530344002719,4406.8474735693153,-2246.5823364436128,3937.86872182964,-3937.86872182964,2246.5823364436128,8694.7549156614623,0.0
658523.2936376977,3537751.2368613081,-27500.0,129.54138376252016,-1578.6375633277437,6385.7895493559718,-597.50297645891237,2991.7261419459983,1006.5659446375186,4230.4093380709182,-2119.949378075592,3187.4852791313187,-3187.4852791313187,2119.949378075592,8355.9275310766025,0.0
663523.2936376977,3537751.2368613081,-27500.0,385.04744647561597,-2086.8890497368902,5649.0655936280027,-818.12167213957514,2696.6290781378175,914.67964095001639,3993.9079842228593,-1844.2709897192499,2353.1402550369294,-2353.1402550369294,1844.2709897192499,7879.7916162883284,0.0
668523.2936376977,3537751.2368613081,-27500.0,694.84133246008264,-2441.5662137783315,4756.4904918043931,-981.01229262123138,2337.7814999557381,803.85988226216818,3717.1516190254688,-1452.0061173941826,1501.4780134592133,-1501.4780134592133,1452.0061173941826,7296.0703769129113,0.0
673523.2936376977,3537751.2368613081,-27500.0,1018.7421927161429,-2624.6265217519908,3777.2152948735829,-1078.5530633455376,1940.807666857901,681.42297522862259,3414.7437686505918,-987.41073366130024,695.82023395207477,-695.82023395207477,987.41073366130024,6641.4961089127928,0.0
678523.2936376977,3537751.2368613081,-27500.0,1317.5427118968253,-2638.5961098732696,2781.6729224080632,-1110.4768718461144,1532.1985218006753,554.95922465780825,3101.0004768087724,-498.68101476803872,-12.527571054725485,12.527571054725485,498.68101476803872,5955.7261725586377,0.0
683523.2936376977,3537751.2368613081,-27500.0,1559.2994754333943,-2503.6392606091736,1832.1945097676742,-1083.0040353994953,1135.946526380844,431.41839131309041,2791.2007679196258,-30.257785803017669,-589.69662504459973,589.69662504459973,30.257785803017669,5277.1986870983483,0.0
688523.2936376977,3537751.2368613081,-27500.0,1723.2576640770701,-2251.9038634517069,976.52143839277301,-1007.0002984538854,771.11081968152257,316.43055799396069,2499.1551384669292,382.92309591439442,-1020.6829993296087,1020.6829993296087,-382.92309591439442,4639.5523767285031,0.0
693523.2936376977,3537751.2368613081,-27500.0,1800.9334577474681,-1920.9205510766765,245.00518505709221,-895.7326448813252,450.62208108849131,213.94883543814504,2235.3606077678801,718.32586931805895,-1307.2859155924068,1307.2859155924068,-718.32586931805895,4068.9307837422848,0.0
698523.2936376977,3537751.2368613081,-27500.0,1794.7650336676668,-1547.6654102921402,-348.83435791115636,-762.76502272225832,181.2643201577973,126.20649225602499,2006.0986290540091,965.92184081282755,-1463.8414568771964,1463.8414568771964,-965.92184081282755,3582.2048030658011,0.0
703523.2936376977,3537751.2368613081,-27500.0,1715.2631302498205,-1164.2884645703259,-805.43053327993835,-620.35702781479802,-35.480969209762279,53.914275764365328,1813.3102519113352,1126.2575906250079,-1512.2125619121905,1512.2125619121905,-1126.2575906250079,3186.0999891475021,0.0
708523.2936376977,3537751.2368613081,-27500.0,1577.673932404462,-795.80263461587913,-1135.2093253812038,-478.50343448527224,-202.13391677566827,-3.4043294801107464,1655.1410264094379,1207.484334662144,-1477.2010587172715,1477.2010587172715,-1207.484334662144,2877.4363182914644,0.0
713523.2936376977,3537751.2368613081,-27500.0,1398.9358764832455,-459.49311646486069,-1354.5822798519093,-344.56985588269509,-323.81955528240485,-47.03606451994105,1527.0146158222417,1222.2333751414085,-1383.0438738819998,1383.0438738819998,-1222.2333751414085,2644.8726510868405,0.0
718523.2936376977,3537751.2368613081,-27500.0,1195.3651394498552,-165.53793907185059,-1482.5510057331383,-223.37670906474412,-407.02275511259415,-78.728805232322117,1422.9701850570773,1184.9265059151226,-1251.1823860227923,1251.1823860227923,-1184.9265059151226,2472.1520939003422,0.0
593523.2936376977,3542751.2368613081,-27500.0,2218.2004233873868,1889.9524751939184,923.39039809480096,1083.4322162176875,818.0137767924906,396.47304713463535,2250.1983946381438,1834.0182602023451,1313.7608743819037,-1313.7608743819037,-1834.0182602023451,4345.2398735653023,0.0
598523.2936376977,3542751.2368613081,-27500.0,2233.1523843201303,2195.1621903488294,1469.5413388268175,1201.3743164785565,1081.3790521618027,488.15824238338183,2543.0900637996651,1751.6376223905472,1855.997186065636,-1855.997186065636,-1751.6376223905472,4958.816735587855,0.0
603523.2936376977,3542751.2368613081,-27500.0,2179.7604813723724,2473.8988950933517,2123.3334731581476,1303.0622192776596,1386.4494292552031,591.68393000082403,2863.185519623255,1582.0142574322381,2465.7600973525073,-2465.7600973525073,-1582.0142574322381,5626.431147954102,0.0
608523.2936376977,3542751.2368613081,-27500.0,2049.6276735245019,2699.2218397128772,2881.0146334237206,1377.6858374473459,1730.1291120384335,705.60557034933913,3208.1377656634877,1314.3400046155584,3125.6481359470436,-3125.6481359470436,-1314.3400046155584,6336.126008401081,0.0
613523.2936376977,3542751.2368613081,-27500.0,1840.1626012723082,2839.9779224311455,3727.937028163667,1413.1859891674765,2104.9633667008602,827.15517183626082,3574.3791928035721,944.27173299734977,3807.4417840748151,-3807.4417840748151,-944.27173299734977,7069.8320986811641,0.0
618523.2936376977,3542751.2368613081,-27500.0,1557.1774481217865,2863.4060909959667,4635.7671330506846,1397.3186520602987,2498.2187559039257,952.02355378389677,3950.0772891569281,477.1552515286262,4471.3993962363147,-4471.3993962363147,-477.1552515286262,7802.8852772536602,0.0
623523.2936376977,3542751.2368613081,-27500.0,1217.0163358898599,2739.2952213422195,5560.7556516011809,1319.251451818611,2891.4057296423512,1074.2870696796695,4314.1701728641574,-69.075133939743409,5067.2942794823357,-5067.2942794823357,69.075133939743409,8504.2101926067335,0.0
628523.2936376977,3542751.2368613081,-27500.0,847.42981273987743,2445.5345852741398,6444.0504707599903,1171.6092491215236,3260.5874054124583,1186.5696398600398,4644.0158002970193,-662.20095790098594,5537.881140489686,-5537.881140489686,662.20095790098594,9137.4698497942409,0.0
633523.2936376977,3542751.2368613081,-27500.0,486.33738115990582,1974.3673714519537,7215.0322412812793,952.70200426242479,3577.7998739032919,1280.5186310343797,4917.3934396142258,-1256.2659560564116,5825.1635800178456,-5825.1635800178456,1256.2659560564116,9663.4110839023706,0.0
638523.2936376977,3542751.2368613081,-27500.0,177.84079143795259,1338.0391598124891,7798.2759288728394,668.46356590244113,3813.7635665326525,1347.626361468192,5113.3601747365674,-1795.2600511051191,5879.164135915802,-5879.164135915802,1795.2600511051191,10043.46103309054,0.0
643523.2936376977,3542751.2368613081,-27500.0,-34.524136758642001,572.04535460831164,8123.8893522004018,333.47949705357973,3941.7564932428841,1380.343031548781,5214.2847694432594,-2220.2419199129627,5667.9238428575072,-5667.9238428575072,2220.2419199129627,10244.323038341679,0.0
648523.2936376977,3542751.2368613081,-27500.0,-116.32499492707457,-265.83438462434611,8139.7416718426302,-29.502120149892299,3942.0940717368635,1373.3153654712783,5208.5504836203354,-2479.1443724653977,5186.4594995594198,-5186.4594995594198,2479.1443724653977,10242.950111233016,0.0
653523.2936376977,3542751.2368613081,-27500.0,-50.532803494140474,-1101.7736160690945,7822.8409612431979,-391.91070579698857,3806.2391200339998,1324.4836113286826,5093.468530885687,-2537.2437974691943,4461.8627464434676,-4461.8627464434676,2537.2437974691943,10030.928792366218,0.0
658523.2936376977,3542751.2368613081,-27500.0,157.02575569812811,-1856.9267695302233,7186.5071011359287,-723.35132936202285,3539.3750020597627,1235.7336590515449,4878.2809860684747,-2385.3764044837826,3552.1749230210344,-3552.1749230210344,2385.3764044837826,9617.1841189454153,0.0
663523.2936376977,3542751.2368613081,-27500.0,477.26313282476963,-2460.9085034223308,6280.5921363109564,-996.44918022356865,3160.4939583568294,1112.8680078796224,4585.4626336912297,-2043.0818807525573,2538.2941699142743,-2538.2941699142743,2043.0818807525573,9028.1287069424416,0.0
668523.2936376977,3542751.2368613081,-27500.0,863.15348988722144,-2864.0998729884795,5183.9522406712085,-1191.3035067255801,2699.7237143882212,964.83778423405533,4242.0953432589095,-1555.2375932304512,1510.5179570724476,-1510.5179570724476,1555.2375932304512,8304.9759152789447,0.0
673523.2936376977,3542751.2368613081,-27500.0,1259.4014382100413,-3045.246414748688,3990.9466337268072,-1298.3388195415166,2193.4875230128814,802.39912560317828,3869.5129348150795,-982.9605686889148,553.31666269273217,-553.31666269273217,982.9605686889148,7498.6867871424165,0.0
678523.2936376977,3542751.2368613081,-27500.0,1613.4845924499054,-3012.4079144964417,2795.7441739496967,-1318.8614032800931,1678.7883811920224,636.53115028315688,3487.7571623980043,-391.56661851243911,-267.46198681955781,267.46198681955781,391.56661851243911,6663.6454087469692,0.0
683523.2936376977,3542751.2368613081,-27500.0,1884.806663121386,-2797.6715085540845,1678.6627830846494,-1263.405341971091,1188.0893788298363,477.00066595050419,3117.1100034250549,160.82964672291723,-911.87520728226673,911.87520728226673,-160.82964672291723,5851.3544017009481,0.0
688523.2936376977,3542751.2368613081,-27500.0,2049.7636960956847,-2447.975628865895,697.53746449494815,-1148.615336307497,745.88081809448056,331.36562149399663,2774.9680090754036,631.20971490182296,-1366.7630482009561,1366.7630482009561,-631.20971490182296,5105.1410329966047,0.0
693523.2936376977,3542751.2368613081,-27500.0,2102.2543298371779,-2015.1083710256562,-114.96600765927107,-993.69299420960522,367.33892497465632,204.53807685087756,2473.4202109910379,994.84057543490826,-1641.4355871572911,1641.4355871572911,-994.84057543490826,4456.3229381967876,0.0
698523.2936376977,3542751.2368613081,-27500.0,2050.65415017948,-1547.3982652166958,-749.06912987151986,-817.29649503341273,58.820260931575,98.856833402560497,2218.254669983718,1244.2462826789911,-1760.5426963152181,1760.5426963152181,-1244.2462826789911,3921.8739334879824,0.0
703523.2936376977,3542751.2368613081,-27500.0,1912.9735514971126,-1084.396762098258,-1212.6107408806943,-635.40346644385932,-180.44731079161394,14.511913892247509,2009.2206784388773,1385.4616312449846,-1756.5214474266406,1756.5214474266406,-1385.4616312449846,3503.751887392506,0.0
708523.2936376977,3542751.2368613081,-27500.0,1711.8275606068532,-654.64633222369105,-1524.8219580840091,-460.24180337102979,-356.18319694316875,-49.864945685372867,1841.3378966514788,1433.2564717629541,-1663.2887242909694,1663.2887242909694,-1433.2564717629541,3190.4908421655668,0.0
713523.2936376977,3542751.2368613081,-27500.0,1470.2956979441851,-275.85505335158592,-1710.6335059105927,-300.11020350665126,-476.93777176258965,-96.59926240658659,1706.8681936457897,1406.6346400059986,-1511.9173024254535,1511.9173024254535,-1406.6346400059986,2961.4496157258882,0.0
718523.2936376977,3542751.2368613081,-27500.0,1209.121753188118,43.46738985603568,-1796.2878292849496,-159.7887603880329,-552.36400810078749,-128.46101114668303,1597.3567680977899,1325.326684029058,-1328.2941992333881,1328.2941992333881,-1325.326684029058,2792.7072762287603,0.0
723523.2936376977,3542751.2368613081,-27500.0,945.22730952262953,301.76646662121044,-1806.4373808974542,-41.244589200889372,-591.99134652990756,-148.28286824351693,1505.1782214619461,1207.4814844278892,-1132.3486360150098,1132.3486360150098,-1207.4814844278892,2662.3492154963051,0.0
588523.2936376977,3547751.2368613081,-27500.0,2391.3542947429446,1543.1579667445374,192.0767362634183,1036.9343830470968,541.76898452892738,333.13839447088833,2104.078464952087,2131.6765136360391,580.46266782947646,-580.46266782947646,-2131.6765136360391,3974.5107377386735,0.0
593523.2936376977,3547751.2368613081,-27500.0,2517.6583200369214,1911.7285128128608,639.87184249114284,1196.2672345385495,786.36742499087666,426.63845732617057,2399.281493165252,2177.374805574033,1075.3399609961971,-1075.3399609961971,-2177.374805574033,4591.7711277549197,0.0
598523.2936376977,3547751.2368613081,-27500.0,2582.4364242654851,2288.4968320717385,1211.9766496784468,1352.4668197945782,1084.1365473361363,536.72457837363584,2732.5015826180747,2143.4353169309206,1668.9247278126124,-1668.9247278126124,-2143.4353169309206,5290.0604970023851,0.0
603523.2936376977,3547751.2368613081,-27500.0,2568.5532741875941,2649.5388350285716,1918.7111790964839,1494.7871082678184,1437.5099173548617,663.51057596513363,3102.8509921105037,2009.0768673565503,2356.6305844398462,-2356.6305844398462,-2009.0768673565503,6064.3337137675408,0.0
608523.2936376977,3547751.2368613081,-27500.0,2461.6442294653398,2962.9153714781969,2761.9755807800834,1609.5855999618459,1845.0848976484597,805.7965213259281,3508.1450121140815,1756.219731340922,3122.9006495443414,-3122.9006495443414,-1756.219731340922,6902.9883585241732,0.0
613523.2936376977,3547751.2368613081,-27500.0,2253.483119126312,3189.4914009165991,3730.8420624275418,1680.8185666184779,2299.9655684364575,960.60557795037596,3945.0126634866651,1373.3693440562652,3938.1868785857537,-3938.1868785857537,-1373.3693440562652,7786.379786594639,0.0
618523.2936376977,3547751.2368613081,-27500.0,1945.8591202916264,3285.603610102326,4797.0436317854601,1691.2405341662381,2788.1527999115765,1122.7692684337007,4402.7917506109006,860.28768386166212,4756.9060975077282,-4756.9060975077282,-860.28768386166212,8685.6983627303216,0.0
623523.2936376977,3547751.2368613081,-27500.0,1554.259271614314,3208.0615478693817,5911.3870250779,1624.4536319899235,3287.3798190704806,1284.6810259698907,4857.2872263331974,232.75154696863774,5517.4761786326335,-5517.4761786326335,-232.75154696863774,9562.6327579312783,0.0
628523.2936376977,3547751.2368613081,-27500.0,1110.2314264132121,2921.5663075349894,7002.5646239241487,1467.7938831100726,3766.941221732824,1436.3716224913828,5278.5887733369736,-473.81771223267742,6145.6591739380383,-6145.6591739380383,473.81771223267742,10370.326680265198,0.0
633523.2936376977,3547751.2368613081,-27500.0,661.00576375525588,2407.8684833478983,7980.0624389148561,1215.7612098076577,4189.1179220353379,1566.0610958221855,5636.2492675079948,-1203.5025271506825,6562.1671995376564,-6562.1671995376564,1203.5025271506825,11056.102805691535,0.0
638523.2936376977,3547751.2368613081,-27500.0,265.06252691114503,1674.9396226365059,8742.5535437839098,873.33258703381034,4512.6601086553565,1661.2880691337559,5900.783169275237,-1883.5139387998188,6694.6175081806996,-6694.6175081806996,1883.5139387998188,11566.222876293696,0.0
643523.2936376977,3547751.2368613081,-27500.0,-16.885713180000753,763.38787264704183,9192.0382148672143,458.1509185034879,4698.3564513382871,1710.5857223134324,6046.4734108242492,-2433.3231982590219,6492.3957149486196,-6492.3957149486196,2433.3231982590219,11852.507514946354,0.0
648523.2936376977,3547751.2368613081,-27500.0,-134.46508136941375,-253.08138745715965,9251.9838680971352,0.46791046059020164,4715.9863348477129,1705.474199682488,6055.4087888234253,-2778.724644779546,5941.1190648243337,-5941.1190648243337,2778.724644779546,11879.984716381205,0.0
653523.2936376977,3547751.2368613081,-27500.0,-60.775390920243112,-1275.5016623554245,8885.3538085561304,-459.94463893649169,4551.1195599477633,1642.3298693666263,5921.9370564847868,-2868.0054247990247,5072.0177698489788,-5072.0177698489788,2868.0054247990247,11634.045896161721,0.0
658523.2936376977,3547751.2368613081,-27500.0,198.30969261733986,-2195.6480134830122,8106.8551376123214,-879.81790922716402,4209.7027821078682,1523.5792864490168,5656.9934566891498,-2685.443720113466,3961.8053853196716,-3961.8053853196716,2685.443720113466,11125.20191011311,0.0
663523.2936376977,3547751.2368613081,-27500.0,602.74974612667586,-2916.685369944897,6984.3250655082429,-1220.0727200410997,3718.6071475134113,1357.7529346369688,5290.104594935995,-2257.0696269892414,2721.1517946652166,-2721.1517946652166,2257.0696269892414,10389.775453717928,0.0
668523.2936376977,3547751.2368613081,-27500.0,1086.3873600493882,-3372.3089737673572,5627.4312189904904,-1452.9956728141462,3121.4720424961788,1158.2508355470941,4859.4140624538413,-1645.8195345266452,1474.0882204548509,-1474.0882204548509,1645.8195345266452,9485.8665576428739,0.0
673523.2936376977,3547751.2368613081,-27500.0,1572.1681523107154,-3538.1572713886976,4166.5952978165578,-1566.6990078052322,2470.8542018423195,941.10508813457466,4396.6018742951856,-937.2465579038776,334.49365382523484,-334.49365382523484,937.2465579038776,8485.3526375296296,0.0
678523.2936376977,3547751.2368613081,-27500.0,1989.2837906343977,-3432.2005383810933,2728.7737258164902,-1565.6396866842392,1819.0311541365163,722.36706437577914,3929.8643467025322,-220.69899218050199,-613.02964382783148,613.02964382783148,220.69899218050199,7463.8530957543462,0.0
683523.2936376977,3547751.2368613081,-27500.0,2286.5837964894677,-3105.1861799234221,1417.3770917819115,-1467.4711443408266,1210.1036000139632,515.82421594919867,3486.0853730926256,427.77095925721164,-1322.7946305491525,1322.7946305491525,-427.77095925721164,6490.9139703461115,0.0
688523.2936376977,3547751.2368613081,-27500.0,2438.8254428123519,-2625.6186989784974,301.05485316008594,-1297.712565669216,675.21216768474494,331.54848609936187,3086.8155530063668,956.1118987702672,-1787.2484430337636,1787.2484430337636,-956.1118987702672,5622.0399629222966,0.0
693523.2936376977,3547751.2368613081,-27500.0,2445.5973285769833,-2064.6093983885071,-587.88665953718828,-1084.102775075849,231.31513328401928,175.42722224940604,2745.1141186636733,1339.1735673519552,-2028.5293625477921,2028.5293625477921,-1339.1735673519552,4893.1958071541349,0.0
698523.2936376977,3547751.2368613081,-27500.0,2325.2294980561937,-1484.4759898493887,-1247.8403896840819,-852.0883119729051,-117.19481767894156,49.515246722958437,2464.6948120527704,1575.3056676328281,-2086.7300489722475,2086.7300489722475,-1575.3056676328281,4317.9615509230962,0.0
703523.2936376977,3547751.2368613081,-27500.0,2106.8065591241084,-932.57211473373525,-1698.7073599591133,-622.10398598478935,-375.30018268886573,-47.116417555020575,2241.1555085818563,1679.5572102136798,-2008.7243950182578,2008.7243950182578,-1679.5572102136798,3888.0843029012467,0.0
708523.2936376977,3547751.2368613081,-27500.0,1822.8118756206184,-439.82747504893007,-1972.4061181518241,-408.58925227022246,-553.79946830393453,-117.36752216610193,2064.7422797726299,1676.249004761323,-1839.7989990925905,1839.7989990925905,-1676.249004761323,3578.5239501979781,0.0
713523.2936376977,3547751.2368613081,-27500.0,1503.7596067882153,-22.473884104116301,-2105.0784331989857,-220.27763854626059,-666.19174908772106,-165.17378658424667,1923.6691827701775,1592.7292995968746,-1618.6899900372578,1618.6899900372578,-1592.7292995968746,3356.2861371392828,0.0
718523.2936376977,3547751.2368613081,-27500.0,1175.1017368323019,314.67668241198004,-2131.7245955937492,-61.197684053355154,-726.37410358892123,-194.77770983789836,1806.8759845868699,1455.0508236458911,-1375.5499782786867,1375.5499782786867,-1455.0508236458911,3189.4943788621545,0.0
723523.2936376977,3547751.2368613081,-27500.0,856.04798963670635,574.64581045236582,-2083.1450193218616,68.081041753492158,-747.18914342126561,-210.23721354531847,1705.5770386126258,1285.5411637313459,-1131.9389587315641,1131.9389587315641,-1285.5411637313459,3053.0697697525989,0.0
728523.2936376977,3547751.2368613081,-27500.0,559.69087933994808,765.12512440963576,-1984.6586180596084,169.26062879619678,-739.67876786120962,-215.1458826051294,1613.6478355614174,1101.8520912292686,-901.94084918217095,901.94084918217095,-1101.8520912292686,2930.2221306619945,0.0
583523.2936376977,3552751.2368613081,-27500.0,2392.7533478821615,1056.9230412229788,-471.93395627687255,914.68535248560249,248.90268347753371,252.77357252911668,1941.2281822876485,2248.5159505942966,-161.79866392434155,161.79866392434155,-2248.5159505942966,3564.0760879651866,0.0
588523.2936376977,3552751.2368613081,-27500.0,2631.5288835858046,1443.6719535383256,-158.16909299822217,1102.0341202106658,454.68812052545184,341.32954050049193,2220.9311415175321,2424.910374789346,233.54692376677735,-233.54692376677735,-2424.910374789346,4141.8221779444048,0.0
593523.2936376977,3552751.2368613081,-27500.0,2829.1734716853225,1872.5173609531507,278.89987622273156,1301.3845118204704,719.24388733862895,450.02231304046433,2547.0970515237304,2544.7037842095024,743.97084829169648,-743.97084829169648,-2544.7037842095024,4821.6670685917379,0.0
598523.2936376977,3552751.2368613081,-27500.0,2963.3330326383229,2327.968692899447,861.8250141718496,1504.3732933098636,1050.7375499531531,580.85144847749734,2922.4008537022678,2581.4638196111546,1379.1928816044863,-1379.1928816044863,-2581.4638196111546,5607.6403430015107,0.0
603523.2936376977,3552751.2368613081,-27500.0,3010.1657941854651,2784.7497864200313,1609.5335599926341,1698.637780416346,1455.0931157057269,734.85087243570683,3347.6406344729103,2506.5281914242864,2140.8429184452384,-2140.8429184452384,-2506.5281914242864,6498.0337178603231,0.0
608523.2936376977,3552751.2368613081,-27500.0,2947.2564461516076,3206.3606750741255,2532.6529239398483,1867.4512710179686,1934.0172838266199,911.46372848530416,3821.7222181265652,2292.1491876131181,3017.9524748312647,-3017.9524748312647,-2292.1491876131181,7483.1770583076232,0.0
613523.2936376977,3552751.2368613081,-27500.0,2757.9240305943131,3544.9959269262713,3627.471428629296,1989.9556583966241,2482.566562266355,1107.8170557717842,4341.9653218731382,1916.3337090397868,3982.1212269086195,-3982.1212269086195,-1916.3337090397868,8543.0662571115809,0.0
618523.2936376977,3552751.2368613081,-27500.0,2436.7212815518596,3743.7947262121975,4869.0706539549365,2042.3455748312326,3086.5076726773859,1317.9910627563977,4899.2145744034642,1369.2878999902957,4983.3486021034614,-4983.3486021034614,-1369.2878999902957,9645.213090185267,0.0
623523.2936376977,3552751.2368613081,-27500.0,1995.3645130516388,3742.4125396241634,6204.8674822633375,2000.3401778372404,3719.9906718220991,1532.4533096653013,5467.2210989190535,660.77524338127614,5948.094253858515,-5948.094253858515,-660.77524338127614,10743.316864074486,0.0
628523.2936376977,3552751.2368613081,-27500.0,1467.5973870188006,3486.5177297824857,7550.6339001449487,1843.1059717767059,4344.3529396944941,1737.9015861034907,6007.5534011957079,-173.15220128995315,6781.5745355796162,-6781.5745355796162,173.15220128995315,11777.557945989545,0.0
633523.2936376977,3552751.2368613081,-27500.0,910.78309815086732,2940.8307153910455,8791.7548569565606,1558.4071689617808,4909.1013129319745,1917.8030856106416,6478.6300454606453,-1066.5048222050636,7376.2799794667926,-7376.2799794667926,1066.5048222050636,12677.408676104935,0.0
638523.2936376977,3552751.2368613081,-27500.0,401.75828064104513,2103.6602067876938,9792.5205502626268,1148.1395994060742,5356.0849373071151,2053.8747028337939,6838.7312973369417,-1925.7935080156567,7627.7463177797581,-7627.7463177797581,1925.7935080156567,13367.686490094718,0.0
643523.2936376977,3552751.2368613081,-27500.0,25.27034606621659,1018.8638542488511,10414.954828854927,632.68466267762415,5627.3299544048032,2128.5665553205126,7049.9418900833371,-2641.0520992404972,7456.3678114005315,-7456.3678114005315,2641.0520992404972,13777.97017570579,0.0
648523.2936376977,3552751.2368613081,-27500.0,-144.3674993256852,-220.27863902375583,10545.613038638274,52.050861795694374,5675.8234094513427,2128.2697345284855,7084.2448372236877,-3105.714687393287,6830.7178243393137,-6830.7178243393137,3105.714687393287,13854.411793284267,0.0
653523.2936376977,3552751.2368613081,-27500.0,-64.216174179918099,-1480.1912533042996,10124.420633146867,-537.94099752288889,5476.911332258489,2046.5446146638453,6930.5218821151939,-3241.7123450295489,5784.7019073727042,-5784.7019073727042,3241.7123450295489,13571.60894103741,0.0
658523.2936376977,3552751.2368613081,-27500.0,261.15182900494085,-2610.2480258155442,9165.9511919483721,-1074.7549743637467,5036.6528976944755,1886.358020243973,6601.1626075555996,-3022.0305937374037,4420.2127178608034,-4420.2127178608034,3022.0305937374037,12941.163319851332,0.0
663523.2936376977,3552751.2368613081,-27500.0,776.01159103498594,-3474.9955186927987,7763.5502174255071,-1501.5837737577331,4393.5202153174669,1660.3861977623901,6135.4988594431588,-2481.4573099936197,2890.7708090440237,-2890.7708090440237,2481.4573099936197,12013.672023010682,0.0
668523.2936376977,3552751.2368613081,-27500.0,1385.8160917862838,-3984.6914139029132,6072.1476696381906,-1779.2336640128831,3611.8524557619044,1389.0089024281488,5588.5839890681364,-1709.6445732397203,1369.3588723714499,-1369.3588723714499,1709.6445732397203,10872.603186653298,0.0
673523.2936376977,3552751.2368613081,-27500.0,1981.733392074605,-4112.8390015525583,4274.5594363282326,-1893.2836729643939,2768.779127049379,1096.4930465574519,5008.4602112909906,-828.13258100646692,11.231408592090361,-11.231408592090361,828.13258100646692,9621.26398028523,0.0
678523.2936376977,3552751.2368613081,-27500.0,2467.8135908205904,-3894.9214753064571,2543.3141584523701,-1854.2696641673454,1939.0532541754476,806.57438321558993,4435.2138748648431,39.726947160479313,-1075.1450431234489,1075.1450431234489,-39.726947160479313,8366.4096821810253,0.0
683523.2936376977,3552751.2368613081,-27500.0,2780.7193721464764,-3411.0034432587631,1010.9139458718904,-1691.6519647485613,1182.7033531652282,538.77556537055216,3904.2975874455924,794.68045497455455,-1840.4223139258304,1840.4223139258304,-794.68045497455455,7202.5671263115873,0.0
688523.2936376977,3552751.2368613081,-27500.0,2896.7111010211825,-2760.927016714621,-244.04480410809194,-1444.5916548576699,538.54501446361064,306.32851898682497,3441.5379758291583,1375.6898299599552,-2289.535048747975,2289.535048747975,-1375.6898299599552,6199.7944729145011,0.0
693523.2936376977,3552751.2368613081,-27500.0,2826.8727535193452,-2041.4830447227264,-1195.1154088520639,-1152.9796733712512,23.804870842370494,115.83911974771017,3059.2047954193667,1761.0588975239586,-2465.7798120658722,2465.7798120658722,-1761.0588975239586,5395.8402887591983,0.0
698523.2936376977,3552751.2368613081,-27500.0,2605.5798898806702,-1331.3298286259235,-1856.0822991513196,-851.02860518714476,-361.95187071702406,-31.741451959816644,2755.9851742643859,1960.3851763641387,-2431.8060386287952,2431.8060386287952,-1960.3851763641387,4793.5529940121241,0.0
703523.2936376977,3552751.2368613081,-27500.0,2277.7266029853631,-684.80063418935947,-2265.5511305588825,-564.1141657353362,-631.04620867863503,-139.49618867198024,2520.3850020106374,2002.7945599574059,-2253.5426358211325,2253.5426358211325,-2002.7945599574059,4365.5941355611058,0.0
708523.2936376977,3552751.2368613081,-27500.0,1888.4154379891893,-132.59148985158572,-2472.999255961538,-308.34203078839806,-802.0481741013042,-212.84957883668611,2336.0001794849313,1925.8215004441547,-1989.7096076055093,1989.7096076055093,-1925.8215004441547,4067.010503725015,0.0
713523.2936376977,3552751.2368613081,-27500.0,1476.5071237679601,313.71354086727899,-2528.6464531755691,-91.815141330853052,-895.3668378476649,-258.15848146218769,2186.4874965342979,1767.1895796904253,-1686.8360585219846,1686.8360585219846,-1767.1895796904253,3850.7533969262213,0.0
718523.2936376977,3552751.2368613081,-27500.0,1071.7612572138621,655.8989820029559,-2477.4457240582433,83.378033568421287,-930.36561904677967,-281.72219437423729,2058.6337237157186,1559.9382761114011,-1378.332425851444,1378.332425851444,-1559.9382761114011,3678.7499782883297,0.0
723523.2936376977,3552751.2368613081,-27500.0,694.54566357570945,903.80159484573801,-2356.3976488818294,219.13609362201558,-923.8225761493353,-289.19731474307491,1943.299308963771,1330.3188131731695,-1085.9158871233922,1085.9158871233922,-1330.3188131731695,3525.5693994123235,0.0
728523.2936376977,3552751.2368613081,-27500.0,357.00923622729488,1071.1583204295753,-2194.0820539402166,319.6383192559274,-889.36911265928165,-285.33022741479454,1834.9773772650046,1097.5520447760068,-822.02692932015498,822.02692932015498,-1097.5520447760068,3376.9185376073556,0.0
733523.2936376977,3552751.2368613081,-27500.0,64.852475410037087,1172.7485997208353,-2011.424656841705,390.0796761322257,-837.53683227967883,-273.90384458552921,1730.8242699342743,874.613664015925,-592.36798091628634,592.36798091628634,-874.613664015925,3226.335181835102,0.0
578523.2936376977,3557751.2368613081,-27500.0,2196.4655802551733,484.73970806383488,-1005.2419140541864,723.55134824158472,-33.118254598526605,161.61946748003538,1790.296125877011,2154.2993976714151,-831.73375751049286,831.73375751049286,-2154.2993976714151,3186.7436990547922,0.0
583523.2936376977,3557751.2368613081,-27500.0,2527.8468739909677,840.21787855889761,-840.04370961997859,920.02018911508947,118.73252460725344,238.61479100782955,2038.800444767614,2440.5355794314032,-572.64022090859328,572.64022090859328,-2440.5355794314032,3684.1402347959811,0.0
588523.2936376977,3557751.2368613081,-27500.0,2848.3483249210185,1263.208269128351,-569.69832417594398,1142.6181301389563,327.78202465104749,337.35465733613938,2336.9688234423493,2704.0894286385055,-200.69624326770031,200.69624326770031,-2704.0894286385055,4293.2011060821069,0.0
593523.2936376977,3557751.2368613081,-27500.0,3135.8943351886692,1749.8153905921072,-164.51171721062713,1387.2764281005032,606.72101024852952,461.65275164748721,2691.6630761345268,2919.2027767945419,305.6633871633187,-305.6633871633187,-2919.2027767945419,5028.0876653194337,0.0
598523.2936376977,3557751.2368613081,-27500.0,3362.9805521640938,2287.3542383362801,407.14940621631962,1645.8225803015366,968.25645559437316,614.99549490804884,3108.5524264274782,3053.554849023626,964.96753182347379,-964.96753182347379,-3053.554849023626,5899.1953384523158,0.0
603523.2936376977,3557751.2368613081,-27500.0,3498.0028041553451,2851.1388596264628,1175.450336787372,1904.7952352010711,1423.4284206271898,799.92061364355447,3591.3564445681286,3069.4810722612447,1788.2438117896161,-1788.2438117896161,-3069.4810722612447,6910.6887125956682,0.0
608523.2936376977,3557751.2368613081,-27500.0,3508.2713928394951,3401.5371390565265,2163.584591907731,2144.4802521125757,1979.0882785998406,1017.1550625041714,4141.4762315507123,2927.0772718870085,2773.0161974690118,-2773.0161974690118,-2927.0772718870085,8057.4310135796222,0.0
613523.2936376977,3557751.2368613081,-27500.0,3365.1505662494465,3882.2797934317459,3379.9320997876043,2338.5751093585582,2634.4982526111548,1264.5302677672837,4758.2229205824697,2589.793982173635,3896.1298194344249,-3896.1298194344249,-2589.793982173635,9321.411237594617,0.0
618523.2936376977,3557751.2368613081,-27500.0,3051.4175394668709,4221.45857772197,4808.1869055789903,2455.0419545099735,3377.2483443566157,1535.7731405180002,5434.9344158912127,2032.8163645965492,5106.4679875912352,-5106.4679875912352,-2032.8163645965492,10668.050614035636,0.0
623523.2936376977,3557751.2368613081,-27500.0,2570.212095452895,4336.9425964302436,6396.7330453553159,2458.7887250932167,4179.0805726023355,1819.3899494818268,6144.8732624622298,1253.7904593928115,6319.5802962267762,-6319.5802962267762,-1253.7904593928115,12043.143928441965,0.0
628523.2936376977,3557751.2368613081,-27500.0,1953.8101861142309,4147.7692692993805,8049.9301408360916,2316.7065095468074,4992.7498389119864,2098.0079422448084,6840.3256129163365,284.206871358228,7417.2554915099008,-7417.2554915099008,-284.206871358228,13371.627964712719,0.0
633523.2936376977,3557751.2368613081,-27500.0,1269.0544676875818,3591.9798757006088,9625.4897252078135,2005.1256588646845,5751.6173366779867,2348.668576984815,7465.0344098471314,-801.92079479161566,8255.6647146196956,-8255.6647146196956,801.92079479161566,14559.728788656221,0.0
638523.2936376977,3557751.2368613081,-27500.0,615.18728962247246,2648.9838216401122,10943.044034233604,1518.806138685107,6373.9695516971196,2544.5956717295494,7959.8543210639009,-1887.0040934365834,8685.0433266504042,-8685.0433266504042,1887.0040934365834,15502.087405586468,0.0
643523.2936376977,3557751.2368613081,-27500.0,110.12625316546428,1360.9177158590048,11808.038227084135,879.20830338913004,6773.5856586839636,2658.7548720622112,8268.3464107893433,-2821.6706567272654,8580.9672675172678,-8580.9672675172678,2821.6706567272654,16094.804130072369,0.0
648523.2936376977,3557751.2368613081,-27500.0,-135.75559118810318,-156.13704761012283,12050.824138903923,138.49108458024332,6876.3256596344154,2668.9859426980852,8346.042163970913,-3452.0246701387109,7881.7191343377181,-7881.7191343377181,3452.0246701387109,16253.656009380329,0.0
653523.2936376977,3557751.2368613081,-27500.0,-53.119263850142403,-1720.9954102669194,11573.074759184939,-624.4948167602289,6639.4483088611587,2563.6475551285466,8171.7728926966483,-3658.5749549275879,6619.5339122021924,-6619.5339122021924,3658.5749549275879,15934.085972177898,0.0
658523.2936376977,3557751.2368613081,-27500.0,357.84880280558292,-3120.8963077318017,10385.411941790268,-1317.8653971641115,6067.1958285299634,2345.9290609452605,7758.4075779637878,-3394.555471535994,4930.073713773756,-4930.073713773756,3394.555471535994,15147.005310503719,0.0
663523.2936376977,3557751.2368613081,-27500.0,1018.7487594931119,-4162.7632508598599,8617.7663928555521,-1857.285946069811,5215.3104944205388,2034.8505073964313,7158.9855651180906,-2706.4177799591362,3029.5709989945944,-3029.5709989945944,2706.4177799591362,13963.841671216778,0.0
668523.2936376977,3557751.2368613081,-27500.0,1792.0697537637034,-4723.3679455755673,6492.8984510847358,-2186.3028096974563,4180.6041590003751,1661.9780758212044,6454.595488661781,-1724.0916495412901,1163.4487531471339,-1163.4487531471339,1724.0916495412901,12507.157173270056,0.0
673523.2936376977,3557751.2368613081,-27500.0,2521.837484561484,-4776.9825478040666,4271.0412658063278,-2288.2046437616427,3078.4934411601721,1264.7196935596362,5719.9075797818214,-623.05799910423798,-454.12355442662783,454.12355442662783,623.05799910423798,10928.710265412599,0.0
678523.2936376977,3557751.2368613081,-27500.0,3077.6662978777995,-4389.9328779676616,2188.307956109375,-2185.0861641846018,2017.2515715923928,878.63047209532147,5012.8660485133732,424.91827111729549,-1685.1637726974734,1685.1637726974734,-424.91827111729549,9381.7500675958036,0.0
683523.2936376977,3557751.2368613081,-27500.0,3383.7271688254832,-3688.5157005212236,412.48637343150222,-1926.1244325483749,1078.4549249655161,531.38081685199597,4379.6368231241031,1291.4274225796235,-2482.4783726540963,2482.4783726540963,-1291.4274225796235,7995.2266394239459,0.0
688523.2936376977,3557751.2368613081,-27500.0,3424.6789269987953,-2817.7204994769345,-972.3426504669784,-1571.41921643977,308.70333843563867,239.9002115585005,3849.1205511849239,1908.9468186676368,-2875.6965324550292,2875.6965324550292,-1908.9468186676368,6854.6107287114801,0.0
693523.2936376977,3557751.2368613081,-27500.0,3232.9357236519377,-1907.3143822359393,-1955.9528475224611,-1177.8264516268912,-278.12412260900931,10.637457861583458,3428.7557226715162,2266.7876685957513,-2941.9812159829457,2941.9812159829457,-2266.7876685957513,5991.2480389935836,0.0
698523.2936376977,3557751.2368613081,-27500.0,2867.7695774800272,-1053.2391839357995,-2578.7792166896497,-790.27685339925733,-692.37052444987364,-158.16092608376172,3107.1167963235293,2394.3695412557477,-2775.9017978742863,2775.9017978742863,-2394.3695412557477,5383.3031425336321,0.0
703523.2936376977,3557751.2368613081,-27500.0,2395.6577288153144,-313.57311898248298,-2907.0877588681669,-438.81176556069767,-958.51174713462171,-273.4614730901979,2861.7220556995953,2341.7454739965547,-2467.3140582953024,2467.3140582953024,-2341.7454739965547,4971.7736397535564,0.0
708523.2936376977,3557751.2368613081,-27500.0,1876.7444328656784,286.15504217933352,-3013.4701744492609,-139.66988275605667,-1106.5610193923285,-344.70222574555174,2667.9783618579327,2163.7735925386801,-2089.4696672380937,2089.4696672380937,-2163.7735925386801,4686.5000037551272,0.0
713523.2936376977,3557751.2368613081,-27500.0,1358.0919320030914,743.83809787742928,-2964.7048763960734,101.62591320187508,-1166.1779781521363,-381.76011351494338,2505.4001778059564,1910.1416312150016,-1695.432655812662,1695.432655812662,-1910.1416312150016,4468.0434838967558,0.0
718523.2936376977,3557751.2368613081,-27500.0,872.13308162587475,1071.6636590916091,-2816.0211111209787,286.75389332283157,-1163.4039872298893,-393.69986948294206,2359.8798180436575,1620.7047401922869,-1319.578326318745,1319.578326318745,-1620.7047401922869,4276.5437209044649,0.0
723523.2936376977,3557751.2368613081,-27500.0,438.18860214134168,1288.8311705719025,-2609.7300628348471,421.53265809755118,-1119.3690493797756,-388.16775347035252,2223.1677478163292,1324.5115446569166,-981.35689409945735,981.35689409945735,-1324.5115446569166,4090.1459588808343,0.0
728523.2936376977,3557751.2368613081,-27500.0,65.289660486549195,1416.5556287932991,-2376.2856512981266,513.64038065212117,-1050.2311155187572,-371.22857406559962,2091.255683714985,1040.8842513011941,-689.48567535382961,689.48567535382961,-1040.8842513011941,3899.5347268495011,0.0
733523.2936376977,3557751.2368613081,-27500.0,-244.82009499328683,1475.078348165534,-2136.3764008606245,571.1112943746399,-967.75243139892916,-347.46177781714584,1962.7511686303867,781.34512752108856,-445.63298767876688,445.63298767876688,-781.34512752108856,3702.7118558877655,0.0
738523.2936376977,3557751.2368613081,-27500.0,-495.072587105629,1482.1582196833572,-1903.2067435227955,601.46006880552557,-880.11411941730046,-320.17927716022558,1837.6531064493283,551.65932744624763,-247.26545003345277,247.26545003345277,-551.65932744624763,3501.3064580261826,0.0
578523.2936376977,3562751.2368613081,-27500.0,2192.1777048490067,175.71755400562074,-1341.901530020014,664.94402587165052,-188.31920515094578,127.35327512961277,1888.5236981560588,2206.7447530210216,-1250.570142009761,1250.570142009761,-2206.7447530210216,3313.8251072208459,0.0
583523.2936376977,3562751.2368613081,-27500.0,2600.4238098422165,535.99888846615227,-1241.7971798195958,885.82767083164015,-48.929807863546756,208.482830409716,2143.6162673385693,2576.271699182591,-1048.0561002045151,1048.0561002045151,-2576.271699182591,3810.0940586965921,0.0
588523.2936376977,3562751.2368613081,-27500.0,3014.7039047719554,982.78098798842075,-1036.6252497501423,1144.0566912469699,154.2423815717128,315.80052531790875,2454.8026425838389,2941.0256823373556,-724.44883002030201,724.44883002030201,-2941.0256823373556,4433.8184570100475,0.0
593523.2936376977,3562751.2368613081,-27500.0,3411.2054640528117,1518.0667106920355,-689.75366688174688,1437.5582522335603,438.36094230588645,454.8855105458141,2832.639836367659,3273.327759983456,-249.55788775331848,249.55788775331848,-3273.327759983456,5208.0445371604637,0.0
598523.2936376977,3562751.2368613081,-27500.0,3757.8661509622812,2134.6429665155219,-159.31240204039881,1759.504419160842,821.97043613805886,631.32025617586851,3287.1088856123929,3535.7396655773664,406.27078060251006,-406.27078060251006,-3535.7396655773664,6152.797242275351,0.0
603523.2936376977,3562751.2368613081,-27500.0,4014.906936924307,2811.4510732518552,598.68315936798933,2096.434571858495,1323.2198054540804,849.94727207831465,3826.5687039017471,3681.2663860099324,1267.1647423545032,-1267.1647423545032,-3681.2663860099324,7281.8926956626492,0.0
608523.2936376977,3562751.2368613081,-27500.0,4137.4230410268801,3508.6023160075629,1624.38708970782,2426.3888099443766,1956.8595167540022,1113.7444918727342,4456.9972739177028,3655.7827366619149,2344.2630633292611,-2344.2630633292611,-3655.7827366619149,8598.8502064905861,0.0
613523.2936376977,3562751.2368613081,-27500.0,4080.9279511699665,4163.1616347499566,2944.5925629108401,2717.5549889788144,2729.7629992752054,1422.2873507365362,5182.001008993544,3403.8032274802058,3625.7970670488071,-3625.7970670488071,-3403.8032274802058,10091.798571122827,0.0
618523.2936376977,3562751.2368613081,-27500.0,3810.5043772939443,4687.6099355577398,4559.3746472259145,2928.2283073029403,3634.9710259441176,1769.8640011955351,5999.6845612159623,2878.5659488134734,5065.599658677962,-5065.599658677962,-2878.5659488134734,11727.611077976762,0.0
623523.2936376977,3562751.2368613081,-27500.0,3313.4233246725098,4973.6830001290327,6425.8592971109392,3009.1568298736279,4644.7761192575381,2143.4805727536009,6885.5647975808297,2056.664991083805,6572.3454434209516,-6572.3454434209516,-2056.664991083805,13446.072789620788,0.0
628523.2936376977,3562751.2368613081,-27500.0,2613.5384822473384,4904.6507953431119,8442.1184502705346,2909.4319547801606,5704.2172026133812,2521.2442231719988,7782.9301339443218,955.84990988393793,8003.6841171888791,-8003.6841171888791,-955.84990988393793,15155.667916609544,0.0
633523.2936376977,3562751.2368613081,-27500.0,1783.4055264945066,4378.3099085810572,10436.967555423189,2586.6944954673331,6727.48732967666,2871.9019887583345,8616.9137983891451,-348.03947658290599,9171.2119740981761,-9171.2119740981761,348.03947658290599,16733.457628376389,0.0
638523.2936376977,3562751.2368613081,-27500.0,947.43909939552975,3340.0292725989098,12174.163137439045,2021.1881117674332,7600.8284455685616,3156.5349023902963,9303.8652985471799,-1712.3405791366972,9862.7159162681401,-9862.7159162681401,1712.3405791366972,18032.173964643465,0.0
643523.2936376977,3562751.2368613081,-27500.0,268.08985831980095,1819.381120911167,13380.105020783125,1230.8500489600731,8195.6398736157189,3333.3215335868936,9759.130785534082,-2936.7841975009346,9885.2248068002427,-9885.2248068002427,2936.7841975009346,18897.359074051117,0.0
648523.2936376977,3562751.2368613081,-27500.0,-90.087020370094876,-43.850543287668266,13799.340898588773,281.60457030708835,8393.4154784261154,3365.5751437483991,9911.0834974330155,-3798.7057015896262,9123.9836751593666,-9123.9836751593666,3798.7057015896262,19195.118664926755,0.0
653523.2936376977,3562751.2368613081,-27500.0,-13.760959618691633,-2003.5315733215596,13269.309527673267,-714.84389288716818,8118.705924527726,3231.711374510699,9719.9451577798118,-4112.7941612327359,7599.1212765820164,-7599.1212765820164,4112.7941612327359,18846.187778952481,0.0
658523.2936376977,3562751.2368613081,-27500.0,508.04123095178602,-3754.4273107145173,11787.995028275573,-1621.0357293714651,7368.9327690870959,2933.8451030261804,9196.3523974006694,-3797.1073186468061,5490.8735949835573,-5490.8735949835573,3797.1073186468061,17855.892046188932,0.0
663523.2936376977,3562751.2368613081,-27500.0,1363.8801928313223,-5015.3226744398262,9538.3759553718301,-2308.5726135499262,6225.8021716164594,2500.7293039501928,8412.6707661607306,-2913.1285068267698,3108.936045031337,-3108.936045031337,2913.1285068267698,16326.432059529019,0.0
668523.2936376977,3562751.2368613081,-27500.0,2349.7311644214078,-5614.2117647396017,6847.1928205489912,-2694.2838762500073,4838.5578636618484,1982.3805392604581,7490.4988030450677,-1652.8052093214887,808.34932934033634,-808.34932934033634,1652.8052093214887,14442.465087950022,0.0
673523.2936376977,3562751.2368613081,-27500.0,3238.4787433314391,-5533.2537136419105,4091.1438491673671,-2760.6668126066097,3383.9179366912977,1437.8294512113894,6548.907840357203,-274.04059117487958,-1111.8661687886702,1111.8661687886702,274.04059117487958,12432.69729428105,0.0
678523.2936376977,3562751.2368613081,-27500.0,3853.1987423721471,-4893.2802003321412,1594.9294992878549,-2551.802808864396,2020.8407578181268,921.18259698713837,5673.642517369095,982.27872557833336,-2479.4057577642857,2479.4057577642857,-982.27872557833336,10521.134680154915,0.0
683523.2936376977,3562751.2368613081,-27500.0,4109.0847821890784,-3893.6414555929732,-434.15380897274758,-2150.0734188797719,859.26109824396258,471.56379308165413,4923.1783518756947,1953.2199763068747,-3262.6879346371315,3262.6879346371315,-1953.2199763068747,8883.1986067670405,0.0
688523.2936376977,3562751.2368613081,-27500.0,4013.1388419899458,-2743.209748955629,-1918.4563177451853,-1647.5107348996055,-48.933290742644246,109.55907832993172,4324.9651231285679,2572.6310311324896,-3537.1266441167782,3537.1266441167782,-2572.6310311324896,7615.3108094441031,0.0
693523.2936376977,3562751.2368613081,-27500.0,3635.1272798460832,-1611.5337502076313,-2882.3080100341585,-1123.8261751829907,-700.86094866986434,-160.73739996362605,3873.2977163495584,2854.5582699549127,-3432.3781911195069,3432.3781911195069,-2854.5582699549127,6723.0905180405625,0.0
698523.2936376977,3562751.2368613081,-27500.0,3071.2462785253856,-609.13255320494386,-3409.4051543638225,-635.75438889777649,-1125.4059421469003,-346.76732973739507,3538.7279170792558,2861.045636190498,-3086.162184077687,3086.162184077687,-2861.045636190498,6136.4484164575551,0.0
703523.2936376977,3562751.2368613081,-27500.0,2415.5506840006547,209.63987241660126,-3604.7254481347877,-216.02455602976278,-1366.2646739623369,-462.17199214312097,3283.6699215985582,2671.5065544426502,-2616.0615069475593,2616.0615069475593,-2671.5065544426502,5750.8443987430974,0.0
708523.2936376977,3562751.2368613081,-27500.0,1744.0750562845183,832.61772993577461,-3569.2474702568447,122.20920247282658,-1469.5437751816351,-522.53708526857156,3075.2291833522145,2361.8274161054092,-2108.6273389577177,2108.6273389577177,-2361.8274161054092,5470.7334391545892,0.0
713523.2936376977,3562751.2368613081,-27500.0,1109.7867119650573,1273.8472878448072,-3387.3493295964881,379.20692965266284,-1476.6044831841818,-542.6541163434772,2890.7082655090953,1993.8772755748842,-1619.862587962145,1619.862587962145,-1993.8772755748842,5231.0686179647937,0.0
718523.2936376977,3562751.2368613081,-27500.0,544.21242578868259,1560.381234555349,-3123.1864054929051,562.98889023633842,-1421.0446308384726,-535.12518436701669,2717.2361932378699,1612.6148255781882,-1181.0598988528877,1181.0598988528877,-1612.6148255781882,4996.9755018300339,0.0
723523.2936376977,3562751.2368613081,-27500.0,62.006779872763175,1723.2287233995273,-2822.0711109624067,685.0843997402867,-1328.2882879737551,-509.91511852569403,2548.9791139861163,1247.4749861996302,-805.91546693832379,805.91546693832379,-1247.4749861996302,4754.4879395652324,0.0
728523.2936376977,3562751.2368613081,-27500.0,-333.94966128791191,1792.0524059229249,-2513.9361975352567,757.76129988994944,-1216.5076604795017,-474.46015001087056,2384.2719904133523,915.51921475054917,-496.84454095880199,496.84454095880199,-915.51921475054917,4501.3784806006197,0.0
733523.2936376977,3562751.2368613081,-27500.0,-648.12156876523704,1792.5988219688643,-2217.1734580803059,792.45514924912777,-1098.0348667693243,-434.04000073428847,2223.5216328702923,624.85371607479976,-249.78784304744761,249.78784304744761,-624.85371607479976,4240.8594228210986,0.0
738523.2936376977,3562751.2368613081,-27500.0,-888.95794872529882,1745.8578995532678,-1942.0344417166855,799.0348254851084,-980.79446863459827,-392.22716791353446,2067.919854672788,377.60455983262528,-57.513180093060384,57.513180093060384,-377.60455983262528,3977.9529685177763,0.0
743523.2936376977,3562751.2368613081,-27500.0,-1066.5764004167897,1668.1838191579518,-1693.3219174601547,785.58865695094914,-869.54356703378642,-351.3134722011356,1918.7529066953859,172.22053772916939,88.300281497803098,-88.300281497803098,-172.22053772916939,3717.6574957331395,0.0
573523.2936376977,3567751.2368613081,-27500.0,1648.0773531026521,-466.26255172299028,-1633.0316071091604,362.41087056244908,-438.89290399125338,17.316727783157386,1797.9867673449771,1747.550740486095,-1731.2714160155183,1731.2714160155183,-1747.550740486095,3114.2352333154085,0.0
578523.2936376977,3567751.2368613081,-27500.0,2090.889397999093,-211.50721598863697,-1679.8298709528287,556.54970584952025,-372.6925045071095,75.425619549128115,2007.6710294106883,2165.7694288422881,-1698.77918879457,1698.77918879457,-2165.7694288422881,3487.2363962670906,0.0
583523.2936376977,3567751.2368613081,-27500.0,2577.3999499791353,134.06582290469808,-1661.687079666656,796.86137003498868,-256.23875892085005,157.40896414737639,2264.3507304297427,2620.9819437813294,-1576.7324300210857,1576.7324300210857,-2620.9819437813294,3965.2897479269213,0.0
588523.2936376977,3567751.2368613081,-27500.0,3093.575385621712,584.7334735479709,-1545.2362068861678,1087.5805998891287,-71.269615480499709,270.07771994022215,2581.2607735016354,3096.7033981421728,-1331.469814668083,1331.469814668083,-3096.7033981421728,4580.6670714222764,0.0
593523.2936376977,3567751.2368613081,-27500.0,3615.9459753856249,1150.6398858404345,-1287.5675967813163,1429.9942271544458,204.41576330434083,421.23413359884921,2973.3949585560131,3565.7193386608919,-923.64250450881218,923.64250450881218,-3565.7193386608919,5368.1691992449223,0.0
598523.2936376977,3567751.2368613081,-27500.0,4109.6622514061528,1833.319338981494,-836.26434313786592,1820.3215569488373,596.4542241957887,619.27045544274506,3456.5344053816939,3987.5880363730048,-310.58299631166551,310.58299631166551,-3987.5880363730048,6361.8367781423285,0.0
603523.2936376977,3567751.2368613081,-27500.0,4527.6130694410258,2619.5795494683102,-131.54580296636311,2247.0064506050157,1132.3358230956851,872.36201252392198,4045.9337905998927,4307.1366496121482,548.72613785732256,-548.72613785732256,-4307.1366496121482,7590.6840639477996,0.0
608523.2936376977,3567751.2368613081,-27500.0,4811.7644261400392,3474.0275110406715,888.1205966918485,2687.6228203004011,1838.1785184719772,1187.1057017554954,4755.1389636097529,4455.2482701141598,1685.1362425168343,-1685.1362425168343,-4455.2482701141598,9073.2857027183491,0.0
613523.2936376977,3567751.2368613081,-27500.0,4898.208503442087,4331.298852829209,2275.4070598676435,3105.923219663393,2733.2662957614548,1566.4802654759317,5595.7101004148317,4353.699455682081,3106.6224796738825,-3106.6224796738825,-4353.699455682081,10810.82786651744,0.0
618523.2936376977,3567751.2368613081,-27500.0,4727.4480803007673,5090.249707264622,4057.2825660814065,3450.0393193799468,3821.931470075182,2007.0996593116952,6574.7694733573617,3926.0155741238141,4781.6569145769172,-4781.6569145769172,-3926.0155741238141,12778.421432172185,0.0
623523.2936376977,3567751.2368613081,-27500.0,4260.8054366848364,5613.8713821133206,6211.9388090107022,3653.420599963968,5082.9241172837155,2495.9386587324275,7675.2411342456599,3115.8414746437115,6620.7860992667811,-6620.7860992667811,-3115.8414746437115,14915.180901361708,0.0
628523.2936376977,3567751.2368613081,-27500.0,3502.0615947526885,5740.0603788260169,8642.1101270511554,3640.606355484711,6457.5631370769397,3007.0663661183171,8833.9731323607994,1912.6172680295272,8461.430444013029,-8461.430444013029,-1912.6172680295272,17114.809582980699,0.0
633523.2936376977,3567751.2368613081,-27500.0,2520.0441291775464,5308.6470843753414,11151.813245650837,3339.9722338593483,7839.8869622780248,3499.4521760850162,9953.9354938905963,380.75962684227125,10064.613757192128,-10064.613757192128,-380.75962684227125,19220.186835273315,0.0
638523.2936376977,3567751.2368613081,-27500.0,1462.904270514523,4207.4603365803296,13439.240891548128,2704.4371224320171,9074.5345569696656,3917.5252150684782,10917.859167012813,-1317.1812661618378,11135.419979791142,-11135.419979791142,1317.1812661618378,21027.412496760047,0.0
643523.2936376977,3567751.2368613081,-27500.0,549.81498463961771,2432.2589184306507,15123.194330899458,1737.7524614918709,9970.1648451346664,4196.6002200330277,11598.257885886112,-2919.5738868168874,11378.148256250133,-11378.148256250133,2919.5738868168874,22305.963458276037,0.0
648523.2936376977,3567751.2368613081,-27500.0,25.730923170059913,140.83920071615876,15817.849439148991,517.88963204584275,10335.074273579883,4274.8030045183668,11878.139044467514,-4105.8030482259264,10586.6504983458,-10586.6504983458,4105.8030482259264,22839.640707751591,0.0
653523.2936376977,3567751.2368613081,-27500.0,78.007001521987192,-2334.0243829048591,15251.931079893206,-797.55725307947489,10033.296602240946,4110.6948809785899,11682.81439193619,-4585.3222696056473,8746.1046478331536,-8746.1046478331536,4585.3222696056473,22484.912009079966,0.0
658523.2936376977,3567751.2368613081,-27500.0,743.40547283582407,-4547.4620514747876,13391.995158514668,-1998.8629154033813,9043.0848960751682,3701.1220067782406,11013.933625341519,-4212.346100188216,6093.4848649201149,-6093.4848649201149,4212.346100188216,21229.241879841938,0.0
663523.2936376977,3567751.2368613081,-27500.0,1862.1316013403894,-6079.6345223474655,10498.720764977057,-2884.379986008526,7485.462303315283,3089.6809885759349,9971.4844235617056,-3066.2521803959926,3080.5132137017781,-3080.5132137017781,3066.2521803959926,19220.742943861464,0.0
668523.2936376977,3567751.2368613081,-27500.0,3124.4057857429425,-6685.9659116406483,7062.3177172853493,-3327.9933958141251,5597.3890591419768,2358.1073210354875,8741.2923635088791,-1436.7186696683648,232.28001187470807,-232.28001187470807,1436.7186696683648,16746.262659641645,0.0
673523.2936376977,3567751.2368613081,-27500.0,4193.7737052309712,-6372.8338773860705,3637.8460759309401,-3316.1348137154778,3656.9741389354335,1602.6291505502763,7517.7395382111436,289.79372346830576,-2028.9535533207836,2028.9535533207836,-289.79372346830576,14160.941407117927,0.0
678523.2936376977,3567751.2368613081,-27500.0,4832.4972279001831,-5358.1526881143964,671.84594118821281,-2935.2164729270899,1900.7414767092134,907.30123255509113,6431.4408910721768,1774.1555542627495,-3496.6584277649181,3496.6584277649181,-1774.1555542627495,11798.353841234815,0.0
683523.2936376977,3567751.2368613081,-27500.0,4959.7323864864484,-3956.392140299542,-1592.250936681844,-2324.0304615077093,473.60030912186119,326.92337060635867,5552.0996011143689,2817.8066120634185,-4183.5585793197206,4183.5585793197206,-2817.8066120634185,9893.0621272255976,0.0
688523.2936376977,3567751.2368613081,-27500.0,4631.5198486488516,-2463.6109838215543,-3109.6539266139675,-1622.5120955661748,-576.1719035736952,-116.12024937467709,4893.5511786865418,3374.6438131345426,-4246.127367041403,4246.127367041403,-3374.6438131345426,8533.185034028571,0.0
693523.2936376977,3567751.2368613081,-27500.0,3979.6835156058219,-1091.637339627606,-3969.7500410113589,-939.12175756674003,-1271.7700552597128,-425.03567889154351,4421.4215658096218,3506.8240545951298,-3891.987930920794,3891.987930920794,-3506.8240545951298,7658.5302096427658,0.0
698523.2936376977,3567751.2368613081,-27500.0,3151.8188739061088,44.779438436144687,-4322.0333398566763,-340.71140043270276,-1674.5754402432856,-618.31631246893255,4077.8027008898061,3326.566678496135,-3313.0727223140038,3313.0727223140038,-3326.566678496135,7117.7124213126554,0.0
703523.2936376977,3567751.2368613081,-27500.0,2273.5081554101148,909.09988902707323,-4321.7506982274272,142.57896213979271,-1857.1460403488973,-720.59928943646423,3807.7105903731017,2951.3058148172663,-2654.6750243397214,2654.6750243397214,-2951.3058148172663,6752.9662708306305,0.0
708523.2936376977,3567751.2368613081,-27500.0,1433.703283561669,1514.6489923704519,-4101.1643038537932,506.47852949281327,-1886.8683595593618,-756.48941019595406,3572.7116248184129,2479.4302500037907,-2011.0158720876439,2011.0158720876439,-2479.4302500037907,6453.0720999253635,0.0
713523.2936376977,3567751.2368613081,-27500.0,685.31996371957848,1899.756390083747,-3760.1975264310327,761.77897137209709,-1818.7239920323409,-747.28712170866311,3351.6404839992101,1982.3822081000592,-1434.0526444949039,1434.0526444949039,-1982.3822081000592,6159.3607190939647,0.0
718523.2936376977,3567751.2368613081,-27500.0,52.743042840593354,2110.6729643578265,-3367.9367386114304,926.0990244971174,-1693.8656883720905,-709.81544719395038,3135.6039042702928,1506.1240688216988,-945.93163439138584,945.93163439138584,-1506.1240688216988,5849.7366963472941,0.0
723523.2936376977,3567751.2368613081,-27500.0,-459.21800009782828,2191.8039706311365,-2968.5598927820761,1018.5928668736467,-1541.1143621471383,-656.48370709986159,2922.6598760724064,1076.4426232565161,-550.21519022688415,550.21519022688415,-1076.4426232565161,5521.8123877019225,0.0
728523.2936376977,3567751.2368613081,-27500.0,-857.56881765715411,2181.1979354310888,-2588.0203451079292,1057.042509803867,-1379.4944950763308,-595.93359038863957,2714.0561836545712,704.86089755062028,-240.26437379011034,240.26437379011034,-704.86089755062028,5181.6568439725852,0.0
733523.2936376977,3567751.2368613081,-27500.0,-1155.3855440780446,2109.2315194294692,-2239.848847103674,1056.570352332019,-1220.8044260176384,-533.85853907143951,2512.0516638285349,393.70494077311861,-4.7985012757397385,4.7985012757397385,-393.70494077311861,4837.6715037328504,0.0
738523.2936376977,3567751.2368613081,-27500.0,-1368.0010307567381,1998.9701802366001,-1929.6006840244861,1029.3203010405496,-1071.797206881211,-473.78254033890499,2318.8377757378325,139.91154614606356,168.75617466859504,-168.75617466859504,-139.91154614606356,4497.7336095174687,0.0
743523.2936376977,3567751.2368613081,-27500.0,-1510.7083724896959,1867.2441450888671,-1658.0105603576544,984.64505673915221,-935.86167982843801,-417.70863807891578,2136.1037223019771,-62.35005280860554,292.44562151197391,-292.44562151197391,62.35005280860554,4168.1217128213684,0.0
568523.2936376977,3572751.2368613081,-27500.0,952.43953883218308,-1011.0284756191018,-1718.9930188235664,43.752470692295347,-615.80188990029058,-82.534493246351218,1773.3696211542483,1122.6656438929144,-1982.2622257924395,1982.2622257924395,-1122.6656438929144,3106.8914216600178,0.0
573523.2936376977,3572751.2368613081,-27500.0,1370.7709431094856,-882.12576744024113,-1870.8090517340979,190.97500628888767,-615.95276038409406,-49.810777572913111,1950.1452156097509,1526.4243467451965,-2092.5894013070783,2092.5894013070783,-1526.4243467451965,3391.6086711476783,0.0
578523.2936376977,3572751.2368613081,-27500.0,1860.0123452524806,-675.39591588341966,-1998.0485051807802,385.21113079176587,-583.47220689312064,2.0387282161950311,2160.004578286158,1997.1871091977775,-2153.7701027531298,2153.7701027531298,-1997.1871091977775,3742.1231190738449,0.0
583523.2936376977,3572751.2368613081,-27500.0,2418.5167572464511,-369.94276799851758,-2076.5915346801098,635.49673727553898,-502.27032427943135,79.951545272599731,2414.6332191919146,2532.1830733360425,-2136.694516806961,2136.694516806961,-2532.1830733360425,4188.2871954115853,0.0
588523.2936376977,3572751.2368613081,-27500.0,3037.1531629263986,56.252246585514179,-2071.9100066004517,950.30424194503871,-350.98771439387309,192.59793137316024,2729.5307165050531,3120.3704995449598,-2003.1372484587489,2003.1372484587489,-3120.3704995449598,4769.6239996292506,0.0
593523.2936376977,3572751.2368613081,-27500.0,3696.0007751371618,623.52232780411498,-1936.6609955671267,1335.8984254041136,-102.22605695828537,350.41575429292601,3124.1206681386643,3738.6027703205427,-1705.2088345169693,1705.2088345169693,-3738.6027703205427,5534.1515606519752,0.0
598523.2936376977,3572751.2368613081,-27500.0,4360.8027836689371,1345.698972193318,-1608.9894327782058,1793.8091853206374,277.6723968508457,565.35357554296274,3621.151372109779,4347.3348054897015,-1186.4543811605622,1186.4543811605622,-4347.3348054897015,6534.7599718469501,0.0
603523.2936376977,3572751.2368613081,-27500.0,4979.9716712250301,2222.7371810437762,-1012.7590689552987,2317.2677123451326,827.70910378410247,850.12666438234498,4245.3616487777072,4886.670402833468,-385.89555742146649,385.89555742146649,-4886.670402833468,7823.3988867777716,0.0
608523.2936376977,3572751.2368613081,-27500.0,5483.5611010630819,3230.5789529511067,-61.594523875023597,2886.6339681210925,1589.3296943689977,1216.7422615507091,5021.9194087732085,5274.2717233234816,753.34305488722202,-753.34305488722202,-5274.2717233234816,9443.5223391052168,0.0
613523.2936376977,3572751.2368613081,-27500.0,5786.3365796225071,4308.9143687184569,1330.7473002460295,3464.2269998012584,2600.4628962989927,1674.032729018583,5975.8246495454805,5407.5451609100401,2269.1544028801954,-2269.1544028801954,-5407.5451609100401,11420.623401998757,0.0
618523.2936376977,3572751.2368613081,-27500.0,5797.6245011659539,5349.0844050444248,3230.9428754467331,3989.6219000930041,3885.3698331302276,2223.9876945517926,7130.3085948648895,5173.3238290780591,4158.3692541314831,-4158.3692541314831,-5173.3238290780591,13750.05467332515,0.0
623523.2936376977,3572751.2368613081,-27500.0,5440.5032223762692,6186.749821065011,5655.729690279094,4377.4350531400969,5439.5668998684496,2856.8551554643259,8485.0576631863714,4468.4701998434239,6348.5632077540422,-6348.5632077540422,-4468.4701998434239,16381.627708107797,0.0
628523.2936376977,3572751.2368613081,-27500.0,4681.3641879207771,6606.8369519558955,8531.5893556826941,4520.8024564690686,7210.3327705044176,3545.3736696265373,9977.7051936183252,3233.5752132933953,8668.7568711184031,-8668.7568711184031,-3233.5752132933953,19202.05904710916,0.0
633523.2936376977,3572751.2368613081,-27500.0,3566.8927765986091,6370.6713980654276,11651.414459117692,4304.8156491516629,9075.9800981867083,4239.2167359462201,11487.78767924826,1498.0223217578832,10830.101131979656,-10830.101131979656,-1498.0223217578832,22019.241868156707,0.0
638523.2936376977,3572751.2368613081,-27500.0,2257.9974446087454,5274.8130365351826,14644.797673749779,3634.1794380774577,10831.709293534392,4861.9386473495788,12853.981187570562,-573.3461513463044,12435.173326799622,-12435.173326799622,573.3461513463044,24556.655862550939,0.0
643523.2936376977,3572751.2368613081,-27500.0,1038.9625908667547,3243.0805516320438,16990.857976499225,2476.079557346151,12196.157501245276,5314.4416227022184,13884.751721241955,-2654.8064919623184,13039.851732897707,-13039.851732897707,2654.8064919623184,26471.21249221711,0.0
648523.2936376977,3572751.2368613081,-27500.0,270.40764137587195,430.43271240031777,18109.198089367444,909.1236179715421,12856.795352390394,5490.3567675883351,14386.894524378637,-4292.3939183309367,12284.254320707096,-12284.254320707096,4292.3939183309367,27409.480646915508,0.0
653523.2936376977,3572751.2368613081,-27500.0,264.67019533339158,-2720.4419928621974,17544.640594521421,-848.45073728349689,12563.387638216256,5306.5629451823288,14219.32915048311,-5028.0241700152183,10071.599491393557,-10071.599491393557,5028.0241700152183,27106.686421234772,0.0
658523.2936376977,3572751.2368613081,-27500.0,1115.6993670119605,-5551.5237348307983,15193.135571950059,-2469.9195260304923,11245.123573897525,4741.8918595436016,13358.554231043689,-4598.0920405851448,6705.5253708386954,-6705.5253708386954,4598.0920405851448,25502.826430095975,0.0
663523.2936376977,3572751.2368613081,-27500.0,2593.0817273846492,-7418.333837514002,11430.166311825826,-3626.0729083358137,9082.6769479859649,3862.0124092918677,11944.673238299782,-3098.9994301644542,2857.8627516849742,-2857.8627516849742,3098.9994301644542,22814.81772596026,0.0
668523.2936376977,3572751.2368613081,-27500.0,4213.5372081726946,-7966.1257007686381,7009.8650038698761,-4118.4194431894812,6466.2317365636281,2806.6583928540417,10268.778605757274,-978.26807922879652,-675.53695564783038,675.53695564783038,978.26807922879652,19504.638480697999,0.0
673523.2936376977,3572751.2368613081,-27500.0,5469.4880410435981,-7262.2782166864381,2764.3773716051301,-3950.4153103247345,3847.9368638554774,1740.2643112461824,8654.4149391169103,1172.9843350410745,-3293.4882582645114,3293.4882582645114,-1172.9843350410745,16142.986800684341,0.0
678523.2936376977,3572751.2368613081,-27500.0,6050.0747157622964,-5699.1641281465445,-698.58863527354652,-3291.75714379693,1583.5110978076439,797.01005756261043,7306.0976415152782,2878.8067202839052,-4771.0139716439226,4771.0139716439226,-2878.8067202839052,13234.76154450614,0.0
683523.2936376977,3572751.2368613081,-27500.0,5912.9467155598968,-3770.1770538420633,-3123.6942661856074,-2377.6144538815597,-145.9522429807966,51.573817987459663,6295.2480275339931,3917.3848862248406,-5223.2565597130861,5223.2565597130861,-3917.3848862248406,11077.689860229351,0.0
688523.2936376977,3572751.2368613081,-27500.0,5211.6360580816399,-1881.8763643382231,-4551.7321222480105,-1417.1148246653599,-1319.2394630743629,-478.77104114123534,5593.7550680918739,4301.7211204621462,-4943.712217907133,4943.712217907133,-4301.7211204621462,9696.2234445946324,0.0
693523.2936376977,3572751.2368613081,-27500.0,4174.7192346889178,-278.11193112437297,-5183.7990202009951,-549.81316320644737,-2013.5916686134765,-815.09226424998928,5113.0336910435162,4178.7417181091241,-4248.2927249186923,4248.2927249186923,-4178.7417181091241,8892.9982135670507,0.0
698523.2936376977,3572751.2368613081,-27500.0,3014.2988530250882,946.24535405610789,-5261.4320189727678,155.58357721143969,-2343.8682552226205,-996.22357702575391,4756.9611936970832,3731.4620503042356,-3388.5451209024827,3388.5451209024827,-3731.4620503042356,8403.6850305506341,0.0
703523.2936376977,3572751.2368613081,-27500.0,1884.614929241337,1795.3602938792428,-4997.9073017244928,682.43064809349107,-2423.0828699389253,-1064.0966664504742,4456.2249937772885,3120.5740114501355,-2528.9171281988133,2528.9171281988133,-3120.5740114501355,8028.1082161933591,0.0
708523.2936376977,3572751.2368613081,-27500.0,877.35976753993054,2323.5706710222753,-4553.6714190289758,1044.5415618014986,-2344.2757128382564,-1055.8217335630261,4173.5670990378449,2463.060531418143,-1758.7738180761053,1758.7738180761053,-2463.060531418143,7661.0149791009635,0.0
713523.2936376977,3572751.2368613081,-27500.0,34.193590928125069,2601.4951733186977,-4036.9419227602461,1269.4388130240279,-2176.2421261060108,-1000.6998327679869,3894.4898574243502,1832.6663555530315,-1115.0056111639421,1115.0056111639421,-1832.6663555530315,7264.8333004883571,0.0
718523.2936376977,3572751.2368613081,-27500.0,-636.83469715349872,2697.2348225019473,-3514.276704509497,1387.8205169741652,-1966.0348012041654,-920.08211531408506,3616.7603224739937,1269.1758818518811,-602.8808075588845,602.8808075588845,-1269.1758818518811,6836.9669101066656,0.0
723523.2936376977,3572751.2368613081,-27500.0,-1147.1499640790325,2668.1994989836271,-3022.7012069828961,1428.0094053795353,-1743.7391137552802,-828.53479470199863,3343.2775506174457,789.06325028780634,-211.23067936203131,211.23067936203131,-789.06325028780634,6388.5963828571412,0.0
728523.2936376977,3572751.2368613081,-27500.0,-1517.5289353730993,2559.0737266110987,-2579.9445472885054,1413.6616080263507,-1527.2728818514252,-735.38702275783157,3078.2211187828971,394.41105722543853,77.918866136839142,-77.918866136839142,-394.41105722543853,5933.8867945251341,0.0
733523.2936376977,3572751.2368613081,-27500.0,-1771.6892783167061,2402.7604748152339,-2191.9645912084993,1363.3207290721648,-1326.3429577064064,-646.19524936354583,2825.3185397781235,79.357019945395535,283.87819989063735,-283.87819989063735,-79.357019945395535,5485.403025880626,0.0
738523.2936376977,3572751.2368613081,-27500.0,-1932.6581121579577,2222.4428126875459,-1858.0413227513204,1290.8699089402246,-1145.3914901884366,-563.94202998107937,2587.2579483254758,-165.67016191297657,424.54628256992123,-424.54628256992123,165.67016191297657,5052.6605574706491,0.0
743523.2936376977,3572751.2368613081,-27500.0,-2020.9899003576204,2033.8101190784823,-1574.0239412642745,1206.3237236964603,-985.65329653810397,-489.93767758303517,2365.6447268696597,-351.3795072526899,515.28168349821419,-515.28168349821419,351.3795072526899,4642.0803629044231,0.0
748523.2936376977,3572751.2368613081,-27500.0,-2054.1079869936052,1847.0317539478997,-1334.2964942336632,1116.6648282758326,-846.52568224563106,-424.4599097452915,2161.1759041149035,-488.1828625541562,568.65501882282672,-568.65501882282672,488.1828625541562,4257.4709786604171,0.0
563523.2936376977,3577751.2368613081,-27500.0,182.39290554877456,-1407.1585668542402,-1635.2472039056147,-260.15760642492666,-714.134422346169,-165.45387934291921,1796.5102849319956,412.82027420732379,-2010.0004086686624,2010.0004086686624,-412.82027420732379,3235.0963265393066,0.0
568523.2936376977,3577751.2368613081,-27500.0,524.4139250645627,-1400.4109269741277,-1843.5175836349842,-171.78631887931118,-766.11163488038039,-157.3606094910175,1960.4667848672875,747.22389819150953,-2217.694432243039,2217.694432243039,-747.22389819150953,3491.458973865032,0.0
573523.2936376977,3577751.2368613081,-27500.0,948.74093634205497,-1340.2400153126014,-2059.5148183043871,-42.94448316561094,-803.33040457865923,-136.34682661639025,2145.921086417231,1161.4144505192457,-2415.1863235071833,2415.1863235071833,-1161.4144505192457,3780.6187893080928,0.0
578523.2936376977,3577751.2368613081,-27500.0,1464.6771221283309,-1205.5766599398141,-2270.5371487663879,137.62927166819429,-814.08854181086701,-96.377265659108986,2359.8545010636317,1664.4299397690584,-2583.0937346145884,2583.0937346145884,-1664.4299397690584,4118.6326595336732,0.0
583523.2936376977,3577751.2368613081,-27500.0,2077.9318663830859,-970.66170784568874,-2455.5361964651725,382.74663103777175,-781.49882952482324,-29.36393572538994,2612.9035813029814,2261.4558090202063,-2692.8747661981006,2692.8747661981006,-2261.4558090202063,4531.8791601506982,0.0
588523.2936376977,3577751.2368613081,-27500.0,2787.4721950972616,-605.66961584029002,-2581.7285093509954,706.02834688013036,-681.90805813342615,75.244790406828912,2920.7848068457783,2950.3455655718949,-2704.3113579749456,2704.3113579749456,-2950.3455655718949,5060.9219848963157,0.0
593523.2936376977,3577751.2368613081,-27500.0,3581.2377906998113,-78.803204604072448,-2600.6288325045443,1120.3769584673773,-483.24168470112824,230.77254952485711,3305.643132390042,3716.767451503038,-2563.2778158927554,2563.2778158927554,-3716.767451503038,5763.1496625234076,0.0
598523.2936376977,3577751.2368613081,-27500.0,4430.8344477826658,639.22561790534735,-2444.0618427090967,1635.2967477273273,-143.62935141281969,453.35949282199283,3796.7954133221174,4528.0040619422934,-2200.745793686986,2200.745793686986,-4528.0040619422934,6711.9357052848618,0.0
603523.2936376977,3577751.2368613081,-27500.0,5285.8220986233982,1567.2332284194915,-2021.4096401199283,2252.6698528168054,389.01562439839938,761.497523553973,4430.3525767653646,5325.9600224388087,-1534.6488349517069,1534.6488349517069,-5325.9600224388087,7990.6873456033181,0.0
608523.2936376977,3577751.2368613081,-27500.0,6069.0613216619295,2701.1339757196442,-1220.398549833571,2960.7004081898326,1175.3475001677307,1174.7198005226956,5247.8542967885978,6020.8736315213209,-477.01519863998101,477.01519863998101,-6020.8736315213209,9682.129840687483,0.0
613523.2936376977,3577751.2368613081,-27500.0,6675.7651768336746,3996.7929896531837,84.967703695949069,3726.0812274929253,2279.2162485936165,1711.0244316318131,6295.4573352819116,6488.6136308415716,1050.5896883784048,-1050.5896883784048,-6488.6136308415716,11854.292383450535,0.0
618523.2936376977,3577751.2368613081,-27500.0,6980.2192988353936,5349.7332239980205,2014.5619145038634,4485.1755164001534,3756.4246748843884,2382.5681721718452,7623.5147108263573,6576.1028038633413,3090.3712024002366,-3090.3712024002366,-6576.1028038633413,14543.290646556286,0.0
623523.2936376977,3577751.2368613081,-27500.0,6854.9892029262874,6576.5607239257979,4645.5162992076021,5136.2921481813346,5635.3338620698787,3189.1991738385145,9264.4308980391943,6120.7410342161693,5609.2067937233478,-5609.2067937233478,-6120.7410342161693,17731.0245186641,0.0
628523.2936376977,3577751.2368613081,-27500.0,6206.8558481394557,7407.7497888513653,7956.3864974242788,5537.0943064980811,7887.8419453645583,4109.578081703462,11172.607339163267,4989.6493595712791,8450.5547107924613,-8450.5547107924613,-4989.6493595712791,21316.316421929412,0.0
633523.2936376977,3577751.2368613081,-27500.0,5030.2728188856809,7506.9997935667607,11756.477361337649,5513.834144112112,10392.028912828175,5090.1429051326959,13209.082084719423,3141.5386708173196,11289.216898366456,-11289.216898366456,-3141.5386708173196,25081.821044561177,0.0
638523.2936376977,3577751.2368613081,-27500.0,3470.5439833215146,6536.8160491809786,15618.292993422885,4892.0924179863441,12894.345832305724,6033.6248670344494,15159.490210117292,705.57422383778248,13613.882646424261,-13613.882646424261,-705.57422383778248,28666.733098682329,0.0
643523.2936376977,3577751.2368613081,-27500.0,1870.8364395289379,4287.4475088910131,18853.886061040263,3559.4373122274392,14992.275099126331,6792.6861508751444,16739.896364129843,-1947.1718712919983,14779.143171370066,-14779.143171370066,1947.1718712919983,31567.719262841078,0.0
648523.2936376977,3577751.2368613081,-27500.0,747.44763581506834,860.25071985975046,20604.003097596149,1559.6027166014476,16177.035280490463,7181.8225869298976,17630.010713521369,-4198.0548606224402,14177.292488477287,-14177.292488477287,4198.0548606224402,33204.307551013095,0.0
653523.2936376977,3577751.2368613081,-27500.0,621.54594764558226,-3177.2883154104138,20107.813880745573,-820.07620308016908,15980.234277807564,7026.1289382469595,17561.55128385227,-5329.0890308172693,11539.139023474343,-11539.139023474343,5329.0890308172693,33080.789317435876,0.0
658523.2936376977,3577751.2368613081,-27500.0,1711.098128267749,-6841.1512287830446,17112.80736613222,-3060.321978315952,14210.565063196906,6248.3130541785058,16447.959106415929,-4857.4877277242322,7232.8108117044776,-7232.8108117044776,4857.4877277242322,31019.982949338293,0.0
663523.2936376977,3577751.2368613081,-27500.0,3684.0907923261916,-9112.4005824160831,12165.314942824672,-4597.3996780463904,11138.414796709998,4944.481575909178,14488.092053164653,-2882.8805453336731,2277.1318946599745,-2277.1318946599745,2882.8805453336731,27341.154480720248,0.0
668523.2936376977,3577751.2368613081,-27500.0,5762.2143473711676,-9467.0729206338365,6455.9892164331886,-5104.0039276246962,7435.2506042950308,3370.0757344179929,12154.09622151334,-113.8551595830595,-2090.8526198554846,2090.8526198554846,113.8551595830595,22819.752153451045,0.0
673523.2936376977,3577751.2368613081,-27500.0,7166.3770036533433,-8116.4479628164599,1248.5580472897334,-4636.2051781735545,3863.3766016152522,1825.4167426919259,9993.3962532618316,2527.2536729688868,-5016.2972852795683,5016.2972852795683,-2527.2536729688868,18407.335931399208,0.0
678523.2936376977,3577751.2368613081,-27500.0,7517.0981144110192,-5767.5652103764442,-2657.3345161351417,-3532.0555004193266,958.17997295563691,531.58429519213018,8329.7087021531988,4384.4922666211633,-6314.037558954903,6314.037558954903,-4384.4922666211633,14873.393797392388,0.0
683523.2936376977,3577751.2368613081,-27500.0,6891.6617674785502,-3181.4658726183802,-5067.8836482799061,-2190.384522640727,-1083.1757499465623,-417.73884348763175,7203.1948428948081,5259.6393178762892,-6313.1723147963103,6313.1723147963103,-5259.6393178762892,12542.698782843936,0.0
688523.2936376977,3577751.2368613081,-27500.0,5622.6198428169437,-882.91534091109827,-6204.4189334456696,-911.79584013232341,-2320.7560684607788,-1030.7082582382545,6485.2483194104407,5298.47693776086,-5524.2657630331259,5524.2657630331259,-5298.47693776086,11244.861548321593,0.0
693523.2936376977,3577751.2368613081,-27500.0,4075.3906742581257,891.00107203499886,-6441.3538164664251,143.38269146027724,-2933.7711533752581,-1367.9180036193879,5999.572090525643,4782.8844843341321,-4396.4058710227928,4396.4058710227928,-4782.8844843341321,10547.511628688742,0.0
698523.2936376977,3577751.2368613081,-27500.0,2528.0284299505838,2110.1351100048569,-6133.1672077807816,925.93690380741805,-3118.2680079958413,-1503.7212950641001,5611.1887908686485,3983.1658949726429,-3229.2231033079856,3229.2231033079856,-3983.1658949726429,10072.359043217501,0.0
703523.2936376977,3577751.2368613081,-27500.0,1145.6714690836334,2850.6791428839106,-5546.673971764817,1451.7490758871945,-3038.2523150926245,-1505.6012675032403,5248.596092903178,3097.8661066302011,-2182.8553714150385,2182.8553714150385,-3097.8661066302011,9616.0425263101806,0.0
708523.2936376977,3577751.2368613081,-27500.0,1.5715995664954825,3223.5536723951413,-4856.5416652500307,1765.2493433808474,-2813.1456826003164,-1426.6150983086679,4885.8495677666488,2249.0125017893984,-1320.6719581856009,1320.6719581856009,-2249.0125017893984,9108.58196758126,0.0
713523.2936376977,3577751.2368613081,-27500.0,-890.97599289229095,3336.1796665800516,-4165.0903095468211,1917.2976698461164,-2522.2483390697489,-1304.8051257968764,4520.2219616231478,1499.2105127642735,-650.19675481474906,650.19675481474906,-1499.2105127642735,8546.3290739585955,0.0
718523.2936376977,3577751.2368613081,-27500.0,-1551.5743139468782,3277.1637238731569,-3525.4319775019617,1954.2672887913802,-2214.3656062678688,-1165.5291152974273,4157.7407849141837,871.87612060448316,-151.90177191089447,151.90177191089447,-871.87612060448316,7949.4827811125615,0.0
723523.2936376977,3577751.2368613081,-27500.0,-2014.2662940750524,3113.3065264501638,-2960.2224631563813,1913.9793123916438,-1917.2231741900946,-1024.5469190751824,3806.0135964834135,367.56121234629126,203.58818917324044,-203.58818917324044,-367.56121234629126,7342.0586874642513,0.0
728523.2936376977,3577751.2368613081,-27500.0,-2316.559467084141,2891.9906120709497,-2474.7117042185732,1825.2186775089426,-1644.905610288175,-890.87570586312927,3471.3594341617072,-24.858637456815302,446.45315097586905,-446.45315097586905,24.858637456815302,6744.279320785713,0.0
733523.2936376977,3577751.2368613081,-27500.0,-2493.6900788380308,2645.2286333362313,-2065.060567522462,1708.8258499990966,-1403.1495841668864,-769.06822294993242,3158.0471845484208,-321.26894737463078,603.59543088194152,-603.59543088194152,321.26894737463078,6170.6780155723709,0.0
738523.2936376977,3577751.2368613081,-27500.0,-2576.1332760804626,2393.669528206321,-1723.3078880154269,1579.27798972809,-1192.8717527486065,-660.87812947533746,2868.4175551029925,-538.40400204393416,697.27597015729941,-697.27597015729941,538.40400204393416,5630.4780079762686,0.0
743523.2936376977,3577751.2368613081,-27500.0,-2588.9416323135874,2149.9400714789926,-1440.1668491029016,1446.2409704067391,-1012.4097125955717,-566.40562366323934,2603.296799516902,-691.85207174708682,745.09579108776109,-745.09579108776109,691.85207174708682,5128.6823930451019,0.0
748523.2936376977,3577751.2368613081,-27500.0,-2552.0121217376122,1921.2030736879979,-1206.4919899810939,1315.8877802260199,-858.88660543499805,-484.84851549761476,2362.4399769028287,-795.20231590112337,760.55177418498295,-760.55177418498295,795.20231590112337,4667.2244274912446,0.0
558523.2936376977,3582751.2368613081,-27500.0,-581.53864204053662,-1633.2345798754682,-1434.566802390877,-524.25295634492738,-740.09070880786965,-227.660279598117,1837.555655310244,-298.43803080836915,-1852.4921501222175,1852.4921501222175,298.43803080836915,3409.5229847386363,0.0
563523.2936376977,3582751.2368613081,-27500.0,-350.71374402850699,-1725.8323414581394,-1655.2117158667761,-497.39824160255159,-825.66202884208178,-240.9011034966602,2005.4656392213139,-69.911517880966358,-2106.3968144274768,2106.3968144274768,69.911517880966358,3685.0894621078301,0.0
568523.2936376977,3582751.2368613081,-27500.0,-42.316331193051546,-1793.0033869023225,-1903.5775531590607,-441.72785819469317,-911.43690064506654,-247.7530565826811,2189.8588507697013,234.02637870887156,-2379.7332824966757,2379.7332824966757,-234.02637870887156,3980.7325687636521,0.0
573523.2936376977,3582751.2368613081,-27500.0,359.58176920972704,-1818.4176050083024,-2176.9866128603139,-346.45337892811131,-990.83061155615462,-243.78254147051092,2393.5346139613794,629.3343182733845,-2664.0973488797017,2664.0973488797017,-629.3343182733845,4300.3495564074583,0.0
578523.2936376977,3582751.2368613081,-27500.0,871.35253792370099,-1779.9414203849844,-2467.8868079050076,-197.9986914207845,-1053.2240721770045,-222.61991625153988,2621.0624541881825,1132.5031903771355,-2944.3791319308934,2944.3791319308934,-1132.5031903771355,4652.3420920057797,0.0
583523.2936376977,3582751.2368613081,-27500.0,1507.9235551350685,-1648.5877568049857,-2760.8954301943422,20.16069886237479,-1082.2078529963512,-175.33896871447374,2880.1235306974918,1758.5684874546221,-3195.7567641851383,3195.7567641851383,-1758.5684874546221,5053.6037520626178,0.0
588523.2936376977,3582751.2368613081,-27500.0,2279.6096467491307,-1387.9896377977545,-3028.6422762819716,327.2312488857558,-1053.3154325017554,-89.758609988783519,3183.5610279829302,2517.6863372024163,-3379.9477441350646,3379.9477441350646,-2517.6863372024163,5535.6524082429214,0.0
593523.2936376977,3582751.2368613081,-27500.0,3187.2506749617542,-955.13273919446272,-3226.2769263320993,744.04702094841412,-931.28445333946706,50.253128271220376,3552.1818348020629,3409.7487468755849,-3440.9958193086181,3440.9958193086181,-3409.7487468755849,6152.5925677957102,0.0
598523.2936376977,3582751.2368613081,-27500.0,4215.3728966256804,-303.53491695627781,-3284.8603978217975,1290.7076924980245,-667.08896089023574,265.31724080294464,4017.9731799691199,4416.6112434527895,-3301.4116853166083,3301.4116853166083,-4416.6112434527895,6988.5121904160633,0.0
603523.2936376977,3582751.2368613081,-27500.0,5323.5302996867276,609.42719004201081,-3104.6345431538321,1982.2361806555621,-195.36443413613105,580.66799588062668,4626.8304314188963,5491.9383277207498,-2860.3982082093962,2860.3982082093962,-5491.9383277207498,8159.1401042971029,0.0
608523.2936376977,3582751.2368613081,-27500.0,6436.9373642357905,1808.9741708882816,-2550.5831474781544,2821.5056924973915,566.51879094644573,1025.4826000337589,5439.7986607462262,6549.6934614619477,-1997.2391611236658,1997.2391611236658,-6549.6934614619477,9802.3713107951862,0.0
613523.2936376977,3582751.2368613081,-27500.0,7439.159743895395,3281.3551283175284,-1454.8670303002286,3788.8341780067522,1715.5399909644493,1630.8962373221461,6533.4823017621329,7454.1590130684208,-584.50879336464914,584.50879336464914,-7454.1590130684208,12057.266945056486,0.0
618523.2936376977,3582751.2368613081,-27500.0,8171.9309000707726,4944.1406186327158,366.65706965829963,4828.2460534172351,3352.8904073589533,2426.0159589341397,8001.3816897834386,8017.0812989734295,1483.1267310188232,-1483.1267310188232,-8017.0812989734295,15036.105880027832,0.0
623523.2936376977,3582751.2368613081,-27500.0,8449.5185466116018,6612.3311849741885,3074.6670390824052,5831.7610207356774,5562.0618340056017,3430.9939619336333,9934.2230098401124,8010.5117566390563,4239.5167967282978,-4239.5167967282978,-8010.5117566390563,18791.15402921398,0.0
628523.2936376977,3582751.2368613081,-27500.0,8096.1896107442899,7971.2346062502002,6735.1950779487552,6625.551096355518,8370.1225090716089,4645.7507726022695,12334.205478772301,7205.7291964314081,7576.7398193836925,-7576.7398193836925,-7205.7291964314081,23271.316760877515,0.0
633523.2936376977,3582751.2368613081,-27500.0,7013.6118587228357,8576.5103901539787,11215.874275375556,6965.9988052614844,11688.57953434411,6032.1262842957321,15061.810200741385,5447.4396571585721,11164.106082783634,-11164.106082783634,-5447.4396571585721,28264.119787588595,0.0
638523.2936376977,3582751.2368613081,-27500.0,5278.6605752120913,7912.6299495467183,16064.774980232196,6561.1128657533964,15236.478683058556,7486.7791819657305,17848.482206938661,2766.6393313136068,14384.612275705938,-14384.612275705938,-2766.6393313136068,33329.020748772746,0.0
643523.2936376977,3582751.2368613081,-27500.0,3253.6333556049262,5551.2504595021746,20418.914444730708,5144.9898203258253,18467.415964879707,8806.5235364705168,20286.098023586201,-480.84272434877312,16346.766047272928,-16346.766047272928,480.84272434877312,37751.328538525217,0.0
648523.2936376977,3582751.2368613081,-27500.0,1636.5003989270888,1441.3976869472804,23049.142666311673,2638.5305510675662,20568.378619430088,9668.7872871749951,21849.027659030166,-3514.4818178198966,16073.085697277604,-16073.085697277604,3514.4818178198966,40587.182769666273,0.0
653523.2936376977,3582751.2368613081,-27500.0,1284.1474885661175,-3742.0951295852333,22711.795154819883,-626.39349363796111,20658.674276397069,9690.5484503957196,22027.427489388054,-5240.6792073167981,12966.103855246924,-12966.103855246924,5240.6792073167981,40904.910054501306,0.0
658523.2936376977,3582751.2368613081,-27500.0,2677.1345177778471,-8524.9079118939153,18864.976604280433,-3813.2580202490517,18260.432692208975,8625.5668250041981,20584.821217798723,-4774.2348796877632,7423.9040871787038,-7423.9040871787038,4774.2348796877632,38250.659820523964,0.0
663523.2936376977,3582751.2368613081,-27500.0,5342.8748131864904,-11252.434887570562,12311.642973077945,-5902.487082050151,13775.291306264464,6602.6282878137381,17804.632371207023,-2167.9055151021844,1017.0914867747337,-1017.0914867747337,2167.9055151021844,33091.051120439588,0.0
668523.2936376977,3582751.2368613081,-27500.0,7982.4168597609014,-11144.984601023883,4973.5692549219966,-6325.4525721953123,8417.4247933351053,4133.9714663708064,14487.52500931995,1430.3598096702533,-4291.1041843581233,4291.1041843581233,-1430.3598096702533,26786.368298177484,0.0
673523.2936376977,3582751.2368613081,-27500.0,9386.8703431767008,-8744.5326386811994,-1231.5572820101613,-5289.2856580085936,3516.6921277689798,1815.562496674519,11573.990613874226,4560.3143805055915,-7315.9121176061963,7315.9121176061963,-4560.3143805055915,20978.843519822749,0.0
678523.2936376977,3582751.2368613081,-27500.0,9174.0945036165322,-5317.7665567370732,-5340.6316143834938,-3480.0007768296459,-142.56781098812195,19.654380966569683,9561.2796909446006,6363.5148748519714,-8073.853759255544,8073.853759255544,-6363.5148748519714,16817.698222827312,0.0
683523.2936376977,3582751.2368613081,-27500.0,7714.6204525038802,-1990.1078583559993,-7395.1637541454611,-1563.938023689939,-2430.8178040767416,-1167.4033383188769,8364.6171990268085,6788.7913490075898,-7303.6172845017427,7303.6172845017427,-6788.7913490075898,14489.1815667395,0.0
688523.2936376977,3582751.2368613081,-27500.0,5639.0346898038997,642.26551879298415,-7943.4494055446639,63.079632000388536,-3601.2797116506408,-1833.2427187931175,7653.1637570957482,6236.3102510172894,-5822.3351474923793,5822.3351474923793,-6236.3102510172894,13378.483232697774,0.0
693523.2936376977,3582751.2368613081,-27500.0,3473.7957386125986,2438.7373528199992,-7590.810397272101,1262.226004140073,-4006.4718112443134,-2119.5981655045262,7139.4168841264018,5173.8873155649817,-4204.073208258158,4204.073208258158,-5173.8873155649817,12751.4813258909,0.0
698523.2936376977,3582751.2368613081,-27500.0,1532.2419198739603,3501.1683762030029,-6799.0799298968523,2046.5372433935652,-3950.9200302932622,-2158.3619181229246,6670.8562525280977,3954.142014012481,-2750.6767299809844,2750.6767299809844,-3954.142014012481,12184.115207015837,0.0
703523.2936376977,3582751.2368613081,-27500.0,-52.104469965598355,4009.9997237731286,-5859.7339041513851,2491.9115458207912,-3651.6503227402009,-2051.1006172699717,6195.2497946262511,2786.8195254331195,-1574.7469132151964,1574.7469132151964,-2786.8195254331195,11532.039257092498,0.0
708523.2936376977,3582751.2368613081,-27500.0,-1258.1688258309341,4140.5027965215986,-4932.9243136417963,2686.6511958240371,-3247.0460976564223,-1868.4937915915077,5708.2939309039866,1772.2944430802177,-685.70843897423174,685.70843897423174,-1772.2944430802177,10786.520694401195,0.0
713523.2936376977,3582751.2368613081,-27500.0,-2121.8942899262074,4032.8494580261095,-4094.3348327091758,2709.2638727212948,-2818.1877448147952,-1656.2048900138213,5221.7330380192197,942.82745449106881,-47.631046252626561,47.631046252626561,-942.82745449106881,9983.2076963875661,0.0
718523.2936376977,3582751.2368613081,-27500.0,-2701.1430494341535,3788.3932294765846,-3371.0343619622709,2621.6032602045225,-2408.5499268093499,-1441.6779844240837,4749.1782473482263,293.96767783956636,388.98233763387054,-388.98233763387054,-293.96767783956636,9162.763247025503,0.0
723523.2936376977,3582751.2368613081,-27500.0,-3056.6592643256672,3475.7374407720872,-2764.6456648990616,2468.9949280130481,-2038.5634325018193,-1239.9886176755497,4301.2223637199113,-195.52626928176795,672.19908179091703,-672.19908179091703,195.52626928176795,8357.7720946653753,0.0
728523.2936376977,3582751.2368613081,-27500.0,-3243.1984013307692,3138.9036175576693,-2264.9712822981101,2282.9468065249744,-1715.3418699837002,-1058.2948684759003,3884.5443982025381,-552.3715014257092,842.87832056525565,-842.87832056525565,552.3715014257092,7590.4070492931287,0.0
733523.2936376977,3582751.2368613081,-27500.0,-3306.3616733478343,2804.6525399710454,-1857.4654493874375,2084.3837966657456,-1438.7927471340536,-898.97324513544083,3502.4485686677203,-802.94631566475948,933.40835956327999,-933.40835956327999,802.94631566475948,6873.8149569054876,0.0
738523.2936376977,3582751.2368613081,-27500.0,-3282.3230935093825,2488.1653910193454,-1527.0471111678494,1886.5615340054517,-1205.2824283028888,-761.70337822017189,3155.7510461258239,-970.68933972612933,968.38945752972506,-968.38945752972506,970.68933972612933,6214.3781488029417,0.0
743523.2936376977,3582751.2368613081,-27500.0,-3198.8348649994555,2197.136326913841,-1259.855609631564,1697.3961521290034,-1009.7386773452384,-644.78574216874711,2843.5985049545798,-1075.2452206570988,965.97203440377587,-965.97203440377587,1075.2452206570988,5613.8187543526137,0.0
748523.2936376977,3582751.2368613081,-27500.0,-3076.6597251374551,1934.5895865322889,-1043.906700970718,1521.2087530721058,-846.79610070922467,-545.93587228997865,2564.0936694896236,-1132.4875853999949,939.2609484378047,-939.2609484378047,1132.4875853999949,5070.8619815747024,0.0
558523.2936376977,3587751.2368613081,-27500.0,-1164.9252913104847,-1854.8710131448197,-1373.8146763899476,-761.72137032048192,-808.79687854381041,-298.06607507432909,2049.8870412222827,-832.37541162380899,-1820.387375716992,1820.387375716992,832.37541162380899,3873.1011219760981,0.0
563523.2936376977,3587751.2368613081,-27500.0,-998.65882110456869,-2012.8218022496153,-1609.9842041547586,-775.93508056084113,-920.44769988149312,-327.26461969477344,2246.9452958376928,-665.7577149197748,-2111.0889922881515,2111.0889922881515,665.7577149197748,4211.5533583492825,0.0
568523.2936376977,3587751.2368613081,-27500.0,-754.39419165897493,-2160.6680626621373,-1885.4992303778729,-766.81228025500718,-1040.5383507609133,-353.39049806200842,2462.2665376018153,-423.48044594817259,-2438.5877080732712,2438.5877080732712,423.48044594817259,4572.8987194068632,0.0
573523.2936376977,3587751.2368613081,-27500.0,-411.53924323455709,-2284.1339932687224,-2202.6804336188143,-723.06425438818667,-1164.578134420756,-372.37556196470473,2697.1528799533303,-84.847200177805007,-2800.0900407281365,2800.0900407281365,84.847200177805007,4956.6990002987895,0.0
578523.2936376977,3587751.2368613081,-27500.0,53.340819678624108,-2362.3514096340209,-2560.4981473004286,-629.67767836690155,-1284.2147098777702,-378.01025510976513,2953.5795470275152,373.93166365645016,-3187.1293614340821,3187.1293614340821,-373.93166365645016,5363.7628950381923,0.0
583523.2936376977,3587751.2368613081,-27500.0,665.33070295450489,-2365.8899168448006,-2951.685480929521,-467.21519680084668,-1385.1711277899878,-361.11463294793839,3235.1741923164686,978.55312649642497,-3582.1773304410253,3582.1773304410253,-978.55312649642497,5798.8791405133716,0.0
588523.2936376977,3587751.2368613081,-27500.0,1448.6037176437596,-2254.8185081793767,-3358.2565470388313,-211.35461728508452,-1444.3536270226698,-308.51772279575022,3549.1122124165945,1753.9421441465665,-3953.9253629801497,3953.9253629801497,-1753.9421441465665,6276.3244152349744,0.0
593523.2936376977,3587751.2368613081,-27500.0,2421.7772286055665,-1977.460600759603,-3744.9052893209346,166.9662666148327,-1425.9741799595593,-201.88440750149124,3909.4972196456329,2719.2371198800161,-4251.1499036496716,4251.1499036496716,-2719.2371198800161,6829.873855666001,0.0
598523.2936376977,3587751.2368613081,-27500.0,3590.3687782694506,-1471.126027978549,-4049.9236077482583,700.19400819398345,-1276.6691669023039,-16.495575871456584,4342.8139919368368,3879.4357988965976,-4395.5484281931886,4395.5484281931886,-3879.4357988965976,7528.5551571166716,0.0
603523.2936376977,3587751.2368613081,-27500.0,4935.709706965913,-667.03473618518331,-4173.9381166402627,1420.6714970889589,-919.95625438790887,279.82619087759531,4895.5832238612566,5212.81982563975,-4274.9809553849682,4274.9809553849682,-5212.81982563975,8495.7732256655672,0.0
608523.2936376977,3587751.2368613081,-27500.0,6400.4684554994446,497.23928885628624,-3968.3784715566544,2353.7358567346332,-251.11699177713518,727.35393554681275,5643.1474946146809,6654.0857404994695,-3740.4557630632335,3740.4557630632335,-6654.0857404994695,9920.9221500740259,0.0
613523.2936376977,3587751.2368613081,-27500.0,7872.8538390711601,2053.6964221656804,-3228.6933000163535,3505.8439128396381,865.05199842307616,1374.2548042585079,6697.7971591426667,8075.1977858268765,-2613.0756005323892,2613.0756005323892,-8075.1977858268765,12045.846224338431,0.0
618523.2936376977,3587751.2368613081,-27500.0,9174.9925366426414,3964.8874160583837,-1702.1345008793126,4846.2356342562398,2589.0101235145239,2274.9393394364224,8216.1684157444543,9269.8447687273147,-710.44626341126332,710.44626341126332,-9269.8447687273147,15119.450648625985,0.0
623523.2936376977,3587751.2368613081,-27500.0,10065.588766267998,6071.0246413821424,874.70632255212661,6281.570295138994,5086.2511957466113,3485.7779032736862,10386.365911838751,9952.7631991884937,2096.3472264847387,-2096.3472264847387,-9952.7631991884937,19335.154856611422,0.0
628523.2936376977,3587751.2368613081,-27500.0,10270.842946761906,8034.273783714526,4691.2559090654649,7625.3589864189671,8481.6007835841483,5055.3949715403241,13313.983360855669,9789.8844357636917,5788.1212517532185,-5788.1212517532185,-9789.8844357636917,24761.507697265955,0.0
633523.2936376977,3587751.2368613081,-27500.0,9557.8765339040856,9306.3787791946725,9721.0628493940239,8568.7040828870595,12775.948267017306,7002.8158357175716,16899.854552655961,8475.5785476449109,10072.03274265929,-10072.03274265929,-8475.5785476449109,31252.849552904256,0.0
638523.2936376977,3587751.2368613081,-27500.0,7861.7463485102371,9162.7811592422313,15533.947065088056,8669.0348830640942,17715.531235148908,9269.0172875001626,20837.662449912772,5868.7607655177999,14255.832875068292,-14255.832875068292,-5868.7607655177999,38326.13369729714,0.0
643523.2936376977,3587751.2368613081,-27500.0,5472.1514694654934,6868.2695070382088,21111.219272716535,7402.2691849929433,22619.818890882107,11621.238955258641,24572.207869483595,2196.866462830405,17188.655732292165,-17188.655732292165,-2196.866462830405,45023.266072535444,0.0
648523.2936376977,3587751.2368613081,-27500.0,3235.9420477195804,2073.320199649851,24791.851274321638,4385.0579765491339,26247.432229090784,13522.204131842422,27269.063047159852,-1691.3628715549085,17412.251858955326,-17412.251858955326,1691.3628715549085,49860.805696142168,0.0
653523.2936376977,3587751.2368613081,-27500.0,2500.5389372466393,-4525.4006259885164,24652.130116124183,-132.74408126161032,26976.899792908342,14122.289482755048,27977.489755132458,-4245.4846426613431,13789.085407296625,-13789.085407296625,4245.4846426613431,51118.174785407107,0.0
658523.2936376977,3587751.2368613081,-27500.0,4276.1418859878222,-10752.718607389317,19658.259029282635,-4810.7578018550566,23684.41863732483,12682.404449364683,26121.072851217497,-3883.985511669925,6659.3621237395146,-6659.3621237395146,3883.985511669925,47719.144642427498,0.0
663523.2936376977,3587751.2368613081,-27500.0,7910.6161853906724,-13885.220667218029,11010.019972223365,-7705.3461223739369,16954.508573846539,9329.7627891149314,22095.974398211438,-476.32933810898226,-1537.8062376853379,1537.8062376853379,476.32933810898226,40324.967340714771,0.0
668523.2936376977,3587751.2368613081,-27500.0,11159.842235462107,-12792.40211868509,1830.6345792596555,-7784.187275825182,9085.1323704631741,5206.8879392765775,17324.782266428396,4090.9654635589941,-7674.1008589904504,7674.1008589904504,-4090.9654635589941,31420.879915245965,0.0
673523.2936376977,3587751.2368613081,-27500.0,12166.486849977635,-8756.7303119184089,-5069.1535970377163,-5680.979022615039,2436.1800194140533,1594.4605694418674,13440.544304218351,7509.6164519259128,-10246.011922795175,10246.011922795175,-7509.6164519259128,23901.587018890285,0.0
678523.2936376977,3587751.2368613081,-27500.0,10790.736300474953,-3984.6904064438309,-8782.7897145033821,-2798.263595492388,-1952.6682684338371,-899.21545479185454,11121.267071930579,8798.2582634513819,-9852.8654502185709,9852.8654502185709,-8798.2582634513819,19326.85096850439,0.0
683523.2936376977,3587751.2368613081,-27500.0,8023.8434087236474,10.663872499189598,-9919.2694823097372,-189.90510133578255,-4258.5091462580322,-2315.4303338102163,9927.0602042096834,8317.7621077214335,-7925.0401242054004,7925.0401242054004,-8317.7621077214335,17258.341728369978,0.0
688523.2936376977,3587751.2368613081,-27500.0,4916.3119098488223,2734.0444278505183,-9514.9415427143649,1724.7785601338508,-5122.1345629595517,-2950.0925657420203,9203.9965258865232,6878.9267878572191,-5618.3759720281905,5618.3759720281905,-6878.9267878572191,16330.269021854843,0.0
693523.2936376977,3587751.2368613081,-27500.0,2110.0187091615403,4294.6872712423037,-8403.1433889584896,2932.8298619446064,-5146.4015442599602,-3094.9713419308887,8584.9490391352338,5144.6852743500549,-3540.0052483163872,3540.0052483163872,-5144.6852743500549,15604.211945562014,0.0
698523.2936376977,3587751.2368613081,-27500.0,-137.11225127141304,4998.1093674269032,-7088.408885682582,3576.5996184013484,-4749.3387522638423,-2963.1324350420673,7950.1438783228177,3495.1604132361185,-1899.198043742856,1899.198043742856,-3495.1604132361185,14752.98452432677,0.0
703523.2936376977,3587751.2368613081,-27500.0,-1794.4429986328305,5142.3235190991727,-5824.6642356337361,3820.7359833166361,-4181.922428035642,-2693.4010593362509,7289.667108318783,2094.7167295369736,-702.94563048533644,702.94563048533644,-2094.7167295369736,13748.373664432182,0.0
708523.2936376977,3587751.2368613081,-27500.0,-2933.4468597551636,4955.1510004417423,-4716.3275421541121,3804.1411860945109,-3581.2798792937351,-2370.7048410255438,6625.3654168577632,983.97172817358069,119.05998819681486,-119.05998819681486,-983.97172817358069,12651.101750675429,0.0
713523.2936376977,3587751.2368613081,-27500.0,-3656.9336832903496,4592.1803719457685,-3790.1052737256332,3630.3545153325672,-3015.4757160208628,-2043.8961536957936,5980.9624223622059,144.35889502994073,653.28334285329049,-653.28334285329049,-144.35889502994073,11528.941856293684,0.0
718523.2936376977,3587751.2368613081,-27500.0,-4065.8306879381707,4152.4960303091848,-3036.9041255643133,3371.3663119844459,-2513.3749882194238,-1738.7039068852218,5373.6695671144607,-465.34845085568912,977.81741978244236,-977.81741978244236,465.34845085568912,10433.548300314123,0.0
723523.2936376977,3587751.2368613081,-27500.0,-4246.3816719884353,3695.655904487171,-2433.90231412501,3074.7079823946792,-2082.8274946702131,-1466.6656831014589,4813.4810374529488,-890.75713337963919,1155.2379502954313,-1155.2379502954313,890.75713337963919,9398.0498451941712,0.0
728523.2936376977,3587751.2368613081,-27500.0,-4267.1734619194276,3255.2181680830481,-1955.2771491893359,2770.260278413451,-1721.2130230225407,-1231.0715354571332,4304.6766738940923,-1173.7488320586158,1232.6515254009691,-1232.6515254009691,1173.7488320586158,8440.5989969675284,0.0
733523.2936376977,3587751.2368613081,-27500.0,-4180.3790099019316,2848.3549228467955,-1576.9203186912071,2475.752804584627,-1421.319614560138,-1030.7610160289635,3847.5979685605266,-1349.6028110240532,1244.1904091489032,-1244.1904091489032,1349.6028110240532,7568.7562922827365,0.0
738523.2936376977,3587751.2368613081,-27500.0,-4024.4650471366358,2482.2968555168832,-1278.1446414036222,2200.8591277573878,-1174.4805608299673,-862.4419949777988,3440.118329083024,-1446.6131145380862,1213.9391161534879,-1213.9391161534879,1446.6131145380862,6783.1914776538551,0.0
743523.2936376977,3587751.2368613081,-27500.0,-3827.1020921300228,2158.4935456733192,-1041.9733794787201,1950.0953670367037,-972.14537513384232,-722.03482217660837,3078.7043785336841,-1486.7720733022852,1158.5416780584519,-1158.5416780584519,1486.7720733022852,6080.4170549104729,0.0
748523.2936376977,3587751.2368613081,-27500.0,-3607.7619756814142,1875.2235400226132,-854.82795711218523,1724.7985742495928,-806.58445293118291,-605.4037320344321,2759.1320985614061,-1486.806457654013,1089.285401340929,-1089.285401340929,1486.806457654013,5454.6697762943577,0.0
753523.2936376977,3587751.2368613081,-27500.0,-3379.8458116621578,1629.1887828948991,-706.01108031324043,1524.4384956246756,-671.1328667279389,-508.71891441834828,2476.9639450005702,-1459.2333471639354,1013.6758440925314,-1013.6758440925314,1459.2333471639354,4899.143541564219,0.0
553523.2936376977,3592751.2368613081,-27500.0,-1851.5666440669281,-1813.6326931749002,-1061.9524319006687,-952.89545410810479,-736.18587936187521,-329.96573430294097,2069.636208347833,-1472.5151967538495,-1432.2409865595791,1432.2409865595791,1472.5151967538495,3994.3724228730152,0.0
558523.2936376977,3592751.2368613081,-27500.0,-1828.4718548040335,-2020.1660232689851,-1258.5333375428243,-1025.5085286164867,-853.84796905666951,-374.82886005107616,2282.189760750678,-1443.9539308247581,-1694.9756598513327,1694.9756598513327,1443.9539308247581,4381.1876598576482,0.0
563523.2936376977,3592751.2368613081,-27500.0,-1753.3146271489609,-2240.5019558123754,-1495.7570118429867,-1091.3951298373725,-988.47231114006922,-422.96852624218826,2516.6941309126032,-1365.986236472595,-2004.4701858892604,2004.4701858892604,1365.986236472595,4801.8460475202683,0.0
568523.2936376977,3592751.2368613081,-27500.0,-1607.2438288999329,-2468.8395592062543,-1780.9576444283516,-1143.3090092149132,-1140.2192872797057,-472.63358568576581,2774.210928882861,-1220.0192722394822,-2366.1237985469047,2366.1237985469047,1220.0192722394822,5255.6528820321992,0.0
573523.2936376977,3592751.2368613081,-27500.0,-1366.5047172441432,-2694.9106040886868,-2121.4851024999407,-1170.7262069504288,-1307.4120231894838,-520.62937040527549,3055.3911394074912,-982.33251808326827,-2783.655767498135,2783.655767498135,982.33251808326827,5740.3420997269332,0.0
578523.2936376977,3592751.2368613081,-27500.0,-1001.9310360373937,-2901.8975294331499,-2523.4595151854633,-1158.7479195245646,-1485.1439017587247,-561.58588127143571,3360.4549792370849,-623.44506762213268,-3257.0972704146157,3257.0972704146157,623.44506762213268,6251.9617501714865,0.0
583523.2936376977,3592751.2368613081,-27500.0,-478.99250925573585,-3063.6987704430926,-2989.4320980664002,-1086.8158262579066,-1663.1100417375585,-586.95529305078446,3689.4448239504554,-108.04165744696775,-3779.5299719279433,3779.5299719279433,108.04165744696775,6785.4985274950686,0.0
588523.2936376977,3592751.2368613081,-27500.0,241.01787851230407,-3141.5859362666638,-3514.2750069994172,-927.35008119362487,-1822.322051708853,-583.69137958423187,4043.1326639539911,603.89805579214749,-4332.0257125154503,4332.0257125154503,-603.89805579214749,7337.338706327213,0.0
593523.2936376977,3592751.2368613081,-27500.0,1197.7290434426527,-3080.6264581818923,-4078.3609197808264,-644.57624043903695,-1930.2879439670323,-532.58610836759692,4425.3469305451754,1553.7215296813431,-4876.2044328587745,4876.2044328587745,-1553.7215296813431,7911.8307472147008,0.0
598523.2936376977,3592751.2368613081,-27500.0,2425.0112825779497,-2806.9283723954482,-4636.9006338522222,-194.07434325579828,-1934.2174134042191,-406.26858289647885,4848.1177225950833,2776.9223816063209,-5344.0424124935016,5344.0424124935016,-2776.9223816063209,8536.13629188704,0.0
603523.2936376977,3592751.2368613081,-27500.0,3939.1596414956666,-2228.0613658196035,-5104.5399694245589,475.96887528472001,-1751.9905025513294,-166.88441121690758,5341.9256808681057,4290.1630767370771,-5625.4587659640147,5625.4587659640147,-4290.1630767370771,9289.5153284130029,0.0
608523.2936376977,3592751.2368613081,-27500.0,5720.3505725988562,-1241.0689705982668,-5335.6493468183044,1420.123233723908,-1261.2553230593626,236.5832525179475,5973.8299233963771,6070.580558890907,-5556.3878269350071,5556.3878269350071,-6070.580558890907,10349.956943199921,0.0
613523.2936376977,3592751.2368613081,-27500.0,7687.3090685975758,244.87701273702245,-5104.4816493784456,2685.0075432758831,-288.63566572927988,871.53751485367059,6874.8675458152584,8027.0740278904723,-4914.4086127171449,4914.4086127171449,-8027.0740278904723,12039.782006636788,0.0
618523.2936376977,3592751.2368613081,-27500.0,9669.4013208438355,2262.421536405619,-4096.9817137123855,4288.6761464817682,1395.5934911000256,1825.7968523306577,8273.577945541223,9967.9512952089262,-3435.779305552714,3435.779305552714,-9967.9512952089262,14813.314818030145,0.0
623523.2936376977,3592751.2368613081,-27500.0,11388.418702898747,4710.9058616444363,-1937.5605269112175,6185.714084058699,4066.1635771364708,3212.0152280441766,10508.642027833654,11578.23732850849,-874.69897462842437,874.69897462842437,-11578.23732850849,19142.74928910605,0.0
628523.2936376977,3592751.2368613081,-27500.0,12472.032364479854,7260.3802036347943,1715.6323198490577,8215.143826615029,7995.7534635431875,5168.9723669624918,13887.313538641482,12430.850918082737,2874.7110071574443,-2874.7110071574443,-12430.850918082737,25355.108737558839,0.0
633523.2936376977,3592751.2368613081,-27500.0,12524.652025475534,9270.6461621514864,6978.9726614592118,10033.111706441539,13346.41309101936,7847.2565173303419,18430.346024980248,12059.447533244151,7593.4371246119199,-7593.4371246119199,-12059.447533244151,33479.816488787292,0.0
638523.2936376977,3592751.2368613081,-27500.0,11273.336624376236,9792.1443844673595,13466.370544088346,11041.381544619151,19972.119481367899,11344.826383886017,23833.273873878155,10106.501664755098,12534.830912528381,-12534.830912528381,-10106.501664755098,43066.332476839081,0.0
643523.2936376977,3592751.2368613081,-27500.0,8810.5018004434405,7733.0657161115605,20005.36543540184,10354.90723959183,27110.434551166141,15514.991602901149,29396.94283131446,6552.2155617779681,16298.172352498528,-16298.172352498528,-6552.2155617779681,52926.548336596024,0.0
648523.2936376977,3592751.2368613081,-27500.0,5986.6873389250304,2328.7821263736078,24495.243322981507,6998.9582771503983,33000.93367852064,19561.56927672985,33879.539308344916,2091.078182588778,16927.198245147916,-16927.198245147916,-2091.078182588778,60876.952965404402,0.0
653523.2936376977,3592751.2368613081,-27500.0,4725.8789721416852,-5839.9155760179274,24263.623031452993,792.8679481313884,34842.088589097919,21668.805942216888,35597.629590953751,-1386.2810362937144,12621.006961328343,-12621.006961328343,1386.2810362937144,63905.186165050327,0.0
658523.2936376977,3592751.2368613081,-27500.0,6992.4079036158155,-13689.847803137656,17683.228767226185,-6210.3014194514681,30216.677464127286,19751.111381285056,33260.693991681248,-1273.4479187419447,3587.7813381317246,-3587.7813381317246,1273.4479187419447,59646.955266225013,0.0
663523.2936376977,3592751.2368613081,-27500.0,11928.505694525078,-16830.629082438416,6628.0657748370595,-10190.746994724826,19966.617143656254,13766.123200774124,27387.084716478414,3032.3808134381916,-6426.397827792006,6426.397827792006,-3032.3808134381916,48975.231311103831,0.0
668523.2936376977,3592751.2368613081,-27500.0,15581.463131791268,-13811.08749652706,-3986.8637395206219,-9264.0476873276348,8532.1254989709923,6492.4040099779468,20593.824344813034,8457.741874615469,-12630.705709414935,12630.705709414935,-8457.741874615469,36548.192584230412,0.0
673523.2936376977,3592751.2368613081,-27500.0,15278.924062314234,-7468.0864070202269,-10491.898498495471,-5234.8499461851989,-22.86750853058523,789.79050631133123,15682.587113252139,11497.831985451863,-13583.562592166509,13583.562592166509,-11497.831985451863,27389.831527905179,0.0
678523.2936376977,3592751.2368613081,-27500.0,11795.325081698682,-1353.1504083071761,-12683.514912713674,-883.36150873649433,-4707.2377314931609,-2525.2786578288751,13261.402566986006,11422.441520315177,-11187.753802577703,11187.753802577703,-11422.441520315177,22979.33470106501,0.0
683523.2936376977,3592751.2368613081,-27500.0,7222.8577169084056,2895.7353030008244,-12177.350491592879,2354.65226541417,-6520.2245808132193,-4013.302793649993,12103.624273865247,9444.1600664103262,-7787.9641216909895,7787.9641216909895,-9444.1600664103262,21306.443265927319,0.0
688523.2936376977,3592751.2368613081,-27500.0,3016.7268135907257,5244.4692454927826,-10514.768998318594,4296.6438305282109,-6722.8486837347227,-4428.2790382111998,11239.19235390191,6874.4381223936607,-4699.8043108548509,4699.8043108548509,-6874.4381223936607,20279.899566589946,0.0
693523.2936376977,3592751.2368613081,-27500.0,-266.37080139105529,6223.0485869923377,-8600.4184613383422,5238.907863629549,-6180.0615217494678,-4289.4609405840556,10356.929092059119,4458.3408186242368,-2341.9862029286924,2341.9862029286924,-4458.3408186242368,19110.466475281864,0.0
698523.2936376977,3592751.2368613081,-27500.0,-2585.9359968055496,6362.4350348211256,-6838.2991357012097,5522.4124463920689,-5367.8756692863135,-3894.2973872766984,9429.9705832303898,2476.2462832047036,-703.42158813269771,703.42158813269771,-2476.2462832047036,17708.921425310575,0.0
703523.2936376977,3592751.2368613081,-27500.0,-4096.5648331612729,6043.98665780382,-5360.3732851072073,5409.1282408401876,-4519.694325122945,-3405.1514731566431,8498.3265550723936,967.71504320282293,362.06196097839506,-362.06196097839506,-967.71504320282293,16173.970378361242,0.0
708523.2936376977,3592751.2368613081,-27500.0,-4990.8951968758311,5508.0786899407894,-4176.4351656979852,5076.7595921103757,-3738.452920899349,-2908.495241333876,7601.6051880860859,-123.29972199666281,1011.5012918060577,-1011.5012918060577,123.29972199666281,14614.001859239244,0.0
713523.2936376977,3592751.2368613081,-27500.0,-5441.3749522706621,4895.5677338671549,-3250.5651546529634,4639.2725962571221,-3061.2443004419738,-2447.5631468841439,6765.6991701378056,-878.59232728414827,1374.2520788615484,-1374.2520788615484,878.59232728414827,13106.701928353335,0.0
718523.2936376977,3592751.2368613081,-27500.0,-5585.2457920734587,4284.0371760705812,-2535.4905943467388,4166.7679463047389,-2493.5442337333534,-2040.7385668449617,6003.8278833957438,-1377.2216740870049,1546.5771306718129,-1546.5771306718129,1377.2216740870049,11698.407428873144,0.0
723523.2936376977,3592751.2368613081,-27500.0,-5525.4960109850235,3712.8735516117654,-1986.3811262080183,3700.3006609812564,-2026.8392328902187,-1692.5214322335835,5320.1891849799731,-1685.9783829806811,1596.5390210997957,-1596.5390210997957,1685.9783829806811,10411.958879484318,0.0
728523.2936376977,3592751.2368613081,-27500.0,-5336.6410401767835,3199.2407283837547,-1565.3751318764248,3262.2135862436971,-1647.5129641781125,-1400.188975758279,4713.2707474107747,-1857.7568647784001,1570.7875698257326,-1570.7875698257326,1857.7568647784001,9254.5733018354294,0.0
733523.2936376977,3592751.2368613081,-27500.0,-5071.1546744403095,2747.869388718409,-1242.2119827549377,2863.141602727967,-1341.1492501603905,-1157.7471269604375,4178.2883178862276,-1932.9091102245102,1500.5812279930706,-1500.5812279930706,1932.9091102245102,8223.8974652030611,0.0
738523.2936376977,3592751.2368613081,-27500.0,-4765.1243520202052,2356.9066892982405,-993.40803689283962,2506.6523071261868,-1094.4494095138207,-958.15948670018975,3708.827778294617,-1941.4706007391462,1406.4533060624215,-1406.4533060624215,1941.4706007391462,7312.211517491116,0.0
743523.2936376977,3592751.2368613081,-27500.0,-4442.7811306462881,2021.3308647591648,-801.03352159699034,2192.2498616529315,-895.93427021145942,-794.51452017218776,3297.8926782164967,-1905.400936295579,1301.6138920020599,-1301.6138920020599,1905.400936295579,6509.1794502150597,0.0
748523.2936376977,3592751.2368613081,-27500.0,-4119.9471341714452,1734.8886323064669,-651.51937050370816,1917.2697164569176,-736.05523684670379,-660.56701191290972,2938.5434438846028,-1840.5239771870167,1194.346887731396,-1194.346887731396,1840.5239771870167,5803.5600326396398,0.0
753523.2936376977,3592751.2368613081,-27500.0,-3806.578857108233,1491.1502711537257,-534.63927515243688,1678.0398992644755,-607.04194003981854,-550.93035471598239,2624.2660307753217,-1758.0940541871246,1089.6647820596922,-1089.6647820596922,1758.0940541871246,5184.2156064484498,0.0
553523.2936376977,3597751.2368613081,-27500.0,-2475.2021148850345,-1862.5331224407139,-913.12088506665009,-1185.5472409467134,-738.89325846812596,-394.08277582695382,2277.773651283138,-2044.1702401588377,-1216.6832750703593,1216.6832750703593,2044.1702401588377,4447.6761837775548,0.0
558523.2936376977,3597751.2368613081,-27500.0,-2553.4422546365872,-2106.9777531288578,-1093.2612209064728,-1308.1296378904995,-867.84102275509576,-455.74926592638371,2528.1446550754249,-2113.7605368550721,-1468.2519837112627,1468.2519837112627,2113.7605368550721,4917.3725033698656,0.0
563523.2936376977,3597751.2368613081,-27500.0,-2594.9100947519601,-2379.5470812094159,-1315.5781742025581,-1435.2234117439534,-1019.4812256455114,-525.32063684179707,2807.5628181950797,-2149.8224939454412,-1772.8927192702783,1772.8927192702783,2149.8224939454412,5436.5941911783457,0.0
568523.2936376977,3597751.2368613081,-27500.0,-2581.4053019046582,-2679.0150647145138,-1590.0164963252282,-1561.8404127488982,-1196.360620796333,-602.26194469800691,3118.0336659346576,-2134.7508867560773,-2140.4005285328703,2140.4005285328703,2134.7508867560773,6006.7459912832437,0.0
573523.2936376977,3597751.2368613081,-27500.0,-2488.5849755498416,-3000.799779221722,-1928.1675903799855,-1679.8770576440654,-1400.0573655886167,-684.82877426405605,3460.8905762701165,-2044.6344676210865,-2580.9270970427915,2580.9270970427915,2044.6344676210865,6627.0346579457346,0.0
578523.2936376977,3597751.2368613081,-27500.0,-2284.4954499853698,-3334.8584649846848,-2342.809077585177,-1776.7787659884284,-1630.0142258206733,-769.31280980731913,3836.3682504847129,-1847.6265099068105,-3103.6821585117796,3103.6821585117796,1847.6265099068105,7293.3562323433243,0.0
583523.2936376977,3597751.2368613081,-27500.0,-1928.1670426646099,-3662.6053252479664,-2846.597225913607,-1833.780705324853,-1881.5617735574167,-848.9555379045164,4243.1093844193174,-1502.3362963049149,-3714.4442336360516,3714.4442336360516,1502.3362963049149,7997.0309708039495,0.0
588523.2936376977,3597751.2368613081,-27500.0,-1368.7231486239996,-3952.580204645878,-3449.168634762173,-1823.6793583936471,-2142.6647169416633,-912.44135447757481,4677.7577631848117,-956.72445689380424,-4411.1204935574533,4411.1204935574533,956.72445689380424,8723.8089268592885,0.0
593523.2936376977,3597751.2368613081,-27500.0,-545.89452972558706,-4154.741114927122,-4151.4209319195934,-1708.165269703939,-2388.7052523341026,-941.87712982550806,5135.089183946433,-148.47174480933154,-5176.2779735918148,5176.2779735918148,148.47174480933154,9454.4033363656326,0.0
598523.2936376977,3597751.2368613081,-27500.0,606.42557863997536,-4193.7661976888248,-4935.0829299135485,-1434.9232299803471,-2574.3372850683754,-910.13520812273657,5609.8430095037456,991.39714956799844,-5965.3135669560434,5965.3135669560434,-991.39714956799844,10169.853235374476,0.0
603523.2936376977,3597751.2368613081,-27500.0,2150.8473375209464,-3963.0916320351794,-5745.0801084275936,-935.11258478934087,-2621.1869179996902,-777.29017552914354,6103.0953317494805,2528.6722031301315,-6689.1678307072316,6689.1678307072316,-2528.6722031301315,10869.809254991787,0.0
608523.2936376977,3597751.2368613081,-27500.0,4127.3550959759978,-3324.3269671493035,-6462.4525846836132,-122.77631917788355,-2400.2413186951699,-485.45030260053215,6639.6958135916238,4505.5996019029026,-7192.2328812269352,7192.2328812269352,-4505.5996019029026,11621.334902255228,0.0
613523.2936376977,3597751.2368613081,-27500.0,6520.028668044476,-2121.9075685304019,-6868.7655292772688,1100.3085220989869,-1709.0188537306017,49.618713342995804,7310.0272803274283,6905.3783299334418,-7231.3432659436103,7231.3432659436103,-6905.3783299334418,12664.784871095404,0.0
618523.2936376977,3597751.2368613081,-27500.0,9208.7023626019036,-229.75623606822626,-6612.9870011768198,2827.2590702418479,-248.01881602105314,952.82584253182461,8355.8029669711432,9600.4927248342119,-6473.0969721860465,6473.0969721860465,-9600.4927248342119,14566.62359802102,0.0
623523.2936376977,3597751.2368613081,-27500.0,11916.640193464633,2350.1019401639633,-5212.9282486042084,5104.4678475675892,2388.3801732681422,2412.6426725269321,10288.652988080325,12296.375593826639,-4544.4098752687805,4544.4098752687805,-12296.375593826639,18242.738304475519,0.0
628523.2936376977,3597751.2368613081,-27500.0,14188.127200550998,5331.9568808372524,-2152.5685792851368,7852.0253626282274,6672.4551065845017,4709.6737706628346,13793.403872259019,14505.974125067612,-1184.7554998215364,1184.7554998215364,-14505.974125067612,24612.843494852797,0.0
633523.2936376977,3597751.2368613081,-27500.0,15450.754208239034,7981.461968355854,2852.4893459121022,10740.426597706361,13000.045569554186,8230.4419511995093,19183.283204825475,15613.117393026439,3473.4987472024568,-3473.4987472024568,-15613.117393026439,34118.482246696592,0.0
638523.2936376977,3597751.2368613081,-27500.0,15199.431412880165,9074.1658363215665,9417.1530542026139,13036.665337332714,21387.7154918493,13404.734250116882,26207.964163207867,15058.788238100948,8570.9003336645001,-8570.9003336645001,-15058.788238100948,46427.004539034562,0.0
643523.2936376977,3597751.2368613081,-27500.0,13281.643102378957,7145.7486909867521,16062.832240912076,13450.895054128818,30988.632791063297,20406.536611412888,34033.867477533553,12588.189813442439,12362.05025864054,-12362.05025864054,-12588.189813442439,60129.314291888521,0.0
648523.2936376977,3597751.2368613081,-27500.0,10362.004166594881,1121.7523581211306,20166.343954319804,10160.15749512864,39446.163199313196,28284.090844548497,40966.060178573673,8549.4928948995421,12479.816321404645,-12479.816321404645,-8549.4928948995421,72270.829534096207,0.0
653523.2936376977,3597751.2368613081,-27500.0,8751.1376941902399,-8433.2051423715129,18606.528937252609,1977.0061465666481,42454.53076933253,33548.697843645234,44310.470801101488,4673.5093113812272,6828.2206466336993,-6828.2206466336993,-4673.5093113812272,78101.870170544978,0.0
658523.2936376977,3597751.2368613081,-27500.0,11717.721757209865,-17366.029765890849,9784.6607242237242,-8258.4520859827753,35645.31864327041,30939.145762424658,41497.001878268493,4523.4211472196894,-4115.7708166102693,4115.7708166102693,-4523.4211472196894,73016.883917955289,0.0
663523.2936376977,3597751.2368613081,-27500.0,18123.71034384369,-19245.656820786506,-3063.0524976950383,-13229.101621546595,20408.869875722638,19762.244941057019,33132.205313891558,9529.3720540140803,-14828.508316485926,14828.508316485926,-9529.3720540140803,58069.425488731162,0.0
668523.2936376977,3597751.2368613081,-27500.0,21194.033156106652,-12939.340537132432,-13085.874864396948,-9804.5066638589324,4968.7190605473661,6906.9292016201262,24041.729162477779,14966.422008639798,-18963.503251730239,18963.503251730239,-14966.422008639798,41883.194536017181,0.0
673523.2936376977,3597751.2368613081,-27500.0,17839.476721257332,-4041.7978053877578,-16877.570904874861,-2703.5568378935868,-4564.761667491166,-1567.342859866862,18632.232470396666,16142.533196661036,-16451.775387925667,16451.775387925667,-16142.533196661036,32273.793655671459,0.0
678523.2936376977,3597751.2368613081,-27500.0,11123.287934166017,2691.8968155154971,-16070.908414416259,3155.6481178990462,-8341.5568231773777,-5338.0715485874207,16426.148122388608,13507.426165319557,-11324.013425841702,11324.013425841702,-13507.426165319557,28691.55294434457,0.0
683523.2936376977,3597751.2368613081,-27500.0,4553.4429794499738,6316.2052312424612,-13388.882787920236,6488.4626159403579,-8869.6617415315177,-6395.8765373417518,15103.37245758903,9539.1942087934312,-6534.4305403128401,6534.4305403128401,-9539.1942087934312,26969.517594395071,0.0
688523.2936376977,3597751.2368613081,-27500.0,-433.2473186699043,7683.6851991361245,-10473.081075128383,7884.3459636241496,-8050.6798720264078,-6251.3179000267619,13783.238699478421,5841.0894979541263,-3021.45071664028,3021.45071664028,-5841.0894979541263,25184.95331488589,0.0
693523.2936376977,3597751.2368613081,-27500.0,-3754.7001329070135,7773.239661145335,-7956.1369840842199,8137.0052642576784,-6835.9164313700312,-5641.9009952822444,12400.050063266543,2945.1015169394295,-725.13037577505611,725.13037577505611,-2945.1015169394295,23094.93953945598,0.0
698523.2936376977,3597751.2368613081,-27500.0,-5764.3677715552976,7241.9619983424354,-5970.6598944002872,7789.2672097464601,-5620.0875804802017,-4888.4783683118048,11034.146324990517,861.08724843970674,668.45248906457698,-668.45248906457698,-861.08724843970674,20859.114860382731,0.0
703523.2936376977,3597751.2368613081,-27500.0,-6845.0515417984288,6461.3748253950625,-4466.404977360633,7156.9600456901399,-4544.0264181161092,-4133.59465096653,9748.5096771066292,-561.26726365674199,1453.769499903249,-1453.769499903249,561.26726365674199,18639.184901344968,0.0
708523.2936376977,3597751.2368613081,-27500.0,-7301.1180457561977,5625.0001844020035,-3347.5925795090948,6416.4344983798956,-3642.6348618874872,-3441.4639002384752,8575.4147013160946,-1487.659408429992,1848.3840138776866,-1848.3840138776866,1487.659408429992,16538.083178855606,0.0
713523.2936376977,3597751.2368613081,-27500.0,-7352.589945372747,4826.7771666542203,-2521.7560772836814,5664.4317107239112,-2908.8858771378282,-2837.4473511054598,7526.292279294903,-2057.1570368977386,2000.2122872118255,-2000.2122872118255,2057.1570368977386,14609.829196421451,0.0
718523.2936376977,3597751.2368613081,-27500.0,-7152.470215670256,4107.2083157048755,-1913.2031639042514,4951.891529308703,-2321.0158039407402,-2326.2872795503449,6600.4246753844182,-2376.3599702773326,2006.216226772859,-2006.216226772859,2376.3599702773326,12875.900450684572,0.0
723523.2936376977,3597751.2368613081,-27500.0,-6804.8177061665347,3478.9353997480016,-1463.9649740328402,4303.0127738311039,-1854.1067061943302,-1902.1788033310918,5790.49685987675,-2523.7685854787301,1928.6500337234943,-1928.6500337234943,2523.7685854787301,11337.820342334182,0.0
728523.2936376977,3597751.2368613081,-27500.0,-6379.0623488815691,2940.6864459334674,-1131.0193434125545,3726.4706954581161,-1484.8423846249241,-1554.6894653176248,5085.9867164452053,-2555.9181440308125,1806.8179389109841,-1806.8179389109841,2555.9181440308125,9985.7370941412155,0.0
733523.2936376977,3597751.2368613081,-27500.0,-5920.5472006008204,2484.8188605747669,-882.9279553912819,3222.2251723555273,-1193.1848924618921,-1272.1253745299346,4475.2172084356298,-2512.8994548292189,1665.0791998841255,-1665.0791998841255,2512.8994548292189,8804.0163526891502,0.0
738523.2936376977,3597751.2368613081,-27500.0,-5458.0847976191362,2101.3300868242436,-696.88118492107083,2785.6709973250909,-962.66510840179353,-1043.2833449646685,3946.5626261058587,-2422.7748593510441,1518.1631412470404,-1518.1631412470404,2422.7748593510441,7774.740415756758,0.0
743523.2936376977,3597751.2368613081,-27500.0,-5009.2908653389077,1779.9167511474825,-556.36934018883551,2410.1257488956708,-780.0903981533562,-858.23219017147892,3489.1156722539995,-2304.9398345400359,1374.6543648925935,-1374.6543648925935,2304.9398345400359,6879.7901199384532,0.0
748523.2936376977,3597751.2368613081,-27500.0,-4584.3055603977818,1510.9602879595125,-449.43584041772897,2088.2728801658614,-635.05253511806575,-708.55123472836203,3093.0145631951177,-2172.6158268531663,1239.2606463014781,-1239.2606463014781,2172.6158268531663,6102.0004096543089,0.0
753523.2936376977,3597751.2368613081,-27500.0,-4188.357976505903,1285.931357503662,-367.40038194258909,1812.9535336812955,-519.41225432319084,-587.29130598239431,2749.5565880537756,-2034.6659330932682,1114.2787899452735,-1114.2787899452735,2034.6659330932682,5425.7259648880308,0.0
548523.2936376977,3602751.2368613081,-27500.0,-2918.7372376104045,-1597.8604701771435,-614.77594286937642,-1263.0698827244396,-600.85739348276206,-390.78184132552826,2230.7414689448869,-2447.8355024484035,-745.40470964999008,745.40470964999008,2447.8355024484035,4404.8932336332482,0.0
553523.2936376977,3602751.2368613081,-27500.0,-3117.5463817988357,-1828.7055628302769,-736.3595852946155,-1421.855878322197,-711.393044286595,-458.42309238935792,2488.3782925359592,-2631.2465905033055,-921.2442136122969,921.2442136122969,2631.2465905033055,4901.5173848740551,0.0
558523.2936376977,3602751.2368613081,-27500.0,-3311.6182614393429,-2095.4236391308918,-888.80172027146341,-1598.9601109469136,-844.39034317619758,-537.85455622493464,2780.2411141557309,-2812.803373556967,-1140.0059907605385,1140.0059907605385,2812.803373556967,5461.2169563814487,0.0
563523.2936376977,3602751.2368613081,-27500.0,-3490.7277224788704,-2402.306677004523,-1080.8506730000827,-1794.3770376468531,-1004.1869661748774,-630.48021328466291,3110.3899347571305,-2983.2677121893021,-1412.2743936555219,1412.2743936555219,2983.2677121893021,6090.439371602939,0.0
568523.2936376977,3602751.2368613081,-27500.0,-3639.904222428559,-2753.0002718500532,-1323.7259186573433,-2006.6489880089946,-1195.5269608537571,-737.35521943295942,3482.8563325073073,-3128.7420699125832,-1750.8983374368315,1750.8983374368315,3128.7420699125832,6794.9582588354961,0.0
573523.2936376977,3602751.2368613081,-27500.0,-3737.6726010980005,-3149.4968231964749,-1631.6440801152983,-2231.9632786087122,-1423.2045355257276,-858.7562738367385,3901.2850815089664,-3228.8280679322202,-2171.0927464498122,2171.0927464498122,3228.8280679322202,7578.9141606696812,0.0
578523.2936376977,3602751.2368613081,-27500.0,-3753.7808468612811,-3590.4337208733505,-2022.2493110135711,-2462.8321015091146,-1691.3117182496094,-993.50361014897703,4368.3575168416701,-3254.2170300002545,-2690.1465335678149,2690.1465335678149,3254.2170300002545,8443.3227806111627,0.0
583523.2936376977,3602751.2368613081,-27500.0,-3646.3702777913159,-4068.3023301359258,-2516.6627250126085,-2686.1909872334136,-2001.7902582840059,-1137.9411480142453,4884.8964367417129,-3163.6607130244874,-3326.3051953681279,3326.3051953681279,3163.6607130244874,9383.8304994672926,0.0
588523.2936376977,3602751.2368613081,-27500.0,-3358.6836039452201,-4565.0015483320176,-3138.5443729968715,-2880.693455017722,-2351.7825053608676,-1284.4739796711051,5448.5288042622487,-2900.4241635346248,-4096.0463629579008,4096.0463629579008,2900.4241635346248,10387.479797653124,0.0
593523.2936376977,3602751.2368613081,-27500.0,-2815.7535714586593,-5045.0065030100886,-3910.9538484228956,-3012.8909792452901,-2728.9307596512372,-1419.5469585370251,6051.7971289038569,-2388.6926992889348,-5008.3994571993235,5008.3994571993235,2388.6926992889348,11428.384824611352,0.0
598523.2936376977,3602751.2368613081,-27500.0,-1922.3361450317093,-5445.4438885249392,-4848.7213450541385,-3031.8798567319477,-3103.1886675816149,-1520.86666044855,6679.8007314287679,-1531.2410996174231,-6054.1227126297172,6054.1227126297172,1531.2410996174231,12462.927665276698,0.0
603523.2936376977,3602751.2368613081,-27500.0,-565.11035759221045,-5663.1325176574046,-5942.371707326206,-2861.9922324955874,-3412.7799981091489,-1553.3075737885713,7308.3211128127732,-211.40347463167382,-7186.6310201170982,7186.6310201170982,211.40347463167382,13427.773045654178,0.0
608523.2936376977,3602751.2368613081,-27500.0,1374.586502043516,-5541.5201959458363,-7127.7994630917547,-2393.6994034775944,-3540.7251626700931,-1461.8276329501718,7906.5697244504518,1694.4922649259634,-8291.5753942779556,8291.5753942779556,-1694.4922649259634,14252.875404429416,0.0
613523.2936376977,3602751.2368613081,-27500.0,3986.6656010389906,-4868.0061774563101,-8236.1607313959594,-1475.5323412781722,-3277.7971882583893,-1157.1595980142235,8459.2221450485449,4283.6631110881526,-9145.9650397200894,9145.9650397200894,-4283.6631110881526,14927.83446661456,0.0
618523.2936376977,3602751.2368613081,-27500.0,7263.8388700354244,-3407.1698390144948,-8927.7002660019753,82.743770388651726,-2271.4326302473924,-485.99682279200056,9054.5436826980222,7559.4792684743534,-9382.3976317132201,9382.3976317132201,-7559.4792684743534,15718.438282886775,0.0
623523.2936376977,3602751.2368613081,-27500.0,10997.477708809911,-1014.6037448658354,-8644.5005284856743,2470.859141203965,23.318164343552858,824.83288785717036,10156.431377892095,11327.699699570789,-8507.610146307743,8507.610146307743,-11327.699699570789,17631.91628024089,0.0
628523.2936376977,3602751.2368613081,-27500.0,14679.98024882708,2124.9855134549607,-6680.4220117742561,5761.6228123459778,4332.8336258492018,3250.138941793517,12970.222869655001,15095.262494684663,-6072.0900551688255,6072.0900551688255,-15095.262494684663,22632.233058756832,0.0
633523.2936376977,3602751.2368613081,-27500.0,17530.872214507326,5171.1805419891498,-2531.9121711433941,9684.9301849608091,11369.858374303312,7532.1338287731078,18616.899603481459,18085.868924735023,-2094.8232862489849,2094.8232862489849,-18085.868924735023,32424.150494058147,0.0
638523.2936376977,3602751.2368613081,-27500.0,18790.043951923606,6463.6331944610283,3370.5737647515311,13334.954674665694,21300.693126321617,14604.882698189753,27036.200249509573,19520.640141414493,2319.6063517609127,-2319.6063517609127,-19520.640141414493,47018.081204163813,0.0
643523.2936376977,3602751.2368613081,-27500.0,18216.320936288856,4007.9371997764515,8880.0395269451565,14960.205438761561,32884.375663953419,25129.098949241958,37129.681456558101,19091.049038180427,4698.441574196333,-4698.441574196333,-19091.049038180427,64523.27255948836,0.0
648523.2936376977,3602751.2368613081,-27500.0,16456.980976080744,-3174.4191046568658,10372.726706071951,11973.861531354871,42677.260673382349,38094.557576802305,46640.024500167652,17104.565786695639,2149.7368367650352,-2149.7368367650352,-17104.565786695639,81001.530939998222,0.0
653523.2936376977,3602751.2368613081,-27500.0,15712.622013908231,-13459.754562429278,4893.6242604517747,2098.4638524602447,44914.698770934883,47799.073356520334,51859.157041271712,14608.181474504068,-6488.3647469042444,6488.3647469042444,-14608.181474504068,90013.501456489452,0.0
658523.2936376977,3602751.2368613081,-27500.0,19869.609310445168,-21206.031698664403,-6797.0040288407145,-11073.048165921786,34152.530700592288,43531.89465351736,48655.915873160746,14838.561187171186,-18477.414282937149,18477.414282937149,-14838.561187171186,84368.925657761894,0.0
663523.2936376977,3602751.2368613081,-27500.0,26925.309017848358,-19138.718189379935,-18592.116686453228,-15268.270324477404,13819.142085774691,23519.128104667929,37853.435633112444,19700.017984936454,-26367.631077085167,26367.631077085167,-19700.017984936454,65570.842806622328,0.0
668523.2936376977,3602751.2368613081,-27500.0,26746.950812765161,-8643.3696460837709,-23659.455511866418,-6865.3935484873473,-3246.9643445240176,3201.5956126116662,27720.801480595444,22943.645431880188,-24759.974366461745,24759.974366461745,-22943.645431880188,48015.680182579228,0.0
673523.2936376977,3602751.2368613081,-27500.0,17964.939740575428,1545.8034644722311,-21899.908367654691,3788.8195487720732,-10790.849782931209,-7027.8462429488181,23155.47065920294,20037.498544292164,-17266.860285452076,17266.860285452076,-20037.498544292164,40212.848093127686,0.0
678523.2936376977,3602751.2368613081,-27500.0,7489.7711108758813,7216.474290781257,-17334.846754247501,10049.655754132838,-11878.310432822947,-9714.4771006258034,20994.245988087263,13895.911263263235,-9672.7460144958277,9672.7460144958277,-13895.911263263235,36981.90021184527,0.0
683523.2936376977,3602751.2368613081,-27500.0,-459.01729039170328,9181.5183268392484,-12769.163115158954,12238.108779761062,-10481.793494744752,-9394.1499980296012,18874.041143319781,8010.5142080847645,-4256.4853482012741,4256.4853482012741,-8010.5142080847645,33958.831555413322,0.0
688523.2936376977,3602751.2368613081,-27500.0,-5396.7482655613403,9175.3010154067797,-9131.1144366305871,12254.01782582062,-8565.5524060576427,-8256.9893393418679,16648.033994979429,3613.6791895652987,-939.04685706355508,939.04685706355508,-3613.6791895652987,30571.108109652505,0.0
693523.2936376977,3602751.2368613081,-27500.0,-8100.0930455517009,8340.3239290615893,-6468.4138408533272,11354.195161242125,-6794.7027317086968,-7006.3755500692641,14522.838893317412,662.86056544462326,924.60676558844079,-924.60676558844079,-662.86056544462326,27129.581779570424,0.0
698523.2936376977,3602751.2368613081,-27500.0,-9366.6165416384301,7249.3621040681464,-4583.8232288453864,10141.970229786066,-5326.0695077886894,-5836.0227141894757,12605.159226540816,-1206.1015245682072,1887.9009587559701,-1887.9009587559701,1206.1015245682072,23870.349525675032,0.0
703523.2936376977,3602751.2368613081,-27500.0,-9756.1534596451766,6156.9801688368707,-3265.7994512775422,8881.7364818993374,-4156.5482440686383,-4801.1444340627213,10919.733710134558,-2331.7132579127456,2318.5565276263887,-2318.5565276263887,2331.7132579127456,20898.054216187629,0.0
708523.2936376977,3602751.2368613081,-27500.0,-9626.07758194093,5164.8174997506776,-2346.0134300814898,7687.7664083691925,-3241.6732677240434,-3915.9628265229371,9457.0273432527247,-2962.024134588517,2442.8261187383168,-2442.8261187383168,2962.024134588517,18245.310521651358,0.0
713523.2936376977,3602751.2368613081,-27500.0,-9200.329363819943,4304.647103887517,-1702.4707431221393,6607.3658033448919,-2532.0109291856775,-3176.7726798237218,8196.3122416159604,-3267.2683566478941,2396.6678525133025,-2396.6678525133025,3267.2683566478941,15910.134798050214,0.0
718523.2936376977,3602751.2368613081,-27500.0,-8619.1959540445423,3577.3366935041809,-1249.8959930072272,5655.7154490067878,-1983.549941940302,-2570.1918682531523,7114.2038782991231,-3362.3767441472864,2261.0863366975973,-2261.0863366975973,3362.3767441472864,13873.603823986006,0.0
723523.2936376977,3602751.2368613081,-27500.0,-7970.2069501983715,2971.0115819292619,-929.51947703305484,4831.7199176404602,-1560.003408712171,-2078.4009425579889,6187.692211652381,-3324.6882074010282,2083.9288998788779,-2083.9288998788779,3324.6882074010282,12108.691375502374,0.0
728523.2936376977,3602751.2368613081,-27500.0,-7307.1166342869528,2469.56083138024,-701.01497848596659,4126.173686780804,-1232.5334891102075,-1682.7185640315481,5395.3336645571189,-3206.1088366482877,1893.0041165785128,-1893.0041165785128,3206.1088366482877,10585.302249823344,0.0
733523.2936376977,3602751.2368613081,-27500.0,-6661.8775768501191,2056.5606398115642,-536.69786771810163,3526.333810995332,-978.69297097483764,-1365.6996157500012,4717.7666658176722,-3041.2711734014133,1703.9951325549268,-1703.9951325549268,3041.2711734014133,9273.3069026751346,0.0
738523.2936376977,3602751.2368613081,-27500.0,-6052.3923264015184,1716.9680800800807,-417.50265874745827,3018.5210715474209,-781.2239588759478,-1112.1104856743609,4137.8983609662109,-2853.0453619496125,1525.2710028565111,-1525.2710028565111,2853.0453619496125,8144.304899546365,0.0
743523.2936376977,3602751.2368613081,-27500.0,-5487.6016151445001,1437.7220873409956,-330.23874220285859,2589.5381667673705,-626.95314777645808,-909.1914665661493,3640.8915624943065,-2656.2954664505596,1360.829888354288,-1360.829888354288,2656.2954664505596,7172.5293778181594,0.0
748523.2936376977,3602751.2368613081,-27500.0,-4970.8382616232848,1207.8198961124674,-265.72963593857753,2227.368005239699,-505.86132491776431,-746.53498557617786,3214.0291582733944,-2460.4556473378634,1212.1041341145476,-1212.1041341145476,2460.4556473378634,6335.192025712563,0.0
753523.2936376977,3602751.2368613081,-27500.0,-4502.0293175205006,1018.1592273896285,-217.55276069074074,1921.4449337675544,-410.33659285267964,-615.7943448935265,2846.5109422079154,-2271.299761721099,1079.0657927291459,-1079.0657927291459,2271.299761721099,5612.4864266830418,0.0
548523.2936376977,3607751.2368613081,-27500.0,-3448.4923941124716,-1474.6473182498517,-454.58382866482458,-1448.520998252766,-545.91001175351653,-439.0629981760087,2404.2688919535972,-2923.8453145748463,-427.28539494571874,427.28539494571874,2923.8453145748463,4766.8274513960914,0.0
553523.2936376977,3607751.2368613081,-27500.0,-3748.6245098380678,-1702.5325636113166,-545.82863750098409,-1651.4027152360795,-650.95627085496585,-520.27680280057143,2696.4500572484581,-3203.5191673203772,-555.33001205578535,555.33001205578535,3203.5191673203772,5337.496415048854,0.0
558523.2936376977,3607751.2368613081,-27500.0,-4066.0426533914074,-1970.9565628383059,-662.1972088188852,-1884.5813277237396,-779.12720948878632,-617.51459095929249,3031.5143165511499,-3503.4591483930035,-719.77231473572465,719.77231473572465,3503.4591483930035,5989.1836136511338,0.0
563523.2936376977,3607751.2368613081,-27500.0,-4395.4569256421082,-2287.0660201616411,-811.77399042645754,-2151.6044252281263,-935.71626852775523,-733.58162972503567,3415.8743740917289,-3819.7156218131081,-931.26062998997577,931.26062998997577,3819.7156218131081,6733.2032948232109,0.0
568523.2936376977,3607751.2368613081,-27500.0,-4727.7280871883977,-2658.7287435243575,-1005.4454454152592,-2455.6600212163412,-1127.0415168134207,-871.40051925163323,3856.6367472274537,-4144.761570392413,-1203.5339284720326,1203.5339284720326,4144.761570392413,7581.5757574230129,0.0
573523.2936376977,3607751.2368613081,-27500.0,-5048.0348032253878,-3094.1155681467571,-1257.8573261201675,-2798.994137863127,-1360.438245787137,-1033.7290431157314,4361.4518250514802,-4465.6525199002872,-1554.176823709985,1554.176823709985,4465.6525199002872,8546.4202696652974,0.0
578523.2936376977,3607751.2368613081,-27500.0,-5333.2471871615653,-3600.7854541330557,-1588.6219596118542,-3181.9746790567842,-1644.0382625020447,-1222.6743373217062,4938.1758169041041,-4761.36431248384,-2005.386326230537,2005.386326230537,4761.36431248384,9638.8232744317593,0.0
583523.2936376977,3607751.2368613081,-27500.0,-5548.1823149249249,-4183.8760480163937,-2023.7230610676115,-3601.6129099300692,-1986.1228491385816,-1438.9374103835796,5594.1982212615621,-4998.9856049138307,-2584.5237071637011,2584.5237071637011,4998.9856049138307,10866.839256078754,0.0
588523.2936376977,3607751.2368613081,-27500.0,-5640.3133858700821,-4842.7031205604872,-2596.859797477226,-4049.2142244480106,-2393.6477864355306,-1680.7413459417214,6335.1491454991383,-5128.3526955965553,-3323.920795191983,3323.920795191983,5128.3526955965553,12232.024524798098,0.0
593523.2936376977,3607751.2368613081,-27500.0,-5532.4790819337022,-5564.5843039242409,-3349.9630040162806,-4506.5444725861453,-2869.1666934914706,-1942.4383180710918,7162.4309070881955,-5074.6995779100916,-4258.7827296278783,4258.7827296278783,5074.6995779100916,13723.462560549602,0.0
598523.2936376977,3607751.2368613081,-27500.0,-5113.502812632014,-6314.002321352943,-4330.9476200026202,-4939.3165951779638,-3404.5976602386309,-2212.7581879198951,8068.5227561096872,-4729.2076016261044,-5420.7902097121196,5420.7902097121196,4729.2076016261044,15307.547032343438,0.0
603523.2936376977,3607751.2368613081,-27500.0,-4228.223574798938,-7014.6257740058409,-5584.329719030643,-5285.794727745536,-3968.6449109892369,-2472.1731408422111,9028.3161830100817,-3938.6777189081522,-6822.8228406888347,6822.8228406888347,3938.6777189081522,16911.190290227449,0.0
608523.2936376977,3607751.2368613081,-27500.0,-2673.1998715273467,-7522.6992261494634,-7125.9509729923693,-5437.2540903549716,-4481.5212892401378,-2686.8277758530253,9984.620329606023,-2499.6148202297536,-8427.2212638324454,8427.2212638324454,2499.6148202297536,18397.902127516885,0.0
613523.2936376977,3607751.2368613081,-27500.0,-215.03051698101513,-7597.5037898811679,-8887.619346693451,-5208.3298763538423,-4765.8505802575082,-2790.8584385046265,10830.152759948327,-171.52357979526641,-10088.979587227735,10088.979587227735,171.52357979526641,19549.830615778876,0.0
618523.2936376977,3607751.2368613081,-27500.0,3335.6190021184434,-6897.5189229972111,-10618.823671654878,-4306.2231515785707,-4460.4156714145211,-2637.930020489624,11411.269328663562,3260.1166360647312,-11476.821241242793,11476.821241242793,-3260.1166360647312,20126.99953108899,0.0
623523.2936376977,3607751.2368613081,-27500.0,7956.8220262462328,-5078.0294734692743,-11765.878945468196,-2340.9619119493404,-2901.1743632859097,-1891.8793843602111,11684.827602908168,7832.1686240534809,-12023.102954754839,12023.102954754839,-7832.1686240534809,20267.924321258855,0.0
628523.2936376977,3607751.2368613081,-27500.0,13176.014558096669,-2111.3796752385397,-11455.347865298179,1023.3047878194694,949.39341518741765,156.54860136162091,12573.720338569809,13168.55869158015,-11058.195075135565,11058.195075135565,-13168.55869158015,21788.588713534802,0.0
633523.2936376977,3607751.2368613081,-27500.0,17957.165831835075,1125.1622129276029,-8880.2786381933984,5649.4425031363071,8273.4474837374873,4753.1252573684151,16737.543957857713,18323.404142773743,-8381.6922298801801,8381.6922298801801,-18323.404142773743,29071.098690627216,0.0
638523.2936376977,3607751.2368613081,-27500.0,21129.46177686243,2352.7042518834087,-4405.4727616529044,10288.089903954233,19443.612120070302,13486.976454286796,25534.143496649012,22088.257936994301,-5340.0210357581127,5340.0210357581127,-22088.257936994301,44537.538006739553,0.0
643523.2936376977,3607751.2368613081,-27500.0,22546.786211246956,-1395.4420016189433,-1020.8237484594295,12318.110203111715,32210.458840659747,27205.273234022581,37486.952143703995,24039.449087082554,-5557.3599750090743,5557.3599750090743,-24039.449087082554,65272.608450670232,0.0
648523.2936376977,3607751.2368613081,-27500.0,23742.542259315967,-10715.861403821466,-3897.3148589211037,8762.3091841465939,40519.449774584871,43806.187973337946,48801.24104460486,25244.407452997955,-12938.595139501116,12938.595139501116,-25244.407452997955,84978.635876081578,0.0
653523.2936376977,3607751.2368613081,-27500.0,26610.110471588931,-20714.911256625132,-15210.132673683744,-1675.8205414155477,37086.427747484064,54915.984740448606,54838.107963141752,26639.663436618393,-26129.51266213871,26129.51266213871,-26639.663436618393,95686.315306819859,0.0
658523.2936376977,3607751.2368613081,-27500.0,32529.60035135784,-23202.98787318639,-28597.69940225255,-13571.017510721033,19987.525357725044,45626.757258636178,51359.350070773144,28791.923140523846,-36609.1056957326,36609.1056957326,-28791.923140523846,89860.075271215843,0.0
663523.2936376977,3607751.2368613081,-27500.0,36802.345498276758,-14441.084626330274,-34226.213665500996,-12027.713359519405,-1278.577447916005,15865.722448779174,40820.220063900939,31776.414323558402,-36408.488471142569,36408.488471142569,-31776.414323558402,71139.559705130392,0.0
668523.2936376977,3607751.2368613081,-27500.0,29088.316857337148,-1556.3039422536067,-30317.641380453704,2855.9226076072523,-13456.523244461367,-8279.2894984463874,33058.447437384682,29639.99283374062,-26716.801042063937,26716.801042063937,-29639.99283374062,57275.794167197651,0.0
673523.2936376977,3607751.2368613081,-27500.0,13700.578862557733,6828.2587892240244,-22584.5409707941,14913.791584177789,-15495.307210146542,-15836.890012698463,29588.797242682631,21146.443438304788,-15294.868333091752,15294.868333091752,-21146.443438304788,51427.171031489161,0.0
678523.2936376977,3607751.2368613081,-27500.0,651.17929840625357,9826.0684093317486,-15513.114683086797,19082.216848593667,-13218.252409653702,-15024.972556185572,26351.507775650862,11840.766518674687,-6918.5530424577428,6918.5530424577428,-11840.766518674687,46474.150458432414,0.0
683523.2936376977,3607751.2368613081,-27500.0,-7185.522385626793,9860.8072577766834,-10327.154088536943,18656.869922449747,-10264.127376872295,-12441.495617615587,22735.055361187187,4924.9265353570709,-1941.8272321062223,1941.8272321062223,-4924.9265353570709,40902.110579987457,0.0
688523.2936376977,3607751.2368613081,-27500.0,-11046.707759359035,8767.9133945944377,-6816.0403355602075,16638.322937062356,-7754.2183340028278,-10071.15920722034,19321.978250402732,565.89474520955798,707.35764825837202,-707.35764825837202,-565.89474520955798,35443.43398461715,0.0
693523.2936376977,3607751.2368613081,-27500.0,-12561.877615275102,7412.506977921098,-4504.4057275637533,14348.120915372949,-5829.8204611181181,-8150.3961730972078,16376.265567136767,-1971.8642093621402,1996.7680345709114,-1996.7680345709114,1971.8642093621402,30548.986142893817,0.0
698523.2936376977,3607751.2368613081,-27500.0,-12808.267867980843,6125.5030611049215,-2994.0395788504879,12213.541830794426,-4393.4802051768393,-6592.0362302806561,13909.944002303848,-3362.592459670213,2537.778059660503,-2537.778059660503,3362.592459670213,26304.719664854114,0.0
703523.2936376977,3607751.2368613081,-27500.0,-12391.952964106786,5009.4056758429551,-2006.6532029368211,10337.562907080823,-3326.1742514373514,-5316.0153065558861,11855.644087304969,-4055.4975570062998,2678.3519855019949,-2678.3519855019949,4055.4975570062998,22660.67017763872,0.0
708523.2936376977,3607751.2368613081,-27500.0,-11644.563184009086,4078.8752501148624,-1358.6064284451193,8725.5113035405066,-2531.5150199959398,-4272.9524194252645,10140.131013833116,-4326.5733640287663,2611.1357029614351,-2611.1357029614351,4326.5733640287663,19541.200050931744,0.0
713523.2936376977,3607751.2368613081,-27500.0,-10750.747919805464,3317.6991861781376,-930.984018405136,7356.1918525233878,-1937.6308001854291,-3427.0950367441728,8702.3622640820449,-4344.2108683048582,2442.533168743053,-2442.533168743053,4344.2108683048582,16875.20107021313,0.0
718523.2936376977,3607751.2368613081,-27500.0,-9815.2992812005941,2700.9675986203952,-647.12540302931154,6201.7976896233686,-1491.8482047757116,-2747.1621381859518,7493.7754761596525,-4212.7203816920301,2231.3120537849495,-2231.3120537849495,4212.7203816920301,14600.049981580509,0.0
723523.2936376977,3607751.2368613081,-27500.0,-8897.5457435572316,2203.5001966891991,-457.53181207047498,5233.6964795650547,-1155.6252678796559,-2204.3950738415297,6475.3772785172841,-3997.6762800841707,2009.6000716451263,-2009.6000716451263,3997.6762800841707,12660.537164892125,0.0
728523.2936376977,3607751.2368613081,-27500.0,-8029.81813779812,1802.8288964483852,-330.10574772762618,4424.6058777910303,-900.71972956008267,-1773.0237460502483,5615.3124498276366,-3740.536680809601,1794.4287841836699,-1794.4287841836699,3740.536680809601,11007.879239651977,0.0
733523.2936376977,3607751.2368613081,-27500.0,-7228.0586333937263,1479.9860589114214,-243.91770265097227,3749.6557246272951,-706.39766366006791,-1430.860477130461,4887.2576934060107,-3467.3627916336263,1594.2198120093119,-1594.2198120093119,3467.3627916336263,9599.2242091616063,0.0
738523.2936376977,3607751.2368613081,-27500.0,-6498.2635236417918,1219.4189798738751,-185.23761442474174,3186.8870975368018,-557.40520917151366,-1159.4473897867892,4269.3564224313868,-3194.236158817419,1412.504652000079,-1412.504652000079,3194.236158817419,8397.3190381447239,0.0
743523.2936376977,3607751.2368613081,-27500.0,-5840.5216442798528,1008.5837584259738,-145.00235612936208,2717.3713397531124,-442.49066704641677,-943.81437297481114,3743.4475973572876,-2930.7360668832348,1250.0875534029706,-1250.0875534029706,2930.7360668832348,7370.1309289108121,0.0
748523.2936376977,3607751.2368613081,-27500.0,-5251.5703722160442,837.45948475401565,-117.19321531738696,2325.078820015593,-353.32743098826154,-772.0302577836494,3294.4549418942629,-2682.2163961084093,1106.3106092917101,-1106.3106092917101,2682.2163961084093,6490.3752228414223,0.0
753523.2936376977,3607751.2368613081,-27500.0,-4726.4063594798699,698.08274867012494,-97.790265639733946,1996.607571489209,-283.72959022686319,-634.69327724553773,2909.8782908929097,-2451.3118820763207,979.79172857553647,-979.79172857553647,2451.3118820763207,5734.9825862285734,0.0
543523.2936376977,3612751.2368613081,-27500.0,-3576.2089545373506,-1101.7038557613655,-254.38303163430263,-1409.0850057027772,-389.97286998857561,-405.50088037967669,2289.1571167503898,-3023.6354572522541,-21.186375008941695,21.186375008941695,3023.6354572522541,4539.7609203760221,0.0
548523.2936376977,3612751.2368613081,-27500.0,-3936.0330386955407,-1274.8547246876265,-300.19622225991185,-1617.8947710999989,-464.99929033751039,-482.83079025962576,2570.953922859665,-3355.3248904503998,-69.424859509921589,69.424859509921589,3355.3248904503998,5095.6670273053014,0.0
553523.2936376977,3612751.2368613081,-27500.0,-4334.3618171174357,-1481.0741296630258,-359.06557934523158,-1862.5879710602233,-557.11989451589682,-576.68886546663475,2896.8206017302864,-3727.0103614495438,-136.10895102307768,136.10895102307768,3727.0103614495438,5736.2718167133853,0.0
558523.2936376977,3612751.2368613081,-27500.0,-4773.3154652341454,-1727.4465121180172,-435.59753790821759,-2149.6239383253946,-670.66427293769436,-690.67688444397095,3274.6039329137939,-4142.0457832939674,-227.72342918732829,227.72342918732829,4142.0457832939674,6476.0045801443885,0.0
563523.2936376977,3612751.2368613081,-27500.0,-5253.7729219336279,-2022.5928314435007,-536.23139831098524,-2486.4716416890783,-811.09122119339668,-829.04386947082901,3713.594172783196,-4602.9279065486007,-353.0791847936739,353.0791847936739,4602.9279065486007,7331.674982329916,0.0
568523.2936376977,3612751.2368613081,-27500.0,-5774.435601898972,-2376.9231687566476,-670.02921501452681,-2881.6510890721429,-985.25115068106891,-996.68777917610851,4224.7945895362936,-5110.4437601436402,-524.16510007708848,524.16510007708848,5110.4437601436402,8322.7076157037718,0.0
573523.2936376977,3612751.2368613081,-27500.0,-6330.3626860697232,-2802.8407597607079,-849.82031175634484,-3344.7059889717634,-1201.6751702130668,-1199.077796791059,4821.2197916570958,-5662.30607323605,-757.30133113686588,757.30133113686588,5662.30607323605,9471.2828136983117,0.0
578523.2936376977,3612751.2368613081,-27500.0,-6910.663764170693,-3314.7817621913464,-1093.853317476649,-3886.0606682918196,-1470.8636028104584,-1442.0683558482338,5518.2018666757867,-6250.980859210551,-1074.6755360268071,1074.6755360268071,6250.980859210551,10802.272574455899,0.0
583523.2936376977,3612751.2368613081,-27500.0,-7494.8085399059219,-3928.8344702580243,-1428.1492984856518,-4516.6673325577385,-1805.5091791664236,-1731.612642218382,6333.6315495829549,-6860.2142293866145,-1506.3198612940869,1506.3198612940869,6860.2142293866145,12342.734628315515,0.0
588523.2936376977,3612751.2368613081,-27500.0,-8046.6258563662423,-4661.3819147322974,-1889.7487380111188,-5247.2196290173606,-2220.505954516168,-2073.4954401897012,7287.9147251992636,-7459.429303986949,-2092.4675580002286,2092.4675580002286,7459.429303986949,14120.443282256065,0.0
593523.2936376977,3612751.2368613081,-27500.0,-8504.4093527040186,-5525.5684434644618,-2530.8683890542093,-6086.3094368237853,-2732.3689020029792,-2473.4333618881788,8403.0090419667013,-7994.5728447508791,-2885.8468252087514,2885.8468252087514,7994.5728447508791,16160.207545595231,0.0
598523.2936376977,3612751.2368613081,-27500.0,-8764.7460876084115,-6523.0765018689453,-3423.2570883588578,-7035.842681593047,-3357.0316591724659,-2938.1935984796742,9698.8985895480837,-8373.158236676969,-3952.3887043759546,3952.3887043759546,8373.158236676969,18475.052507735603,0.0
603523.2936376977,3612751.2368613081,-27500.0,-8657.484595893744,-7626.3611649042359,-4659.8211029562999,-8079.5144827031772,-4103.1119637781121,-3478.2298647335633,11183.677270993365,-8440.5947057066842,-5366.1534360839696,5366.1534360839696,8440.5947057066842,21045.842236813296,0.0
608523.2936376977,3612751.2368613081,-27500.0,-7912.7800273227185,-8743.5711830279633,-6344.9032812669966,-9155.4236860844176,-4952.753146339558,-4109.7719739864706,12829.609695004932,-7946.7234556578751,-7188.5031200124031,7188.5031200124031,7946.7234556578751,23777.367616108822,0.0
613523.2936376977,3612751.2368613081,-27500.0,-6136.1511811647524,-9659.6022690061945,-8552.9163890925902,-10098.788687802849,-5811.0429412871399,-4844.2512145898472,14523.688873051022,-6512.5031490449619,-9412.3828562699728,9412.3828562699728,6512.5031490449619,26416.225800642485,0.0
618523.2936376977,3612751.2368613081,-27500.0,-2845.3846381346389,-9969.2487567547469,-11220.31888097005,-10547.922047749396,-6388.0783759061605,-5627.5392180699564,15986.80912244504,-3639.4934299120123,-11849.455288752039,11849.455288752039,3639.4934299120123,28441.798869386439,0.0
623523.2936376977,3612751.2368613081,-27500.0,2324.7889622820885,-9097.7019966102071,-13949.836348680965,-9862.2107595788966,-5979.1207954587462,-6153.4537635853167,16705.173908852616,1139.3175667759751,-13982.211011720236,13982.211011720236,-1139.3175667759751,29087.928932610052,0.0
628523.2936376977,3612751.2368613081,-27500.0,9175.9052868373819,-6646.0538049301877,-15843.860001259492,-7246.7833007350337,-3217.7679879644074,-5484.1727164979156,16210.274205993617,7862.8920205576642,-14976.758179463111,14976.758179463111,-7862.8920205576642,28199.904645535888,0.0
633523.2936376977,3612751.2368613081,-27500.0,16502.969826359371,-3299.6032785540451,-15824.29017967674,-2433.9558429346857,3767.3430176430634,-1637.3624284386326,17115.014186318982,15632.641011545576,-14324.513427782349,14324.513427782349,-15632.641011545576,29676.747550514068,0.0
638523.2936376977,3612751.2368613081,-27500.0,22489.858359323454,-1877.8701847541633,-14059.828945027562,2971.7047438181289,15865.049238760588,8042.1465509160826,22849.257657279777,22650.542193294648,-13416.678356032256,13416.678356032256,-22650.542193294648,42529.146573550192,0.0
643523.2936376977,3612751.2368613081,-27500.0,26828.044145256867,-6575.2091606850627,-14003.317855300094,4777.093256486648,29547.546308907135,24162.300155871351,35777.505448982985,27749.645974350475,-16820.018098630375,16820.018098630375,-27749.645974350475,66202.679863438127,0.0
648523.2936376977,3612751.2368613081,-27500.0,32608.499957168253,-17625.169353006488,-21435.603784340623,-392.3013489630581,34593.415219058064,40643.316539830528,49453.744209734621,32641.636509552929,-29082.423692634246,29082.423692634246,-32641.636509552929,89118.306213951117,0.0
653523.2936376977,3612751.2368613081,-27500.0,41272.620096826598,-25587.168969129107,-35996.277494102054,-8904.2987499524934,22207.565727218109,44915.413731857501,55544.343697820237,38973.380331577348,-44952.972182111342,44952.972182111342,-38973.380331577348,99733.26582214472,0.0
658523.2936376977,3612751.2368613081,-27500.0,47085.626798766869,-20436.845328737152,-45581.435939644718,-11489.289428536091,-74.906014679930408,26646.384714124451,52850.896261536342,43019.239465676983,-49649.18998534092,49649.18998534092,-43019.239465676983,93594.469352625165,0.0
663523.2936376977,3612751.2368613081,-27500.0,42579.048831501088,-6898.844689008346,-41545.594908753264,96.521638495307272,-14923.851563775361,-4932.2443915303711,45251.170403526019,41270.625737484093,-39574.877772978871,39574.877772978871,-41270.625737484093,78411.620388979223,0.0
668523.2936376977,3612751.2368613081,-27500.0,25370.110213156506,3556.7837977376025,-30089.496356958156,17807.174096873936,-17591.627199527164,-23064.181877120736,39325.980517818403,31993.36850418436,-24803.069980866301,24803.069980866301,-31993.36850418436,68213.901448689459,0.0
673523.2936376977,3612751.2368613081,-27500.0,5853.8242658899198,7790.3132984817594,-19450.181325546549,26907.070757995614,-14565.904122422991,-23911.49139546575,35365.369834624675,18988.976930401674,-12843.191349243772,12843.191349243772,-18988.976930401674,61348.349646665236,0.0
678523.2936376977,3612751.2368613081,-27500.0,-7173.2758467671656,8295.9402684140059,-12048.779724935126,27132.049182908304,-10782.120387975836,-19041.365521207532,30477.095298487362,8231.9608688227054,-5286.2145106811249,5286.2145106811249,-8231.9608688227054,53576.428463806355,0.0
683523.2936376977,3612751.2368613081,-27500.0,-13531.461425410751,7371.566063204994,-7368.358518380347,23760.976618730114,-7734.0612522079209,-14481.030000899671,25455.755675656656,1421.5595083927469,-1121.1861565742201,1121.1861565742201,-1421.5595083927469,45617.506567424723,0.0
688523.2936376977,3612751.2368613081,-27500.0,-15818.913154971189,6112.7843766959413,-4489.5467161684019,19869.862754595226,-5532.0132238988326,-11187.858490954643,21093.867486336767,-2343.9758920198319,974.26422136617828,-974.26422136617828,2343.9758920198319,38544.474870135025,0.0
693523.2936376977,3612751.2368613081,-27500.0,-16060.177595929619,4922.913749879368,-2729.4859221005077,16434.825403762345,-3983.1762613658275,-8814.2166955901139,17546.286431540684,-4250.2385550281169,1929.9714078658619,-1929.9714078658619,4250.2385550281169,32622.544292849583,0.0
698523.2936376977,3612751.2368613081,-27500.0,-15360.550737753498,3915.9850687693829,-1653.9091226449666,13594.399086009194,-2894.28480680343,-7012.5079485089746,14700.510753392169,-5107.4134015027284,2286.7048204760813,-2286.7048204760813,5107.4134015027284,27725.380834364238,0.0
703523.2936376977,3612751.2368613081,-27500.0,-14260.8626341002,3101.0394774502274,-996.73838704058858,11272.231420009766,-2122.8518051322021,-5593.4432839914061,12402.633517238841,-5383.2416495806028,2337.4234013996374,-2337.4234013996374,5383.2416495806028,23657.004533782456,0.0
708523.2936376977,3612751.2368613081,-27500.0,-13022.278154213922,2454.2805479350045,-595.92407654158058,9370.2605704024354,-1571.0507690393783,-4460.4974903840739,10526.529150410795,-5337.6041816599582,2237.563838623626,-2237.563838623626,5337.6041816599582,20253.569457935711,0.0
713523.2936376977,3612751.2368613081,-27500.0,-11773.99497199607,1945.3171374434162,-352.56548004225726,7807.8720756500779,-1172.5519273748012,-3555.7447075652376,8979.9610840676414,-5116.9876898204129,2069.5062606710067,-2069.5062606710067,5116.9876898204129,17392.254957827507,0.0
718523.2936376977,3612751.2368613081,-27500.0,-10580.892387308017,1545.9541771763088,-206.06897838674476,6522.2606012089827,-882.13719842728165,-2836.2645155585246,7695.8686748433229,-4806.4162212583933,1876.9238675923216,-1876.9238675923216,4806.4162212583933,14979.691125505618,0.0
723523.2936376977,3612751.2368613081,-27500.0,-9474.335655941406,1232.5644076968113,-119.16120653924797,5463.4900996476636,-668.66703829958362,-2266.5532559005533,6624.0132619347278,-4456.3649336898416,1682.6946287802043,-1682.6946287802043,4456.3649336898416,12941.774161524572,0.0
728523.2936376977,3612751.2368613081,-27500.0,-8467.1414740866458,986.19667567506008,-68.831259921269762,4590.8887150545188,-510.470890058213,-1816.6485378547547,5725.4828788375571,-4096.9644336495585,1498.3422491015067,-1498.3422491015067,4096.9644336495585,11217.666371077667,0.0
733523.2936376977,3612751.2368613081,-27500.0,-7561.5687189933378,791.9682284762473,-40.831742928585918,3870.9370737326944,-392.31973841527019,-1461.6449074190436,4969.3854998049273,-3745.9099188866626,1329.1317053179459,-1329.1317053179459,3745.9099188866626,9756.5608413962636,0.0
738523.2936376977,3612751.2368613081,-27500.0,-6753.9415887205496,638.31442239907415,-26.326211998004915,3275.9627955857477,-303.41539588947001,-1181.2802471851664,4330.8228006322624,-3413.1290823259187,1176.8876139898987,-1176.8876139898987,3413.1290823259187,8515.8062613635193,0.0
743523.2936376977,3612751.2368613081,-27500.0,-6037.4521873260519,516.29260831202839,-19.833558411592918,2783.1942043860986,-236.03728453528132,-959.37034669842649,3789.5596524592274,-3103.6699359470795,1041.5832982457903,-1041.5832982457903,3103.6699359470795,7459.6256051565833,0.0
748523.2936376977,3612751.2368613081,-27500.0,-5403.8780207738719,418.99939602713596,-17.961930492928062,2373.9785673203296,-184.6218789711599,-783.16014960403629,3329.0768778066272,-2819.5383715830767,922.24597972166225,-922.24597972166225,2819.5383715830767,6558.0932408741946,0.0
753523.2936376977,3612751.2368613081,-27500.0,-4844.6192449281625,341.10343593441706,-18.624053231664856,2033.1011030892432,-145.12947643171864,-642.68512627942471,2935.8530371179672,-2560.883851097627,817.47207453927115,-817.47207453927115,2560.883851097627,5786.2516984895065,0.0
543523.2936376977,3617751.2368613081,-27500.0,-3924.4962734471565,-865.46174897096978,-144.45136809360704,-1525.2912368001048,-301.80093968241448,-434.39984284623455,2412.421117806723,-3320.9082617235663,299.24435372657467,-299.24435372657467,3320.9082617235663,4772.4893880709487,0.0
548523.2936376977,3617751.2368613081,-27500.0,-4354.2220408428584,-1003.7130242518205,-166.32196328045774,-1762.404731811464,-360.15914344706152,-519.95088435327125,2719.0121470876202,-3715.8655514667498,308.79992677779387,-308.79992677779387,3715.8655514667498,5377.013347072444,0.0
553523.2936376977,3617751.2368613081,-27500.0,-4839.5457103416211,-1169.6018892665072,-195.17897018398872,-2043.6035242039718,-432.12604515515932,-624.70117789295534,3075.9850126247829,-4167.1444279974812,312.24994939957537,-312.24994939957537,4167.1444279974812,6078.8834234259921,0.0
558523.2936376977,3617751.2368613081,-27500.0,-5387.47439949402,-1369.6333057955396,-233.9359033002473,-2378.1000174746882,-521.32678361019362,-753.21194665857195,3493.2811218813677,-4683.0071595359623,305.99876914532888,-305.99876914532888,4683.0071595359623,6896.4924174292664,0.0
563523.2936376977,3617751.2368613081,-27500.0,-6005.3541290736594,-1612.0376142243581,-286.8639267243405,-2777.1724515259702,-632.44019032062624,-911.06232788614352,3983.1043620518358,-5272.5255807921094,284.77476497369753,-284.77476497369753,5272.5255807921094,7852.087586468796,0.0
568523.2936376977,3617751.2368613081,-27500.0,-6700.4960502034392,-1907.2667605727465,-360.27974803067286,-3254.6748881659064,-771.52266863776913,-1105.0055179369169,4560.548779533915,-5945.3545769442608,240.85685904528873,-240.85685904528873,5945.3545769442608,8972.6642542384343,0.0
573523.2936376977,3617751.2368613081,-27500.0,-7479.4623837765921,-2268.6340772826329,-463.61024407240973,-3827.7186875786065,-946.44186871619877,-1343.1199307829829,5244.4563030866857,-6711.2292961950079,162.92479124130205,-162.92479124130205,6711.2292961950079,10291.105773138626,0.0
578523.2936376977,3617751.2368613081,-27500.0,-8346.748553073634,-2713.1208179050518,-611.05458716098781,-4517.6339630413759,-1167.4728851449295,-1634.9848732887908,6058.6171853770102,-7578.9797271214102,34.344758495149563,-34.344758495149563,7578.9797271214102,11847.686923259034,0.0
583523.2936376977,3617751.2368613081,-27500.0,-9302.2870183860159,-3262.3247560167028,-824.19445365705019,-5351.3662592222036,-1448.1500040170324,-1992.0120665209774,7033.4375730670836,-8554.6221606009112,-169.39827638069983,169.39827638069983,8554.6221606009112,13692.043381359632,0.0
588523.2936376977,3617751.2368613081,-27500.0,-10336.59912423899,-3943.3648402300851,-1136.0978876364588,-6363.4876113161808,-1806.5367723135412,-2428.3439662075862,8208.1634234058074,-9637.6280452329484,-484.53072269397308,484.53072269397308,9637.6280452329484,15885.61736745517,0.0
593523.2936376977,3617751.2368613081,-27500.0,-11421.13310320128,-4789.0558005731673,-1597.6951214108083,-7598.7646236876817,-2267.152011644986,-2963.3459073071795,9633.4250740044063,-10813.42186455831,-964.57138905478041,964.57138905478041,10813.42186455831,18504.008284272299,0.0
598523.2936376977,3617751.2368613081,-27500.0,-12488.886865592411,-5835.285607579207,-2287.2997352643074,-9114.0562896961274,-2863.6645789704539,-3627.840341106456,11372.706764073437,-12037.96339664792,-1687.8884586696331,1687.8884586696331,12037.96339664792,21636.664536966138,0.0
603523.2936376977,3617751.2368613081,-27500.0,-13396.641656821592,-7110.146336959614,-3323.3588199650503,-10974.478059943856,-3641.3025216240185,-4477.5087538506723,13498.134973807644,-13206.237802498817,-2765.8782596445917,2765.8782596445917,13206.237802498817,25375.86080286721,0.0
608523.2936376977,3617751.2368613081,-27500.0,-13857.412826174328,-8602.300118335932,-4876.4978310821562,-13228.832693163477,-4652.8547529330153,-5615.6186135172738,16068.670469056051,-14091.265974290887,-4344.8392836510056,4344.8392836510056,14091.265974290887,29774.436519714633,0.0
613523.2936376977,3617751.2368613081,-27500.0,-13341.65660049586,-10186.194060288668,-7163.9170153310451,-15830.131445280775,-5925.9000029991512,-7213.6116159167605,19066.10900601681,-14241.585345292035,-6579.9834510703877,6579.9834510703877,14241.585345292035,34731.306356039247,0.0
618523.2936376977,3617751.2368613081,-27500.0,-11000.638745425798,-11486.467686169373,-10379.097985684002,-18450.260202369587,-7340.2113483500607,-9469.157953308053,22253.065346893149,-12861.533265551696,-9534.6512091701497,9534.6512091701497,12861.533265551696,39755.114146919404,0.0
623523.2936376977,3617751.2368613081,-27500.0,-5804.512136414347,-11752.526782759827,-14477.735410640278,-20193.637685866419,-8306.4360337636972,-12335.935975071459,24941.771419748336,-8823.347754709328,-12960.840290332137,12960.840290332137,8823.347754709328,43657.085417204566,0.0
628523.2936376977,3617751.2368613081,-27500.0,2793.1447302592401,-10103.441069970884,-18844.193339774527,-19505.300148106973,-7235.6533947342214,-14790.810423946679,25814.588552049954,-1141.3937914712633,-16117.651102085856,16117.651102085856,1141.3937914712633,44738.939431492181,0.0
633523.2936376977,3617751.2368613081,-27500.0,13801.391159434063,-6777.0836553751442,-22414.214846475683,-15068.599978134409,-1455.0388426252014,-13812.954273413419,23601.458089404532,9975.700871597368,-18364.478826230235,18364.478826230235,-9975.700871597368,43581.854668800064,0.0
638523.2936376977,3617751.2368613081,-27500.0,24719.306148194508,-4933.1785620428782,-25367.452548260848,-8190.0416296911426,10617.502817561337,-4725.3049988756702,28910.111589584383,22504.569741101259,-21234.811418923084,21234.811418923084,-22504.569741101259,50132.988989195917,0.0
643523.2936376977,3617751.2368613081,-27500.0,34252.738032801375,-9566.2005138856712,-31166.690865354973,-4549.1388650712124,24109.447792378694,13568.486657840151,40715.81252910383,33914.271525663331,-29553.17525808384,29553.17525808384,-33914.271525663331,73721.130002087375,0.0
648523.2936376977,3617751.2368613081,-27500.0,45269.687573503878,-19933.917233451699,-43110.295929244501,-8291.9800376093481,25158.457365929706,29010.082646879015,55553.609079701448,44147.07396168953,-45695.393199910162,45695.393199910162,-44147.07396168953,99677.332026304895,0.0
653523.2936376977,3617751.2368613081,-27500.0,56439.551205781136,-23650.526725626791,-54712.084263377517,-10044.840376120706,6577.4150964832625,23933.273081255411,62063.663202802672,53143.957262772768,-58761.954169820783,58761.954169820783,-53143.957262772768,109127.19218517306,0.0
658523.2936376977,3617751.2368613081,-27500.0,55195.094280229263,-13720.397006332953,-53702.935642612232,-163.9213222070232,-13747.171308125271,1229.4701364564162,57735.126841235324,53784.951319666441,-54064.397061449454,54064.397061449454,-53784.951319666441,100130.42498186188,0.0
663523.2936376977,3617751.2368613081,-27500.0,39212.429374603402,-1725.5135508704975,-41211.567226074876,16265.063412919888,-18580.653112224467,-21127.655624858784,48313.9449646426,44257.796601655355,-37735.531549384046,37735.531549384046,-44257.796601655355,84228.649287750872,0.0
668523.2936376977,3617751.2368613081,-27500.0,17127.724410472525,3340.1194142576428,-27085.837959949436,29504.951507183996,-13910.099921409657,-29239.545227649713,41610.184597199768,29707.854323999782,-22900.54779168051,22900.54779168051,-29707.854323999782,72665.459098428444,0.0
673523.2936376977,3617751.2368613081,-27500.0,-1522.0455753143867,3889.4835267586491,-16446.920491621164,33412.185960267285,-8961.560243210246,-25742.372288011884,36889.336029347847,15427.81025502507,-12697.317475895441,12697.317475895441,-15427.81025502507,63900.90934361898,0.0
678523.2936376977,3617751.2368613081,-27500.0,-12433.376580452585,3259.5636981416715,-9640.75102995421,30594.058516868896,-5742.0499024827241,-19574.434093386459,31387.050527623338,5111.2574671105294,-6274.543106959637,6274.543106959637,-5111.2574671105294,54931.891346392353,0.0
683523.2936376977,3617751.2368613081,-27500.0,-17068.854659147695,2536.5330751064907,-5560.4295932424238,25665.874163363733,-3740.9236861765517,-14647.956036664529,25991.963478709014,-950.51718732799009,-2527.9153111309911,2527.9153111309911,950.51718732799009,46345.881016099804,0.0
688523.2936376977,3617751.2368613081,-27500.0,-18175.607442725173,1915.2619483915278,-3165.7184038164851,20960.474936142218,-2459.4627093943241,-11238.216431714232,21407.668042649264,-4068.6892455254892,-482.81961051834878,482.81961051834878,4068.6892455254892,38941.889756414261,0.0
693523.2936376977,3617751.2368613081,-27500.0,-17635.421236777005,1414.7265310478078,-1768.5411882865978,17077.205914341561,-1623.6463579761114,-8822.2917103589007,17727.202595941762,-5488.1084795479992,570.56924394393809,-570.56924394393809,5488.1084795479992,32838.973597812823,0.0
698523.2936376977,3617751.2368613081,-27500.0,-16419.209182759234,1025.5748493175161,-956.6878373178854,13979.527238487935,-1075.4415259035459,-7004.8756770234722,14802.017349451691,-5994.7456802797587,1074.1808678973161,-1074.1808678973161,5994.7456802797587,27839.838165951234,0.0
703523.2936376977,3617751.2368613081,-27500.0,-14975.705256745017,731.00110354362619,-488.85734372000945,11505.321196073141,-714.87480925079683,-5580.7485015182656,12456.650559849511,-6021.5479181457858,1280.1581625387753,-1280.1581625387753,6021.5479181457858,23712.531254983332,0.0
708523.2936376977,3617751.2368613081,-27500.0,-13506.359406763653,512.21324242863443,-223.65305664862257,9511.5664920028248,-476.66672647826647,-4447.065574119918,10552.052688494605,-5799.2773837268887,1327.2674172314742,-1327.2674172314742,5799.2773837268887,20274.308006145944,0.0
713523.2936376977,3617751.2368613081,-27500.0,-12101.881080749952,351.72759849325871,-77.69504863500228,7892.8751148698775,-318.25674123918577,-3543.2245144087774,8988.3358428472493,-5452.9031140534444,1291.41999710338,-1291.41999710338,5452.9031140534444,17392.188043034421,0.0
718523.2936376977,3617751.2368613081,-27500.0,-10802.22035724138,234.93439407120326,-1.5434872311212848,6572.317157195218,-212.08804751983405,-2825.1756131470142,7693.9432717218897,-5052.2376781266275,1214.4447381317084,-1214.4447381317084,5052.2376781266275,14967.196331097677,0.0
723523.2936376977,3617751.2368613081,-27500.0,-9622.4674757305838,150.38414472960341,34.208540912539512,5491.6939147192516,-140.36560238719937,-2256.9575721553861,6615.9849137945066,-4637.1761724484713,1119.5735473614,-1119.5735473614,4637.1761724484713,12922.029439400176,0.0
728523.2936376977,3617751.2368613081,-27500.0,-8564.7156793933718,89.434081343258271,47.058039743267614,4605.393202783458,-91.565227526203117,-1808.4365851870507,5713.96433650162,-4230.5181295372731,1019.6983260017209,-1019.6983260017209,4230.5181295372731,11193.949018997211,0.0
733523.2936376977,3617751.2368613081,-27500.0,-7624.0872596712779,45.695921497508074,47.385039025001483,3876.8842973064243,-58.171347880867167,-1454.6546928833989,4956.0250194582923,-3844.8649203688483,921.84357421143704,-921.84357421143704,3844.8649203688483,9730.9745670199991,0.0
738523.2936376977,3617751.2368613081,-27500.0,-6792.1084318489466,14.498487245084339,41.302778311228813,3276.6270105148201,-35.235674226809948,-1175.3445937266049,4316.6688816348142,-3486.5841688527885,829.65295155922786,-829.65295155922786,3486.5841688527885,8489.7053411088291,0.0
743523.2936376977,3617751.2368613081,-27500.0,-6058.7128516879948,-7.5581391835879055,32.363329430546109,2780.6735866518557,-19.465154443298655,-954.33460124935436,3775.2798200209891,-3158.2166848146699,744.81053061859188,-744.81053061859188,3158.2166848146699,7433.8734470463332,0.0
748523.2936376977,3617751.2368613081,-27500.0,-5413.4442386203609,-22.946424288251887,22.583198884120389,2369.6214568300143,-8.6440400283920393,-778.88761101290652,3315.0919893341097,-2859.988486965985,667.87173064277704,-667.87173064277704,2859.988486965985,6533.2269030635816,0.0
753523.2936376977,3617751.2368613081,-27500.0,-4846.1577027147987,-33.466889840762455,13.061671664127642,2027.7726039120269,-1.2655044673379805,-639.05769906060516,2922.4212938865985,-2590.774976152788,598.75610905643214,-598.75610905643214,2590.774976152788,5762.5889688195275,0.0
543523.2936376977,3622751.2368613081,-27500.0,-4194.2546197868542,-581.98018119898177,-63.15348241363958,-1615.1030354699112,-198.35111967856037,-456.65027730289489,2510.3772133298271,-3540.0202966289189,616.00554298749535,-616.00554298749535,3540.0202966289189,4955.3069549106085,0.0
548523.2936376977,3622751.2368613081,-27500.0,-4678.277120334179,-672.90789642670927,-66.757603758356254,-1874.0968765166679,-235.445149341118,-548.5127389016119,2836.985289111959,-3981.912247610479,684.62190143144335,-684.62190143144335,3981.912247610479,5598.0365064946218,0.0
553523.2936376977,3622751.2368613081,-27500.0,-5231.5204138133286,-782.16073540852574,-72.444755389003305,-2183.6126877160955,-281.05100309147355,-661.63612328643694,3219.1808480502859,-4492.5915812277344,760.56329347709379,-760.56329347709379,4492.5915812277344,6348.2528013621668,0.0
558523.2936376977,3622751.2368613081,-27500.0,-5865.1076127673668,-914.26475334996496,-81.615223532345254,-2555.097034973815,-337.44611255136556,-801.33340909432729,3668.6326258480335,-5084.2872452330303,843.78058700380234,-843.78058700380234,5084.2872452330303,7227.6625656608003,0.0
563523.2936376977,3622751.2368613081,-27500.0,-6591.9716822998907,-1075.0920644545329,-96.509959712177974,-3002.9727357132351,-407.59860415887755,-974.23506623492074,4199.9924473909041,-5771.5233862393688,933.58817125862834,-933.58817125862834,5771.5233862393688,8263.1476437043566,0.0
568523.2936376977,3622751.2368613081,-27500.0,-7427.0974832617912,-1272.3476252043849,-120.71212052938868,-3545.5917817217592,-495.4103321107084,-1188.5776493663341,4831.8798739273361,-6571.5443148841487,1028.209939138228,-1028.209939138228,6571.5443148841487,9488.3048888925478,0.0
573523.2936376977,3622751.2368613081,-27500.0,-8387.7162762377102,-1516.2773759151803,-159.96357063428115,-4206.6240137228524,-606.07555338668419,-1454.5612329194078,5588.3113791491942,-7504.7938825788833,1124.0336825880559,-1124.0336825880559,7504.7938825788833,10945.620083992009,0.0
578523.2936376977,3622751.2368613081,-27500.0,-9493.3271323323752,-1820.7056087279884,-223.50685256980196,-5017.1829264312246,-746.63957445228539,-1784.8685926967989,6500.8419442458353,-8595.4252425337982,1214.3904184566536,-1214.3904184566536,8595.4252425337982,12689.663826719376,0.0
583523.2936376977,3622751.2368613081,-27500.0,-10765.162348385134,-2204.5722588724534,-326.31932522794028,-6019.209991151095,-926.93653904713119,-2195.6324436377995,7611.8337801169728,-9871.692696033977,1287.5191337380465,-1287.5191337380465,9871.692696033977,14791.924361668409,0.0
588523.2936376977,3622751.2368613081,-27500.0,-12224.047017018944,-2694.1498501967108,-492.87750995642381,-7270.9536007182078,-1161.2675567391534,-2708.6359075829018,8979.4212650066911,-11365.687619611523,1323.1240190542239,-1323.1240190542239,11365.687619611523,17348.133674351622,0.0
593523.2936376977,3622751.2368613081,-27500.0,-13883.976623709867,-3325.9745683263154,-763.55925598666101,-8855.658869784329,-1471.5361169617861,-3356.7205367699389,10684.746344441493,-13110.790599493608,1286.4740883081113,-1286.4740883081113,13110.790599493608,20488.95158854422,0.0
598523.2936376977,3622751.2368613081,-27500.0,-15734.886685072994,-4149.709754506137,-1205.5450283376888,-10894.038082452358,-1893.0951896230574,-4196.858775191512,12841.204007650904,-15132.221924377045,1118.2782333499199,-1118.2782333499199,15132.221924377045,24393.437765849041,0.0
603523.2936376977,3622751.2368613081,-27500.0,-17700.110162130226,-5227.3021907407838,-1931.0069984223214,-13557.180975245563,-2484.814814130325,-5339.5697712416959,15602.078978895806,-17418.846511603242,717.87259120788076,-717.87259120788076,17418.846511603242,29298.829043283687,0.0
608523.2936376977,3622751.2368613081,-27500.0,-19540.737015255301,-6616.6554644959997,-3125.3716932228076,-17062.321512368359,-3342.2971129252496,-7007.0516673444317,19153.350765209212,-19849.328086245849,-81.714434692810755,81.714434692810755,19849.328086245849,35482.871191518338,0.0
613523.2936376977,3622751.2368613081,-27500.0,-20669.203560258247,-8309.6366965742782,-5082.6326962122739,-21595.613587686646,-4598.2848199957516,-9621.5005635565267,23657.065744124622,-22023.494713351392,-1539.1578638866722,1539.1578638866722,22023.494713351392,43156.593491502936,0.0
618523.2936376977,3622751.2368613081,-27500.0,-19875.955106965368,-10069.972466950319,-8218.4391395127586,-27035.573632706859,-6342.0725772580363,-13851.668378832581,29076.531558986888,-22951.137567633021,-3990.9682607765553,3990.9682607765553,22951.137567633021,52149.850484138828,0.0
623523.2936376977,3622751.2368613081,-27500.0,-15198.903502546587,-11157.93305406296,-12962.678624730859,-32328.169398735336,-8271.520613631692,-20314.902539459425,34800.6869498417,-20702.466985620053,-7699.8683484724488,7699.8683484724488,20702.466985620053,61291.915063025423,0.0
628523.2936376977,3622751.2368613081,-27500.0,-4662.1635967756347,-10304.11843442182,-19388.428520042467,-34780.74718513291,-8855.0503415765379,-28287.807915624468,39147.931179504478,-12643.942150185343,-12537.337922876908,12537.337922876908,12643.942150185343,67896.818002793691,0.0
633523.2936376977,3622751.2368613081,-27500.0,11534.823137404963,-7168.3453941003727,-26917.270151321714,-30915.384330143363,-4740.0566703790173,-33340.270874523085,39518.684782017983,2698.5477277660557,-18241.006495113375,18241.006495113375,-2698.5477277660557,69682.416312878209,0.0
638523.2936376977,3622751.2368613081,-27500.0,29824.661382958388,-5408.0950468561805,-35728.18670246486,-20672.266344952528,6045.7314626139323,-27365.676832631707,38326.51032593014,23251.84613232813,-26747.839335035787,26747.839335035787,-23251.84613232813,72789.724513115143,0.0
643523.2936376977,3622751.2368613081,-27500.0,46421.632243642671,-10483.015424177163,-48295.228357990978,-10506.281964039443,16109.044795955895,-7456.1070773646434,52280.802218874356,44028.960017787213,-42269.219684839882,42269.219684839882,-44028.960017787213,90610.677316535759,0.0
648523.2936376977,3622751.2368613081,-27500.0,59650.863732551654,-18890.439561846455,-61823.86775955552,-6084.9742206231203,10905.084511142943,9769.2443351137426,64805.381199470343,59167.129096404307,-60407.993031600716,60407.993031600716,-59167.129096404307,112797.69271131787,0.0
653523.2936376977,3622751.2368613081,-27500.0,64007.009842975225,-18565.491694561977,-63820.725853632772,1318.949919503417,-8246.499633653315,3841.971498113975,67051.768986316412,63949.291449807148,-65031.916267798646,65031.916267798646,-63949.291449807148,116242.2764467122,0.0
658523.2936376977,3622751.2368613081,-27500.0,50945.279566721998,-9099.0219664069136,-51467.294559734451,15655.103173912144,-19960.516547636664,-12503.420322978867,58128.710874913319,55296.411370848458,-51501.646989567053,51501.646989567053,-55296.411370848458,100970.38282168376,0.0
663523.2936376977,3622751.2368613081,-27500.0,29010.045496245326,-1714.7078428946652,-35916.366218792253,27064.66922529299,-16731.738825705448,-22824.933881399567,45863.953126664259,39630.885080421409,-34037.972903841532,34037.972903841532,-39630.885080421409,81135.736239562582,0.0
668523.2936376977,3622751.2368613081,-27500.0,9128.3733111016409,-433.57279508345056,-23675.284809574947,32416.936602827729,-8765.5608062179708,-24722.252318099814,37965.454044897269,24519.089192028532,-21934.089420248998,21934.089420248998,-24519.089192028532,67045.976406186543,0.0
673523.2936376977,3622751.2368613081,-27500.0,-5128.3514906737528,-1573.4227664641244,-14992.941678586687,32212.844013515329,-3400.3762050657683,-21290.01327345788,33415.17685822249,12254.269446990871,-14213.130979340323,14213.130979340323,-12254.269446990871,57915.437422547235,0.0
678523.2936376977,3622751.2368613081,-27500.0,-13263.717101865068,-2404.0369586487636,-9161.9236243222203,28559.799779867812,-902.89139297262398,-16717.462024879063,28748.212452908556,3702.5866573773224,-8945.0196515141033,8945.0196515141033,-3702.5866573773224,50096.8055091395,0.0
683523.2936376977,3622751.2368613081,-27500.0,-16741.692627198267,-2588.8927427247681,-5463.5830796041973,23932.57094502202,135.4571690198282,-12970.020233680036,24159.474337034033,-1415.5098300561049,-5396.429950540909,5396.429950540909,1415.5098300561049,42864.320035774232,0.0
688523.2936376977,3622751.2368613081,-27500.0,-17495.95339897032,-2442.2843307126918,-3206.087387331288,19671.630982111659,556.13897686543078,-10221.58342645051,20154.764417723127,-4119.0954303499002,-3117.9123106527031,3117.9123106527031,4119.0954303499002,36509.016466228211,0.0
693523.2936376977,3622751.2368613081,-27500.0,-16911.235519688034,-2188.8130675648722,-1854.2293001847011,16138.546558734644,704.7349029892348,-8168.4908052441633,16854.775120722505,-5374.6049455857847,-1702.1693888021341,1702.1693888021341,5374.6049455857847,31124.430545236137,0.0
698523.2936376977,3622751.2368613081,-27500.0,-15751.028675788577,-1921.5879253001169,-1052.3108886916991,13288.499405378439,722.58074696551273,-6563.7966526512737,14176.678291186894,-5824.8444088167435,-834.27438954292256,834.27438954292256,5824.8444088167435,26604.76507490467,0.0
703523.2936376977,3622751.2368613081,-27500.0,-14389.430242912267,-1671.3868373400892,-580.27001049085618,10988.623468425731,677.19159296338148,-5274.1932101134116,11995.515869068895,-5840.4566838546989,-304.52975505792801,304.52975505792801,5840.4566838546989,22801.591790480939,0.0
708523.2936376977,3622751.2368613081,-27500.0,-13002.640582399234,-1446.8490419602567,-305.5037154574112,9120.0309427293996,604.92624016985781,-4230.1876486879137,10203.687070936587,-5625.8975175318938,16.827507437946224,-16.827507437946224,5625.8975175318938,19588.031969591084,0.0
713523.2936376977,3622751.2368613081,-27500.0,-11673.23902531758,-1249.4172590351916,-148.57716374091939,7592.9797175487629,525.64373300604575,-3387.9279279848911,8719.8704843339365,-5294.6758763766147,208.40380328646643,-208.40380328646643,5294.6758763766147,16865.671039882389,0.0
718523.2936376977,3622751.2368613081,-27500.0,-10439.025789352854,-1078.006163201034,-61.832121523124428,6340.5050100279814,449.51989142077923,-2712.8553308188361,7483.581992387939,-4911.3841995767452,318.16339105231964,-318.16339105231964,4911.3841995767452,14556.867754558803,0.0
723523.2936376977,3622751.2368613081,-27500.0,-9315.1288042698397,-930.480660172993,-16.591495590591286,5311.0032878402299,381.09255937450246,-2174.9378099142991,6448.7770598119923,-4513.4938708630252,375.93751958451139,-375.93751958451139,4513.4938708630252,12597.822682047643,0.0
728523.2936376977,3622751.2368613081,-27500.0,-8304.4929335018533,-804.26146939012165,4.4302812388111752,4463.4133571012208,321.79220752195971,-1747.9591739844084,5579.3696836843255,-4122.7225955961412,400.66292879401135,-400.66292879401135,4122.7225955961412,10934.621207998647,0.0
733523.2936376977,3622751.2368613081,-27500.0,-7403.3534318508382,-696.66197518528634,11.645890104044808,3764.4386935567172,271.47009858063029,-1409.6184975404647,4846.4504879244114,-3751.2623123238882,404.56192584054702,-404.56192584054702,3751.2623123238882,9521.2200233159965,0.0
738523.2936376977,3622751.2368613081,-27500.0,-6604.3691106032975,-605.09593476936436,11.302818347165527,3186.8785026836185,229.27098327714276,-1141.4714137554151,4226.5487169764547,-3405.4100199013355,395.60910087022421,-395.60910087022421,3405.4100199013355,8318.3129280345747,0.0
743523.2936376977,3622751.2368613081,-27500.0,-5898.5188930251779,-527.19470911065378,7.1176543369000225,2708.4944702383045,194.101393126776,-928.60423640047406,3700.473635848859,-3087.7997021343581,379.03385836569464,-379.03385836569464,3087.7997021343581,7292.5126542609996,0.0
748523.2936376977,3622751.2368613081,-27500.0,-5276.2631826602574,-460.86047671256534,1.2680731494338335,2311.141598672566,164.86337711404428,-759.15215335310108,3252.4783441789614,-2798.8207270950738,358.26334149464765,-358.26334149464765,2798.8207270950738,6415.6275583669312,0.0
753523.2936376977,3622751.2368613081,-27500.0,-4728.2383320183517,-404.27771560689916,-5.0025875593662921,1980.0523539829358,140.55853572094762,-623.77737789383934,2869.6174871519256,-2537.5333774875658,335.52891031390118,-335.52891031390118,2537.5333774875658,5663.9767323720289,0.0
543523.2936376977,3627751.2368613081,-27500.0,-4370.5290527658844,-265.17904637324153,-18.805122494487517,-1673.8901782254338,-84.136971667893775,-471.17986348557156,2577.966924837327,-3667.4715616999315,910.57381682996174,-910.57381682996174,3667.4715616999315,5080.4976077104457,0.0
548523.2936376977,3627751.2368613081,-27500.0,-4888.5029373858133,-299.93640093234029,-12.548442006433254,-1946.679380921154,-96.71366001749773,-567.01910508191975,2917.9399214448649,-4135.510590513577,1034.1264558581925,-1034.1264558581925,4135.510590513577,5748.5149561663511,0.0
553523.2936376977,3627751.2368613081,-27500.0,-5484.075519047361,-340.85223409854763,-5.6838462078871945,-2273.9692130192029,-111.54057407617665,-685.38226781494461,3316.9402738433737,-4679.2126530466048,1177.6953235019491,-1177.6953235019491,4679.2126530466048,6530.6801845704367,0.0
558523.2936376977,3627751.2368613081,-27500.0,-6170.9439957625837,-389.38077819271587,1.2636827086568572,-2668.5898583421676,-129.06277601029092,-832.03311566454261,3787.7796638656864,-5313.0539600856409,1344.7302208042606,-1344.7302208042606,5313.0539600856409,7450.9187051575227,0.0
563523.2936376977,3627751.2368613081,-27500.0,-6965.5939921953259,-447.45265644964098,7.2625694725966694,-3146.9306510023957,-149.8205775323492,-1014.2309682303681,4346.7433305854483,-6054.7112667245437,1539.1744229616047,-1539.1744229616047,6054.7112667245437,8539.2591940047005,0.0
568523.2936376977,3627751.2368613081,-27500.0,-7887.9950574742861,-517.69838437049293,10.42192284860125,-3730.1958658244021,-174.48274745851754,-1241.0994200019322,5014.8350623965252,-6925.9314449877675,1765.4354842220723,-1765.4354842220723,6925.9314449877675,9833.8553056427481,0.0
573523.2936376977,3627751.2368613081,-27500.0,-8962.5134548481074,-603.81335540667601,7.4020128365411191,-4446.3019028950976,-203.91461223672781,-1524.1148742495625,5819.6426081596946,-7953.7316198254857,2028.2582173737037,-2028.2582173737037,7953.7316198254857,11383.965368234529,0.0
578523.2936376977,3627751.2368613081,-27500.0,-10219.067896246626,-711.16813426192778,-7.5744994477660317,-5332.8833709276396,-239.33331673158912,-1877.8589213148598,6798.2233738300456,-9172.0881719224089,2332.4081337422549,-2332.4081337422549,9172.0881719224089,13254.517003132383,0.0
583523.2936376977,3627751.2368613081,-27500.0,-11694.408206408112,-847.842315490494,-44.399477526395849,-6442.2681184829389,-282.67657936830898,-2321.4548045383567,8001.6852453249858,-10624.3037284484,2681.9808475937539,-2681.9808475937539,10624.3037284484,15533.340058149179,0.0
588523.2936376977,3627751.2368613081,-27500.0,-13432.842534471891,-1026.3704367225948,-119.95719027766663,-7849.9432627509877,-337.48362803435771,-2881.8279612213269,9502.5296417895497,-12366.093355678226,3078.9438407359203,-3078.9438407359203,12366.093355678226,18342.824197405833,0.0
593523.2936376977,3627751.2368613081,-27500.0,-15484.078967599768,-1266.5796716260591,-263.14919278446297,-9668.9638856969941,-410.95208188353848,-3601.7085633743659,11406.219142687172,-14468.623083319988,3520.0343360754223,-3520.0343360754223,14468.623083319988,21858.467673999759,0.0
598523.2936376977,3627751.2368613081,-27500.0,-17891.373984929462,-1599.7548515896267,-523.84569706440686,-12073.388948555299,-518.55211858731298,-4559.3315368760304,13868.269752116217,-17017.875040205996,3990.0114002405926,-3990.0114002405926,17017.875040205996,26336.55763532556,0.0
603523.2936376977,3627751.2368613081,-27500.0,-20652.176480660448,-2073.094555431463,-989.16213657366552,-15331.333106100688,-693.64006869661489,-5914.8275200153612,17115.54914720932,-20098.082322778922,4446.7449783681004,-4446.7449783681004,20098.082322778922,32148.542434288534,0.0
608523.2936376977,3627751.2368613081,-27500.0,-23610.063372950564,-2748.4387018590451,-1813.3877543496619,-19833.092923623884,-1004.7317914742275,-8010.2505304851147,21460.753424340033,-23724.518784897966,4788.6187641385623,-4788.6187641385623,23724.518784897966,39801.634351715787,0.0
613523.2936376977,3627751.2368613081,-27500.0,-26199.686029417135,-3674.2699812575388,-3271.8761798396467,-26046.594583399405,-1575.8481942374908,-11551.918401070847,27272.955408832815,-27642.586472109469,4787.5606696422456,-4787.5606696422456,27642.586472109469,49876.109216178513,0.0
618523.2936376977,3627751.2368613081,-27500.0,-26956.93799340443,-4777.3048393043136,-5847.9435704404877,-34195.351371401048,-2566.0821245723632,-17824.695382244678,34811.599587747238,-30843.106722409335,3971.739390819952,-3971.739390819952,30843.106722409335,62708.878681917915,0.0
623523.2936376977,3627751.2368613081,-27500.0,-22933.180429763353,-5599.4005961751118,-10324.82620273978,-43248.809637782491,-3933.501726484425,-28512.260906339576,43751.389075180763,-30703.884315212472,1491.2314284807799,-1491.2314284807799,30703.884315212472,77538.99362288315,0.0
628523.2936376977,3627751.2368613081,-27500.0,-10123.187832644217,-5055.6600989480676,-17711.549563906312,-49092.194575972731,-4600.5561494262292,-43759.991198833843,52278.79832178224,-22440.930309699324,-3857.2080637607614,3857.2080637607614,22440.930309699324,91126.695845125781,0.0
633523.2936376977,3627751.2368613081,-27500.0,12681.60533642681,-2592.7255898837457,-28697.235590428016,-44451.782570690091,-1348.8670007304829,-57083.957990995455,56583.653924855797,-1649.0704088899893,-13385.794350799397,13385.794350799397,1649.0704088899893,98214.724361425193,0.0
638523.2936376977,3627751.2368613081,-27500.0,38779.697835446517,-2276.9524046665265,-43084.308677545778,-26871.73609598292,7683.2582129820166,-53827.584885358236,54792.980407119612,28522.439302463066,-29042.121723721695,29042.121723721695,-28522.439302463066,100277.32888834686,0.0
643523.2936376977,3627751.2368613081,-27500.0,58564.053021005573,-10028.884331823185,-58972.979675132658,-6515.7242364166796,11961.004060753185,-29221.943659404806,61840.537018389245,56066.621379760472,-51295.893753151948,51295.893753151948,-56066.621379760472,109824.97944602594,1.0
648523.2936376977,3627751.2368613081,-27500.0,65684.618444208914,-18222.371343709172,-67098.389568044702,6469.3534253839489,-355.34524376097374,-5033.1147075609288,69131.750126486731,68295.907631756825,-67002.702485382208,67002.702485382208,-68295.907631756825,119851.2099869072,0.0
653523.2936376977,3627751.2368613081,-27500.0,58051.833671666041,-16631.939262695323,-58379.383616290892,15146.064597196806,-16173.783449541435,-2748.4491708694932,64439.540272627513,62507.283116155726,-62008.635803049183,62008.635803049183,-62507.283116155726,111699.14794911633,0.0
658523.2936376977,3627751.2368613081,-27500.0,39361.179820785153,-9818.7628015930168,-41677.070625904846,23141.450011855402,-19775.865094958954,-10310.858777722029,51352.331661694974,46987.904870978637,-44992.205631715748,44992.205631715748,-46987.904870978637,89878.9925701553,0.0
663523.2936376977,3627751.2368613081,-27500.0,19941.837625492015,-5335.1339013600982,-28460.350057809839,26899.89089163344,-13369.036738227576,-14786.94234078212,37750.728261694487,31250.959695093046,-30038.992742657039,30038.992742657039,-31250.959695093046,68266.446997347695,0.0
668523.2936376977,3627751.2368613081,-27500.0,5496.5049413157976,-4788.0265430791551,-20061.853123446734,27189.045347380867,-5376.5817775812338,-15634.393376382213,29820.703920400738,19236.335850480009,-21045.993240060063,21045.993240060063,-19236.335850480009,54156.297097532755,0.0
673523.2936376977,3627751.2368613081,-27500.0,-4242.465860222238,-5794.5977217602058,-14163.604041398165,25546.551669245564,-230.55429393703616,-14309.383042896981,26665.842873833572,10341.424322181858,-15543.437382562286,15543.437382562286,-10341.424322181858,46461.457022265124,0.0
678523.2936376977,3627751.2368613081,-27500.0,-10176.936099855526,-6406.7536895010608,-9707.0483335474819,22740.555339591305,2069.0082170144192,-12212.676782356502,23697.471524903525,3954.2358800735183,-11481.189535636537,11481.189535636537,-3954.2358800735183,41142.460296638412,0.0
683523.2936376977,3627751.2368613081,-27500.0,-13185.875304422181,-6285.9465531382066,-6465.8406084945291,19550.711986122835,2777.5097556661926,-10186.848143023881,20593.085253469522,-234.77139520849914,-8311.814094346335,8311.814094346335,234.77139520849914,36364.454274453536,0.0
688523.2936376977,3627751.2368613081,-27500.0,-14255.011230670094,-5732.6256618530424,-4238.7353133374299,16533.496343194194,2788.0053362684089,-8459.9339670876743,17676.380683613774,-2725.6046142050877,-5927.4839483061805,5927.4839483061805,2725.6046142050877,31903.620908949568,0.0
693523.2936376977,3627751.2368613081,-27500.0,-14201.324520461058,-5030.5729503080911,-2764.1713189920169,13904.694036704957,2530.7459889108673,-7005.5244259088977,15116.08352458934,-4071.3997668756692,-4198.8727758720615,4198.8727758720615,4071.3997668756692,27846.797148604132,0.0
698523.2936376977,3627751.2368613081,-27500.0,-13558.22245179313,-4329.0309638730632,-1805.3193052179734,11681.75468916912,2190.8400073051343,-5769.0915183047191,12931.976598459703,-4704.5757456708398,-2966.6760201216498,2966.6760201216498,4704.5757456708398,24233.601394337504,0.0
703523.2936376977,3627751.2368613081,-27500.0,-12633.908037845271,-3688.5908010750945,-1186.0290042380684,9816.5903075780752,1847.6261441957756,-4718.8786115700777,11084.451687477922,-4910.2827928468014,-2090.6316429182734,2090.6316429182734,4910.2827928468014,21053.406730680141,0.0
708523.2936376977,3627751.2368613081,-27500.0,-11599.122563768711,-3127.6904468765115,-786.61367741579306,8253.7105760574923,1534.5821154876096,-3836.7256232304017,9523.092706462241,-4864.4402248476299,-1465.6083500764607,1465.6083500764607,4864.4402248476299,18276.147104981152,0.0
713523.2936376977,3627751.2368613081,-27500.0,-10548.248285058849,-2646.9939633770869,-528.82527767796682,6945.1561319989241,1263.6602801904328,-3106.4127091001924,8202.3521062756245,-4674.3548659298058,-1017.6337252291494,1017.6337252291494,4674.3548659298058,15865.770693058557,0.0
718523.2936376977,3627751.2368613081,-27500.0,-9533.3958517407791,-2240.1256775647971,-362.23061508801635,5851.0460692008555,1036.2790542199375,-2509.7577043727892,7083.971135520238,-4406.189445296026,-695.44831377999253,695.44831377999253,4406.189445296026,13784.308140469517,0.0
723523.2936376977,3627751.2368613081,-27500.0,-8582.3392202379764,-1898.2724802294088,-254.4374305640963,4937.6633109330623,848.94836226020027,-2027.2200554155554,6135.9970494366371,-4101.1891007137647,-463.34711612895194,463.34711612895194,4101.1891007137647,11993.629932950684,0.0
728523.2936376977,3627751.2368613081,-27500.0,-7708.2586475817716,-1612.2291097597554,-184.62150527208189,4176.0641067880679,696.28896216357259,-1639.615988834734,5331.5456152467041,-3785.0575890956561,-296.17940797071151,296.17940797071151,3785.0575890956561,10456.869110471143,0.0
733523.2936376977,3627751.2368613081,-27500.0,-6915.4216116597445,-1373.3294882207754,-139.36268420074811,3541.3405393063558,572.60467739220201,-1329.4592036107722,4647.8910872839715,-3473.5391451786868,-176.03729518820501,176.03729518820501,3473.5391451786868,9139.592365876646,0.0
738523.2936376977,3627751.2368613081,-27500.0,-6202.7192950767012,-1173.8424428196247,-109.98808950879334,3012.1942728831409,472.6269458310295,-1081.631531668728,4065.8219948667447,-3175.8981503436635,-90.061419800380691,90.061419800380691,3175.8981503436635,8010.5737713038452,0.0
743523.2936376977,3627751.2368613081,-27500.0,-5565.9464521270029,-1007.0914831827761,-90.878730293610261,2570.5896115876876,391.8021720377526,-883.52730082302014,3569.1395535109955,-2897.1730490333525,-28.960733519508267,28.960733519508267,2897.1730490333525,7042.1497540103028,0.0
748523.2936376977,3627751.2368613081,-27500.0,-4999.282444961641,-867.43055446694154,-78.387006822357861,2201.4020291853426,326.34333060810798,-724.88885537049316,3144.2316768395312,-2639.6718772307377,14.008048028546682,-14.008048028546682,2639.6718772307377,6210.2438315316349,0.0
753523.2936376977,3627751.2368613081,-27500.0,-4496.2369802692774,-750.15040393430809,-70.142544255324452,1892.0515655273402,273.17223827339245,-597.50165195251498,2779.6942654021468,-2403.9729419690939,43.755748625457272,-43.755748625457272,2403.9729419690939,5494.1698056509631,0.0
543523.2936376977,3632751.2368613081,-27500.0,-4444.0042288395525,67.939311053546163,-16.434054199069553,-1698.7619134533754,35.402562779119194,-477.32366030025048,2612.2542989736635,-3695.6902891373193,1165.6458498306399,-1165.6458498306399,3695.6902891373193,5142.9718253861065,0.0
548523.2936376977,3632751.2368613081,-27500.0,-4972.6254210472089,93.431936829623723,-10.394036371612167,-1976.2251155478632,48.861549650852879,-574.54385624059864,2957.9043121582108,-4166.5667610622213,1334.8742457624112,-1334.8742457624112,4166.5667610622213,5821.7103541857241,0.0
553523.2936376977,3632751.2368613081,-27500.0,-5580.8403810839727,126.2224799200004,-3.9327304217151196,-2309.2697101214594,66.858817738179297,-694.63573431542738,3363.8472429652443,-4713.3765820554199,1534.258785967631,-1534.258785967631,4713.3765820554199,6617.1269556315428,0.0
558523.2936376977,3632751.2368613081,-27500.0,-6282.856448173884,168.43498136254604,2.3511833083457301,-2711.0396433382648,91.001131109015958,-843.45464388766004,3843.2850923780024,-5350.6378065764529,1769.9537974807722,-1769.9537974807722,5350.6378065764529,7553.960531932953,0.0
563523.2936376977,3632751.2368613081,-27500.0,-7095.8710561068974,222.83182886825688,7.3336489523078603,-3198.364587646673,123.50568722283708,-1028.375362368565,4413.0662367497553,-6096.1185582676162,2049.4708907352215,-2049.4708907352215,6096.1185582676162,8663.4108905532266,0.0
568523.2936376977,3632751.2368613081,-27500.0,-8040.8835923973338,292.99975055149355,9.0171025886336658,-3793.0915621041408,167.44477179739403,-1258.6683268687757,5095.0311584811434,-6971.7672561809377,2381.9885374079768,-2381.9885374079768,6971.7672561809377,9985.3631050340391,0.0
573523.2936376977,3632751.2368613081,-27500.0,-9143.8132654688397,383.57534643277688,3.9622841109990512,-4524.1242798741669,227.08789242637621,-1546.0043790937627,5918.053698704316,-8005.0426407821506,2778.7359639940355,-2778.7359639940355,8005.0426407821506,11571.717477940883,0.0
578523.2936376977,3632751.2368613081,-27500.0,-10437.028491660907,500.50599435229952,-13.642234973871584,-5430.7123370805302,308.37602145981231,-1905.2541365822915,6921.2483489151082,-9230.879179544314,3253.4748867281851,-3253.4748867281851,9230.879179544314,13491.585921289105,0.0
583523.2936376977,3632751.2368613081,-27500.0,-11961.288502945948,651.31611965444154,-53.509607840207522,-6568.0031260995829,419.56205214995947,-2356.062898606644,8159.146162515839,-10694.615551984612,3823.090195657458,-3823.090195657458,10694.615551984612,15839.677540727896,0.0
588523.2936376977,3632751.2368613081,-27500.0,-13767.643184748962,845.32293888770084,-131.79197362011578,-8016.7201696892253,572.04557750679976,-2926.5284887224198,9710.1734120086712,-12456.211234766504,4508.2481184832923,-4508.2481184832923,12456.211234766504,18750.125520252317,0.0
593523.2936376977,3632751.2368613081,-27500.0,-15917.267316267689,1093.6684361063396,-275.34601637842621,-9900.1704702299485,781.38230937416415,-3662.4425053783498,11690.436109242841,-14595.518636611443,5333.8024292574055,-5333.8024292574055,14595.518636611443,22419.223018764736,0.0
598523.2936376977,3632751.2368613081,-27500.0,-18472.549062624079,1408.9847357518865,-529.08387104232372,-12413.168981166014,1068.3665250945348,-4650.5635897472039,14275.10194344615,-17215.760728984656,6327.6631305716946,-6327.6631305716946,17215.760728984656,27141.133686718571,0.0
603523.2936376977,3632751.2368613081,-27500.0,-21460.639825189297,1804.4803094478275,-969.13707059085039,-15866.321035784316,1459.9642585883471,-6075.0490977669733,17727.946340954812,-20433.722501696317,7513.7610412317408,-7513.7610412317408,20433.722501696317,33357.571501889914,0.0
608523.2936376977,3632751.2368613081,-27500.0,-24762.168362507604,2292.5851656956502,-1727.7699050958065,-20734.839604817182,1990.0858712560398,-8344.5264974015881,22431.007674584922,-24320.061724580119,8885.8135264030134,-8885.8135264030134,24320.061724580119,41706.136935912262,0.0
613523.2936376977,3632751.2368613081,-27500.0,-27823.971658621893,2884.5568853328941,-3043.460272949098,-27642.073895832946,2702.3456413614035,-12342.172338808086,28880.575544116204,-28691.970794928624,10325.801032336693,-10325.801032336693,28691.970794928624,53002.223720873131,0.0
618523.2936376977,3632751.2368613081,-27500.0,-29041.05908743295,3594.5775065949379,-5364.7969387183057,-37029.870477204437,3667.201061679129,-19784.655443362226,37552.615962903685,-32547.087562950866,11383.780205635208,-11383.780205635208,32547.087562950866,67969.341135794457,0.0
623523.2936376977,3632751.2368613081,-27500.0,-24823.08934379114,4442.9592649561437,-9551.5202616862716,-47897.674035820761,5060.3485492403552,-33224.716709198168,48414.114165478109,-32874.737527906887,10785.372445162307,-10785.372445162307,32874.737527906887,86317.534573598445,0.0
628523.2936376977,3632751.2368613081,-27500.0,-9597.6177707141833,5342.8053177399524,-17133.837232842077,-54919.553885295769,7400.0796363602913,-53712.255118147936,59740.581070345528,-23355.722363378765,5698.0371106431794,-5698.0371106431794,23355.722363378765,104732.18551275178,0.0
633523.2936376977,3632751.2368613081,-27500.0,18849.199918016329,5240.2282825207894,-30014.104836746712,-46777.612060437379,11645.862626274065,-72538.967573131886,66651.379086971836,2869.5103354677035,-8121.5606866534199,8121.5606866534199,-2869.5103354677035,115445.16068838463,0.0
638523.2936376977,3632751.2368613081,-27500.0,48253.235394267511,77.611873674585993,-47619.646896662802,-18840.511972448006,16169.438409305876,-65767.426975149225,64369.016692613339,39750.723353491623,-32236.287810171816,32236.287810171816,-39750.723353491623,114499.32936149363,0.0
643523.2936376977,3632751.2368613081,-27500.0,61043.736874093345,-12363.098918249876,-61442.883806103673,8056.8825517387058,10360.842773458256,-28146.502451499498,64398.192427582981,63867.963467147456,-57358.237127608816,57358.237127608816,-63867.963467147456,114055.1617719905,0.0
648523.2936376977,3632751.2368613081,-27500.0,56759.256506816149,-20291.668401681916,-59723.486029619031,17368.239298025284,-8431.9017807423224,3864.5317087301214,64686.062422519055,63543.689708004022,-64871.964657146513,64871.964657146513,-63543.689708004022,112063.69680461107,0.0
653523.2936376977,3632751.2368613081,-27500.0,44125.024058152339,-17136.7084797678,-45396.868296906483,17003.603943895225,-20678.694906145149,9695.3641501979473,55182.071369887693,49586.407080900892,-52743.695723018223,52743.695723018223,-49586.407080900892,95648.082191831971,0.0
658523.2936376977,3632751.2368613081,-27500.0,29601.660550794637,-11122.852607142613,-30982.75239509411,16969.928714085512,-19338.651013603656,2797.7452052275098,41291.123226129508,34987.864341867746,-36749.659359160149,36749.659359160149,-34987.864341867746,71568.573795414981,0.0
663523.2936376977,3632751.2368613081,-27500.0,16650.93897930302,-7562.1018134486685,-21964.992571253086,17344.599777431475,-11847.446369711826,-3275.6961401410413,28743.152119707804,23739.719317159885,-25551.764294536704,25551.764294536704,-23739.719317159885,51126.538227946286,0.0
668523.2936376977,3632751.2368613081,-27500.0,6932.9413815524968,-6816.5928704927537,-16908.212790243229,17174.387472437218,-4420.173351677543,-6416.0816926737052,19595.646435486386,15765.329704338856,-19299.425206556854,19299.425206556854,-15765.329704338856,38874.558515140634,0.0
673523.2936376977,3632751.2368613081,-27500.0,-10.68071795648131,-7387.6226513654783,-13349.607456677437,16514.075510945855,527.21584665584987,-7566.0927437459522,18848.779946721927,9831.6602050280799,-15585.191412547543,15585.191412547543,-9831.6602050280799,33420.636960342614,0.0
678523.2936376977,3632751.2368613081,-27500.0,-4812.3119884990474,-7894.8896734136069,-10286.595659901335,15403.549889653992,3014.0494065764419,-7604.2565023830148,17778.764889682796,5241.6006872544749,-12723.003260246522,12723.003260246522,-5241.6006872544749,30798.185296717085,0.0
683523.2936376977,3632751.2368613081,-27500.0,-7857.8515942816593,-7856.7422780878724,-7670.1585529447166,13974.903020066498,3898.1809242197305,-7104.1117029289335,16260.260381383638,1832.682287453008,-10212.071912386451,10212.071912386451,-1832.682287453008,28585.455484503287,0.0
688523.2936376977,3632751.2368613081,-27500.0,-9539.3180668814402,-7362.2104667317835,-5590.0343326553539,12425.285562876756,3942.3338221338017,-6373.0106923517951,14552.315932070567,-525.24898741936886,-8046.5968844820727,8046.5968844820727,525.24898741936886,26182.308510013398,0.0
693523.2936376977,3632751.2368613081,-27500.0,-10258.859599067648,-6628.359569603097,-4029.2957781559121,10900.896398941721,3609.7258218412376,-5561.453518530303,12857.805444175121,-2047.3662733650644,-6262.9576828051477,6262.9576828051477,2047.3662733650644,23643.069565787478,0.0
698523.2936376977,3632751.2368613081,-27500.0,-10349.790520942624,-5821.0353836145778,-2897.8645776572275,9477.391855844302,3142.6308419645593,-4751.4299937615942,11279.744333072005,-2961.8283328250723,-4841.8720522874664,4841.8720522874664,2961.8283328250723,21116.318017360289,0.0
703523.2936376977,3632751.2368613081,-27500.0,-10052.433126709087,-5034.976174640251,-2091.8641655287288,8186.3912925425393,2659.1964388360961,-3993.0925626714061,9857.1031143581567,-3456.7189264549684,-3730.4973260470319,3730.4973260470319,3456.7189264549684,18712.787268597644,0.0
708523.2936376977,3632751.2368613081,-27500.0,-9529.3285488023012,-4315.6685594546707,-1521.8277927943041,7037.8335796329284,2212.9175250196959,-3315.1055389326457,8597.4788557739193,-3670.3294328915017,-2869.473475189121,2869.473475189121,3670.3294328915017,16496.531219349403,0.0
713523.2936376977,3632751.2368613081,-27500.0,-8887.7886780290901,-3680.2783918874907,-1119.1806771476704,6030.7353972775672,1824.1066649517556,-2729.3084327049191,7494.4953366338368,-3699.8099567177924,-2205.4439714528107,2205.4439714528107,3699.8099567177924,14496.899016444413,0.0
718523.2936376977,3632751.2368613081,-27500.0,-8197.7069692992372,-3130.9338541748889,-834.09680896793441,5157.8112286760979,1496.406443347068,-2235.5822793764123,6535.735016119922,-3612.3310099204182,-1694.401471986507,1694.401471986507,3612.3310099204182,12720.137994862424,0.0
723523.2936376977,3632751.2368613081,-27500.0,-7503.680313740806,-2662.3125892230601,-631.28795543084937,4407.9838645699374,1225.6329395091088,-1826.6529232893079,5706.4108152182844,-3453.9855686704191,-1301.3708701955179,1301.3708701955179,3453.9855686704191,11158.175280430087,0.0
728523.2936376977,3632751.2368613081,-27500.0,-6833.1179764385133,-2265.8549218581234,-486.06372618439173,3768.2069101989441,1004.5050480199292,-1491.8956731572398,4991.2529410296111,-3256.1200556622102,-999.04109538352031,999.04109538352031,3256.1200556622102,9794.9100218724052,0.0
733523.2936376977,3632751.2368613081,-27500.0,-6201.7854404455475,-1932.0601745910781,-381.23878443548438,3224.8610241770484,825.0802825689176,-1219.8549901672868,4375.5564733741203,-3039.7515472343794,-766.28950481810602,766.28950481810602,3039.7515472343794,8610.508905511997,0.0
738523.2936376977,3632751.2368613081,-27500.0,-5617.6691148596638,-1651.6874148544107,-304.8672044831834,2764.7360019488679,679.91040894168657,-999.66993777431537,3845.7524592501227,-2818.6746703897252,-586.87587658697066,586.87587658697066,2818.6746703897252,7584.1683533178903,0.0
743523.2936376977,3632751.2368613081,-27500.0,-5083.6845073802233,-1416.3268180618113,-248.63601832734975,2375.6331503944516,562.5021122593223,-821.73936907870393,3389.6749907988142,-2601.6668001859739,-448.36066977087512,448.36066977087512,2601.6668001859739,6695.7619651048371,0.0
748523.2936376977,3632751.2368613081,-27500.0,-4599.555926885766,-1218.6156929869753,-206.74536222951889,2046.6646550928435,467.420719987312,-677.92593416989371,2996.6302324167386,-2394.0550091559853,-341.23713356633266,341.23713356633266,2394.0550091559853,5926.720546412731,0.0
753523.2936376977,3632751.2368613081,-27500.0,-4163.1027815717534,-1052.2621505697289,-175.13338520820454,1768.3430176133979,390.22671186733908,-561.51359142835838,2657.346702289557,-2198.8266592714735,-258.24699579741446,258.24699579741446,2198.8266592714735,5260.420684382555,0.0
543523.2936376977,3637751.2368613081,-27500.0,-4412.0369369847076,398.91311823928442,-57.080989335694859,-1688.8683584316279,154.38684122833035,-474.88950477987362,2612.101199969713,-3623.939507395844,1366.9530969375555,-1366.9530969375555,3623.939507395844,5140.6611925419948,0.0
548523.2936376977,3637751.2368613081,-27500.0,-4927.2892746771804,483.40415872829902,-61.626926057656561,-1961.6209436348786,193.47888311020944,-570.83117107666931,2955.3748346080142,-4074.1779981922491,1568.4679557492645,-1568.4679557492645,4074.1779981922491,5814.9423288068829,0.0
553523.2936376977,3637751.2368613081,-27500.0,-5517.4908513876962,588.11079598472907,-68.927035786600825,-2288.0342446849204,243.69369635607725,-689.05274082093342,3357.8918007287025,-4593.9457438738227,1806.2934663914853,-1806.2934663914853,4593.9457438738227,6604.0664713260448,0.0
558523.2936376977,3637751.2368613081,-27500.0,-6195.1752662511562,718.50853516510711,-80.660600968333981,-2680.4453936989476,308.59015252779108,-835.13188895390158,3832.4342984945924,-5195.551863102497,2087.9036851514279,-2087.9036851514279,5195.551863102497,7532.0714600475685,0.0
563523.2936376977,3637751.2368613081,-27500.0,-6975.2116933523739,881.72929834142451,-99.442763877065076,-3154.5128966279581,392.99371150734362,-1016.029672602054,4395.2535558375612,-5893.7047306425857,2422.4379351821326,-2422.4379351821326,5893.7047306425857,8629.1724300827009,0.0
568523.2936376977,3637751.2368613081,-27500.0,-7875.3336390899813,1087.1160785714421,-129.34423957515267,-3730.3673877685987,503.4945160744071,-1240.3970740365289,5067.3303031085734,-6706.0742109441717,2821.092165837129,-2821.092165837129,6706.0742109441717,9933.855924640804,0.0
573523.2936376977,3637751.2368613081,-27500.0,-8916.8433370154962,1346.987704864345,-176.7093827845803,-4434.3731969210094,649.16678092422433,-1518.9736736415857,5876.2874744420587,-7654.0785300577481,3297.6216408077612,-3297.6216408077612,7654.0785300577481,11496.017674333467,0.0
578523.2936376977,3637751.2368613081,-27500.0,-10125.513320687061,1677.7055181653739,-251.45252089982725,-5301.9740111657311,842.6282017015867,-1865.2218606639688,6859.3884409444718,-8764.0211074812887,3869.0001958837342,-3869.0001958837342,8764.0211074812887,13381.846326399827,0.0
583523.2936376977,3637751.2368613081,-27500.0,-11532.57459479365,2101.1828126209402,-369.12964515891611,-6382.5248979600919,1101.64859422578,-2296.6419796987734,8068.3751669555586,-10068.740098448121,4556.3016487240311,-4556.3016487240311,10068.740098448121,15681.702644733199,0.0
588523.2936376977,3637751.2368613081,-27500.0,-13175.14524985034,2647.0472369412473,-554.28559650375007,-7747.762369200761,1451.6981291651232,-2838.0253444729424,9577.3878971986978,-11609.804371854698,5385.8461077298525,-5385.8461077298525,11609.804371854698,18523.097245582539,0.0
593523.2936376977,3637751.2368613081,-27500.0,-15093.755678608964,3355.7109382544686,-845.94027376735801,-9506.6850310298523,1930.2041371022888,-3529.946346541793,11495.791079449726,-13439.500723414047,6390.4043713600149,-6390.4043713600149,13439.500723414047,22091.933865381994,0.0
598523.2936376977,3637751.2368613081,-27500.0,-17319.90874006107,4282.4901830062718,-1306.7840945971557,-11830.619834643865,2594.0891539986355,-4450.582638615494,13987.964131309669,-15618.958344895431,7609.2044136252425,-7609.2044136252425,15618.958344895431,26665.696154157769,0.0
603523.2936376977,3637751.2368613081,-27500.0,-19834.467060158018,5501.9127076585783,-2039.0681778813723,-14990.199932354939,3533.711556273277,-5768.9449351153071,17300.250062682913,-18199.651489438569,9081.7052283953635,-9081.7052283953635,18199.651489438569,32658.93938540564,0.0
608523.2936376977,3637751.2368613081,-27500.0,-22450.225901996986,7107.2150434840605,-3213.1666988502316,-19390.286312273514,4898.7299574903072,-7864.2447887264043,21786.959345621759,-21150.760631567307,10818.416291237296,-10818.416291237296,21150.760631567307,40665.755889176973,0.0
613523.2936376977,3637751.2368613081,-27500.0,-24522.326000806235,9185.7226683429708,-5120.7241920255628,-25527.90278390317,6941.9941538594039,-11556.792675612369,27902.967042651966,-24137.334312662919,12699.91969881823,-12699.91969881823,24137.334312662919,51436.396698138997,0.0
618523.2936376977,3637751.2368613081,-27500.0,-24350.388214691557,11709.081657862176,-8272.8426296870548,-33620.481084330408,10070.344137510418,-18420.876570019915,36071.644145963583,-25957.419722655897,14182.459843820783,-14182.459843820783,25957.419722655897,65611.493692787932,0.0
623523.2936376977,3637751.2368613081,-27500.0,-18345.513826350547,14183.760631350675,-13554.844791009726,-42292.218529475998,14791.727456258906,-30684.483056368146,46216.445632610725,-23447.394637289803,13592.115816907655,-13592.115816907655,23447.394637289803,82825.905573568627,0.0
628523.2936376977,3637751.2368613081,-27500.0,-1392.1836866330664,14836.465899445388,-22298.231104193455,-45690.695148246043,21093.860311769658,-48659.635013480976,56614.819136535458,-10591.111285516918,7016.8475763192273,-7016.8475763192273,10591.111285516918,99705.732302201926,0.0
633523.2936376977,3637751.2368613081,-27500.0,26710.994506088606,9810.0609531757436,-35404.668271500712,-32386.33589505194,26191.276771869645,-62010.571537911972,62424.067437620288,17408.20128211741,-11082.319467919368,11082.319467919368,-17408.20128211741,108222.72427160968,0.0
638523.2936376977,3637751.2368613081,-27500.0,49197.831376416056,-3782.654693452585,-49483.960891321753,-1316.3903175554963,21664.078972906449,-45434.901733352694,59321.199075647724,48784.195839011889,-38980.638368985128,38980.638368985128,-48784.195839011889,103976.16853759497,0.0
643523.2936376977,3637751.2368613081,-27500.0,49698.975498284271,-18341.167775105863,-53713.112784419558,18557.855283354711,1658.5323609293118,-1122.9037202118859,57813.857437550912,57771.409665845422,-57648.712777908746,57648.712777908746,-57771.409665845422,100359.13622011417,0.0
648523.2936376977,3637751.2368613081,-27500.0,40309.901743633935,-21197.489611223747,-43316.036772845539,15387.337384794726,-20320.14803737506,25916.491962667591,55125.070727875238,46213.615154856263,-53605.61756400406,53605.61756400406,-46213.615154856263,96404.573740648208,0.0
653523.2936376977,3637751.2368613081,-27500.0,31767.587310044692,-14582.96185798069,-29280.460195785661,7535.2085561947042,-27742.995090025121,25415.457140637845,45094.769446979815,32608.304990981869,-38300.490932586159,38300.490932586159,-32608.304990981869,80602.582346495037,0.0
658523.2936376977,3637751.2368613081,-27500.0,24398.997804143117,-8261.7402060177337,-20122.845104074931,4665.5057707659626,-22462.322915573008,14982.93329077369,32415.522269893911,23728.43616295778,-25788.444572853678,25788.444572853678,-23728.43616295778,58612.063263997705,0.0
663523.2936376977,3637751.2368613081,-27500.0,17196.865017992041,-5483.8675323231946,-15718.780848978742,5289.1014259106105,-13509.818319883288,6106.441774858451,22423.263914133022,17964.754820549704,-18883.184678460977,18883.184678460977,-17964.754820549704,39535.762932964084,0.0
668523.2936376977,3637751.2368613081,-27500.0,10698.456501606626,-5263.5736193886305,-13608.240249356417,6646.0772642444654,-5772.8006328017191,711.48269498397553,15909.69440621855,13630.206644108954,-15566.708246301578,15566.708246301578,-13630.206644108954,27629.823400908263,0.0
673523.2936376977,3637751.2368613081,-27500.0,5284.2077624802423,-6122.7039311248409,-12004.539284209353,7727.2674375182814,-541.21546379625227,-2226.8645696573235,12865.445666120426,9966.6977576344125,-13745.801494118701,13745.801494118701,-9966.6977576344125,22758.145605375837,0.0
678523.2936376977,3637751.2368613081,-27500.0,981.72457614223526,-6998.1295458206032,-10255.60614935084,8316.5515860900541,2401.3168748141952,-3683.9460383015544,12478.052394657494,6736.3522757957198,-12227.910341655597,12227.910341655597,-6736.3522757957198,21617.860921891195,0.0
683523.2936376977,3637751.2368613081,-27500.0,-2246.839126545442,-7417.8103254387652,-8406.4360537469092,8430.5788298568568,3729.2196177893929,-4257.9281814903889,12105.898327066698,3987.5947037523651,-10640.511374523481,10640.511374523481,-3987.5947037523651,21204.11659782851,0.0
688523.2936376977,3637751.2368613081,-27500.0,-4497.6855273883157,-7344.3771016344772,-6669.1110461013168,8175.328455594552,4086.0061109019111,-4307.1285334614331,11394.889495218675,1797.1625177640167,-9019.1957943217694,9019.1957943217694,-1797.1625177640167,20434.75299555192,0.0
693523.2936376977,3637751.2368613081,-27500.0,-5932.1979445726374,-6918.8681689376644,-5180.8845643535788,7674.729180232318,3927.9069455213266,-4055.7952402359128,10476.454538759506,159.18565021346512,-7484.9186405447845,7484.9186405447845,-159.18565021346512,19216.596096886151,0.0
698523.2936376977,3637751.2368613081,-27500.0,-6735.2483584746196,-6299.7503402915745,-3979.4117538354585,7034.6846349822727,3534.6120333240569,-3650.2949734464291,9478.8900628389601,-998.63723178933651,-6119.9685147829259,6119.9685147829259,998.63723178933651,17709.074475718255,0.0
703523.2936376977,3637751.2368613081,-27500.0,-7077.5203354745399,-5606.5036600061567,-3043.4079605245229,6334.5368517386205,3063.2742593250455,-3186.3370063648658,8485.3478513050341,-1772.2435134934024,-4955.0967899878779,4955.0967899878779,1772.2435134934024,16079.38333220297,0.0
708523.2936376977,3637751.2368613081,-27500.0,-7099.4383698668316,-4914.7290317592451,-2329.030181432749,5629.4774711631053,2595.6902730443962,-2723.3558082839118,7543.2933123143766,-2254.0492976151018,-3987.3476974322793,3987.3476974322793,2254.0492976151018,14449.247417343644,0.0
713523.2936376977,3637751.2368613081,-27500.0,-6909.3482493105212,-4266.5064096650458,-1789.763551493656,4955.1957863434809,2170.0124607813559,-2294.589598136421,6676.8745427093181,-2522.2301545860973,-3197.1962599100298,3197.1962599100298,2522.2301545860973,12894.901551621264,0.0
718523.2936376977,3637751.2368613081,-27500.0,-6587.4622699727888,-3681.7213519654765,-1384.6541819001754,4332.4575326205531,1800.265987001889,-1915.3960963982047,5895.7747754316124,-2638.744846961637,-2559.2242533471704,2559.2242533471704,2638.744846961637,11458.106505177633,0.0
723523.2936376977,3637751.2368613081,-27500.0,-6191.245622559768,-3166.727558332705,-1080.5491258291192,3771.2141876721967,1487.9003079946281,-1589.9264498043515,5200.9848753323968,-2650.835670373574,-2047.7364580710778,2047.7364580710778,2650.835670373574,10157.145890865406,0.0
728523.2936376977,3637751.2368613081,-27500.0,-5760.5962222568032,-2720.2139457297899,-851.77307957053745,3274.0793625507977,1228.410463894227,-1316.0106313743604,4588.5258934142275,-2593.553273268501,-1639.3520010749585,1639.3520010749585,2593.553273268501,8995.424207037966,0.0
733523.2936376977,3637751.2368613081,-27500.0,-5322.2869207627491,-2336.9353620388656,-678.93350139367124,2839.0693637447034,1014.9844072873408,-1088.4094891506033,4051.8372762189902,-2492.3276382279573,-1313.9573505179569,1313.9573505179569,2492.3276382279573,7967.5833908675932,0.0
738523.2936376977,3637751.2368613081,-27500.0,-4893.5546073922533,-2009.9717762683488,-547.59155357431428,2461.6109622843628,840.40085453282086,-900.79385693345853,3583.2777861863578,-2365.234785184542,-1054.823715084362,1054.823715084362,2365.234785184542,7063.604502895575,0.0
743523.2936376977,3637751.2368613081,-27500.0,-4484.8837273748668,-1732.0272707754825,-447.08086419633082,2135.9143082750948,697.93148794513036,-746.84244188867046,3175.0338245225739,-2224.8617661595481,-848.33431709694651,848.33431709694651,2224.8617661595481,6271.4273567733326,0.0
748523.2936376977,3637751.2368613081,-27500.0,-4102.0952806877613,-1496.1266823766412,-369.55045682253018,1855.8496911515012,581.69937689287826,-620.78054736244451,2819.6364399049135,-2079.7769374446248,-683.5609121984138,683.5609121984138,2079.7769374446248,5578.5411820066311,0.0
753523.2936376977,3637751.2368613081,-27500.0,-3747.8729153347476,-1295.9472908013711,-309.22562070203423,1615.4670317790806,486.75644212734392,-517.5902880014753,2510.2260459032482,-1935.6546785358557,-551.81276120944699,551.81276120944699,1935.6546785358557,4972.8918435570686,0.0
543523.2936376977,3642751.2368613081,-27500.0,-4278.9044852458519,709.67395110687482,-137.65001594025168,-1645.475341073047,267.04234649699907,-464.17331025754407,2578.0975570932133,-3458.3934099562766,1504.712763425021,-1504.712763425021,3458.3934099562766,5074.6431873282208,0.0
548523.2936376977,3642751.2368613081,-27500.0,-4758.4156426369627,846.76441070636429,-161.99310791619067,-1904.6779055498353,329.50024072916386,-556.31817653390635,2911.1962508047382,-3866.7496574713814,1722.5992621114153,-1722.5992621114153,3866.7496574713814,5729.7681144473063,0.0
553523.2936376977,3642751.2368613081,-27500.0,-5302.2841277166044,1014.7082203681589,-194.7712166823583,-2212.8751097878007,408.7607411361513,-669.28432172046701,3300.2938864751236,-4332.4687097827664,1978.1991572910215,-1978.1991572910215,4332.4687097827664,6493.7563948213447,0.0
558523.2936376977,3642751.2368613081,-27500.0,-5919.5045782234893,1221.4137659151045,-239.52548197379005,-2580.6073186263243,509.93181691270928,-808.04230601619122,3757.0051497181139,-4863.8167306403739,2278.6485266011127,-2278.6485266011127,4863.8167306403739,7388.5356310888483,0.0
563523.2936376977,3642751.2368613081,-27500.0,-6620.0642870310139,1477.0443710269465,-301.41810243582785,-3020.9558585692298,639.84366311858639,-978.67423747646774,4295.9243518112753,-5469.9256782060293,2632.3857858481579,-2632.3857858481579,5469.9256782060293,8441.346245996474,0.0
568523.2936376977,3642751.2368613081,-27500.0,-7414.8864478057912,1794.7240492124442,-388.03225048307235,-3550.3041236427948,807.68837173539373,-1188.5486521775251,4935.6387817326913,-6160.6858697150237,3049.3087187006263,-3049.3087187006263,6160.6858697150237,9686.4109581196808,0.0
573523.2936376977,3642751.2368613081,-27500.0,-8315.6554425507147,2191.4921937642116,-510.59939505145894,-4189.4786661431517,1025.9321237244237,-1446.5153385617912,5700.2433538028363,-6946.5216071080586,3540.8998589709181,-3540.8998589709181,6946.5216071080586,11167.393649313986,0.0
578523.2936376977,3642751.2368613081,-27500.0,-9334.3624074050022,2689.603074427047,-685.90075155497163,-4965.5674664847293,1311.647975925536,-1763.2067819186586,6621.669721905253,-7837.9555056610334,4120.2654392020686,-4120.2654392020686,7837.9555056610334,12941.142666910659,0.0
583523.2936376977,3642751.2368613081,-27500.0,-10482.184675128252,3318.3131032239744,-939.25305222595046,-5914.9894497053747,1688.5429999359619,-2151.7716382636313,7743.3765379927672,-8844.7626859374159,4801.9834244941703,-4801.9834244941703,8844.7626859374159,15083.607056476214,0.0
588523.2936376977,3642751.2368613081,-27500.0,-11766.596278201112,4116.3128231125256,-1309.2628963330819,-7088.798324512195,2190.203414373399,-2629.9972302628676,9126.2305646462919,-9974.1006981486171,5601.465346120026,-5601.465346120026,9974.1006981486171,17699.29527468681,0.0
593523.2936376977,3642751.2368613081,-27500.0,-13183.775356792581,5134.8490271072405,-1855.5283563532078,-8561.6536549194061,2865.6075832546062,-3226.3437300275132,10857.659447661254,-11225.799681097949,6532.9700134767809,-6532.9700134767809,11225.799681097949,20936.09953463728,0.0
598523.2936376977,3642751.2368613081,-27500.0,-14698.775739221057,6440.8730192442508,-2671.3289499824918,-10445.519111171538,3788.9754013969828,-3995.8582567192907,13064.771386725357,-12579.568191905906,7603.6484955202068,-7603.6484955202068,12579.568191905906,25006.665040097134,0.0
603523.2936376977,3642751.2368613081,-27500.0,-16195.501315843841,8116.77815259812,-3904.7916457365955,-12904.732517304621,5077.6310053030529,-5058.3447930650627,15929.454804990475,-13959.979502723787,8795.8704877729197,-8795.8704877729197,13959.979502723787,30212.64435428966,0.0
608523.2936376977,3642751.2368613081,-27500.0,-17358.449592047797,10244.114593090701,-5793.8498834339971,-16150.733956711558,6922.4412332915308,-6678.74557472369,19694.610678924404,-15144.783078848368,10016.312749115919,-10016.312749115919,15144.783078848368,36951.514091400437,0.0
613523.2936376977,3642751.2368613081,-27500.0,-17423.384568455484,12832.153063799469,-8719.6438751557089,-20338.097727782959,9627.2036910612405,-9400.7321690715416,24628.463860064945,-15545.970894800721,10958.107401163445,-10958.107401163445,15545.970894800721,45642.603283130797,0.0
618523.2936376977,3642751.2368613081,-27500.0,-14762.559234389959,15589.375537789665,-13264.453113969648,-25151.019236435968,13601.984558712773,-14143.252548070475,30869.158264015117,-13771.833621051977,10768.38672673098,-10768.38672673098,13771.833621051977,56422.949428919208,0.0
623523.2936376977,3642751.2368613081,-27500.0,-6602.5214740486435,17349.352196477244,-20164.128709081888,-28709.734184585926,19058.738465077058,-21757.999948842324,38009.161866220435,-7077.5966852641159,7423.2650440819398,-7423.2650440819398,7077.5966852641159,68363.19319242402,0.0
628523.2936376977,3642751.2368613081,-27500.0,9582.5036611699052,15161.549484552583,-29721.283677836251,-25942.147471421453,24683.28583908566,-30585.772722351776,44336.014194146839,8059.8988074743756,-2704.1197409223205,2704.1197409223205,-8059.8988074743756,78204.279474380513,0.0
633523.2936376977,3642751.2368613081,-27500.0,29953.784156659251,4889.8946926732597,-39791.429504006817,-10392.189919866449,24687.046563507261,-31050.761546477908,46684.650227024846,30495.497633549443,-22161.841920968131,22161.841920968131,-30495.497633549443,80964.505797758684,0.0
638523.2936376977,3642751.2368613081,-27500.0,39402.546098828992,-11594.672567561269,-43536.605656692707,11773.929102225651,9702.4303244948987,-8811.0367817046026,45757.103248227919,45435.564286785484,-42860.21317937367,42860.21317937367,-45435.564286785484,79411.937256700636,0.0
643523.2936376977,3642751.2368613081,-27500.0,32750.138199194869,-20702.97219710928,-35447.44899722527,17501.258571729897,-16543.117424361451,24552.455823635835,48849.821053086125,39444.167260791823,-46946.324297513544,46946.324297513544,-39444.167260791823,84763.177545696482,0.0
648523.2936376977,3642751.2368613081,-27500.0,25677.623940990783,-16469.898513173765,-21739.027397578699,6772.1132796249794,-33873.515891104231,37910.842358179238,48990.016495050833,25669.664954056461,-34538.512472783455,34538.512472783455,-25669.664954056461,85858.320341339801,0.0
653523.2936376977,3642751.2368613081,-27500.0,23019.188159773592,-7841.3300555002606,-12087.142897821468,-2417.9751947020045,-34827.134959358431,31493.090047827343,41715.242642153564,17373.914481544434,-20730.772082538726,20730.772082538726,-17373.914481544434,73773.547225560396,0.0
658523.2936376977,3642751.2368613081,-27500.0,20965.598201422465,-2200.6717980947742,-8648.9001683797906,-4981.0642986051134,-26464.348374565223,20115.260682072847,30663.002975887015,14291.809480798402,-12949.312635026508,12949.312635026508,-14291.809480798402,55159.825479343512,0.0
663523.2936376977,3642751.2368613081,-27500.0,17713.257231493793,-576.17412740153259,-8611.9098190098503,-3687.0585444077728,-16429.916823553318,10983.311758938456,20173.918861945196,12931.004912512255,-10261.202907119599,10261.202907119599,-12931.004912512255,37586.503960680653,0.0
668523.2936376977,3642751.2368613081,-27500.0,13644.89140833177,-1332.5303298234996,-9362.6606447943832,-1332.3973191405616,-8228.0839465962363,5044.0406690262498,13529.003096545815,11531.676998879511,-9928.4238491447195,9928.4238491447195,-11531.676998879511,24883.617486530013,0.0
673523.2936376977,3642751.2368613081,-27500.0,9504.7601687811912,-2938.477914768127,-9676.6218013786929,860.99303082338827,-2573.5680127442906,1420.6380425218138,10365.54079451219,9745.7029244921887,-10154.2471136855,10154.2471136855,-9745.7029244921887,18061.324750777007,0.0
678523.2936376977,3642751.2368613081,-27500.0,5729.4419780871167,-4481.070792836319,-9272.3859412256043,2552.4431115639827,871.25914450745893,-722.27482534798264,9159.9087643656258,7697.3047972443228,-10125.872431987738,10125.872431987738,-7697.3047972443228,15873.062298067549,0.0
683523.2936376977,3642751.2368613081,-27500.0,2528.5662185245824,-5551.0037353885018,-8324.3495495392835,3702.6355835191825,2702.0789596309223,-1913.2905893648342,8955.1700808967653,5619.7774488522609,-9639.8482001981774,9639.8482001981774,-5619.7774488522609,15645.508144410554,0.0
688523.2936376977,3642751.2368613081,-27500.0,-17.276017664370915,-6072.9155675229367,-7121.5135428023996,4372.2155074365355,3477.8844459868205,-2482.9640463681194,8751.5282002668428,3717.4926172307332,-8788.3443366016909,8788.3443366016909,-3717.4926172307332,15598.388740821125,0.0
693523.2936376977,3642751.2368613081,-27500.0,-1920.1468682976192,-6139.7631044123318,-5895.0058067635518,4658.14209543382,3625.8009673921451,-2654.1043169649433,8346.0870727516667,2109.457722404406,-7744.4695799193978,7744.4695799193978,-2109.457722404406,15200.166250273704,0.0
698523.2936376977,3642751.2368613081,-27500.0,-3252.7517037845432,-5893.099992684799,-4777.6337180488254,4663.2590859740776,3435.7612476053296,-2583.4670631663389,7786.9674751563416,832.30701804129421,-6657.2973302227438,6657.2973302227438,-832.30701804129421,14444.064238649722,0.0
703523.2936376977,3642751.2368613081,-27500.0,-4115.5785511815493,-5462.1614745725583,-3823.9075417122172,4479.7838574255084,3089.0242195519004,-2380.3225595613903,7147.5607758749038,-131.22028048762422,-5623.6367589866504,5623.6367589866504,131.22028048762422,13450.92143702632,0.0
708523.2936376977,3642751.2368613081,-27500.0,-4612.6058283569091,-4943.9999811031639,-3041.3351222490023,4182.2445968057773,2691.3023311618554,-2117.5251055463732,6485.0705095111734,-824.5589509360027,-4694.0665856171545,4694.0665856171545,824.5589509360027,12341.236321828374,0.0
713523.2936376977,3642751.2368613081,-27500.0,-4837.716904406283,-4403.4771714470344,-2414.4978417272332,3826.3232617761673,2299.719563462832,-1840.537758016186,5837.3263601839326,-1298.8832343508107,-3887.4376617704661,3887.4376617704661,1298.8832343508107,11205.01962249085,0.0
718523.2936376977,3642751.2368613081,-27500.0,-4869.1195516729194,-3879.9853067240037,-1919.5856464971823,3450.8354228640455,1941.8865613417909,-1575.3388616300483,5226.7903559227707,-1603.162004180861,-3203.7706287040246,3203.7706287040246,1603.162004180861,10101.190385791557,0.0
723523.2936376977,3642751.2368613081,-27500.0,-4768.5139787521794,-3394.941384544034,-1531.9353864547195,3080.9968054612605,1628.4201459586816,-1334.9322688977779,4665.0955726335924,-1779.7837590348008,-2633.3085277925929,2633.3085277925929,1779.7837590348008,9064.3052000633343,0.0
728523.2936376977,3642751.2368613081,-27500.0,-4582.6387220813795,-2957.9953549166726,-1229.3730316299655,2731.8587609627643,1360.746065826524,-1124.2604208092914,4156.7292793521428,-1863.3215802140651,-2162.1692142631691,2162.1692142631691,1863.3215802140651,8111.7917847335566,0.0
733523.2936376977,3642751.2368613081,-27500.0,-4345.7425967054214,-2571.5721526527527,-993.31692497706865,2411.3323671733556,1135.750623977101,-943.62713692620537,3701.7241264168856,-1880.8722812682213,-1775.582841392652,1775.582841392652,1880.8722812682213,7249.835728070555,0.0
738523.2936376977,3642751.2368613081,-27500.0,-4082.1892584950228,-2233.9652560710056,-808.8045794995345,2122.5885665721967,948.43196981637539,-790.92405662190288,3297.5204438250876,-1853.064252883436,-1459.580356123231,1459.580356123231,1853.064252883436,6477.6859578368203,0.0
743523.2936376977,3642751.2368613081,-27500.0,-3808.809853115356,-1941.3345649102216,-664.07204351730047,1865.8298516458065,793.33067592068892,-662.99023071971874,2940.2012332811883,-1795.2469202206739,-1201.7502334655155,1201.7502334655155,1795.2469202206739,5790.6133136081171,0.0
748523.2936376977,3642751.2368613081,-27500.0,-3536.8601340481259,-1688.9383547675627,-550.00265609728115,1639.5281349888267,665.24441277425478,-556.39063260571697,2625.2805784741668,-1718.622884952593,-991.4693627116701,991.4693627116701,1718.622884952593,5181.8553265686942,0.0
543523.2936376977,3647751.2368613081,-27500.0,-4055.2205351107518,984.33291119313594,-251.34363275459472,-1571.7988255086552,368.23358590689827,-445.92204206261454,2512.433947074815,-3211.3605874285981,1574.4745377298382,-1574.4745377298382,3211.3605874285981,4948.9760894490209,0.0
548523.2936376977,3647751.2368613081,-27500.0,-4480.3464063005267,1163.3755945968082,-302.29254528755973,-1809.8814293191647,450.21503575042487,-532.07730580086763,2828.3719581320288,-3560.8626040962822,1792.2072651001749,-1792.2072651001749,3560.8626040962822,5571.741506743273,0.0
553523.2936376977,3647751.2368613081,-27500.0,-4954.782239745613,1380.3080847404337,-368.89260585826838,-2090.1123779126046,553.22062137981334,-636.88483873118741,3195.2186525092566,-3951.5013485836207,2044.3374450471836,-2044.3374450471836,3951.5013485836207,6293.8732446285294,0.0
558523.2936376977,3647751.2368613081,-27500.0,-5482.8002250720128,1644.0834398828254,-456.88308624751221,-2420.5294299104617,683.2849307012923,-764.46102460416137,3622.8483021556258,-4386.4428911903633,2336.1195562762823,-2336.1195562762823,4386.4428911903633,7134.082994136792,0.0
563523.2936376977,3647751.2368613081,-27500.0,-6067.9866669536723,1965.8997247128607,-574.35243894131429,-2810.6759503356398,848.32246675235365,-919.67301506173317,4123.4121823742116,-4867.9059942939666,2673.1768698719125,-2673.1768698719125,4867.9059942939666,8115.1176512681041,0.0
568523.2936376977,3647751.2368613081,-27500.0,-6712.5154180449854,2359.7526098902777,-732.78985685447469,-3271.8710429935109,1058.7474834266361,-1108.1507191897235,4712.0101213209764,-5396.3305605514661,3061.1888439460135,-3061.1888439460135,5396.3305605514661,9264.826756476823,0.0
573523.2936376977,3647751.2368613081,-27500.0,-7415.9882861385959,2843.0986729766287,-948.64951118982435,-3817.5749755963179,1328.3156783627669,-1336.2314095843685,5407.6510339021606,-5969.0865202187924,3505.2890796001757,-3505.2890796001757,5969.0865202187924,10617.655156288462,0.0
578523.2936376977,3647751.2368613081,-27500.0,-8173.5272472835895,3437.6083816233772,-1245.6947221182124,-4463.9425564876265,1675.2850233537049,-1610.8563334193682,6234.662550941448,-6578.4483101628048,4008.9594837975892,-4008.9594837975892,6578.4483101628048,12216.79054984978,0.0
583523.2936376977,3647751.2368613081,-27500.0,-8972.5228950466826,4169.94029573854,-1658.5476332768251,-5230.7567697076056,2124.0765485444995,-1939.5900886773666,7224.8278182773875,-7208.3576649055103,4572.051070499032,-4572.051070499032,7208.3576649055103,14117.380788908426,0.0
588523.2936376977,3647751.2368613081,-27500.0,-9786.6895932572606,5072.2656506395915,-2238.1101948865162,-6142.9815513697786,2707.7630724331093,-2331.3318603095245,8420.5798849679159,-7828.9421255709931,5187.1656348000761,-5187.1656348000761,7828.9421255709931,16391.287202413292,0.0
593523.2936376977,3647751.2368613081,-27500.0,-10564.449279458295,6181.6985579986249,-3059.8752674485809,-7232.9396573286049,3471.9839193754906,-2799.2229539150935,9879.4479210559493,-8386.5037626557551,5832.7310907331066,-5832.7310907331066,8386.5037626557551,19133.559829873753,0.0
598523.2936376977,3647751.2368613081,-27500.0,-11205.253336777107,7536.1473942236516,-4236.5614810189572,-8541.650226536176,4481.2293961172318,-3369.0695002037983,11679.060810906865,-8783.8444535827748,6458.9390746568224,-6458.9390746568224,8783.8444535827748,22469.193620169262,0.0
603523.2936376977,3647751.2368613081,-27500.0,-11511.212366596532,9159.4995541816043,-5936.4477385211612,-10112.294959690797,5828.1518931449773,-4098.9772607409113,13918.938057608111,-8839.9080460294699,6957.6097057363531,-6957.6097057363531,8839.9080460294699,26553.053527100165,0.0
608523.2936376977,3647751.2368613081,-27500.0,-11094.269519298745,11017.332448815527,-8405.9094561169422,-11952.529959284113,7642.3750635325168,-5114.8490413588988,16707.619071661655,-8208.748407974701,7096.5620063409942,-7096.5620063409942,8208.748407974701,31541.35957514332,0.0
613523.2936376977,3647751.2368613081,-27500.0,-9227.7882717574812,12899.030859962419,-11980.408505574247,-13905.164044279119,10075.354867914861,-6644.7870842778912,20109.026942172102,-6236.6426344995352,6384.1006485813768,-6384.1006485813768,6236.6426344995352,37484.83579310093,0.0
618523.2936376977,3647751.2368613081,-27500.0,-4722.1666658068661,14147.906284636134,-17016.748204973279,-15316.074853927244,13169.711139865405,-8944.1736338125029,24005.57557834432,-1799.2278760500949,3838.3191092919633,-3838.3191092919633,1799.2278760500949,44063.980155750309,0.0
623523.2936376977,3647751.2368613081,-27500.0,3760.3225919467504,13210.010709988306,-23539.774402201481,-14460.669667210428,16358.318910002035,-11770.817542976052,27860.905958288728,6538.8527695823195,-2190.7754687892152,2190.7754687892152,-6538.8527695823195,50161.138552648081,0.0
628523.2936376977,3647751.2368613081,-27500.0,15920.486268341228,7509.5927413629333,-30209.643285390543,-8436.0764467072549,17231.547813577985,-12899.492201513947,30621.383691244693,18972.480183347245,-13299.439087726669,13299.439087726669,-18972.480183347245,53875.537102836803,0.0
633523.2936376977,3647751.2368613081,-27500.0,26404.893714536709,-4270.0442670268922,-32834.770953664483,3801.3306191327197,10445.711978981581,-6743.6198924303844,31973.00687485571,30623.761153834585,-27580.282783261788,27580.282783261788,-30623.761153834585,55406.171748503439,0.0
638523.2936376977,3647751.2368613081,-27500.0,26753.71744122852,-16373.454686361829,-26141.378306020768,14588.683875379733,-7905.141118425292,10408.772354634268,35701.348357008726,31353.580888734177,-35534.311768771069,35534.311768771069,-31353.580888734177,61892.760996004217,0.0
643523.2936376977,3647751.2368613081,-27500.0,19301.838501979066,-18207.644550330686,-12177.021244787617,12560.954725789485,-29479.183232517822,28553.600594249423,42579.045752874626,20017.401120250819,-28887.622628087694,28887.622628087694,-20017.401120250819,73774.677751476833,0.0
648523.2936376977,3647751.2368613081,-27500.0,15192.034426087506,-10142.054380076584,-642.6404076054497,1761.0796862467857,-39879.860707752661,33818.967397611283,44649.071552349371,9346.4923340163987,-14939.395576342922,14939.395576342922,-9346.4923340163987,77341.766608385587,0.0
653523.2936376977,3647751.2368613081,-27500.0,15783.631121008486,-1327.8607315379807,3502.9224085594856,-6408.2102300627384,-37178.40405786872,27989.971051901171,39685.710927570661,5813.7709755993374,-4856.0879337506203,4856.0879337506203,-5813.7709755993374,68737.903287927911,0.0
658523.2936376977,3647751.2368613081,-27500.0,16820.353997511625,3415.918599595967,2154.1134664592837,-8975.7582804549274,-28154.303415297083,19361.722264235694,31151.365655671529,6569.8343933506494,-1223.3592016731745,1223.3592016731745,-6569.8343933506494,53977.051553656027,0.0
663523.2936376977,3647751.2368613081,-27500.0,16314.214284819465,4262.6649732511169,-1226.1619211293512,-8079.8664371676778,-18421.430802771767,12141.18650632105,22469.585123567544,8100.8225247162645,-1698.9187573791146,1698.9187573791146,-8100.8225247162645,38990.941031827824,0.0
668523.2936376977,3647751.2368613081,-27500.0,14371.005316678105,2896.0140699271851,-4385.3542232275686,-5892.9250404805371,-10432.561081341588,7020.4683978367357,15474.428133592442,8881.1624638250323,-3678.0678525474041,3678.0678525474041,-8881.1624638250323,26903.856306297552,0.0
673523.2936376977,3647751.2368613081,-27500.0,11652.167737598256,742.30881615629892,-6455.5166139242338,-3546.2885917704061,-4699.3710252946667,3569.5961325853327,10812.405899050516,8689.2320619499751,-5646.0126268797594,5646.0126268797594,-8689.2320619499751,18774.806537392371,0.0
678523.2936376977,3647751.2368613081,-27500.0,8706.6107881352928,-1355.0880801077626,-7367.1353147971295,-1486.0826953798326,-956.42518409190654,1295.8970009205955,8343.6388225278279,7764.1600280913663,-6987.3758425718988,6987.3758425718988,-7764.1600280913663,14458.36867027978,0.0
683523.2936376977,3647751.2368613081,-27500.0,5886.5288260034067,-3002.5744781001185,-7384.3884635336681,144.95538440154237,1267.9411981969929,-149.62602944447156,7384.1799601611019,6426.6707489071505,-7591.2138157731497,7591.2138157731497,-6426.6707489071505,12821.057703538574,0.0
688523.2936376977,3647751.2368613081,-27500.0,3397.4506857328556,-4092.2878761694092,-6844.4772408392701,1331.5005563143018,2432.9108285887078,-1007.8924989420019,7032.5718359303146,4953.6648922825398,-7580.5761837312903,7580.5761837312903,-4953.6648922825398,12349.139059745086,0.0
693523.2936376977,3647751.2368613081,-27500.0,1337.1020792625643,-4672.9561730570158,-6033.0093640363302,2118.4130892858484,2911.5912794591477,-1457.0074501705901,6755.0193096066105,3539.3520309846335,-7150.9668290526733,7150.9668290526733,-3539.3520309846335,12080.453787204513,0.0
698523.2936376977,3647751.2368613081,-27500.0,-275.70381818346357,-4857.5200386774814,-5145.9090495735563,2577.7701031330766,2977.4091184519698,-1632.9329730615696,6407.7901202917728,2294.4241990719242,-6485.5629575900075,6485.5629575900075,-2294.4241990719242,11673.349112942307,0.0
703523.2936376977,3647751.2368613081,-27500.0,-1473.1863961610195,-4767.4273937200915,-4297.0325721537793,2787.9811792958276,2816.19080207349,-1637.4878032311694,5988.0486221909396,1264.2769104025165,-5723.000185638999,5723.000185638999,-1264.2769104025165,11083.029423876857,0.0
708523.2936376977,3647751.2368613081,-27500.0,-2314.0509062272281,-4506.4289611115346,-3541.182169383208,2821.1321916486531,2546.5189779852312,-1543.4961238897818,5525.1050977778141,451.8406873308777,-4954.5177676720532,4954.5177676720532,-451.8406873308777,10358.548202407457,0.0
713523.2936376977,3647751.2368613081,-27500.0,-2865.512160766827,-4152.8325211621495,-2896.5625698956374,2736.9509295053876,2239.6188910490005,-1400.2125019079269,5048.5792660648349,-163.14246627749208,-4233.0475612508544,4233.0475612508544,163.14246627749208,9563.0538386814915,0.0
718523.2936376977,3647751.2368613081,-27500.0,-3192.2602696513277,-3760.9010830918469,-2361.3796718938411,2581.353250100196,1935.4024064439352,-1238.9779077095111,4580.7517152975952,-610.77284407128877,-3584.619108686059,3584.619108686059,610.77284407128877,8748.9063452035662,0.0
723523.2936376977,3647751.2368613081,-27500.0,-3350.908471048866,-3365.6009343250621,-1924.454467189739,2387.5819737762226,1654.1325493245365,-1078.3860793369629,4136.1378774133409,-922.95849741811139,-3018.1253755263251,3018.1253755263251,922.95849741811139,7952.9488773371422,0.0
728523.2936376977,3647751.2368613081,-27500.0,-3388.0672086922268,-2987.7807971438606,-1571.3464240602152,2178.4562661370001,1404.3437246802471,-928.4852248254474,3723.003501684816,-1129.2022571174195,-2532.4717237766827,2532.4717237766827,1129.2022571174195,7198.3126849272539,0.0
733523.2936376977,3647751.2368613081,-27500.0,-3340.4938390063471,-2638.6029757958499,-1287.5588036493948,1968.8217203652466,1187.9500871249577,-793.90592580836983,3345.125518310751,-1254.8081238874834,-2121.3480560902426,2121.3480560902426,1254.8081238874834,6497.75367579474,0.0
738523.2936376977,3647751.2368613081,-27500.0,-3236.245987424697,-2322.9265563587646,-1060.0102096362104,1767.745129290083,1003.4007382362573,-676.03655520817915,3003.28764555206,-1320.4709911234472,-1776.1999540291749,1776.1999540291749,1320.4709911234472,5856.8102361176043,0.0
743523.2936376977,3647751.2368613081,-27500.0,-3096.1816176971629,-2041.7176263442602,-877.55007135196092,1580.2845633179393,847.54842420874024,-574.45508673087056,2696.4076623638439,-1342.5708887980738,-1487.9592502057114,1487.9592502057114,1342.5708887980738,5276.304966266971,0.0
748523.2936376977,3647751.2368613081,-27500.0,-2935.451186175816,-1793.6852502924289,-730.98895966048531,1408.8263079433609,716.70723724436425,-487.82784744500947,2422.333886409594,-1333.7646866048694,-1247.9747754546329,1247.9747754546329,1333.7646866048694,4754.1690485749905,0.0
543523.2936376977,3652751.2368613081,-27500.0,-3756.6284180126672,1210.6171964697473,-388.59645851743056,-1472.6290902868648,453.89667361193187,-421.25053452690952,2418.6667407322811,-2899.7960121542865,1577.2437850450942,-1577.2437850450942,2899.7960121542865,4770.270796301168,0.0
548523.2936376977,3652751.2368613081,-27500.0,-4113.9398760747672,1418.1480750019996,-469.74407527343453,-1683.827472121241,550.45177353158158,-499.68858538345194,2711.7230420059495,-3179.1072550686158,1779.566667856122,-1779.566667856122,3179.1072550686158,5349.7835723253584,0.0
553523.2936376977,3652751.2368613081,-27500.0,-4503.0434180629763,1666.3279364011653,-574.06344865825929,-1928.9171547041622,670.47021417342955,-594.11347158491276,3049.281200967569,-3481.4141723980292,2009.0297797027722,-2009.0297797027722,3481.4141723980292,6016.5780085733195,0.0
558523.2936376977,3652751.2368613081,-27500.0,-4923.1608760763975,1963.627361225565,-709.29772526994395,-2213.0960978881367,820.19808222232325,-707.64748162207468,3439.1606640686068,-3804.650389709961,2267.9108309108369,-2267.9108309108369,3804.650389709961,6785.4737651024661,0.0
563523.2936376977,3652751.2368613081,-27500.0,-5371.241206636324,2320.1477124995959,-886.0544843667883,-2541.9805076007374,1007.6023818560349,-843.7731207873785,3890.6899849830024,-4144.1683070358122,2557.6257169388323,-2557.6257169388323,4144.1683070358122,7673.8755569880332,0.0
568523.2936376977,3652751.2368613081,-27500.0,-5840.7042841591538,2747.7591397589995,-1118.9437736218019,-2921.4040932520711,1242.8168993216389,-1006.1846277775135,4415.023804027167,-4491.3723806426542,2877.8874535099067,-2877.8874535099067,4491.3723806426542,8702.2001045831257,0.0
573523.2936376977,3652751.2368613081,-27500.0,-6319.5729049855136,3260.0827846844136,-1428.1852592487139,-3357.067505009923,1538.6708867742157,-1198.4953768206026,5025.5375292773169,-4831.7177935642394,3225.3350860068181,-3225.3350860068181,4831.7177935642394,9894.3712826133324,0.0
578523.2936376977,3652751.2368613081,-27500.0,-6787.6684185442937,3872.1339545129072,-1841.8752191633569,-3853.9855944087963,1911.2969779790769,-1423.7673390765917,5738.3416633849301,-5141.7803498396934,3591.3204445849078,-3591.3204445849078,5141.7803498396934,11278.413322151164,0.0
583523.2936376977,3652751.2368613081,-27500.0,-7212.2871906039873,4599.2572360869553,-2399.1604321065338,-4415.6411268522115,2380.7981075386838,-1683.8984743239437,6572.9610944041087,-5384.9110565524015,3958.3257343882224,-3958.3257343882224,5384.9110565524015,12887.132934484456,0.0
588523.2936376977,3652751.2368613081,-27500.0,-7541.2784153424172,5454.5785927549268,-3154.5916645788539,-5042.6130148460807,2971.9128653814055,-1979.1083684018065,7553.158860141305,-5504.6293563404997,4294.0804258788157,-4294.0804258788157,5504.6293563404997,14758.698377376109,0.0
593523.2936376977,3652751.2368613081,-27500.0,-7691.5541135216181,6443.3166596037518,-4183.8065767618846,-5729.9524639147194,3714.4860809365991,-2308.1990057301373,8707.6026653169192,-5414.24883599635,4541.6778719805607,-4541.6778719805607,5414.24883599635,16936.340494916076,0.0
598523.2936376977,3652751.2368613081,-27500.0,-7529.6774201463695,7550.2802653193721,-5589.9951119512925,-6461.0156168918738,4643.0009424674363,-2670.9003861385927,10069.165310312355,-4980.1393042687105,4602.516261859304,-4602.516261859304,4980.1393042687105,19464.643222664865,0.0
603523.2936376977,3652751.2368613081,-27500.0,-6840.2901673233937,8712.57513919132,-7508.0522392319381,-7191.3051248095462,5792.3513252123576,-3073.626079359286,11669.488813005242,-3995.166233952189,4306.5353434516119,-4306.5353434516119,3995.166233952189,22375.754879743577,0.0
608523.2936376977,3652751.2368613081,-27500.0,-5282.8846162024547,9761.6887791498193,-10095.311032864947,-7807.0072929204653,7180.0428788491545,-3535.8295635530922,13521.60026275836,-2142.2934730695133,3362.5974537783686,-3362.5974537783686,2142.2934730695133,25651.472912172656,0.0
613523.2936376977,3652751.2368613081,-27500.0,-2364.982251340648,10311.040442693213,-13475.739953181052,-8031.4946126461618,8745.094297166821,-4075.94168507321,15580.501814477495,1028.6250479965711,1291.0750136423917,-1291.0750136423917,-1028.6250479965711,29142.128751302298,0.0
618523.2936376977,3652751.2368613081,-27500.0,2451.8506480544579,9584.5468480179206,-17555.794257726444,-7267.1488164276507,10171.162076935849,-4607.8921664763384,17684.489313215283,6006.3980554333166,-2602.3424682417053,2602.3424682417053,-6006.3980554333166,32454.269064571938,0.0
623523.2936376977,3652751.2368613081,-27500.0,9230.7111710177942,6331.0372216890519,-21573.816598902864,-4505.0410104033326,10486.617556751231,-4621.7576477371376,19555.965471421227,12825.605875906367,-8967.3508339318396,8967.3508339318396,-12825.605875906367,35001.86833386567,0.0
628523.2936376977,3652751.2368613081,-27500.0,16384.764785749507,-583.77018287294641,-23399.891110113214,1128.9725058524441,7548.3412570720948,-2682.7020675209246,21164.834229316206,19851.597623114165,-17329.291026937342,17329.291026937342,-19851.597623114165,36926.589285031972,0.0
633523.2936376977,3652751.2368613081,-27500.0,19968.599545103276,-10018.915797842517,-19603.552412828209,8396.1381729467812,-1452.364258223258,3288.3067816629537,23805.037432360215,22748.019951869577,-24172.368226434588,24172.368226434588,-22748.019951869577,41268.169490348933,0.0
638523.2936376977,3652751.2368613081,-27500.0,16978.416877696378,-16484.106533954411,-8633.0973906763193,12315.09286075727,-16417.013796968538,13159.715743304254,29475.945801252463,17450.732677703058,-23463.59360324412,23463.59360324412,-17450.732677703058,51492.196399918677,0.0
643523.2936376977,3652751.2368613081,-27500.0,11045.24343880653,-14471.076391187185,4759.3043739681243,8670.9441030008766,-30752.608897995411,21879.791620059903,35723.394221200528,7065.8980724974599,-13696.720541674797,13696.720541674797,-7065.8980724974599,62577.68457406517,0.0
648523.2936376977,3652751.2368613081,-27500.0,8489.6861110250484,-6133.7831269198869,13069.967797665147,547.77293196444202,-36850.219564820458,24339.561075205562,37818.679195514982,-258.05476650184278,-1803.7473422310529,1803.7473422310529,258.05476650184278,66235.841675793927,0.0
653523.2936376977,3652751.2368613081,-27500.0,9881.49234722236,1967.4261047431146,14023.17099924562,-6054.0148089434679,-34115.509889710869,21238.812230045405,34828.552492646064,-1494.0413907593897,5363.8054375807624,-5363.8054375807624,1494.0413907593897,60928.429120837973,0.0
658523.2936376977,3652751.2368613081,-27500.0,12169.359827366923,6384.2985809920692,10282.294195121744,-8949.2051692021541,-26788.737435307688,16136.368096905098,28860.691771163089,825.17688674564215,6870.4910786542196,-6870.4910786542196,-825.17688674564215,50420.592628488892,0.0
663523.2936376977,3652751.2368613081,-27500.0,13378.190290058641,7272.4026975010447,5106.5126319595056,-9028.7613309656881,-18679.571594241625,11324.800615794795,22236.112520665993,3768.2752033308921,4935.3874539380922,-4935.3874539380922,-3768.2752033308921,38802.711042832721,0.0
668523.2936376977,3652751.2368613081,-27500.0,13155.745021627396,6002.3719269345793,468.6691182406181,-7668.2197169019864,-11681.613237035539,7487.9990212595521,16370.226185704982,5908.6351983162185,1791.5365853188346,-1791.5365853188346,-5908.6351983162185,28549.055441153581,0.0
673523.2936376977,3652751.2368613081,-27500.0,11850.324646420033,3821.3592628228939,-2876.6554162222897,-5793.6297650708093,-6353.1433508063637,4610.7522688835179,11864.22641727488,6930.2748418380361,-1225.177092956234,1225.177092956234,-6930.2748418380361,20694.743309051533,0.0
678523.2936376977,3652751.2368613081,-27500.0,9921.6297811127697,1535.1917844958452,-4878.1765311336303,-3898.8234333086593,-2625.2236562479725,2523.7988890883717,8839.646011652032,6998.5160937116079,-3537.8132107792162,3537.8132107792162,-6998.5160937116079,15415.058096814195,0.0
683523.2936376977,3652751.2368613081,-27500.0,7749.8089876923905,-432.41647653363412,-5787.8785475346549,-2221.8835178088307,-206.15554897856188,1064.3928163181038,7121.5838362840277,6411.5013646386606,-5019.10410094901,5019.10410094901,-6411.5013646386606,12367.596754167111,0.0
688523.2936376977,3652751.2368613081,-27500.0,5606.2362777296539,-1917.4776720333764,-5935.0516254779295,-860.65950201318333,1235.2547710691326,93.884735802267741,6264.5432580840279,5457.215797305138,-5763.1582208873824,5763.1582208873824,-5457.215797305138,10853.462077569742,0.0
693523.2936376977,3652751.2368613081,-27500.0,3662.5605023145117,-2911.293717485536,-5617.2272335776197,167.53946167708787,1994.7663658061288,-507.84725300840648,5789.2656776092208,4362.3768950287167,-5946.8494982560032,5946.8494982560032,-4362.3768950287167,10112.10377873369,0.0
698523.2936376977,3652751.2368613081,-27500.0,2007.8656160180506,-3483.4009901800605,-5060.0584784081129,891.0646467783331,2307.3445020333393,-843.56824499229867,5427.5742524755333,3281.19659587144,-5753.169876842815,5753.169876842815,-3281.19659587144,9627.4742233337565,0.0
703523.2936376977,3652751.2368613081,-27500.0,669.63647878794211,-3730.5256577987193,-4414.8015311629661,1360.1230948542229,2345.4853572929546,-997.13743348957689,5079.6679161558832,2303.5149846496706,-5335.6500627049309,5335.6500627049309,-2303.5149846496706,9162.9258837929192,0.0
708523.2936376977,3652751.2368613081,-27500.0,-364.91272199206645,-3747.5100437323263,-3772.2462475775546,1630.7169068711796,2228.1805897810436,-1033.0825846681148,4721.3735377328667,1470.7570605189285,-4808.0155649903827,4808.0155649903827,-1470.7570605189285,8647.7320057230554,0.0
713523.2936376977,3652751.2368613081,-27500.0,-1130.7024865420594,-3614.0876959756483,-3180.3681767199018,1755.1276801376241,2033.1605364737363,-998.26525770310013,4355.5112183728024,792.41982646962833,-4246.8992444650776,4246.8992444650776,-792.41982646962833,8081.9338991180966,0.0
718523.2936376977,3652751.2368613081,-27500.0,-1671.5776763212527,-3391.3071470528357,-2659.7176115048633,1777.4228818941892,1808.5653018527455,-924.92641684829789,3991.8988400489934,259.52415602485689,-3699.5465948355341,3699.5465948355341,-259.52415602485689,7487.6577589599292,0.0
723523.2936376977,3652751.2368613081,-27500.0,-2031.9351424264714,-3122.8448127459305,-2214.7743020926096,1732.258505847464,1582.4656727794852,-834.12324909901554,3640.0166973718983,-145.87750760613653,-3192.1269458100251,3192.1269458100251,145.87750760613653,6889.0072574660389,0.0
728523.2936376977,3652751.2368613081,-27500.0,-2252.1633451846774,-2838.2071420078951,-1841.5038887250025,1645.5035556791161,1369.9458990692822,-738.87551036192144,3306.8346092633037,-444.68495193495301,-2736.7776641850101,2736.7776641850101,444.68495193495301,6305.2990252413001,0.0
733523.2936376977,3652751.2368613081,-27500.0,-2366.6849907570654,-2556.2195156024086,-1532.0115955078213,1535.6568634788923,1178.0494231551561,-646.71656573685732,2996.6223511704975,-657.33484210750521,-2336.8982293448676,2336.8982293448676,657.33484210750521,5749.8053139083086,0.0
738523.2936376977,3652751.2368613081,-27500.0,-2403.5719445223458,-2288.0890575398253,-1277.2098661090436,1415.4403057856955,1009.0703332687618,-561.59975221425179,2711.4199404179249,-802.11762628636541,-1990.8325435534853,1990.8325435534853,802.11762628636541,5230.4839793172187,0.0
743523.2936376977,3652751.2368613081,-27500.0,-2384.9961493575111,-2039.8251583341439,-1068.2277790654161,1293.2595230155168,862.659455296788,-485.24279072837754,2451.6393391492497,-894.55016681124073,-1694.2872133546903,1694.2872133546903,894.55016681124073,4751.2283937308184,0.0
543523.2936376977,3657751.2368613081,-27500.0,-3402.0113778310392,1380.7533312227008,-538.32406727865828,-1353.8106827378169,521.31721533711516,-391.5263902815052,2301.4023267411176,-2543.3716891672052,1518.907866870733,-1518.907866870733,2543.3716891672052,4547.0651536545165,0.0
548523.2936376977,3657751.2368613081,-27500.0,-3683.9981329505817,1602.1737676019306,-649.78422318968512,-1534.451905133242,626.94841294684727,-461.06462693549094,2567.4481579097073,-2747.311662535602,1693.3629357427112,-1693.3629357427112,2747.311662535602,5075.2722084595516,0.0
553523.2936376977,3657751.2368613081,-27500.0,-3979.8789922187329,1862.7583925384672,-791.02295598681349,-1740.1554357716686,756.63565775629581,-543.66562614812437,2870.9392491882554,-2956.361560027307,1885.0631187996933,-1885.0631187996933,2956.361560027307,5677.1733501293957,0.0
558523.2936376977,3657751.2368613081,-27500.0,-4284.3189068760657,2169.1636938867964,-971.12964260796684,-1973.3164958020527,916.16246040682438,-641.42956495211365,3217.6607106270762,-3163.9377508647544,2092.8535774091874,-2092.8535774091874,3163.9377508647544,6363.4968635023888,0.0
563523.2936376977,3657751.2368613081,-27500.0,-4588.5601403207602,2528.6366135742601,-1202.1764927369436,-2235.7912457531625,1112.6150862087654,-756.45163352390398,3614.2435810346637,-3359.7734777479818,2313.5247360412759,-2313.5247360412759,3359.7734777479818,7146.1663902939235,0.0
568523.2936376977,3657751.2368613081,-27500.0,-4878.938258687469,2948.6165577164716,-1500.2058950419714,-2528.3461150870571,1354.5534524695622,-890.54510789774429,4068.1832144723303,-3528.3663948924755,2540.5750824307265,-2540.5750824307265,3528.3663948924755,8038.187949160867,0.0
573523.2936376977,3657751.2368613081,-27500.0,-5134.8230590727526,3435.911646366555,-1886.5012146539093,-2849.8185984024158,1652.0925925494435,-1044.7736230079779,4587.7656716779047,-3646.8559352056623,2762.3441104296339,-2762.3441104296339,3646.8559352056623,9053.3638348319691,0.0
578523.2936376977,3657751.2368613081,-27500.0,-5325.7795450073372,3995.1393833491497,-2389.1622702214645,-3195.8757991841612,2016.7811491994971,-1218.7291424114289,5181.8994699780833,-3682.1674425080769,2959.2243860630911,-2959.2243860630911,3682.1674425080769,10205.745927037831,0.0
583523.2936376977,3657751.2368613081,-27500.0,-5407.6381858912855,4625.8765769481188,-3044.9100403052435,-3557.1846647587208,2461.0604386433756,-1409.5142794713029,5859.8323347014657,-3587.2187368625482,3099.5153481440857,-3099.5153481440857,3587.2187368625482,11508.620471577588,0.0
588523.2936376977,3657751.2368613081,-27500.0,-5317.0895522136252,5317.5588526125366,-3900.7968125762131,-3916.6846207077497,2996.9134274253684,-1610.4828168470838,6630.6616033710134,-3296.0170280678126,3133.314449787616,-3133.314449787616,3296.0170280678126,12972.671289627686,0.0
593523.2936376977,3657751.2368613081,-27500.0,-4964.3639532915386,6040.3897978673649,-5014.8432245023942,-4245.2813531534775,3632.9168965186982,-1809.9538244540133,7502.3027099651754,-2717.6082991269823,2983.6166008647097,-2983.6166008647097,2717.6082991269823,14602.482915792431,0.0
598523.2936376977,3657751.2368613081,-27500.0,-4224.0937998487416,6729.2275431573116,-6453.0305042176824,-4494.4494243098934,4368.0007117529267,-1990.2395444663057,8479.2121668311156,-1729.5933938084722,2533.7919538235624,-2533.7919538235624,1729.5933938084722,16389.734925490029,0.0
603523.2936376977,3657751.2368613081,-27500.0,-2927.0354499624932,7255.6104137649863,-8276.279770929259,-4582.5937140910764,5177.9591060223802,-2126.7636781585788,9557.6243004430344,-174.60864337377745,1611.7386251172684,-1611.7386251172684,174.60864337377745,18300.317574564095,0.0
608523.2936376977,3657751.2368613081,-27500.0,-864.2747623821009,7382.6157483145034,-10502.770675243652,-4370.3677509139516,5985.5527673116194,-2183.968759331492,10717.380001573811,2128.299126379583,-23.332985935881652,23.332985935881652,-2128.299126379583,20253.697069900427,0.0
613523.2936376977,3657751.2368613081,-27500.0,2161.2193205648232,6706.4497648842007,-13016.105602658792,-3624.2838208304856,6595.4938445209418,-2095.9396283496644,11914.739532768488,5323.4323935811663,-2666.2156037651494,2666.2156037651494,-5323.4323935811663,22106.551781583479,0.0
618523.2936376977,3657751.2368613081,-27500.0,6160.7327306532216,4632.4329431550996,-15376.728761810429,-1997.6508575106468,6569.0496462014635,-1706.3537495639027,13102.006846832768,9335.6337399804361,-6548.8871392280125,6548.8871392280125,-9335.6337399804361,23709.145843488681,0.0
623523.2936376977,3657751.2368613081,-27500.0,10585.396008337251,550.55224659365933,-16538.036010629985,853.96972562748499,5054.6324641019983,-654.03621702812609,14348.745627480563,13481.257974776709,-11476.425575628466,11476.425575628466,-13481.257974776709,25236.847457371656,0.0
628523.2936376977,3657751.2368613081,-27500.0,13919.724777888125,-5490.9565279740964,-14722.515186787881,4803.3585318864771,795.59749586931605,1681.7022141426755,16136.501141978748,16022.642051467486,-16145.417301450474,16145.417301450474,-16022.642051467486,27949.780392000455,0.0
633523.2936376977,3657751.2368613081,-27500.0,14104.54706823,-11667.215669987942,-8222.307243215213,8482.5192882241136,-7104.4617917353507,5794.7829129581951,19423.784153460092,14551.602996396457,-17760.372207447366,17760.372207447366,-14551.602996396457,34024.417806180267,0.0
638523.2936376977,3657751.2368613081,-27500.0,10662.680753652905,-14372.170142763409,2399.2751750686675,9389.4966066343513,-17463.068251066608,11044.436100656547,24342.29167854019,8297.1466159435931,-13622.732261276697,13622.732261276697,-8297.1466159435931,43250.73675447706,0.0
643523.2936376977,3657751.2368613081,-27500.0,6351.5023164880158,-11246.954479677515,13019.726588294066,6166.5257687370249,-26410.905068491094,15312.102661461109,28853.102709724404,358.87724503492745,-4577.3866014585819,4577.3866014585819,-358.87724503492745,51489.553073948788,0.0
648523.2936376977,3657751.2368613081,-27500.0,4561.87525535642,-4175.8244940884597,18943.242653497753,545.1286755346332,-30258.650947695787,16755.746380208973,30592.339855262257,-4674.1449266072232,4681.2035014357789,-4681.2035014357789,4674.1449266072232,54590.398226759375,0.0
653523.2936376977,3657751.2368613081,-27500.0,5742.644752718903,2742.1521515571417,18928.157054943531,-4486.5320453105141,-28602.929662415176,15482.108881475819,29027.723200992437,-5209.0840141475201,10098.202333309688,-10098.202333309688,5209.0840141475201,51745.752797379791,0.0
658523.2936376977,3657751.2368613081,-27500.0,8115.3409424760466,6983.3331100555397,14933.443179371938,-7385.1683663232661,-23588.559961901035,12805.361863785422,25204.81096095626,-2807.5377966879942,11039.161612299376,-11039.161612299376,2807.5377966879942,44896.42763988956,0.0
663523.2936376977,3657751.2368613081,-27500.0,10066.378346104852,8317.8098172707323,9528.2223721173341,-8239.1288904945213,-17550.407723249991,9851.8028112377524,20517.400303139129,402.26462684725084,9007.6607268560238,-9007.6607268560238,-402.26462684725084,36544.195548060445,0.0
668523.2936376977,3657751.2368613081,-27500.0,10948.92889491003,7607.1530157589086,4445.7038656120194,-7736.0549414004245,-11930.418795469423,7167.3116936659317,15987.966675709446,3121.5995752149429,5737.4169957449176,-5737.4169957449176,-3121.5995752149429,28498.25440083228,0.0
673523.2936376977,3657751.2368613081,-27500.0,10773.678872117307,5830.6386295489028,467.79113541173194,-6521.5267904090506,-7339.1733858287262,4927.6363265485297,12164.848977633093,4886.6967258403693,2410.2004300786234,-2410.2004300786234,-4886.6967258403693,21709.658007176087,0.0
678523.2936376977,3657751.2368613081,-27500.0,9810.3006256997396,3721.9940936508287,-2246.6940856734936,-5043.3869955091395,-3894.9965426904764,3155.0384304077497,9261.0716138098032,5704.9356348770343,-372.86610366209607,372.86610366209607,-5704.9356348770343,16516.692971910765,0.0
683523.2936376977,3657751.2368613081,-27500.0,8371.8443764671829,1728.9373641631321,-3849.5364730153451,-3576.6232497319565,-1483.7111038676778,1815.4747701175427,7281.5737852634811,5776.2763217794873,-2407.6694257165027,2407.6694257165027,-5776.2763217794873,12890.648280531943,0.0
688523.2936376977,3657751.2368613081,-27500.0,6729.0760382187955,73.858096475591267,-4603.4179626370715,-2272.8414660144144,93.761670987852227,850.84044600851655,6055.8735424222432,5344.2848681393716,-3713.4838759715331,3713.4838759715331,-5344.2848681393716,10578.476646928395,0.0
693523.2936376977,3657751.2368613081,-27500.0,5083.7686755684063,-1172.1849565561017,-4774.7740727462997,-1199.4427451448448,1046.2870930389381,192.46198864086915,5309.4574354553051,4627.6925703441184,-4413.0549874716007,4413.0549874716007,-4627.6925703441184,9198.7380446824554,0.0
698523.2936376977,3657751.2368613081,-27500.0,3567.1378300523734,-2026.9041674899097,-4585.9336192854225,-369.12437300084207,1557.8065248415232,-229.16796267084496,4812.1393294515692,3794.6041663463225,-4659.4018696407766,4659.4018696407766,-3794.6041663463225,8363.4336719779058,0.0
703523.2936376977,3657751.2368613081,-27500.0,2250.1575620889507,-2550.9235705306869,-4201.7197293443514,237.40082179215364,1774.9687696666108,-477.08922411899772,4428.8109224922437,2959.2454832298104,-4596.3167817974681,4596.3167817974681,-2959.2454832298104,7785.3058415858068,0.0
708523.2936376977,3657751.2368613081,-27500.0,1158.7333225559603,-2818.0583968556703,-3733.6851451207681,654.70127639108091,1806.776996703288,-603.77998078200903,4094.0771157105714,2189.7692451871544,-4341.2957228413561,4341.2957228413561,-2189.7692451871544,7302.2495840781876,0.0
713523.2936376977,3657751.2368613081,-27500.0,289.01961703566593,-2898.6515434122562,-3251.2399803964931,921.52776011872606,1729.8700257442354,-650.03522798698748,3781.1608501276478,1519.9096964300743,-3981.8404289084574,3981.8404289084574,-1519.9096964300743,6842.6820441882728,0.0
718523.2936376977,3657751.2368613081,-27500.0,-379.81466538176437,-2852.0287801159916,-2793.6574470268565,1074.3879981281777,1595.5858785903258,-645.84106448702937,3481.7780298002635,960.32531918706536,-3578.4926027726133,3578.4926027726133,-960.32531918706536,6384.2052914657825,0.0
723523.2936376977,3657751.2368613081,-27500.0,-876.29893765244469,-2724.4886144867419,-2380.2610994694774,1144.514389817173,1436.7476185630528,-612.21401979931966,3195.3097242337517,507.76810352648954,-3170.3602626797792,3170.3602626797792,-507.76810352648954,5926.1962595928026,0.0
728523.2936376977,3657751.2368613081,-27500.0,-1230.6424593333211,-2550.1643633468016,-2018.0481253127321,1156.9857618247679,1273.2963061907333,-563.26280995635784,2923.5783884309767,151.66926940645271,-2780.8243680368655,2780.8243680368655,-151.66926940645271,5475.4557112648035,0.0
733523.2936376977,3657751.2368613081,-27500.0,-1471.2807418079976,-2353.0625932904886,-1706.9416917402352,1131.0339834463764,1116.5784404108883,-508.06216845756222,2668.589023920882,-121.54999171691406,-2422.408952083641,2422.408952083641,121.54999171691406,5039.7406349027724,0.0
738523.2936376977,3657751.2368613081,-27500.0,-1623.2037020433604,-2149.3341712251249,-1443.1883910141489,1080.882703482082,972.42195502109189,-452.17478780421499,2431.7166737135053,-325.89481428928798,-2100.5329071200731,2100.5329071200731,325.89481428928798,4625.3171638966969,0.0
743523.2936376977,3657751.2368613081,-27500.0,-1707.4057110603655,-1949.3299044725325,-1221.4350540032181,1016.7319414777005,843.24766338047561,-398.80184764580565,2213.5453242272788,-474.40423019450827,-1816.2119179229862,1816.2119179229862,474.40423019450827,4236.3617750138583,0.0
543523.2936376977,3662751.2368613081,-27500.0,-3011.5233260041591,1491.7128871705656,-689.25450606297125,-1221.6620145724339,569.22631942091255,-358.24043020785973,2165.973538435459,-2162.4321585562425,1409.12102258558,-1409.12102258558,2162.4321585562425,4289.0859763788158,0.0
548523.2936376977,3662751.2368613081,-27500.0,-3216.5013485163358,1712.9198029652139,-827.93901297780508,-1370.1895209228362,678.44697689507097,-418.25811416902718,2402.7384606286914,-2291.6730418070783,1547.0149142567905,-1547.0149142567905,2291.6730418070783,4760.9902813775907,0.0
553523.2936376977,3662751.2368613081,-27500.0,-3418.9331368344356,1968.207813713954,-1001.1307420766112,-1535.1563871605886,810.64170212147678,-488.38405162620705,2670.0944781657126,-2410.2211432327795,1691.144549200789,-1691.144549200789,2410.2211432327795,5292.5852912738892,0.0
558523.2936376977,3662751.2368613081,-27500.0,-3610.0247335258946,2261.5253800920959,-1218.3265762171386,-1716.4985005032795,970.60467151606588,-569.76537795777665,2972.2420661881142,-2508.2772676714521,1837.114507625058,-1837.114507625058,2508.2772676714521,5890.7407897936846,0.0
563523.2936376977,3662751.2368613081,-27500.0,-3777.0324441880125,2596.2178929781239,-1491.6722912935504,-1912.9094087964884,1163.8621687275618,-663.24578563186833,3313.7156922105955,-2571.9564382932776,1977.6033960576797,-1977.6033960576797,2571.9564382932776,6562.3813615937306,0.0
568523.2936376977,3662751.2368613081,-27500.0,-3901.890225913261,2974.1438053021998,-1836.5862380433011,-2121.1106660918217,1396.5442110753813,-769.00972043415311,3699.0330213478792,-2581.9184881774136,2100.9861226240073,-2100.9861226240073,2581.9184881774136,7314.0278178428407,0.0
573523.2936376977,3662751.2368613081,-27500.0,-3959.4739461009312,3394.1992137930833,-2272.3913299504511,-2334.8110444165363,1675.017655104725,-886.0238748162941,4132.3074697750544,-2511.6793003889411,2189.4066001448878,-2189.4066001448878,2511.6793003889411,8151.0750266693403,0.0
578523.2936376977,3662751.2368613081,-27500.0,-3915.4938875172124,3849.9157375748177,-2822.7840590553374,-2543.2589131462073,2005.092308121232,-1011.2088993398643,4616.9163416166666,-2325.6523588687796,2216.1444685785855,-2216.1444685785855,2325.6523588687796,9076.7054628849928,0.0
583523.2936376977,3662751.2368613081,-27500.0,-3724.0900268543146,4325.6224797104951,-3515.7551836484395,-2729.26930957489,2390.4852679179471,-1138.284478889781,5155.0697817641467,-1977.112448494237,2142.1347273657889,-2142.1347273657889,1977.112448494237,10090.297428583188,0.0
588523.2936376977,3662751.2368613081,-27500.0,-3325.4385348355136,4790.4279898403747,-4382.1473174304638,-2866.5829318263759,2830.0194321772447,-1256.2801328349683,5747.1507461791271,-1406.6026135472976,1911.6278382719315,-1911.6278382719315,1406.6026135472976,11185.171963448418,0.0
593523.2936376977,3662751.2368613081,-27500.0,-2644.2128038647484,5188.992691546835,-5451.1738485468622,-2916.3536627189055,3312.6560208564701,-1347.7840292030569,6390.8305162485576,-541.98879084617602,1447.374864363687,-1447.374864363687,541.98879084617602,12345.531345240084,0.0
598523.2936376977,3662751.2368613081,-27500.0,-1591.072936414638,5427.9692892011999,-6739.5934856814683,-2822.5059619453118,3808.7859383601594,-1387.041011909233,7080.1777153949934,697.1398464455998,646.84608830727132,-646.84608830727132,-697.1398464455998,13542.823853628077,0.0
603523.2936376977,3662751.2368613081,-27500.0,-72.39638498445845,5357.8718513647727,-8228.3287774075361,-2505.895423916048,4254.9939956566895,-1337.7030991169972,7805.6175856579157,2384.8914965062413,-616.13553737650761,616.13553737650761,-2384.8914965062413,14733.441821836328,0.0
608523.2936376977,3662751.2368613081,-27500.0,1980.3457458727089,4754.5925899662079,-9816.2432900932581,-1858.9048362154981,4527.8439102723814,-1148.8095658719069,8557.8062382673124,4552.4946040467321,-2473.1897518826354,2473.1897518826354,-4552.4946040467321,15865.904061650672,0.0
613523.2936376977,3662751.2368613081,-27500.0,4541.3254731310972,3318.780288098289,-11238.904296773197,-748.85297965644054,4402.1044362713465,-745.21492021054166,9344.2159449495248,7109.7856034614178,-5002.1709091570647,5002.1709091570647,-7109.7856034614178,16923.390895076085,0.0
618523.2936376977,3662751.2368613081,-27500.0,7361.3367946992321,743.13496065875938,-11955.204716116037,943.71080270448681,3499.239609520781,-8.6756024890095649,10236.231436738795,9706.4687756456424,-8086.6202429315872,8086.6202429315872,-9706.4687756456424,18059.4922616736,0.0
623523.2936376977,3662751.2368613081,-27500.0,9811.1404689781284,-3062.637219351107,-11072.65708982795,3201.298437062675,1274.7568770955374,1238.5341346059192,11454.609592577663,11569.133165060839,-11170.258246356376,11170.258246356376,-11569.133165060839,19858.328105647171,0.0
628523.2936376977,3662751.2368613081,-27500.0,10892.164185810811,-7544.4146769390882,-7530.7526361055079,5634.4796142223177,-2818.7169543454329,3188.2075732571634,13399.891624225602,11521.403511580162,-13030.190357101959,13030.190357101959,-11521.403511580162,23380.710332897786,0.0
633523.2936376977,3662751.2368613081,-27500.0,9769.2908184218577,-11157.28299076333,-834.58543563631179,7306.475511820161,-8832.9108105964569,5847.573156814994,16376.921239198913,8579.2161454211036,-12017.372444221905,12017.372444221905,-8579.2161454211036,29221.674093521287,0.0
638523.2936376977,3662751.2368613081,-27500.0,6772.8259077511239,-11870.362312932575,7885.3395915517967,7072.5441074341306,-15695.809455383778,8758.133062475521,20013.835730980238,3115.3090170925957,-7228.7770987779641,7228.7770987779641,-3115.3090170925957,36260.514309285281,0.0
643523.2936376977,3662751.2368613081,-27500.0,3686.5365223574008,-8779.5065396104746,15790.442924724728,4544.518265318552,-21320.690114755387,11040.984303116322,23107.830693989265,-2672.739531607328,135.00418873178796,-135.00418873178796,2672.739531607328,42053.389039585032,0.0
648523.2936376977,3662751.2368613081,-27500.0,2357.7647981237178,-3186.8410530647134,20109.94124025332,650.70565727960013,-23900.671736429278,11982.141709055624,24465.092806561624,-6239.3950956587405,7176.0263979820984,-7176.0263979820984,6239.3950956587405,44523.917301773326,0.0
653523.2936376977,3662751.2368613081,-27500.0,3157.2332360676896,2450.2896449759751,20050.591726499497,-3093.9743848383705,-23114.518469926123,11531.113582389024,23738.867962445041,-6648.229084154912,11468.391582726337,-11468.391582726337,6648.229084154912,43169.632304421699,0.0
658523.2936376977,3662751.2368613081,-27500.0,5143.5146294227907,6355.0189487657062,16762.732410695531,-5678.663251382668,-19946.919271706629,10144.547285777366,21397.268768133832,-4723.1674349748992,12437.935791495931,-12437.935791495931,4723.1674349748992,38903.054811857648,0.0
663523.2936376977,3662751.2368613081,-27500.0,7177.4018523764626,8067.924008485139,12023.002091523567,-6889.6877253957446,-15723.40978881863,8346.4779525731556,18216.428776164506,-1861.3878102663521,10915.74342227355,-10915.74342227355,1861.3878102663521,33144.171970601587,0.0
668523.2936376977,3662751.2368613081,-27500.0,8572.8567847180148,7992.5554047860542,7240.356814428098,-6985.5218252694285,-11456.664083822465,6501.447928193129,14876.831277191601,871.56238840842161,8110.3265176299992,-8110.3265176299992,-871.56238840842161,27112.856094116079,0.0
673523.2936376977,3662751.2368613081,-27500.0,9123.1986218360107,6799.0593410460897,3195.2362551850324,-6351.018994217874,-7710.5677333119611,4810.7553716660741,11824.758167983113,2944.5985603997619,4997.5137078333682,-4997.5137078333682,-2944.5985603997619,21592.137878981841,0.0
678523.2936376977,3662751.2368613081,-27500.0,8909.8910898305658,5090.8957801978631,165.13374573738315,-5329.2486727875348,-4705.2513074789658,3369.3146540912248,9295.8140715184018,4222.9852424067421,2171.4794110379798,-2171.4794110379798,-4222.9852424067421,16973.222297304957,0.0
683523.2936376977,3662751.2368613081,-27500.0,8134.1646859289922,3296.8102995634449,-1873.4188965804383,-4174.2951765219004,-2454.3829137226044,2208.1204288757763,7373.9177606989269,4787.656606254217,-92.980562534599358,92.980562534599358,-4787.656606254217,13376.001945985236,0.0
688523.2936376977,3662751.2368613081,-27500.0,7017.0507578629931,1672.2577967404341,-3085.1038656760607,-3052.5291071364877,-868.00558678023344,1318.7534657216615,6017.9502696658346,4806.6593818126657,-1732.0302985007183,1732.0302985007183,-4806.6593818126657,10749.99912062693,0.0
693523.2936376977,3662751.2368613081,-27500.0,5750.2864632241608,338.20438610667605,-3675.4976813461349,-2058.4656564325123,182.74052427675133,669.66063017955139,5095.2432425491879,4460.8512040511741,-2799.3880067265864,2799.3880067265864,-4460.8512040511741,8940.0478000929907,0.0
698523.2936376977,3662751.2368613081,-27500.0,4477.6699355728406,-674.59332325900891,-3837.4316280828675,-1233.6870452344426,828.89093754664736,218.59437394364883,4459.2458106723561,3907.1542934979439,-3400.5914644541467,3400.5914644541467,-3907.1542934979439,7736.818014046964,0.0
703523.2936376977,3662751.2368613081,-27500.0,3293.626106586049,-1387.8838218806645,-3728.1424980637039,-584.63441931238344,1185.4730331103879,-78.309174425734184,3997.3446578942021,3265.0370775144411,-3652.310952597205,3652.310952597205,-3265.0370775144411,6929.5258309643295,0.0
708523.2936376977,3662751.2368613081,-27500.0,2250.5639314532978,-1848.3273536143809,-3464.4499949626129,-97.266454384389732,1344.8691564889039,-260.89967473624586,3635.9216854138631,2616.1761825379849,-3660.5957428905153,3660.5957428905153,-2616.1761825379849,6349.7344504562425,0.0
713523.2936376977,3662751.2368613081,-27500.0,1369.4634393619224,-2109.6907549080579,-3126.9629394235872,252.17936764998774,1376.7206831929195,-362.34788726097145,3331.705350499692,2010.4504553262987,-3511.834501119195,3511.834501119195,-2010.4504553262987,5887.2155202423974,0.0
718523.2936376977,3662751.2368613081,-27500.0,650.30529704905382,-2222.8349292165526,-2767.6347309664507,490.13982827856262,1330.9684325814369,-408.56591316269055,3061.557917079765,1473.9168216957155,-3271.2507281969497,3271.2507281969497,-1473.9168216957155,5481.1031196325039,0.0
723523.2936376977,3662751.2368613081,-27500.0,80.672455274220027,-2231.1042463049757,-2417.5431421361013,641.6695165260727,1241.9218804519548,-418.82363084853273,2814.2107784418331,1016.3672309337747,-2985.1817439540173,2985.1817439540173,-1016.3672309337747,5102.7969044820475,0.0
728523.2936376977,3662751.2368613081,-27500.0,-357.95102274263269,-2169.0240723382708,-2093.5009263805196,728.49597027626214,1132.2166192519287,-406.88405886917667,2584.7089236461507,637.44401496940702,-2684.7638954218664,2684.7638954218664,-637.44401496940702,4741.4619072511432,0.0
733523.2936376977,3662751.2368613081,-27500.0,-686.00270487560795,-2062.7680308965564,-1803.1069660712037,768.40546642035247,1016.1602275097346,-382.23522460425409,2371.1138843157419,331.10712887835916,-2389.7134913267505,2389.7134913267505,-331.10712887835916,4394.7307213678123,0.0
738523.2936376977,3662751.2368613081,-27500.0,-923.33504837190378,-1931.3987217238835,-1548.3403800762444,775.37062658306002,902.33753293312975,-351.20093853507484,2172.7253100508747,88.646852016707612,-2111.6042341451011,2111.6042341451011,-88.646852016707612,4063.5817865460126,0.0
543523.2936376977,3667751.2368613081,-27500.0,-2604.7466370261714,1544.8651232752222,-831.12035982778809,-1082.4220423566164,597.72371959497366,-322.88151257848222,2018.3063473115924,-1776.1492355236219,1259.8879824656319,-1259.8879824656319,1776.1492355236219,4006.499817442967,0.0
548523.2936376977,3667751.2368613081,-27500.0,-2736.1011008549426,1753.5781173363016,-991.43620330215651,-1199.1941269051449,705.53424068149968,-373.2801943222878,2225.8773431387253,-1836.2561720144408,1356.6241418293207,-1356.6241418293207,1836.2561720144408,4420.0782281996908,0.0
553523.2936376977,3667751.2368613081,-27500.0,-2851.2630313044683,1988.7386951842689,-1188.5479053621773,-1324.6081749980046,833.90547746635593,-430.99424315463096,2458.5287431889665,-1873.1973539946812,1448.9137013123004,-1448.9137013123004,1873.1973539946812,4879.8878424669037,0.0
558523.2936376977,3667751.2368613081,-27500.0,-2939.3769132755397,2251.2324168991199,-1431.3681361889119,-1456.6799840162957,986.32132075251661,-496.35665984683857,2719.1422850030362,-1875.5063016395711,1529.8174070962773,-1529.8174070962773,1875.5063016395711,5389.5012386276267,0.0
563523.2936376977,3667751.2368613081,-27500.0,-2985.7386394550176,2540.2638524253671,-1730.7458177879516,-1591.7830659616948,1166.3939175208432,-569.1875931549456,3009.9930267526502,-1827.8982015225126,1589.0767625346491,-1589.0767625346491,1827.8982015225126,5951.7675815730763,0.0
568523.2936376977,3667751.2368613081,-27500.0,-2970.7913192030155,2852.1664425917647,-2099.6096913288698,-1723.9042278481763,1377.4810932815062,-648.41155096440662,3332.7369074530411,-1710.3470093728813,1611.8690063183601,-1611.8690063183601,1710.3470093728813,6568.2304105288176,0.0
573523.2936376977,3667751.2368613081,-27500.0,-2869.0516516657749,3178.6051775774131,-2552.8440370814683,-1843.6537626494214,1621.975532989494,-731.4900760284022,3688.3868975326523,-1497.1701400517125,1577.2304809716736,-1577.2304809716736,1497.1701400517125,7238.3304429621567,0.0
578523.2936376977,3667751.2368613081,-27500.0,-2648.1400183644314,3503.9240457813034,-3106.5889534997368,-1936.9980098575338,1900.0614305781239,-813.61797821006144,4077.0314851978455,-1156.3601461044673,1456.1781992873184,-1456.1781992873184,1156.3601461044673,7958.3739899574302,0.0
583523.2936376977,3667751.2368613081,-27500.0,-2268.2871617482333,3801.3477374629861,-3776.4093682959374,-1983.7239033441592,2207.6338619466937,-886.64721016582303,4497.4551000852953,-649.64959961752334,1209.7194061777539,-1209.7194061777539,649.64959961752334,8720.3326015014354,0.0
588523.2936376977,3667751.2368613081,-27500.0,-1683.0403668560077,4027.7623336216448,-4573.3545210772745,-1955.7238275808236,2532.9298651087329,-937.7459844198878,4946.8748752367737,65.782048384882501,787.27600805613247,-787.27600805613247,-65.782048384882501,9510.7250486808134,0.0
593523.2936376977,3667751.2368613081,-27500.0,-842.52929481782553,4117.02249682818,-5496.2463071557586,-1815.3538864458458,2851.2278922059791,-947.87901614526356,5421.1552412393903,1032.3215871835846,126.75328563008787,-126.75328563008787,-1032.3215871835846,10310.313584051202,0.0
598523.2936376977,3667751.2368613081,-27500.0,298.24597067483649,3972.5385054201665,-6517.5887118077726,-1514.4747399810101,3116.773463378081,-890.28639541850907,5916.3193986631686,2280.8497430661264,-841.14176218775424,841.14176218775424,-2280.8497430661264,11096.589101765672,0.0
603523.2936376977,3667751.2368613081,-27500.0,1762.0047588851869,3462.0181444479031,-7559.5033746451818,-995.55725060529221,3251.0080776157902,-729.14270420678122,6433.0660683854248,3809.1804494303669,-2179.2623020933815,2179.2623020933815,-3809.1804494303669,11853.790550057574,0.0
608523.2936376977,3667751.2368613081,-27500.0,3516.9218372906575,2422.2280527220341,-8456.524823534417,-198.07373369866315,3126.9157092940036,-418.42121832521542,6987.5328714896468,5544.3594488989311,-3912.2275685132604,3912.2275685132604,-5544.3594488989311,12600.904774092836,0.0
613523.2936376977,3667751.2368613081,-27500.0,5425.4294176269877,690.93935910625021,-8908.069246455043,922.93119163324889,2552.7609275655636,99.041822814451635,7632.3157028915584,7285.8349413886617,-5964.4607235747762,5964.4607235747762,-7285.8349413886617,13454.039612549703,0.0
618523.2936376977,3667751.2368613081,-27500.0,7184.1754362810552,-1805.8276561331163,-8443.8866205699196,2354.4945090718556,1268.9020076716381,890.51599359359693,8485.0609585188722,8642.7540760417014,-8062.2241006165696,8062.2241006165696,-8642.7540760417014,14721.857327261456,0.0
623523.2936376977,3667751.2368613081,-27500.0,8305.8335379980927,-4889.9631024949385,-6468.9641240769924,3951.1756540766964,-1007.8570792324697,2021.8997099167161,9734.3171016569686,9022.7691743980577,-9631.1159023430482,9631.1159023430482,-9022.7691743980577,16927.980734129556,0.0
628523.2936376977,3667751.2368613081,-27500.0,8250.149290098745,-7940.9711672083222,-2495.9786066338147,5354.1688585610127,-4441.0272475650636,3517.5278588570754,11558.909392299287,7791.0729757040335,-9808.7072228707675,9808.7072228707675,-7791.0729757040335,20527.206969569495,0.0
633523.2936376977,3667751.2368613081,-27500.0,6783.1609624018683,-9887.2250827178268,3397.6637330837393,6006.7950198346698,-8827.6732043733209,5282.6195155962478,13948.555987827638,4689.9075906271646,-7766.0457572376545,7766.0457572376545,-4689.9075906271646,25375.834933302223,0.0
638523.2936376977,3667751.2368613081,-27500.0,4376.8671853910128,-9651.4405357858268,10160.479582804976,5395.9779024234413,-13413.050224819144,7040.3752731418117,16543.63344644658,318.88515292565398,-3355.6938650717807,3355.6938650717807,-318.88515292565398,30523.272172531309,0.0
643523.2936376977,3667751.2368613081,-27500.0,2146.7454248517911,-6932.370957095397,15969.333571506695,3444.0630468052882,-17067.841731762262,8394.6201307128431,18673.740349734791,-3893.3218463428043,2417.4855206727457,-2417.4855206727457,3893.3218463428043,34603.898028604643,0.0
648523.2936376977,3667751.2368613081,-27500.0,1140.6687827907849,-2584.5517719093968,19187.365615239138,669.5355911893472,-18862.662093022358,9032.9233487353122,19708.941765448337,-6494.669182300011,7781.5073896181093,-7781.5073896181093,6494.669182300011,36528.433366832745,0.0
653523.2936376977,3667751.2368613081,-27500.0,1640.3627083304916,1910.1884130904675,19277.299548563649,-2116.507361533249,-18562.125560156135,8891.2256295046845,19418.8036131425,-6898.2685623776852,11247.198251986327,-11247.198251986327,6898.2685623776852,35969.380427217387,0.0
658523.2936376977,3667751.2368613081,-27500.0,3163.7825383865538,5339.0487698078532,16851.535915451139,-4272.4530285027722,-16605.028288860976,8130.1107869276666,17999.35483993683,-5507.6035061408347,12318.873852518018,-12318.873852518018,5507.6035061408347,33339.164894926318,0.0
663523.2936376977,3667751.2368613081,-27500.0,4967.5867487525966,7206.258847037886,13048.8553119511,-5536.8466761065765,-13720.069163568089,6997.0006394830743,15868.453170382978,-3190.248286229732,11389.611954179083,-11389.611954179083,3190.248286229732,29419.493372056899,0.0
668523.2936376977,3667751.2368613081,-27500.0,6470.6556981555041,7621.0342633935907,8924.2608731010587,-5958.1138399447491,-10574.01624253748,5717.2136900423611,13455.975716914772,-744.96441284907814,9233.5750404167429,-9233.5750404167429,744.96441284907814,24992.074988629025,0.0
673523.2936376977,3667751.2368613081,-27500.0,7385.1677242987307,6984.8072027199623,5177.7148345776113,-5736.3601552473838,-7621.3914296454795,4454.6824670895448,11094.304051753987,1325.1721793146321,6592.8797914276529,-6592.8797914276529,-1325.1721793146321,20647.725889187008,0.0
678523.2936376977,3667751.2368613081,-27500.0,7663.8440378273526,5744.4613535344952,2149.1381007483947,-5103.7651957344433,-5102.8412688164199,3312.1402194310626,8997.3653526399467,2805.949144428324,3999.2735750741513,-3999.2735750741513,-2805.949144428324,16751.408122970213,0.0
683523.2936376977,3667751.2368613081,-27500.0,7400.3522398682298,4268.6375811169528,-80.471485354630815,-4263.4333453649078,-3100.6182600903803,2342.6214352951924,7276.4922710739547,3680.7480358151488,1756.7819884319708,-1756.7819884319708,-3680.7480358151488,13481.218963915744,0.0
688523.2936376977,3667751.2368613081,-27500.0,6746.3217595367541,2811.5189001381418,-1579.509145064894,-3367.5576056106856,-1599.0583288193243,1562.3039983917017,5952.0187834752614,4038.9554233317026,-8.8770105626240365,8.8770105626240365,-4038.9554233317026,10882.943351403719,0.0
693523.2936376977,3667751.2368613081,-27500.0,5858.1485638549939,1521.0251516053318,-2482.776228738478,-2516.2281641761642,-532.10925488294606,962.68093721454829,4971.1307729189139,4009.9488164975005,-1288.4443115012086,1288.4443115012086,-4009.9488164975005,8915.6092453755191,0.0
698523.2936376977,3667751.2368613081,-27500.0,4869.0131585095451,463.64616218138025,-2939.1040638082081,-1765.6352894549238,184.58571817135595,521.19707708052965,4252.7883341045808,3723.2836513494676,-2136.7338371532105,2136.7338371532105,-3723.2836513494676,7484.7487926978974,0.0
703523.2936376977,3667751.2368613081,-27500.0,3878.3324048130353,-348.52801320009115,-3083.3585475239356,-1139.4050350109476,634.57605336900349,209.53183457514677,3721.6082048882158,3288.7785669257041,-2635.3354711755669,2635.3354711755669,-3288.7785669257041,6469.2650228741613,0.0
708523.2936376977,3667751.2368613081,-27500.0,2951.761232627719,-934.96914197336605,-3024.9163265096968,-639.6260632728206,890.93494511486085,-0.80165085113420087,3317.6919095641006,2789.7069113197076,-2869.4010722604562,2869.4010722604562,-2789.7069113197076,5746.55962469937,0.0
713523.2936376977,3667751.2368613081,-27500.0,2126.5163719709326,-1330.0365589202443,-2845.8735557475579,-255.89899187667388,1012.7517765973181,-135.28200047200667,2997.4342903326637,2283.5223690622074,-2915.2746457754806,2915.2746457754806,-2283.5223690622074,5212.8968083516902,0.0
718523.2936376977,3667751.2368613081,-27500.0,1418.4948938961863,-1572.1810239051654,-2604.1257160402602,28.090383197270167,1045.1849570370348,-215.02836721229744,2731.5153428210283,1806.1259655172553,-2835.4451509203836,2835.4451509203836,-1806.1259655172553,4793.0879385881171,0.0
723523.2936376977,3667751.2368613081,-27500.0,829.13406278581942,-1697.7930212372457,-2338.2358926416618,230.28514112843345,1021.2461503088034,-256.61677189270603,2501.5819766774475,1377.1533695594858,-2677.8573655586956,2677.8573655586956,-1377.1533695594858,4439.3176280628632,0.0
728523.2936376977,3667751.2368613081,-27500.0,351.05716171001745,-1738.2839032558695,-2072.3869449390545,367.77223025587597,964.17221313750508,-272.52459347065985,2296.797613180001,1004.9190158701041,-2477.4398879034406,2477.4398879034406,-1004.9190158701041,4124.3503983775154,0.0
733523.2936376977,3667751.2368613081,-27500.0,-27.743913776456225,-1719.1803733157947,-1820.6376522388875,455.55944122177453,889.7563976853005,-271.8308055131252,2111.0237604188746,690.44205725974382,-2258.4821881833823,2258.4821881833823,-690.44205725974382,3834.1583863225305,0.0
738523.2936376977,3667751.2368613081,-27500.0,-321.06445743421943,-1660.3335456774103,-1590.2504292066342,506.15317491947582,808.35398929296389,-260.95136268106876,1940.8434692436767,430.44233246352326,-2037.0938524816634,2037.0938524816634,-430.44233246352326,3562.2668886330102,0.0
548523.2936376977,3672751.2368613081,-27500.0,-2264.2032058760619,1731.8147146685037,-1130.3298944364108,-1028.7204672950647,710.29369321950298,-327.95250624862405,2046.9962924315175,-1401.1783005486911,1138.9409725285889,-1138.9409725285889,1401.1783005486911,4065.1159731111666,0.0
553523.2936376977,3672751.2368613081,-27500.0,-2302.8852476406678,1935.9140006091536,-1341.633308053993,-1117.7295627463798,829.77043542260196,-373.89894952728878,2248.5654474105436,-1369.5320029636246,1180.1108611903301,-1180.1108611903301,1369.5320029636246,4455.0595636029602,0.0
558523.2936376977,3672751.2368613081,-27500.0,-2303.7360157584953,2155.4468736138479,-1596.9429255225621,-1205.5300935214507,968.56071870858148,-424.36537349695499,2471.0929470027099,-1294.5086149783924,1199.1051166249358,-1199.1051166249358,1294.5086149783924,4880.0979489151232,0.0
563523.2936376977,3672751.2368613081,-27500.0,-2251.9810051631207,2385.9299668070994,-1904.7470625131828,-1287.075909734943,1128.3216403846075,-478.41740352286928,2715.1620135986273,-1161.3978749086414,1184.1939353797188,-1184.1939353797188,1161.3978749086414,5340.1559492507777,0.0
568523.2936376977,3672751.2368613081,-27500.0,-2129.0744210597072,2619.1589771401636,-2274.2044274488048,-1354.9247168827374,1309.7518970104861,-534.12436266814495,2980.9910690813936,-952.06417738374398,1119.5147483428652,-1119.5147483428652,952.06417738374398,5833.5407620681908,0.0
573523.2936376977,3672751.2368613081,-27500.0,-1912.38644308477,2841.4513467639804,-2714.3430648479498,-1398.462934568531,1511.6932919228138,-588.04512059840727,3268.1907606275126,-644.87336768742819,984.10207178788221,-984.10207178788221,644.87336768742819,6356.3638573776752,0.0
578523.2936376977,3672751.2368613081,-27500.0,-1575.3716252521606,3031.2997533370108,-3232.4438014829348,-1403.0304503048733,1729.7139104493615,-634.53802225346612,3575.5890737453037,-215.25530121164439,751.04552152036854,-751.04552152036854,215.25530121164439,6902.0021591534569,0.0
583523.2936376977,3672751.2368613081,-27500.0,-1088.7053969672904,3156.4140977653578,-3831.058611562622,-1349.0618009449774,1953.9503905817019,-664.88983736855653,3901.257837187507,362.51885337994889,387.1897891677981,-387.1897891677981,-362.51885337994889,7460.8908468765339,0.0
588523.2936376977,3672751.2368613081,-27500.0,-423.17498429950297,3170.3444224985756,-4502.8447927884108,-1211.4947448321789,2165.9429492181516,-666.30983135535223,4243.0069560347656,1111.4292540704339,-145.8233439618312,145.8233439618312,-1111.4292540704339,8021.299570836286,0.0
593523.2936376977,3672751.2368613081,-27500.0,444.48551412963775,3009.3731238653572,-5222.0870507576637,-959.92653364185321,2334.2003615597055,-620.92053624695814,4599.8580500364169,2044.3199488634818,-887.73075829600054,887.73075829600054,-2044.3199488634818,8572.4421619161876,0.0
598523.2936376977,3672751.2368613081,-27500.0,1521.1865339968017,2591.4236532834125,-5931.662747437952,-560.38600657465327,2408.3997447018687,-505.00418267582148,4975.4010936768591,3151.2764332609736,-1870.6516429709286,1870.6516429709286,-3151.2764332609736,9112.5853783453695,0.0
603523.2936376977,3672751.2368613081,-27500.0,2780.7795982825555,1820.6487782369825,-6524.7655630858917,19.820459968260383,2312.6512734730172,-288.89600303375221,5384.2446233907176,4380.083855202638,-3101.41933059849,3101.41933059849,-4380.083855202638,9666.5198660045753,0.0
608523.2936376977,3672751.2368613081,-27500.0,4140.6079369653671,604.41528755428169,-6823.3919066906292,801.88110088977851,1939.691296090831,61.929869084290907,5862.3001330112202,5609.8458351328409,-4531.3088218889297,4531.3088218889297,-5609.8458351328409,10316.902735138285,0.0
613523.2936376977,3672751.2368613081,-27500.0,5435.8447604875664,-1107.563986998515,-6562.633910230059,1776.8884713274647,1150.9670467258313,583.7606413102302,6478.0000561779307,6623.7886180968644,-6012.0640193026129,6012.0640193026129,-6623.7886180968644,11243.435871707787,0.0
618523.2936376977,3672751.2368613081,-27500.0,6408.0291262757928,-3253.9689658283587,-5403.5022199091854,2877.1762925396529,-207.00146652082415,1307.9317653364972,7332.3801920994147,7100.6949248719002,-7248.6828246361283,7248.6828246361283,-7100.6949248719002,12728.363097973148,0.0
623523.2936376977,3672751.2368613081,-27500.0,6741.8332810395013,-5572.564393492883,-3012.6327662794279,3943.5306757783369,-2254.3550088548432,2247.5551734249789,8527.6156043368628,6663.6236280920621,-7785.269622720738,7785.269622720738,-6663.6236280920621,15052.240172747754,0.0
628523.2936376977,3672751.2368613081,-27500.0,6188.516767851489,-7546.222532527303,759.13890180605995,4712.6123301696989,-4987.9873179551178,3375.1124654555274,10099.265944313525,5028.7562635379008,-7091.1958712006171,7091.1958712006171,-5028.7562635379008,18281.711452713949,0.0
633523.2936376977,3672751.2368613081,-27500.0,4762.8034615035913,-8489.4156191135189,5638.9881006440955,4868.0958960774233,-8175.7219688183241,4596.4979418215607,11947.683085493056,2239.321644074671,-4800.950787874769,4800.950787874769,-2239.321644074671,22108.232994658603,0.0
638523.2936376977,3672751.2368613081,-27500.0,2880.3557433591336,-7842.3490963651575,10808.310666770083,4179.2805837832657,-11320.020978355522,5744.2561389282655,13811.67074396474,-1165.2519875459134,-1033.3166489425025,1033.3166489425025,1165.2519875459134,25878.265455689558,0.0
643523.2936376977,3672751.2368613081,-27500.0,1244.4075617228041,-5541.5001565077,15107.479644864152,2662.8232839064076,-13785.969859472791,6617.5041243912347,15311.454805697127,-4268.277340206495,3467.882807276615,-3467.882807276615,4268.277340206495,28811.851028226651,0.0
648523.2936376977,3672751.2368613081,-27500.0,476.51685287748359,-2150.4242204363418,17545.57248602264,627.16496668370598,-15065.987768457082,7060.5250725522001,16097.80198914259,-6207.186482624189,7596.1260685030247,-7596.1260685030247,6207.186482624189,30303.860560020326,0.0
653523.2936376977,3672751.2368613081,-27500.0,779.60057912813215,1413.086165493303,17753.513806500698,-1464.5691632221362,-14997.592644397009,7025.0851908067989,16017.61170476314,-6600.9063472545104,10409.328989903734,-10409.328989903734,6600.9063472545104,30138.317402275236,0.0
658523.2936376977,3672751.2368613081,-27500.0,1906.8132680282665,4329.5935262681714,16043.973242360536,-3204.6360065795875,-13777.877070606788,6572.0287907252714,15147.417358643135,-5639.1103005821606,11509.831013179384,-11509.831013179384,5639.1103005821606,28499.219913610537,0.0
663523.2936376977,3672751.2368613081,-27500.0,3388.9884930484895,6163.927162658928,13122.733205261979,-4369.4524887754387,-11808.378426833997,5825.7444627714231,13711.281758763113,-3849.0153912812275,11052.182778482511,-11052.182778482511,3849.0153912812275,25817.369110967269,0.0
668523.2936376977,3672751.2368613081,-27500.0,4785.4167824277638,6876.1063955512454,9737.3849075079142,-4924.2248368403052,-9514.1925497432439,4923.5453544651346,11974.801052372935,-1796.4119965902419,9505.2586443532491,-9505.2586443532491,1796.4119965902419,22583.248822283913,0.0
673523.2936376977,3672751.2368613081,-27500.0,5813.7448561834408,6676.5414870579707,6462.0796082979032,-4958.8622685740283,-7232.5217943136522,3983.7875791880579,10172.656146352854,95.678655670705666,7398.3038722839583,-7398.3038722839583,-95.678655670705666,19219.34402316932,0.0
678523.2936376977,3672751.2368613081,-27500.0,6362.8063182398882,5868.1292758215277,3638.3823929183973,-4617.0698852932101,-5178.6996363386952,3092.9652556507481,8479.2209057920754,1592.8840365404137,5167.7935281684004,-5167.7935281684004,-1592.8840365404137,16028.709536861992,0.0
683523.2936376977,3672751.2368613081,-27500.0,6447.8978635761105,4740.4498200406188,1408.1873972545018,-4046.2502128465276,-3458.7009984130318,2304.4936279629092,7004.6936191116838,2618.210694644571,3105.766892992342,-3105.766892992342,-2618.210694644571,13194.876891610198,0.0
688523.2936376977,3672751.2368613081,-27500.0,6155.2933299789884,3520.0553921592573,-222.84192547531171,-3370.7053604645603,-2098.8661870679457,1643.4453546414252,5795.3589829291141,3197.4512442868127,1368.789508481922,-1368.789508481922,-3197.4512442868127,10804.316565018331,0.0
693523.2936376977,3672751.2368613081,-27500.0,5597.3668387294183,2358.997048729947,-1325.1532709962617,-2681.9090892923241,-1076.2791399659036,1113.7827274400433,4841.1309156641664,3409.3365645913136,11.227706190710478,-11.227706190710478,-3409.3365645913136,8873.204080676227,0.0
698523.2936376977,3672751.2368613081,-27500.0,4883.4873245092322,1343.4233814074369,-2000.6819916420707,-2039.0220706784999,-343.06077386016233,705.87469489513853,4102.6968464939637,3349.7000331292488,-978.29787972174154,978.29787972174154,-3349.7000331292488,7370.5566967467312,0.0
703523.2936376977,3672751.2368613081,-27500.0,4104.8135841532985,509.75519213894648,-2354.7059825909791,-1474.4351815539806,156.87863496639159,402.93307415176423,3535.4387661191104,3109.8136494591727,-1646.6150857279008,1646.6150857279008,-3109.8136494591727,6236.3614275676973,0.0
708523.2936376977,3672751.2368613081,-27500.0,3329.0255464114421,-138.64842670946913,-2480.8740102512847,-1000.8955247028623,477.74501143360402,185.75400298301946,3098.2527249572172,2765.7741440599357,-2054.4615964131262,2054.4615964131262,-2765.7741440599357,5396.365768575004,0.0
713523.2936376977,3672751.2368613081,-27500.0,2601.0906369293721,-617.6132860438762,-2455.2244972370672,-618.23843690702563,666.75474709483058,35.740037664721555,2756.2469898714708,2375.2566699355007,-2263.0679193910914,2263.0679193910914,-2375.2566699355007,4775.0189381682258,0.0
718523.2936376977,3672751.2368613081,-27500.0,1947.0084822668266,-952.03163616288771,-2335.5620056753082,-318.8228375999127,762.32983063604809,-63.487944952271491,2481.8622316256706,1978.4912814869883,-2327.0049989633799,2327.0049989633799,-1978.4912814869883,4305.7972814399373,0.0
723523.2936376977,3672751.2368613081,-27500.0,1378.485725121036,-1169.2581626701485,-2163.5410979472063,-91.454786394364305,794.21948573389636,-125.47188376313821,2254.8145454787391,1601.1922369050167,-2291.28269121941,2291.28269121941,-1601.1922369050167,3936.9688815844206,0.0
728523.2936376977,3672751.2368613081,-27500.0,897.36992417095735,-1295.2763625364064,-1967.7560308664908,76.045521739758598,784.57114141898307,-160.90596679907335,2061.0697435609704,1258.0115903229323,-2191.0025206922523,2191.0025206922523,-1258.0115903229323,3632.3584397520767,0.0
733523.2936376977,3672751.2368613081,-27500.0,499.31155833172704,-1352.8112337730331,-1766.8824287768941,195.3322443243627,749.33378264722637,-177.94237495968511,1891.3755983453561,955.74926349691361,-2052.3373663408552,2052.3373663408552,-955.74926349691361,3368.7952444650628,0.0
548523.2936376977,3677751.2368613081,-27500.0,-1817.7969309105733,1658.2279845297646,-1238.0502585885524,-864.72052785819199,695.85524797342748,-283.80585453492762,1873.3554360814142,-1001.6091934265692,909.65622690654459,-909.65622690654459,1001.6091934265692,3707.4164997873631,0.0
553523.2936376977,3677751.2368613081,-27500.0,-1793.4602693544064,1824.5421548375257,-1453.4731572529736,-921.78115534457322,802.8218368276913,-319.04818085283165,2045.3537330630465,-916.44662797314766,904.33688402724704,-904.33688402724704,916.44662797314766,4032.0805497338883,0.0
558523.2936376977,3677751.2368613081,-27500.0,-1725.3715440537599,1994.6869385129132,-1708.3227195414274,-971.78883697988533,923.98440940610453,-356.25296766082408,2232.1610631436715,-784.25407618322583,869.24829209021163,-869.24829209021163,784.25407618322583,4379.7402459313535,0.0
563523.2936376977,3677751.2368613081,-27500.0,-1600.1479231000267,2161.3937610620319,-2008.1209692804457,-1009.0899849724204,1059.2472016932602,-393.99753123307909,2433.761231731437,-592.34045909406871,792.60330022148435,-792.60330022148435,592.34045909406871,4748.5775018426057,0.0
568523.2936376977,3677751.2368613081,-27500.0,-1401.991331159433,2313.4133836273436,-2357.7124823522577,-1025.9114321601196,1207.0798220415988,-429.87248366645565,2649.7543737387227,-326.12730601105073,659.39483732033159,-659.39483732033159,326.12730601105073,5135.3427205396356,0.0
573523.2936376977,3677751.2368613081,-27500.0,-1113.0349754008989,2434.0764819457854,-2760.0005467175461,-1011.8647463397149,1363.5852400126764,-460.05684079244088,2879.3196199147833,30.228427235096092,451.09394034853301,-451.09394034853301,-30.228427235096092,5535.1782644087643,0.0
578523.2936376977,3677751.2368613081,-27500.0,-714.3672352322053,2499.6035926310374,-3213.8270359318644,-953.50817852083367,1521.1452170824741,-478.782691254344,3121.3540309252862,492.39612955014684,145.80217215159556,-145.80217215159556,-492.39612955014684,5941.7901077682473,0.0
583523.2936376977,3677751.2368613081,-27500.0,-188.17239461363698,2477.3567582395253,-3710.5856597657057,-834.13602081763224,1666.5280839610002,-477.71098261839222,3374.9611914656111,1073.1198077156755,-280.65878681999163,280.65878681999163,-1073.1198077156755,6348.4280756463986,0.0
588523.2936376977,3677751.2368613081,-27500.0,478.41485260577258,2324.516361182456,-4229.0772482137936,-634.09725253556189,1778.3819910565908,-445.29173233537148,3640.594299047078,1777.4910030256283,-851.93564145321136,851.93564145321136,-1777.4910030256283,6750.530995250243,0.0
593523.2936376977,3677751.2368613081,-27500.0,1287.0468799668688,1988.1809915753111,-4728.1650264671634,-332.13020480120656,1824.165234486584,-366.26401910116726,3922.3019850889527,2595.5066462183377,-1585.4471136079073,1585.4471136079073,-2595.5066462183377,7151.4652062292962,0.0
598523.2936376977,3677751.2368613081,-27500.0,2218.9336209768539,1408.7090977877308,-5137.2024825318813,91.56631571728866,1756.8750641460067,-221.56377458993609,4231.5508537237502,3491.3910394756936,-2482.2987310810308,2482.2987310810308,-3491.3910394756936,7573.275514545282,0.0
603523.2936376977,3677751.2368613081,-27500.0,3222.8482972839502,529.22170034292992,-5345.4544443372542,649.58081639087845,1512.5736597250725,10.961666252836869,4592.6038620783811,4390.1341524654981,-3511.378224916758,3511.378224916758,-4390.1341524654981,8073.4961658455268,0.0
608523.2936376977,3677751.2368613081,-27500.0,4202.6375454937206,-684.90077619237684,-5194.5004793562075,1337.9009722881181,1010.845568349148,354.51272335128772,5047.6061976853525,5164.1786948804611,-4587.5730001852089,4587.5730001852089,-5164.1786948804611,8763.3063485270377,0.0
613523.2936376977,3677751.2368613081,-27500.0,5010.6565166952159,-2213.4522024412368,-4482.4357987189087,2122.6356306501539,161.99748506119204,829.36372888098708,5655.967984094199,5627.9746073158476,-5548.2770540537731,5548.2770540537731,-5627.9746073158476,9808.272030709446,0.0
618523.2936376977,3677751.2368613081,-27500.0,5459.4936704939091,-3938.2417227124579,-2994.4661321565764,2924.9925663774852,-1113.6138694341016,1446.3531759844705,6480.1478237020856,5554.7481858550254,-6141.023413590312,6141.023413590312,-5554.7481858550254,11382.627123856255,0.0
623523.2936376977,3677751.2368613081,-27500.0,5367.7848505070488,-5605.7900815947196,-575.30943899194722,3611.7865907397572,-2849.691340212396,2197.61544715932,7555.5389253091616,4733.3441001330793,-6046.5656092653062,6046.5656092653062,-4733.3441001330793,13575.772712936892,0.0
628523.2936376977,3677751.2368613081,-27500.0,4645.8601090496932,-6832.290881560255,2757.6233387094376,4005.3943445678951,-4985.1631610963768,3045.913971464196,8856.5904349627563,3071.1808572051355,-4964.9947738221845,4964.9947738221845,-3071.1808572051355,16304.290585057282,0.0
633523.2936376977,3677751.2368613081,-27500.0,3392.5306727971288,-7193.4758301821657,6704.0932297562049,3927.7184660734251,-7323.7675637238062,3917.5280106879986,10278.766020483166,710.14154107470267,-2765.6152613249515,2765.6152613249515,-710.14154107470267,19285.6273383468,0.0
638523.2936376977,3677751.2368613081,-27500.0,1930.5289716193545,-6401.0767769221729,10664.424585299714,3275.2563887864617,-9540.3355076252901,4707.3563776506307,11644.091470853526,-1928.0916863472996,364.47534264785031,-364.47534264785031,1928.0916863472996,22088.378212880434,0.0
643523.2936376977,3677751.2368613081,-27500.0,712.51875846677456,-4479.8946649570116,13890.887125029498,2088.3831239621545,-11260.93190365173,5302.2477041267393,12728.957780118339,-4248.2512430158113,3893.0709617254797,-3893.0709617254797,4248.2512430158113,24248.052060146849,0.0
648523.2936376977,3677751.2368613081,-27500.0,122.54818284863997,-1809.7939210614645,15764.390200003681,561.2690313435744,-12192.090020221389,5615.8085047856512,13329.963665547828,-5716.9793375129575,7108.2569524457504,-7108.2569524457504,5716.9793375129575,25409.264621583898,0.0
653523.2936376977,3677751.2368613081,-27500.0,303.46915387887503,1021.7807544701221,16029.919519615185,-1025.8724139170326,-12224.294594638086,5615.5894626005002,13344.922226774512,-6081.0005642224851,9396.144064130498,-9396.144064130498,6081.0005642224851,25428.105558169049,0.0
658523.2936376977,3677751.2368613081,-27500.0,1127.0559016219825,3458.6727780098677,14844.376445279475,-2409.7350194299906,-11448.361312192357,5327.4390238964706,12800.021522660954,-5426.3403571881727,10451.806965542524,-10451.806965542524,5426.3403571881727,24386.323021892345,0.0
663523.2936376977,3677751.2368613081,-27500.0,2299.4094782990187,5152.2753833172219,12642.049440512983,-3419.4883594771854,-10090.406594474822,4818.8601629511977,11817.127591772776,-4073.135357404833,10313.705663513068,-10313.705663513068,4073.135357404833,22526.107172131226,0.0
668523.2936376977,3677751.2368613081,-27500.0,3504.2890645811922,6003.7169805781668,9937.4235773255441,-3996.674262159635,-8419.1992089376199,4174.6540254712754,10560.112028849055,-2410.4545959161869,9255.8082172641443,-9255.8082172641443,2410.4545959161869,20155.021087937814,0.0
673523.2936376977,3677751.2368613081,-27500.0,4502.0567389346588,6104.8727009106224,7174.4985508211585,-4172.56570381657,-6673.9286430693337,3476.3785812458364,9190.3087438289003,-769.55823301785904,7639.8225920578698,-7639.8225920578698,769.55823301785904,17566.966797217428,0.0
678523.2936376977,3677751.2368613081,-27500.0,5163.4500810269228,5646.5017743591643,4658.7100604931629,-4030.036120438137,-5028.7906051723139,2789.9752644569671,7841.4950637426909,631.79369214059852,5802.4401012438029,-5802.4401012438029,-631.79369214059852,14997.629231888894,0.0
683523.2936376977,3677751.2368613081,-27500.0,5457.5941919055867,4840.7215416767658,2553.8807332218767,-3669.1837452483655,-3587.6815540714988,2161.0077592020871,6609.8703235053872,1689.7308359807785,3998.6065685563617,-3998.6065685563617,-1689.7308359807785,12610.612656318081,0.0
688523.2936376977,3677751.2368613081,-27500.0,5420.8471344172121,3873.6467362882054,912.225433273921,-3184.1557828204836,-2395.5872105770686,1615.2578044650843,5548.6809633748344,2387.4585018086559,2389.2315192613037,-2389.2315192613037,-2387.4585018086559,10502.413658989133,0.0
693523.2936376977,3677751.2368613081,-27500.0,5124.6018178754694,2885.1827185308175,-287.18785114562201,-2651.1947704050958,-1455.7244399018023,1162.3320244974097,4669.203836710868,2762.3375862563489,1053.7880051661293,-1053.7880051661293,-2762.3375862563489,8715.5503915783102,0.0
698523.2936376977,3677751.2368613081,-27500.0,4650.3399455395956,1966.8522136753045,-1104.5970178789382,-2125.0239895831482,-746.01539101811977,800.3689662136544,3956.8241744674187,2877.7224989277474,12.209061199602047,-12.209061199602047,-2877.7224989277474,7253.1066687798711,0.0
703523.2936376977,3677751.2368613081,-27500.0,4073.7976978032293,1169.0213172546787,-1614.9170676273093,-1640.2920093820217,-232.09163054402669,520.55040866647141,3387.9747945487015,2803.126828682105,-753.15185352896697,753.15185352896697,-2803.126828682105,6091.5299707764416,0.0
708523.2936376977,3677751.2368613081,-27500.0,3456.9904717589507,511.44430410395506,-1892.3080047877129,-1215.4184400685945,123.76961394913852,310.732479622391,2937.3799090418397,2602.4313460556236,-1279.6987585753573,1279.6987585753573,-2602.4313460556236,5190.9603152112013,0.0
713523.2936376977,3677751.2368613081,-27500.0,2845.8116039967831,-6.4082398310341491,-2002.0295378082205,-857.04985978162972,357.27898449882292,157.99122189891136,2580.6670309610799,2328.3070991930749,-1612.0087103078645,1612.0087103078645,-2328.3070991930749,4503.6082549266812,0.0
718523.2936376977,3677751.2368613081,-27500.0,2270.9806078446618,-396.87068796089198,-1997.2845547259637,-564.12072833350555,499.4442909300605,50.176831750036214,2295.9987392081543,2020.7636320188731,-1793.9931083234719,1793.9931083234719,-2020.7636320188731,3980.7822015330516,0.0
723523.2936376977,3677751.2368613081,-27500.0,1750.6095233968124,-677.89636848906298,-1919.0596780948383,-331.08684867941651,575.65713293180102,-23.297791426679705,2065.1415686922705,1708.0476376731506,-1864.7058402919868,1864.7058402919868,-1708.0476376731506,3578.4347888253192,0.0
728523.2936376977,3677751.2368613081,-27500.0,1293.2386078605432,-868.97463033451436,-1797.5003868406748,-150.25734414706085,605.82402648035008,-71.188199651229809,1873.8298612435592,1408.6164684305613,-1856.6373113372524,1856.6373113372524,-1408.6164684305613,3260.581496162783,0.0
553523.2936376977,3682751.2368613081,-27500.0,-1336.0328308581686,1670.5488468707806,-1521.6588044514051,-741.90501701835763,758.21351686875641,-267.88523234714813,1850.5230248792063,-524.17740390778965,637.61727794559499,-637.61727794559499,524.17740390778965,3622.4032017232089,0.0
558523.2936376977,3682751.2368613081,-27500.0,-1217.6015430806788,1789.921623920249,-1764.6966405167159,-761.19259718663545,859.70549290571148,-293.73603344247908,2005.3769615939825,-354.36511939392904,559.02203917955467,-559.02203917955467,354.36511939392904,3901.9564566400236,0.0
563523.2936376977,3682751.2368613081,-27500.0,-1042.6543210987618,1893.9545612374345,-2042.9520263564489,-763.90108548795263,968.90504339788549,-317.9023692621613,2170.2256386043769,-128.25718895012719,435.69460645307436,-435.69460645307436,128.25718895012719,4192.7301129250836,0.0
568523.2936376977,3682751.2368613081,-27500.0,-799.0364408782367,1969.9393553065531,-2357.0849903425647,-742.71994435995055,1082.6407539072231,-337.80525660696696,2344.5668806548019,164.43907052848942,254.83118266187188,-254.83118266187188,-164.43907052848942,4491.3344352790164,0.0
573523.2936376977,3682751.2368613081,-27500.0,-474.30805323940314,2000.4512848713302,-2704.5259799034961,-688.42257535262581,1195.2193708860798,-349.64105140177384,2527.8612976728346,533.39402766885769,1.8142978253717388,-1.8142978253717388,-533.39402766885769,4793.7761142905147,0.0
578523.2936376977,3682751.2368613081,-27500.0,-57.235745517770305,1962.4243108645619,-3077.2668288811155,-589.79936415028715,1297.2845183157765,-348.00376037249714,2719.937059783455,985.78980685184922,-338.89263110943455,338.89263110943455,-985.78980685184922,5096.3481142767905,0.0
583523.2936376977,3682751.2368613081,-27500.0,459.71596891067395,1826.5860116398114,-3458.6915021289933,-433.92508934648185,1374.3627279389959,-325.49022320555645,2921.8116481366042,1523.3258321061444,-781.80298488290555,781.80298488290555,-1523.3258321061444,5397.6336584501369,0.0
588523.2936376977,3682751.2368613081,-27500.0,1076.576176216018,1557.817107349463,-3819.2924714560131,-207.02649966022992,1405.1541069636353,-272.36974482129455,3137.1534869525749,2137.7673050658336,-1336.831323691039,1336.831323691039,-2137.7673050658336,5702.3906739556587,0.0
593523.2936376977,3682751.2368613081,-27500.0,1780.5469820912961,1117.3778645402631,-4111.3757068000132,103.67936224807546,1359.7940952771612,-176.46490737537357,3374.5720928227865,2804.874173954493,-2003.3919702974797,2003.3919702974797,-2804.874173954493,6028.1882688765982,0.0
598523.2936376977,3682751.2368613081,-27500.0,2539.3930338328264,468.37736002134977,-4263.4597953838929,506.73666307254842,1198.6077664557122,-23.468686256396435,3650.5876480509751,3477.0582252268555,-2761.5970713242027,2761.5970713242027,-3477.0582252268555,6414.8854731438259,0.0
603523.2936376977,3682751.2368613081,-27500.0,3294.700127892299,-413.82781056362631,-4176.2752817711862,1001.4009067811745,872.35802944641387,202.00060680895106,3992.2197029658337,4076.2308359722501,-3560.6487363774831,3560.6487363774831,-4076.2308359722501,6933.9728238093749,0.0
608523.2936376977,3682751.2368613081,-27500.0,3957.8377993390377,-1524.9857333753839,-3724.1781437541804,1570.7542793929783,325.61153509369274,514.27339081489879,4436.596524317596,4490.242670083785,-4306.2591089808839,4306.2591089808839,-4490.242670083785,7688.602486361835,0.0
613523.2936376977,3682751.2368613081,-27500.0,4413.7432726732823,-2809.7477399007553,-2768.0714872000131,2173.8899292243887,-494.60494266352345,923.16942883374679,5024.0678812246606,4578.8957925950954,-4852.2286522526747,4852.2286522526747,-4578.8957925950954,8791.4308140950307,0.0
618523.2936376977,3682751.2368613081,-27500.0,4539.3236810148601,-4139.4708447898884,-1186.8906982514152,2739.8478052931223,-1622.8920433985015,1429.2109606878864,5783.5220829844966,4197.302255902955,-5005.81059422819,5005.81059422819,-4197.302255902955,10318.936497375298,0.0
623523.2936376977,3682751.2368613081,-27500.0,4241.2559332887686,-5303.2087559512929,1069.3020768278739,3168.3618156204029,-3052.544993332403,2018.1102764510083,6714.2911129646454,3241.8605363574102,-4559.3757206402051,4559.3757206402051,-3241.8605363574102,12263.509463442699,0.0
628523.2936376977,3682751.2368613081,-27500.0,3508.1032806697367,-6031.1398394457829,3914.7176513046084,3343.8219319540485,-4711.1959359204347,2656.1685758024578,7773.2261747109987,1712.7027205914876,-3355.7440804997213,3355.7440804997213,-1712.7027205914876,14508.308548835261,0.0
633523.2936376977,3682751.2368613081,-27500.0,2454.0458733881978,-6063.9392509550053,7082.4910309425832,3165.7664173019734,-6447.9572798470281,3289.4424713136937,8873.5686635846123,-233.7418697614055,-1374.8301798971013,1374.8301798971013,233.7418697614055,16833.376747009941,0.0
638523.2936376977,3682751.2368613081,-27500.0,1318.5500620230357,-5255.2189675671216,10141.747512110675,2589.1888233157206,-8048.121114667184,3849.8084576680994,9894.9666465122809,-2283.568211991379,1199.9423585328279,-1199.9423585328279,2283.568211991379,18952.644290320663,0.0
643523.2936376977,3682751.2368613081,-27500.0,399.67819029162797,-3657.7472421088055,12599.947663266996,1655.3935036307478,-9281.7993943931342,4268.7081213121673,10699.999256700832,-4042.6943191670184,3989.4568405965888,-3989.4568405965888,4042.6943191670184,20577.329459218283,0.0
648523.2936376977,3682751.2368613081,-27500.0,-56.886701266058047,-1533.8136106488753,14057.971762717352,491.89414243166016,-9970.9061768320607,4494.5259820692754,11164.546103950768,-5169.54704106595,6521.8879519909597,-6521.8879519909597,5169.54704106595,21488.196367218148,0.0
653523.2936376977,3682751.2368613081,-27500.0,48.939601537106924,728.45747489959626,14338.264023251666,-723.80604495142211,-10041.818135036443,4505.9464212451248,11219.543159098183,-5492.6339627099524,8386.3028954243164,-8386.3028954243164,5492.6339627099524,21587.960919111996,0.0
658523.2936376977,3682751.2368613081,-27500.0,649.43316898327782,2747.0791463991677,13518.630128208368,-1818.2277549321955,-9537.564282040641,4315.2736525313585,10870.690563739747,-5048.7297983037151,9354.0521730933269,-9354.0521730933269,5048.7297983037151,20912.455115088713,0.0
663523.2936376977,3682751.2368613081,-27500.0,1559.4835535770353,4254.369670115876,11868.223859736643,-2666.2927955262417,-8589.2109039207935,3961.5505077208154,10185.799506991965,-4034.1972688929031,9412.5765515872245,-9412.5765515872245,4034.1972688929031,19601.727869355786,0.0
668523.2936376977,3682751.2368613081,-27500.0,2558.0120098807661,5138.8529855115994,9737.0585122152152,-3209.8597661300682,-7367.5497639348841,3498.1588469935282,9267.0628446768478,-2713.3577864868635,8717.8769907367714,-8717.8769907367714,2713.3577864868635,17850.731767697802,0.0
673523.2936376977,3682751.2368613081,-27500.0,3456.0342914964926,5425.9014939793524,7456.6756213243179,-3451.7829673475712,-6038.6411278148898,2980.360329203741,8224.3470140084737,-1335.1694297919726,7510.8431232808434,-7510.8431232808434,1335.1694297919726,15861.765214538016,0.0
678523.2936376977,3682751.2368613081,-27500.0,4131.1092679088315,5227.7195989125184,5281.6116417185858,-3436.6296834921054,-4735.8913782419904,2456.1870655097937,7156.9654880247572,-84.770780482012015,6040.6847586433669,-6040.6847586433669,84.770780482012015,13811.605658448903,0.0
683523.2936376977,3682751.2368613081,-27500.0,4531.016732478176,4691.531062560106,3371.9475352452582,-3229.1441320686345,-3549.6652726968359,1961.6509711337676,6143.5380259827143,929.81671661316841,4516.2086103002803,-4516.2086103002803,-929.81671661316841,11835.577145354293,0.0
688523.2936376977,3682751.2368613081,-27500.0,4659.3417214897308,3961.3096119554721,1802.9862397675754,-2896.9947705126096,-2529.3645492872415,1519.6880344125022,5234.9410910452143,1668.1492433984745,3085.8035755448213,-3085.8035755448213,-1668.1492433984745,10024.7163345886,0.0
693523.2936376977,3682751.2368613081,-27500.0,4555.0531502318154,3156.3288977085963,586.96575879125169,-2499.8977852645676,-1691.8833229394065,1141.6032757177061,4451.7032977188301,2138.1381372279352,1837.6802445352673,-1837.6802445352673,-2138.1381372279352,8430.6346653570945,0.0
698523.2936376977,3682751.2368613081,-27500.0,4273.6822182357919,2363.4287144204577,-303.68803512797695,-2084.5385066330655,-1031.8022874412516,829.75129996099463,3792.9983108368333,2376.1355619071533,810.73301294182238,-810.73301294182238,-2376.1355619071533,7073.6106599624354,0.0
703523.2936376977,3682751.2368613081,-27500.0,3873.3961492002186,1638.0805219165536,-916.94154569645445,-1683.6521195169621,-530.61980524719809,580.47264622554439,3248.5542371132733,2430.797412873042,8.7889968541542203,-8.7889968541542203,-2430.797412873042,5951.0598842181926,0.0
708523.2936376977,3682751.2368613081,-27500.0,3406.4448818012693,1009.8729476001599,-1307.2939586778575,-1317.5401330069665,-163.86773017316685,386.68328234217768,2804.4099756491946,2352.0195912830241,-586.01582248832642,586.01582248832642,-2352.0195912830241,5044.9727897743714,0.0
713523.2936376977,3682751.2368613081,-27500.0,2915.0652328980145,489.35810196489342,-1527.1703904272306,-996.6580370495451,94.05515245403771,239.85313913578901,2445.1161057119257,2184.5129735006008,-1002.6273797079037,1002.6273797079037,-2184.5129735006008,4327.959047440525,0.0
718523.2936376977,3682751.2368613081,-27500.0,2430.4931093290788,74.489430718265169,-1622.419923548784,-724.37594873370904,267.00227715542752,131.34322841299917,2155.1717010144098,1964.8958962372303,-1273.6336412899236,1273.6336412899236,-1964.8958962372303,3768.1053500770963,0.0
723523.2936376977,3682751.2368613081,-27500.0,1973.8197094640955,-244.15169590038226,-1630.6268804795657,-499.4219710695757,375.65230289406156,53.195800316790965,1920.1953245023947,1721.102393202357,-1430.6263280832025,1430.6263280832025,-1721.102393202357,3332.9395652572953,0.0
553523.2936376977,3687751.2368613081,-27500.0,-937.57614176691766,1489.2614120426811,-1547.5438907907478,-581.22722537561037,701.09874192490804,-221.3563416459252,1666.5961023319517,-196.80014518786987,391.77072973826961,-391.77072973826961,196.80014518786987,3234.7634684406667,0.0
558523.2936376977,3687751.2368613081,-27500.0,-785.96703038948715,1560.4068624649417,-1769.8684135772367,-576.75942569588369,782.52938432347389,-237.83283898364098,1794.0469251144762,-6.677560250749309,281.24925088554266,-281.24925088554266,6.677560250749309,3456.5073064269409,0.0
563523.2936376977,3687751.2368613081,-27500.0,-582.14758181159618,1607.4076653633651,-2016.794110789177,-553.9683254297521,866.17617499925689,-251.13557087575504,1928.3340612337227,232.9413198226093,126.59351887782745,-126.59351887782745,-232.9413198226093,3683.1195025663064,0.0
568523.2936376977,3687751.2368613081,-27500.0,-317.78400158522527,1617.4778512256614,-2285.4084782938703,-506.48706661339889,947.83712889355331,-258.74226945142567,2069.2570463367574,528.09706437651369,-82.070303646960525,82.070303646960525,-528.09706437651369,3912.1197421671877,0.0
573523.2936376977,3687751.2368613081,-27500.0,14.40752876120165,1574.175071885415,-2568.8727180922569,-426.72012633809493,1020.9037578073242,-257.13015443373371,2217.0030588606105,882.87400126523698,-354.90674320946704,354.90674320946704,-882.87400126523698,4141.5814288170168,0.0
578523.2936376977,3687751.2368613081,-27500.0,419.05458802356497,1457.1644635135835,-2854.4353387188744,-306.03417963251206,1075.49725559185,-241.53512464552301,2372.7205030179293,1297.4955907545366,-701.05734012087714,701.05734012087714,-1297.4955907545366,4371.5809403102485,0.0
583523.2936376977,3687751.2368613081,-27500.0,895.778789438427,1242.5694549023524,-3120.85871247256,-135.29942539637969,1097.4813348106422,-205.73935612702408,2539.4696967447912,1765.6135016861167,-1126.3834513051524,1126.3834513051524,-1765.6135016861167,4606.7960828903688,0.0
588523.2936376977,3687751.2368613081,-27500.0,1436.0312748954063,904.4093282249695,-3335.354321161451,94.025914395606236,1067.4790653712887,-141.96232279680638,2723.6192198701501,2270.7421427328004,-1629.9296620285302,1629.9296620285302,-2270.7421427328004,4860.6475247245207,0.0
593523.2936376977,3687751.2368613081,-27500.0,2019.2625364804717,417.81782581456332,-3450.433871116491,388.04527029785208,960.1685435969049,-40.973838210680249,2936.5615798821182,2782.056769915665,-2198.8550014324751,2198.8550014324751,-2782.056769915665,5160.8631750780551,0.0
598523.2936376977,3687751.2368613081,-27500.0,2609.0243654676769,-235.14901452387758,-3401.6334800738705,747.61830139731035,744.34841952890133,107.40822136689746,3196.1500189468065,3250.2989413950968,-2801.9105508459111,2801.9105508459111,-3250.2989413950968,5554.6899666260288,0.0
603523.2936376977,3687751.2368613081,-27500.0,3150.3466557528091,-1056.481804211325,-3107.9012365690023,1164.5804795163378,384.53219236576359,313.24630072220361,3526.545690196901,3605.3917018838301,-3382.3155427817828,3382.3155427817828,-3605.3917018838301,6109.0365277747869,0.0
608523.2936376977,3687751.2368613081,-27500.0,3570.7184500246053,-2020.1459701255646,-2477.4224016885914,1617.3710958594097,-154.93830563000685,584.6749965729723,3954.7597822288144,3758.4838544956256,-3852.2712793621567,3852.2712793621567,-3758.4838544956256,6899.2105718635894,0.0
613523.2936376977,3687751.2368613081,-27500.0,3787.8146059632145,-3059.040568351611,-1422.2203621337567,2067.1706654028299,-902.30859854693733,925.31676587418701,4503.0837576350877,3612.0264032320983,-4093.2479993915704,4093.2479993915704,-3612.0264032320983,7984.9795308156899,0.0
618523.2936376977,3687751.2368613081,-27500.0,3726.7874248053809,-4056.1319497851309,116.13156791903539,2456.6229245553754,-1867.102122576295,1331.1528229559822,5179.0677930944303,3081.0385571012712,-3967.7987903451012,3967.7987903451012,-3081.0385571012712,9383.2780800348046,0.0
623523.2936376977,3687751.2368613081,-27500.0,3346.9382326804557,-4848.1150625421878,2131.588570365735,2713.988773758776,-3026.625078533722,1787.5053340454356,5966.8264297166243,2125.1979233917982,-3347.9376554059118,3347.9376554059118,-2125.1979233917982,11050.108225239883,0.0
628523.2936376977,3687751.2368613081,-27500.0,2671.1258159945774,-5250.3254148295746,4519.3806190648293,2765.1885495433089,-4314.6790850885482,2267.2952860153769,6823.4254150851975,783.9409383851679,-2159.4439660688781,2159.4439660688781,-783.9409383851679,12876.778614271876,0.0
633523.2936376977,3687751.2368613081,-27500.0,1803.4800210550077,-5104.9542803917911,7060.9120883243368,2553.4164589816387,-5619.4421102954484,2732.0312219825923,7682.1081270433624,-802.19626176485338,-429.98173704641829,429.98173704641829,802.19626176485338,14700.233833561611,0.0
638523.2936376977,3687751.2368613081,-27500.0,918.79347703887674,-4340.0978506038391,9447.3393054248991,2060.9713226058188,-6796.9739627355375,3136.6108951938522,8460.7316768520959,-2403.4621883451159,1682.7827839253896,-1682.7827839253896,2403.4621883451159,16327.546421431423,0.0
643523.2936376977,3687751.2368613081,-27500.0,217.51411875088169,-3012.5659050770346,11346.892859138961,1323.4263792364395,-7700.8101972286277,3437.5978162815586,9071.4564787285981,-3753.6980643231159,3907.1298145925107,-3907.1298145925107,3753.6980643231159,17572.220814195127,0.0
648523.2936376977,3687751.2368613081,-27500.0,-138.57095728366798,-1307.4150454730411,12494.836013860868,427.05945732680385,-8218.5781585754303,3602.6689584540709,9435.2764040944639,-4627.6181178618554,5922.0023685280139,-5922.0023685280139,4627.6181178618554,18293.317464663724,0.0
653523.2936376977,3687751.2368613081,-27500.0,-79.024256574239061,511.66771625442533,12766.247560420727,-511.73167451939361,-8300.3843977775741,3617.7563998666533,9504.6351406853064,-4907.1779304039947,7445.7577851819633,-7445.7577851819633,4907.1779304039947,18423.930249076253,0.0
658523.2936376977,3687751.2368613081,-27500.0,359.96348966215174,2178.4425172534407,12198.861805060031,-1376.4077388874805,-7966.9948411780906,3489.2038540374556,9277.3171008500667,-4606.0404422006404,8308.3854272063181,-8308.3854272063181,4606.0404422006404,17978.994707549798,0.0
663523.2936376977,3687751.2368613081,-27500.0,1060.494032142471,3491.1296321076766,10961.797175707941,-2076.7591152856007,-7296.6002778580996,3240.5854397929465,8791.9781091711011,-3846.4372161835186,8478.2106662825081,-8478.2106662825081,3846.4372161835186,17041.910896859081,0.0
668523.2936376977,3687751.2368613081,-27500.0,1869.5882421566139,4345.8875132018775,9292.9538284931041,-2562.886293609798,-6398.9374111033776,2906.0531707917116,8113.3809238869417,-2807.6184217115124,8041.8416862875029,-8041.8416862875029,2807.6184217115124,15738.206103676721,0.0
673523.2936376977,3687751.2368613081,-27500.0,2643.9683849661374,4734.1619274278573,7435.2590923643947,-2825.3738256979509,-5388.3696619534176,2522.8697059365431,7316.3889604208352,-1672.5191752697619,7157.319096940214,-7157.319096940214,1672.5191752697619,14207.040950884035,0.0
678523.2936376977,3687751.2368613081,-27500.0,3278.3923402325172,4716.9083703285651,5591.9255689553638,-2886.0310284058764,-4364.0324392712109,2125.2528203091265,6473.5274013096005,-590.59493808141542,6004.3190059916114,-6004.3190059916114,590.59493808141542,12578.534483616762,0.0
683523.2936376977,3687751.2368613081,-27500.0,3714.9998022079112,4391.9263773444045,3906.025003311911,-2785.0920366536179,-3399.6444302388086,1740.5432734432545,5646.740293147699,338.4590225022821,4746.7772951261268,-4746.7772951261268,-338.4590225022821,10960.02517300999,0.0
688523.2936376977,3687751.2368613081,-27500.0,3938.6975596591615,3865.6901919903985,2459.5909771341753,-2569.3730480946183,-2541.6048217147354,1387.7248002561207,4880.7070223609435,1064.3673790547095,3512.5502608147294,-3512.5502608147294,-1064.3673790547095,9430.6435874164144,0.0
693523.2936376977,3687751.2368613081,-27500.0,3965.5852314027325,3234.4730139383387,1284.0800129154595,-2283.6341155901746,-1812.3872523736297,1077.7457323952817,4198.6442540005191,1576.5274253399466,2387.6324217103834,-2387.6324217103834,-1576.5274253399466,8041.8265670870642,0.0
698523.2936376977,3687751.2368613081,-27500.0,3830.0429941752823,2574.7909464157083,374.98245609724967,-1965.570554777184,-1216.3243939788902,814.90665006667757,3606.8105037930313,1891.1327720714767,1419.7970391028653,-1419.7970391028653,-1891.1327720714767,6821.1725576115305,0.0
703523.2936376977,3687751.2368613081,-27500.0,3573.7557668201803,1940.9236856671373,-294.08411979192402,-1643.8338570778378,-745.70648845827054,598.65857597190131,3102.8484570420678,2039.1566585925352,626.76407957833317,-626.76407957833317,-2039.1566585925352,5777.5900782864392,0.0
708523.2936376977,3687751.2368613081,-27500.0,3237.9285584342529,1366.7860867071997,-760.06632252897396,-1338.1205709610081,-386.03107083400471,425.35137574436447,2680.2716461795703,2057.0423790319783,5.389368109677207,-5.389368109677207,-2057.0423790319783,4906.4199645741419,0.0
713523.2936376977,3687751.2368613081,-27500.0,2858.6740359783962,869.86702831471973,-1062.5406035672866,-1060.4137454191341,-119.95708346331621,289.68474761883942,2330.214116785527,1980.4874084374107,-460.12217259885733,460.12217259885733,-1980.4874084374107,4193.8858815697185,0.0
718523.2936376977,3687751.2368613081,-27500.0,2464.9366642095033,455.66785141367313,-1238.8307827679459,-816.67968051209436,70.041990003950545,185.77541452384915,2042.5657965351543,1840.9251792565788,-791.82519266430666,791.82519266430666,-1840.9251792565788,3620.7044032303133,0.0
723523.2936376977,3687751.2368613081,-27500.0,2078.1550962016918,121.74780251716082,-1321.4783508718617,-608.57292145446468,200.11011362533068,107.85901399067251,1806.9621900407108,1664.0140109724653,-1013.5757166053548,1013.5757166053548,-1664.0140109724653,3164.9601137259706,0.0
558523.2936376977,3692751.2368613081,-27500.0,-429.94122237226594,1322.3654541868827,-1730.7207659563283,-419.2838268372758,698.44641135378947,-188.96826985191711,1600.5907536159016,262.75122366216851,43.215734911986175,-43.215734911986175,-262.75122366216851,3049.6521451257677,0.0
563523.2936376977,3692751.2368613081,-27500.0,-214.20081579175061,1320.7013150813034,-1940.3943670259189,-378.9712410421817,758.50756527832061,-193.91826467939941,1710.3355130619448,499.89471987568606,-128.74596839049275,128.74596839049275,-499.89471987568606,3225.6444073195235,0.0
568523.2936376977,3692751.2368613081,-27500.0,52.029116662992692,1277.3997685868271,-2158.6427738099846,-314.99113911085311,811.70546393600466,-192.49582019686986,1825.438958182212,780.25569203843213,-348.20770135659347,348.20770135659347,-780.25569203843213,3402.3233661280196,0.0
573523.2936376977,3692751.2368613081,-27500.0,371.70118432245101,1178.1199226791969,-2375.7533441657934,-221.49238663929248,851.22755291272119,-181.60495972081736,1946.9872277908596,1103.4461867369068,-621.05528781485293,621.05528781485293,-1103.4461867369068,3580.4066714866749,0.0
578523.2936376977,3692751.2368613081,-27500.0,744.41031980959349,1006.298614865843,-2576.3291711548554,-92.313863038990618,867.55208012962544,-157.23867920146267,2077.4369048204949,1464.6826370064261,-950.85703740131044,950.85703740131044,-1464.6826370064261,3763.9814473833312,0.0
583523.2936376977,3692751.2368613081,-27500.0,1164.4620302693697,744.07361216644119,-2737.4495853975695,78.372407529273701,847.86822057531788,-114.39513983540864,2221.4852594690301,1852.6326010727485,-1336.694991839036,1336.694991839036,-1852.6326010727485,3963.1309785738736,0.0
588523.2936376977,3692751.2368613081,-27500.0,1618.5720088395306,374.21794810165164,-2826.8133150924677,294.99220205935427,775.64999266112272,-47.105438592835355,2387.0994433133269,2246.9204663709215,-1770.149004226844,1770.149004226844,-2246.9204663709215,4197.3123671120511,0.0
593523.2936376977,3692751.2368613081,-27500.0,2083.5093633263396,-116.50192567252185,-2801.3647430343885,558.97400914625916,630.63225733625757,51.341552326287911,2586.3650231297506,2615.6790009863785,-2231.4819047817859,2231.4819047817859,-2615.6790009863785,4498.4421952563498,0.0
598523.2936376977,3692751.2368613081,-27500.0,2524.3506615717761,-732.2107619683984,-2607.2975700630723,866.60514680783251,389.5652827572074,187.87315248939305,2835.4678457040754,2913.9404547410659,-2685.43741294144,2685.43741294144,-2913.9404547410659,4911.1765001666636,0.0
603523.2936376977,3692751.2368613081,-27500.0,2894.47214211863,-1461.0754914866079,-2182.7836099839469,1206.4976145940554,28.233908349192056,368.70481152509558,3152.9155714396293,3084.1787951856109,-3077.6885548362584,3077.6885548362584,-3084.1787951856109,5487.0379615141583,0.0
608523.2936376977,3692751.2368613081,-27500.0,3138.8246936310979,-2267.5423135451265,-1465.0912735434254,1557.1370379304406,-474.76371772935119,597.9564638660737,3555.4928712267883,3060.771300240468,-3333.8359333685212,3333.8359333685212,-3060.771300240468,6271.3302607330306,0.0
613523.2936376977,3692751.2368613081,-27500.0,3202.0625825592792,-3085.7987044949937,-403.51873320373755,1885.4242980534648,-1132.2196796931146,875.87561620159317,4052.570012121183,2780.1444004115992,-3363.6961358430599,3363.6961358430599,-2780.1444004115992,7287.0299614091318,0.0
618523.2936376977,3692751.2368613081,-27500.0,3042.1524344902928,-3818.1702873067288,1021.8688497978885,2147.5339528163327,-1940.8985034311104,1196.9228916324791,4640.5016578381892,2197.2474069778582,-3073.7476072632699,3073.7476072632699,-2197.2474069778582,8522.3688689802566,0.0
623523.2936376977,3692751.2368613081,-27500.0,2647.6994738762537,-4343.0779149637556,2778.7760085692225,2293.4951195501299,-2874.0321590985618,1548.2242392195581,5299.0810846621844,1306.2296760977242,-2389.0000289799268,2389.0000289799268,-1306.2296760977242,9925.6063655802318,0.0
628523.2936376977,3692751.2368613081,-27500.0,2053.61335613252,-4535.8319415321475,4765.7829667905962,2276.1693024309443,-3876.5900607621625,1909.0967099299176,5991.396705058406,159.04390387752812,-1281.3719732800878,1281.3719732800878,-159.04390387752812,11406.871108990781,0.0
633523.2936376977,3692751.2368613081,-27500.0,1346.7815389446801,-4300.6602548266246,6810.324070242892,2063.5008400823995,-4866.8741917504303,2252.3556423689461,6667.5071060278797,-1127.7111756590036,204.26455254745019,-204.26455254745019,1127.7111756590036,12846.916168761043,0.0
638523.2936376977,3692751.2368613081,-27500.0,654.28743504023976,-3604.8756549088562,8689.9760591237391,1650.4987326655362,-5746.898882219567,2547.7331511265747,7270.5874839792759,-2386.4912396520672,1939.4450478293497,-1939.4450478293497,2386.4912396520672,14113.137570750907,0.0
643523.2936376977,3692751.2368613081,-27500.0,113.49457638769302,-2500.4511296430505,10176.566550052517,1065.8612434380075,-6420.6341788824266,2766.9535372247315,7742.5923042329032,-3434.1728351337106,3727.5440849811212,-3727.5440849811212,3434.1728351337106,15081.209878687612,0.0
648523.2936376977,3692751.2368613081,-27500.0,-166.43819861342934,-1120.359151641278,11090.066960374981,369.23672722012327,-6814.9248053815654,2889.1543259956284,8031.3216225681608,-4118.4681599420837,5345.1072969392499,-5345.1072969392499,4118.4681599420837,15657.40982828738,0.0
653523.2936376977,3692751.2368613081,-27500.0,-135.49351148287565,351.95710558902482,11341.52300479312,-361.01798194954898,-6895.5354782858658,2904.9272221018559,8103.2993640375444,-4356.8801250010465,6595.1099474828052,-6595.1099474828052,4356.8801250010465,15794.902954295028,0.0
658523.2936376977,3692751.2368613081,-27500.0,186.9512531139236,1728.1116265864387,10948.270599413294,-1045.2345379140816,-6672.4693459621794,2817.6693831073703,7953.6047644615146,-4152.4442662111996,7351.2114758708012,-7351.2114758708012,4152.4442662111996,15498.995795326358,0.0
663523.2936376977,3692751.2368613081,-27500.0,724.81296704621934,2856.9449848247536,10018.269161032102,-1618.5433206375469,-6193.5777252682292,2641.993530749407,7604.7402678863182,-3582.4738419173414,7577.3218727622825,-7577.3218727622825,3582.4738419173414,14820.706537029288,0.0
668523.2936376977,3692751.2368613081,-27500.0,1372.3968203900668,3649.2461828257556,8714.0023632921111,-2040.7008972865178,-5530.2872774957823,2400.0128032135131,7098.4697902177131,-2769.011995694354,7319.8688731698876,-7319.8688731698876,2769.011995694354,13842.233238907338,0.0
673523.2936376977,3692751.2368613081,-27500.0,2023.3339929442175,4081.2793523340547,7211.9137210097433,-2298.1211758717259,-4761.3015822092502,2116.8508659165873,6486.1025236280229,-1844.992389269541,6681.6419416992103,-6681.6419416992103,1844.992389269541,12659.757888335251,0.0
678523.2936376977,3692751.2368613081,-27500.0,2591.8629525368433,4182.2862595648094,5670.104499302035,-2399.709769714877,-3959.1116282384764,1816.6167220395635,5820.2363915578444,-927.39682014817527,5790.1177387642201,-5790.1177387642201,927.39682014817527,11368.247162857144,0.0
683523.2936376977,3692751.2368613081,-27500.0,3022.9596143169842,4014.6918332996929,4209.8383973224927,-2369.5123070736022,-3181.6673289036326,1519.5982177539956,5148.6826274727318,-102.30387089178203,4770.4716124838196,-4770.4716124838196,102.30387089178203,10050.826967152625,0.0
688523.2936376977,3692751.2368613081,-27500.0,3292.7158218170625,3654.5389198075391,2910.1133907090953,-2238.9707002965092,-2469.230231192812,1240.867246845042,4508.9701301970008,578.86941639536758,3728.0658092315998,-3728.0658092315998,-578.86941639536758,8773.1780037388435,0.0
693523.2936376977,3692751.2368613081,-27500.0,3402.6010453792323,3176.462019465559,1811.3555450540516,-2040.5682084900361,-1845.1106138379926,990.09317184928523,3923.7252670942648,1095.4626749330973,2740.6085246109092,-2740.6085246109092,-1095.4626749330973,7582.0941988088398,0.0
698523.2936376977,3692751.2368613081,-27500.0,3371.2841502287579,2644.467925892061,923.77548529790613,-1803.5672284714037,-1318.6323309662096,772.17169286105468,3402.3360163372022,1449.9402988836771,1857.6692460861034,-1857.6692460861034,-1449.9402988836771,6506.8351538432389,0.0
703523.2936376977,3692751.2368613081,-27500.0,3226.6477370113544,2107.8681529158639,236.89906690088384,-1551.7780562416835,-888.91379922195108,588.26404675074059,2946.8246025248923,1659.5615164155156,1104.5913778709005,-1104.5913778709005,-1659.5615164155156,5561.9631932740067,0.0
708523.2936376977,3692751.2368613081,-27500.0,2999.3922943512071,1600.8984672868883,-271.85459431315184,-1302.9055786196227,-548.51607044819468,436.92501478398611,2555.3600020372019,1749.1402152732712,488.26330253529932,-488.26330253529932,-1749.1402152732712,4750.658673969232,0.0
713523.2936376977,3692751.2368613081,-27500.0,2718.6696071197439,1144.5094266410138,-630.49379678522826,-1068.9239711262126,-286.46334623594635,315.11919715075538,2223.5901318024407,1745.6371240529222,3.0229348584909985,-3.0229348584909985,-1745.6371240529222,4067.8927719612666,0.0
718523.2936376977,3692751.2368613081,-27500.0,2409.5866295827159,749.10852851807238,-867.83729113810546,-856.98972334465122,-90.472252712093876,219.0276724515011,1945.4814273393972,1674.6349997256148,-364.2573063583834,364.2573063583834,-1674.6349997256148,3503.1423580426617,0.0
563523.2936376977,3697751.2368613081,-27500.0,70.082967227364406,1047.6332987609442,-1825.7194494362486,-236.67751687205049,651.68379652323267,-145.89954849631238,1516.9348105215133,684.97231572801206,-329.91357021588863,329.91357021588863,-684.97231572801206,2822.4077865909221,0.0
568523.2936376977,3697751.2368613081,-27500.0,324.92303677058567,963.96027349009682,-1993.0615180549753,-163.92943486626825,680.81839150426413,-138.19720613789445,1612.7890684461618,939.47464568993951,-546.85289474822025,546.85289474822025,-939.47464568993951,2961.8988905416636,0.0
573523.2936376977,3697751.2368613081,-27500.0,619.43154720949963,825.71112459514075,-2146.5164377699557,-65.440511110637232,693.25836723229133,-121.38531965293532,1715.7638947006701,1221.5431183817179,-805.4337108001713,805.4337108001713,-1221.5431183817179,3106.4903705370425,0.0
578523.2936376977,3697751.2368613081,-27500.0,949.79349613118814,620.35337390711754,-2269.8096390273795,62.826191211432992,680.38407534100725,-92.215713358174909,1829.3338910953908,1523.27963407882,-1104.8784018100564,1104.8784018100564,-1523.27963407882,3263.7241319144346,0.0
583523.2936376977,3697751.2368613081,-27500.0,1307.2899379231947,335.70274805590532,-2340.5201003178986,224.09291155455682,631.19877822319677,-46.80253628205773,1959.14918873631,1830.9468768464703,-1439.5641133409385,1439.5641133409385,-1830.9468768464703,3447.4033678631786,0.0
588523.2936376977,3697751.2368613081,-27500.0,1676.8289527019717,-38.07765913557909,-2329.2160576958295,419.84059243039036,532.27516843035198,19.279078786285979,2113.5609387143631,2123.4575540522592,-1796.7187471013212,1796.7187471013212,-2123.4575540522592,3679.5036983648906,0.0
593523.2936376977,3697751.2368613081,-27500.0,2035.7717402597573,-505.48089389552433,-2199.3297103943414,648.56445988221446,368.10987759440491,110.73670905579206,2303.6614608270356,2371.2863196298658,-2153.8634953257715,2153.8634953257715,-2371.2863196298658,3990.4987833074119,0.0
598523.2936376977,3697751.2368613081,-27500.0,2353.6247156322365,-1061.6401778120828,-1908.4611894420079,904.27481303386946,122.13612516264747,232.08722919725443,2542.352825434687,2536.4669619767997,-2476.5059142693776,2476.5059142693776,-2536.4669619767997,4416.2487094440694,0.0
603523.2936376977,3697751.2368613081,-27500.0,2593.3914724345232,-1687.6275814535502,-1411.9809546657095,1174.9513169873567,-221.33687291086653,386.92269368703239,2842.1263539474503,2574.5814849010594,-2717.0020372446334,2717.0020372446334,-2574.5814849010594,4990.6458430306011,0.0
608523.2936376977,3697751.2368613081,-27500.0,2715.4557488208475,-2346.0004757149095,-669.75978087020769,1441.3636814427018,-674.07132505624395,576.91853276901281,3211.7667040603128,2439.7179214614121,-2815.9412341400862,2815.9412341400862,-2439.7179214614121,5735.8935789289571,0.0
613523.2936376977,3697751.2368613081,-27500.0,2684.5766337837031,-2978.298344202668,343.64627190529103,1676.8928678460454,-1239.7985776385326,800.67372786724275,3652.8033056119939,2093.0218376272364,-2707.622675360431,2707.622675360431,-2093.0218376272364,6654.0929733568719,0.0
618523.2936376977,3697751.2368613081,-27500.0,2479.6711179268596,-3506.8384515400999,1626.2417453574044,1849.1097386967676,-1909.6012175205044,1052.5941590965365,4156.7498873036229,1514.4118194122364,-2330.7745552333085,2330.7745552333085,-1514.4118194122364,7722.5694965797111,0.0
623523.2936376977,3697751.2368613081,-27500.0,2104.4833388964566,-3843.091269939267,3136.0656882589706,1923.7116343093396,-2657.9460369625358,1322.1561090477589,4703.9505424606932,715.21651264864067,-1644.1820679515786,1644.1820679515786,-715.21651264864067,8893.1049296189431,0.0
628523.2936376977,3697751.2368613081,-27500.0,1595.440779877094,-3903.4400180892731,4783.6819772552844,1870.806537379169,-3441.0856983622243,1593.9528575290419,5264.5197728889789,-252.56936483698505,-644.28217745691575,644.28217745691575,252.56936483698505,10094.707701448535,0.0
633523.2936376977,3697751.2368613081,-27500.0,1022.1143731265479,-3630.0342089419833,6435.1913581571334,1672.481488269096,-4199.5806234246229,1848.8559785031937,5801.4538327047685,-1295.7393909800098,621.07842839599175,-621.07842839599175,1295.7393909800098,11240.202332222627,0.0
638523.2936376977,3697751.2368613081,-27500.0,477.0843023015712,-3010.7166921692597,7929.1722228505896,1329.4656790072793,-4865.7754345035764,2066.3527135742329,6274.9081107228621,-2291.8237360952598,2049.7563105638537,-2049.7563105638537,2291.8237360952598,12236.789376386958,0.0
643523.2936376977,3697751.2368613081,-27500.0,56.074876242354151,-2089.9804729928815,9105.7501255204752,864.23418922979295,-5375.2277623305918,2227.7024144766851,6645.464877374241,-3112.7086094164029,3497.9694704199997,-3497.9694704199997,3112.7086094164029,12999.386221032471,0.0
648523.2936376977,3697751.2368613081,-27500.0,-165.72145578378755,-964.86290355712924,9839.8343080557333,318.71604867211539,-5679.0965608025463,2319.1554775831228,6877.4886584108626,-3653.2851878580204,4807.1685830485494,-4807.1685830485494,3653.2851878580204,13463.922870470682,0.0
653523.2936376977,3697751.2368613081,-27500.0,-152.40353854149797,234.42857390625349,10067.274375912411,-253.23828254771919,-5753.56176865611,2334.3255248198425,6946.8503311990426,-3855.0737404216525,5837.0377471302581,-5837.0377471302581,3855.0737404216525,13597.049174395746,0.0
658523.2936376977,3697751.2368613081,-27500.0,85.787700786006837,1372.6525119611067,9795.0062303172199,-796.31378087841972,-5603.270273774956,2275.0383375539623,6848.0516040282464,-3716.4524204920217,6493.3366198236708,-6493.3366198236708,3716.4524204920217,13399.649805424993,0.0
663523.2936376977,3697751.2368613081,-27500.0,499.09218837310817,2336.540178195673,9093.0298152607829,-1263.7351604374492,-5258.1388335258534,2150.4975147544487,6594.3915251539565,-3287.089576206954,6741.8182583922498,-6741.8182583922498,3287.089576206954,12903.652226143127,0.0
668523.2936376977,3697751.2368613081,-27500.0,1014.2464539026215,3052.4730123444656,8073.1823724142851,-1624.0000514326446,-4765.2680909183855,1975.1528985767345,6213.2595951886533,-2650.6667693338986,6605.9059011601621,-6605.9059011601621,2650.6667693338986,12163.765181465791,0.0
673523.2936376977,3697751.2368613081,-27500.0,1553.0948119552427,3491.6479041330822,6863.2934574893789,-1863.158770872303,-4178.9939752775426,1765.9775664857136,5740.1057691996139,-1903.387370648546,6152.0757151491598,-6152.0757151491598,1903.387370648546,11246.95283263017,0.0
678523.2936376977,3697751.2368613081,-27500.0,2047.878683404658,3664.57256323094,5584.5301956907415,-1983.1518810519053,-3551.9106322274079,1539.8710712453476,5213.0134562799758,-1135.1675646353478,5469.9212287872779,-5469.9212287872779,1135.1675646353478,10222.366620536932,0.0
683523.2936376977,3697751.2368613081,-27500.0,2450.1793746987978,3609.4254353073679,4336.3396835215153,-1997.6968399505758,-2928.5775895193251,1311.6857095189796,4668.4537705905168,-417.39405806397099,4653.3112703695442,-4653.3112703695442,417.39405806397099,9153.5285057196597,0.0
688523.2936376977,3697751.2368613081,-27500.0,2733.4240192050788,3378.9760695857162,3189.7615964314768,-1927.380203564516,-2342.3612037724542,1093.080906674774,4137.1689847743255,202.11928386113436,3786.5173629160736,-3786.5173629160736,-202.11928386113436,8093.473229930255,0.0
693523.2936376977,3697751.2368613081,-27500.0,2890.6411931098005,3029.3343884676874,2187.4623580777575,-1795.1989884657007,-1814.9375143926552,892.15490595350627,3639.7823401596957,698.47887978606309,2936.4214560677528,-2936.4214560677528,-698.47887978606309,7082.6497819835495,0.0
698523.2936376977,3697751.2368613081,-27500.0,2929.6715534007999,2612.0479962942663,1347.9527282564788,-1623.2176012270882,-1357.5861877097204,713.66021245389879,3186.6128822850665,1065.633388491075,2150.037702542294,-2150.037702542294,-1065.633388491075,6148.9385237720317,0.0
703523.2936376977,3697751.2368613081,-27500.0,2867.7176264964573,2169.6844919599407,671.61548598790989,-1430.5021349377325,-973.38708391402986,559.56550806538939,2781.8299196285543,1310.9561780761919,1455.7351247954584,-1455.7351247954584,-1310.9561780761919,5309.0057175509655,0.0
708523.2936376977,3697751.2368613081,-27500.0,2726.4577123990994,1734.2579577756369,146.83530977582069,-1232.1745241351784,-659.62923060748346,429.75363425260446,2426.3083816534599,1449.9520161965067,866.48878333862899,-866.48878333862899,-1449.9520161965067,4570.3083487037065,0.0
713523.2936376977,3697751.2368613081,-27500.0,2528.3111484984429,1327.5946813040389,-244.74244861412356,-1039.2898583093991,-409.99895517723854,322.70611493283099,2118.623686673619,1501.8871357509902,383.83503823663193,-383.83503823663193,-1501.8871357509902,3933.2492186974519,0.0
563523.2936376977,3702751.2368613081,-27500.0,281.89006059888953,797.24814886963122,-1684.479301993239,-123.71366991891168,549.85638608469378,-106.35472148069282,1347.5776439551789,802.0151658628788,-480.32131660372738,480.32131660372738,-802.0151658628788,2472.5826621656915,0.0
568523.2936376977,3702751.2368613081,-27500.0,516.93414886844255,685.33670809950581,-1803.5456787212549,-47.963407218971071,559.50742470113789,-94.581731133248226,1429.5473849809723,1024.6978608857041,-685.18641087121409,685.18641087121409,-1024.6978608857041,2587.406884998863,0.0
573523.2936376977,3702751.2368613081,-27500.0,779.48603751897508,522.94478831149127,-1899.3713446159895,49.413248856382019,551.0983851211912,-74.425700301537034,1519.7759801267421,1262.0923950999895,-920.31502878168442,920.31502878168442,-1262.0923950999895,2712.342423046563,0.0
578523.2936376977,3702751.2368613081,-27500.0,1063.7321444309334,301.30923507015672,-1956.1112627215723,170.76788196255632,517.18119914079273,-43.33174089258172,1622.325591780163,1504.7600520616179,-1181.879520733899,1181.879520733899,-1504.7600520616179,2857.2996039440695,0.0
583523.2936376977,3702751.2368613081,-27500.0,1359.6896961342982,13.072042844451985,-1953.2412500652429,317.42134685905631,448.70116919521536,1.6322831850703463,1743.0724042158074,1738.4543693407177,-1461.4255182484803,1461.4255182484803,-1738.4543693407177,3037.6735749627605,0.0
588523.2936376977,3702751.2368613081,-27500.0,1652.4125523172506,-345.91435043386042,-1865.4062165506418,488.92639134758446,335.16081402897589,63.650600387097711,1889.7644281925911,1943.3830603880142,-1744.2749668474771,1744.2749668474771,-1943.3830603880142,3274.6530186411337,0.0
593523.2936376977,3702751.2368613081,-27500.0,1921.6406446422659,-774.16717209019032,-1663.0475426016444,682.16644963532667,165.13691425899435,145.91710512568051,2071.5275869290654,2094.0365029402101,-2008.0172283941645,2008.0172283941645,-2094.0365029402101,3593.5548583605623,0.0
598523.2936376977,3702751.2368613081,-27500.0,2142.3138920400829,-1261.6770449533149,-1314.2778423581815,890.38344026691971,-72.701121642240949,251.24616131575911,2297.618232088344,2160.0621740999204,-2221.5500639717966,2221.5500639717966,-2160.0621740999204,4019.6026870753558,0.0
603523.2936376977,3702751.2368613081,-27500.0,2286.4380521288958,-1786.955952355459,-788.4853727577248,1102.3264743745708,-387.94895531226018,381.52488989434755,2575.4815941155039,2108.7309188464578,-2345.3625342079131,2345.3625342079131,-2108.7309188464578,4571.9694870724679,0.0
608523.2936376977,3702751.2368613081,-27500.0,2326.7113178321829,-2314.8353651721227,-61.971852876459785,1301.8307925807239,-786.17743380337402,537.03311271891471,2908.5115621024279,1909.4387628689215,-2333.915541469119,2333.915541469119,-1909.4387628689215,5258.1065576592973,0.0
613523.2936376977,3702751.2368613081,-27500.0,2241.9724246337209,-2796.2033299042032,874.56671929030574,1468.2261913595403,-1266.1703447422169,715.71441979904807,3294.0745186829317,1540.2791707386168,-2140.8975610690918,2140.8975610690918,-1540.2791707386168,6070.0192434529381,0.0
618523.2936376977,3702751.2368613081,-27500.0,2023.851146595111,-3171.0333732548424,2007.7609627780312,1577.9690711025073,-1817.161226070876,912.55134715634858,3722.2861056731253,995.9373739478583,-1727.6167959262025,1727.6167959262025,-995.9373739478583,6982.8294419784843,0.0
623523.2936376977,3702751.2368613081,-27500.0,1683.0740559937869,-3375.6853035609429,3294.6148966151,1607.7014227582974,-2416.8642410634479,1119.2567673547881,4175.8668525806661,295.09567704919482,-1073.699707268343,1073.699707268343,-295.09567704919482,7955.3209918074081,0.0
628523.2936376977,3702751.2368613081,-27500.0,1253.0663680165976,-3354.2968632230072,4659.8329234850116,1538.5148271421867,-3031.2827093861538,1324.5006833777693,4631.2818665992863,-515.38603468311499,-187.76758662818432,187.76758662818432,515.38603468311499,8932.4594452449946,0.0
633523.2936376977,3702751.2368613081,-27500.0,788.40932312019163,-3072.2550395052217,6000.2775744846858,1360.615377096048,-3617.1340829565079,1514.8224800071414,5061.155468243458,-1362.3529920077258,885.53029629512548,-885.53029629512548,1362.3529920077258,9850.1943987441337,0.0
638523.2936376977,3702751.2368613081,-27500.0,356.88676097386457,-2527.9256984795588,7197.7615424777632,1077.072872849589,-4127.0953066379298,1676.202979721364,5437.2101510951143,-2155.8109772272505,2065.8761471264484,-2065.8761471264484,2155.8109772272505,10642.514550293608,0.0
643523.2936376977,3702751.2368613081,-27500.0,26.220711198916096,-1758.1989928555429,8138.3983857587864,705.24586811791266,-4517.0788626883204,1796.0498529423098,5732.0742376033513,-2804.7755038866617,3247.0316833324696,-3247.0316833324696,2804.7755038866617,11249.909511516946,0.0
648523.2936376977,3702751.2368613081,-27500.0,-150.85075829442636,-834.84068873353976,8733.6231052984022,275.01693505573547,-4753.7847152732902,1865.1532765496988,5920.6936820403116,-3235.3825374966882,4314.6105538196734,-4314.6105538196734,3235.3825374966882,11627.562090687672,0.0
653523.2936376977,3702751.2368613081,-27500.0,-148.26578497713831,148.12150419003899,8936.5902189177013,-175.96557419515062,-4820.4092118434573,1879.1171952499367,5985.2551702932869,-3405.6206142747646,5167.0945560686805,-5167.0945560686805,3405.6206142747646,11751.346919340795,0.0
658523.2936376977,3702751.2368613081,-27500.0,28.761593467725632,1092.2745541791171,8748.9839870049746,-608.75461600443123,-4718.8901829899087,1838.8977539743955,5920.5187564073776,-3312.0580210638882,5733.7611681877361,-5733.7611681877361,3312.0580210638882,11620.189024285186,0.0
663523.2936376977,3702751.2368613081,-27500.0,347.26554727764329,1912.4258914746708,8216.8468568270346,-989.43665142469058,-4468.2659723624547,1750.3541115153096,5734.4137157481218,-2987.0665211476376,5984.485434477383,-5984.485434477383,2987.0665211476376,11254.444606374343,0.0
668523.2936376977,3702751.2368613081,-27500.0,756.16213062798317,2549.087816627838,7417.851985440393,-1293.7080494589702,-4099.9828445799494,1623.0014441754893,5445.1819588082853,-2488.5194538773694,5929.6826757709832,-5929.6826757709832,2488.5194538773694,10691.074458458614,0.0
673523.2936376977,3702751.2368613081,-27500.0,1198.2516538052942,2973.4995205662321,6444.7282413433804,-1508.874078936062,-3651.7553415421976,1468.3454113623409,5077.5369455981363,-1886.0569496094367,5612.1351181244581,-5612.1351181244581,1886.0569496094367,9977.1027369731728,0.0
678523.2936376977,3702751.2368613081,-27500.0,1620.9572111636717,3185.6540037646191,5389.58180302247,-1633.3632017810912,-3161.6329179062764,1298.2113996963978,4659.080018448356,-1248.0947118702215,5094.4803722979423,-5094.4803722979423,1248.0947118702215,9162.945620261291,0.0
683523.2936376977,3702751.2368613081,-27500.0,1983.54042989963,3207.6464704976934,4332.2934267345436,-1674.4882009087337,-2663.4361205897844,1123.3874848223381,4217.4301619409744,-632.36622671389,4446.3111324014535,-4446.3111324014535,632.36622671389,8296.8178409542361,0.0
688523.2936376977,3702751.2368613081,-27500.0,2260.21104070412,3075.1562811198605,3334.1164665541187,-1645.4005263598833,-2184.0417416705186,952.74288871294129,3777.3806792682672,-80.957191449428592,3733.6878010149553,-3733.6878010149553,80.957191449428592,7420.8318333686284,0.0
693523.2936376977,3702751.2368613081,-27500.0,2439.7901652936744,2829.3542934062148,2435.9861628644953,-1562.0579129068931,-1742.4251237890526,792.83550161144694,3357.1269273866101,380.64538420179133,3012.3210513159715,-3012.3210513159715,-380.64538420179133,6568.8779082751462,0.0
698523.2936376977,3702751.2368613081,-27500.0,2523.1623320258232,2510.5823342376252,1660.1976679898385,-1440.7317336334063,-1350.0330551268823,647.92049555009942,2966.8200146410154,741.70872528269751,2324.3964151400733,-2324.3964151400733,-741.70872528269751,5766.0155238172783,0.0
703523.2936376977,3702751.2368613081,-27500.0,2519.7620767877006,2154.2525466453153,1013.9460059588372,-1296.2747151795541,-1011.9610933029279,520.22683877385816,2611.4322597992204,1002.9522987851878,1698.2653518092129,-1698.2653518092129,-1002.9522987851878,5028.9445404117596,0.0
708523.2936376977,3702751.2368613081,-27500.0,2444.0443929255625,1788.7985621251114,493.48026046293597,-1141.1412571532785,-728.46980147294903,410.3707018787029,2293.2436772867077,1172.8741110101082,1149.9859675626349,-1149.9859675626349,-1172.8741110101082,4367.1196350118171,0.0
568523.2936376977,3707751.2368613081,-27500.0,643.75748088953185,444.97977999731336,-1602.6552174328053,38.516297833511885,450.24894157131718,-60.211420916890454,1273.0264236418068,1053.4955925722231,-772.29914833840223,772.29914833840223,-1053.4955925722231,2273.1435069582503,0.0
573523.2936376977,3707751.2368613081,-27500.0,871.85324788039065,270.51199804963744,-1648.6848408349556,130.82824252468916,426.56783572658929,-38.600483742200019,1354.6678866468899,1246.8101180192782,-978.99879104321076,978.99879104321076,-1246.8101180192782,2388.2972200596528,0.0
578523.2936376977,3707751.2368613081,-27500.0,1110.6346721842785,45.672145805074848,-1650.6995664055266,241.85758465562336,378.48219442786353,-7.5596811250333911,1449.9269303763731,1434.8633598884398,-1200.050157928813,1200.050157928813,-1434.8633598884398,2529.6455203764922,0.0
583523.2936376977,3707751.2368613081,-27500.0,1350.0633855454059,-233.1060384465973,-1590.8054926139689,371.63593636244508,298.78167369037493,35.068224428944937,1564.3073919768553,1604.1314731728808,-1425.6568936099443,1425.6568936099443,-1604.1314731728808,2712.1689174343396,0.0
588523.2936376977,3707751.2368613081,-27500.0,1576.47317339861,-565.92453153638814,-1448.0820313528195,518.57670588784504,179.51970288710783,91.513030830379307,1704.3500293243928,1737.1804684632275,-1640.9466373359364,1640.9466373359364,-1737.1804684632275,2953.9729146657032,0.0
593523.2936376977,3707751.2368613081,-27500.0,1772.7237698372594,-947.60633428657968,-1199.5789076471488,678.86210412742776,12.559147150823387,163.86936581707934,1876.9168832932514,1813.0330888138647,-1825.2376319583973,1825.2376319583973,-1813.0330888138647,3273.820582636888,0.0
598523.2936376977,3707751.2368613081,-27500.0,1919.0939557664533,-1365.7541412079433,-822.29543912387078,845.85876077956698,-209.52722463782533,253.79476913956478,2088.0297127871718,1808.4117072648946,-1951.9346697199067,1951.9346697199067,-1808.4117072648946,3687.43717121997,0.0
603523.2936376977,3707751.2368613081,-27500.0,1995.1755527744949,-1799.073237981069,-296.36066206513527,1009.714245552471,-492.16405176339134,362.11758974671125,2341.4508763127828,1700.1419619625399,-1989.5230366221554,1989.5230366221554,-1700.1419619625399,4203.6940365276241,0.0
608523.2936376977,3707751.2368613081,-27500.0,1982.9002333184378,-2216.5667944611841,390.56934479002371,1157.344664290737,-837.13660670244292,488.38546501747715,2637.3173108688761,1468.8467656839796,-1904.1442452994922,1904.1442452994922,-1468.8467656839796,4821.7806042952843,0.0
613523.2936376977,3707751.2368613081,-27500.0,1870.5363850544363,-2578.3660669650908,1238.0681869246973,1273.0477923448161,-1240.7967763067311,630.42115886823638,2971.1237372355322,1103.7186250914572,-1664.0643338505367,1664.0643338505367,-1103.7186250914572,5529.7527109426628,0.0
618523.2936376977,3707751.2368613081,-27500.0,1657.0389849847068,-2838.9092831740313,2227.7671770692432,1339.9255689325403,-1692.4696196211439,783.98916123523509,3333.2606093940872,607.63813508415114,-1245.8988030165963,1245.8988030165963,-607.63813508415114,6304.28428900788,0.0
623523.2936376977,3707751.2368613081,-27500.0,1355.6309324849128,-2952.7894246619048,3319.7306427813369,1342.1424368927817,-2173.5707426046943,942.70051626465954,3709.2525350197529,1.3329215795106961,-641.74270109975805,641.74270109975805,-1.3329215795106961,7111.497743283725,0.0
628523.2936376977,3707751.2368613081,-27500.0,995.17704234946484,-2882.7869708690805,4452.1392691673609,1267.7744748931923,-2657.9831743618283,1098.2738385640455,4080.8053080886953,-675.08944486754353,134.46326603269785,-134.46326603269785,675.08944486754353,7909.0187278952108,0.0
633523.2936376977,3707751.2368613081,-27500.0,618.08411323994403,-2608.5593514618035,5545.7030783226728,1111.6900547791172,-3114.0762007504927,1241.212349792331,4427.6258370105224,-1364.7042425703009,1043.529024141749,-1043.529024141749,1364.7042425703009,8649.445109620654,0.0
638523.2936376977,3707751.2368613081,-27500.0,274.31003361817636,-2133.6062565739826,6513.0961414887397,877.67961337100917,-3508.350286566108,1361.856133090203,4729.4409065366344,-2000.9372080921601,2022.5649748237522,-2022.5649748237522,2000.9372080921601,9285.1277754472649,0.0
643523.2936376977,3707751.2368613081,-27500.0,12.430723882770573,-1488.019876552421,7271.9833049886483,579.07236358527143,-3810.1385110957785,1451.6430799181128,4966.8828846048473,-2518.284956146907,2992.2821666184932,-2992.2821666184932,2518.284956146907,9773.6609515905166,0.0
648523.2936376977,3707751.2368613081,-27500.0,-129.96778579314153,-725.50905075283481,7758.6193869489398,237.42637683187314,-3996.3267337762204,1504.3191486890985,5121.8466224530721,-2864.0103547739559,3868.9396462622904,-3868.9396462622904,2864.0103547739559,10083.083482196142,0.0
653523.2936376977,3707751.2368613081,-27500.0,-133.75282561387525,84.995480784611559,7938.3771518522008,-120.54335699298973,-4054.901928518661,1516.8187797018049,5180.8655589059399,-3007.5498986906014,4578.0434867672466,-4578.0434867672466,3007.5498986906014,10195.685078006172,0.0
658523.2936376977,3707751.2368613081,-27500.0,-1.3611410891621076,870.97276678401761,7810.3756897406947,-467.06020090824092,-3986.4351460198045,1489.6128125601335,5139.2573077315465,-2945.0003866863699,5066.1364976150671,-5066.1364976150671,2945.0003866863699,10109.616777731753,0.0
663523.2936376977,3707751.2368613081,-27500.0,245.10159931359169,1567.9881763339245,7405.2902037894319,-777.36571821077848,-3803.2232590815529,1426.4627093378315,5001.765105586519,-2697.7385262318599,5307.6953277932862,-5307.6953277932862,2697.7385262318599,9838.0547459520949,0.0
668523.2936376977,3707751.2368613081,-27500.0,569.75494538707517,2128.4890063985654,6777.5745404416011,-1032.8321073030527,-3526.5058248629903,1333.6797176689715,4780.7122741354442,-2306.1615071513015,5305.9225716219344,-5305.9225716219344,2306.1615071513015,9406.3090979945264,0.0
673523.2936376977,3707751.2368613081,-27500.0,930.73422362771851,2526.0895816557668,5994.7354796887503,-1222.5597088100815,-3182.6309691171864,1219.0974057421968,4493.485765167562,-1820.8310855500758,5088.1855400017621,-5088.1855400017621,1820.8310855500758,8847.6975894848256,0.0
678523.2936376977,3707751.2368613081,-27500.0,1287.6554453441088,2755.2972575526137,5126.5359291488803,-1343.4122343154197,-2799.1357008414084,1090.9960168571979,4160.1422865482218,-1293.549670635852,4698.1599486534997,-4698.1599486534997,1293.549670635852,8199.1079138681416,0.0
683523.2936376977,3707751.2368613081,-27500.0,1607.1684158375538,2827.8306974219804,4236.3142580284357,-1398.8380777347629,-2401.5030206356955,957.17889650821724,3801.4854218095079,-770.28114558391417,4187.0828380439416,-4187.0828380439416,770.28114558391417,7497.0384162237933,0.0
688523.2936376977,3707751.2368613081,-27500.0,1865.9493969128628,2767.1826675608991,3375.4763730588916,-1397.0117292793868,-2010.9961760712984,824.3196947798624,3437.2631416073918,-286.82073347856954,3606.0474772634898,-3606.0474772634898,286.82073347856954,6774.5977139092183,0.0
693523.2936376977,3707751.2368613081,-27500.0,2051.295582535221,2602.9555869834348,2581.1788533894814,-1348.8143457391634,-1643.6221711287485,697.6115717080944,3083.2678561722159,132.80230297685694,3000.4280256045081,-3000.4280256045081,-132.80230297685694,6059.6242869321932,0.0
698523.2936376977,3707751.2368613081,-27500.0,2159.9653768348589,2366.0270878777242,1876.5636365545361,-1266.0364976880799,-1310.040187677828,580.68481627132871,2749.0553226497418,475.78697375539787,2406.7094601200988,-2406.7094601200988,-475.78697375539787,5373.8521042409047,0.0
703523.2936376977,3707751.2368613081,-27500.0,2196.0416777149098,2085.051785903976,1272.6384294546865,-1160.0088101487265,-1016.1178332155448,475.72124733352939,2439.6564354730567,738.69986942407286,1851.4206275685387,-1851.4206275685387,-738.69986942407286,4732.8952016847525,0.0
573523.2936376977,3712751.2368613081,-27500.0,913.69647715444341,65.673480902896088,-1405.000466117353,185.82845785684361,319.86717842955329,-11.888042856626832,1215.849010445324,1193.5510816677158,-994.23538237222715,994.23538237222715,-1193.5510816677158,2123.7685660571046,0.0
578523.2936376977,3712751.2368613081,-27500.0,1110.3116606735009,-153.10265642229348,-1363.8955698244367,284.96635065431929,263.12178322510999,17.826076113196002,1305.9185581826516,1333.5433584112338,-1175.5096198619976,1175.5096198619976,-1333.5433584112338,2265.795310930705,0.0
583523.2936376977,3712751.2368613081,-27500.0,1300.1378267912737,-414.14885058932219,-1261.9662805395467,397.52716196993572,178.27861461671725,57.060391706558505,1415.0060233177387,1448.9985655229686,-1351.5041314967405,1351.5041314967405,-1448.9985655229686,2451.2683048559556,0.0
588523.2936376977,3712751.2368613081,-27500.0,1471.3239770188327,-714.91545049045828,-1082.5484013593446,521.34891053861509,59.492074357889564,107.33498412377912,1548.2167535586891,1525.2405402074085,-1508.2214254440644,1508.2214254440644,-1525.2405402074085,2694.1827274256771,0.0
593523.2936376977,3712751.2368613081,-27500.0,1609.9425545229035,-1048.2418774771688,-808.44161041053246,652.48892011652856,-98.843974723972721,169.97158010261029,1710.3087103183125,1545.6571429513328,-1627.5205460343964,1627.5205460343964,-1545.6571429513328,3007.1022998236517,0.0
598523.2936376977,3712751.2368613081,-27500.0,1700.9840773125047,-1401.1494662991224,-423.73713876193472,784.90424344943563,-301.35700272801887,245.86867045665281,1904.7877712358954,1493.0014578442051,-1687.4928651994942,1687.4928651994942,-1493.0014578442051,3398.5906109280199,0.0
603523.2936376977,3712751.2368613081,-27500.0,1730.0434492324875,-1754.0214570330786,83.575021994361919,910.3157528801778,-550.72593350107752,335.22920237856039,2132.9773653927568,1351.4835836441187,-1663.7169995340917,1663.7169995340917,-1351.4835836441187,3871.1164710360272,0.0
608523.2936376977,3712751.2368613081,-27500.0,1685.6855738755905,-2080.5919054080305,718.33495017036944,1018.3892531854112,-846.55083157628565,437.26842296941641,2393.2426215403416,1109.6222670377117,-1531.6320758709983,1531.6320758709983,-1109.6222670377117,4419.789415478137,0.0
613523.2936376977,3712751.2368613081,-27500.0,1562.2625979545519,-2349.200052825267,1474.6643519262325,1097.3619996625935,-1184.2212716877621,549.95090943781952,2680.5047623652745,763.57768900529277,-1270.0921239497895,1270.0921239497895,-763.57768900529277,5031.8728600306758,0.0
618523.2936376977,3712751.2368613081,-27500.0,1362.6729429594434,-2525.6488180700189,2332.852247392651,1135.1876969714792,-1554.0359965110451,669.82394829057046,2986.1355846051761,320.36647583319734,-865.8316510932658,865.8316510932658,-320.36647583319734,5686.9339878327391,0.0
623523.2936376977,3712751.2368613081,-27500.0,1100.2989152788402,-2577.681798464404,3257.650885565823,1121.156799787165,-1940.8883038543113,792.02175464694062,3298.310152069339,-199.9268897882169,-318.13011791837749,318.13011791837749,199.9268897882169,6357.6501136031811,0.0
628523.2936376977,3712751.2368613081,-27500.0,799.26913419759705,-2480.5745590949264,4199.003095358381,1047.786803900935,-2324.8175621453574,910.50218758987569,3602.8869486842004,-763.92887290708859,357.45898436910738,-357.45898436910738,763.92887290708859,7011.4230431751785,0.0
633523.2936376977,3712751.2368613081,-27500.0,492.40836851310507,-2222.7511291599117,5095.8807556628026,912.60881623566183,-2682.589409056266,1018.5362600671098,3884.7747039470351,-1327.4837850218823,1127.6322152700282,-1127.6322152700282,1327.4837850218823,7612.8866713187908,0.0
638523.2936376977,3712751.2368613081,-27500.0,216.81154130352934,-1809.9492940605714,5883.1705386341237,719.38481690430172,-2990.222032761736,1109.4116358651067,4129.3209730072394,-1840.9766800883554,1943.1641546537157,-1943.1641546537157,1840.9766800883554,8127.1854254614627,0.0
643523.2936376977,3712751.2368613081,-27500.0,7.7669749834709227,-1266.5206044489112,6500.5494884036616,478.33800321316005,-3226.0691354197247,1177.2418476098255,4322.5931008632297,-2256.6552764211269,2744.3088593037551,-2744.3088593037551,2256.6552764211269,8523.611998522978,0.0
648523.2936376977,3712751.2368613081,-27500.0,-107.54867160296732,-633.09387267220404,6901.4540730727649,205.19551773067769,-3373.8300786351429,1217.7259709241287,4451.1417776858143,-2536.3246252288582,3468.9508156404454,-3468.9508156404454,2536.3246252288582,8778.9832042737671,0.0
653523.2936376977,3712751.2368613081,-27500.0,-114.93633076341217,39.116091755060204,7059.9985625652398,-80.831065848642353,-3424.8117293200621,1228.7019936421493,4504.558274290006,-2657.4865901681137,4061.7248036964179,-4061.7248036964179,2657.4865901681137,8880.1314464320403,0.0
658523.2936376977,3712751.2368613081,-27500.0,-15.307939776713651,696.03978531313612,6974.14520135777,-359.69384591684678,-3378.9139731127384,1210.372369539381,4478.7947431156408,-2616.3683925718619,4481.9101919653494,-4481.9101919653494,2616.3683925718619,8825.0010988362465,0.0
663523.2936376977,3712751.2368613081,-27500.0,176.34519014928168,1288.6214802741358,6664.5590383529434,-613.17984402464003,-3244.1785439869573,1165.169367175886,4376.6848196806059,-2427.251866678791,4708.3047054815452,-4708.3047054815452,2427.251866678791,8622.2199735157283,0.0
668523.2936376977,3712751.2368613081,-27500.0,434.61754962149786,1779.0339644743231,6169.7755798497874,-827.03835908582721,-3035.1088810956994,1097.3099181225232,4206.6677351017152,-2118.6044265501619,4740.2473839273771,-4740.2473839273771,2118.6044265501619,8289.3349546847003,0.0
673523.2936376977,3712751.2368613081,-27500.0,728.79003823623714,2144.1274249133394,5539.1844368208067,-992.20400539720504,-2770.2443210789147,1012.1557727022555,3981.090932419489,-1727.308229374021,4595.0892297187629,-4595.0892297187629,1727.308229374021,7850.1658498889301,0.0
678523.2936376977,3712751.2368613081,-27500.0,1028.0012718514413,2375.9039285530043,4825.5919111210142,-1105.0337555881592,-2469.5618077568361,915.5183076555777,3714.5842432773957,-1292.5309472000126,4303.2462845681275,-4303.2462845681275,1292.5309472000126,7331.8329997151423,0.0
683523.2936376977,3712751.2368613081,-27500.0,1305.4105662482216,2479.5695019260884,4078.8342152706573,-1166.7175727803278,-2152.1961429557691,813.03355788420754,3422.754826089254,-850.5197674931112,3902.2953340516997,-3902.2953340516997,850.5197674931112,6761.9681333443459,0.0
688523.2936376977,3712751.2368613081,-27500.0,1540.7888318416435,2470.1210153893912,3341.2934904926624,-1182.1608754784925,-1834.7794560058958,709.68903259636977,3121.1223647802253,-431.05174057914564,3431.4070216647519,-3431.4070216647519,431.05174057914564,6166.4573636375435,0.0
693523.2936376977,3712751.2368613081,-27500.0,1721.4854955951691,2368.4578895193636,2645.5306505800281,-1158.6600284106155,-1530.4952883288879,609.53549758419615,2823.2228950829349,-55.70329019489418,2926.9669369759799,-2926.9669369759799,55.70329019489418,5567.880139259004,0.0
698523.2936376977,3712751.2368613081,-27500.0,1842.0757724317366,2197.7943430767773,2013.7765024934131,-1104.6356921963113,-1248.784230357513,515.57485679639217,2537.9710850589386,262.31574106544645,2419.7388418989622,-2419.7388418989622,-262.31574106544645,4984.6557672821236,0.0
583523.2936376977,3717751.2368613081,-27500.0,1225.9075625459434,-541.57934586830106,-970.67898772558635,403.54679604356363,83.344088925304149,70.524372488130169,1288.6914895078073,1287.5644980124714,-1253.9828429985444,1253.9828429985444,-1287.5644980124714,2238.5970914597374,0.0
588523.2936376977,3717751.2368613081,-27500.0,1352.3263184466691,-808.24355759865637,-769.13585076178606,506.58596725549683,-30.90275565827671,114.61502480826931,1414.4294362228184,1320.3609591187173,-1361.7000010391935,1361.7000010391935,-1320.3609591187173,2477.7609264633152,0.0
593523.2936376977,3717751.2368613081,-27500.0,1446.4849549266148,-1094.9167626835945,-484.74224751821032,612.76786537242947,-177.49914497457596,168.22916148284241,1565.0011174552506,1301.2096587257263,-1429.4857910206053,1429.4857910206053,-1301.2096587257263,2777.1340231378945,0.0
598523.2936376977,3717751.2368613081,-27500.0,1497.273538979957,-1389.1233408484195,-107.01427680778171,716.83371631986608,-359.12899552585219,231.78441733478104,1742.1249924642798,1217.7272981884639,-1439.7852551051824,1439.7852551051824,-1217.7272981884639,3140.4548936628103,0.0
603523.2936376977,3717751.2368613081,-27500.0,1494.839565099373,-1673.583861154244,370.51900944786183,812.01249682274022,-576.73371084205758,305.13780839664986,1945.6355114388427,1059.6067197545258,-1374.0992515607359,1374.0992515607359,-1059.6067197545258,3566.5792949559072,0.0
608523.2936376977,3717751.2368613081,-27500.0,1432.3595438419709,-1926.6071756479034,947.96401982649661,890.2731067058445,-828.75234908253617,387.40096975182178,2173.0659595700618,820.7303280400987,-1214.998652485031,1214.998652485031,-820.7303280400987,4048.9628053187089,0.0
613523.2936376977,3717751.2368613081,-27500.0,1307.9666669435069,-2123.4114735709177,1616.7307154955704,942.88184198698605,-1110.4271262129503,476.78914263183236,2419.4411546326255,501.42946403226608,-948.83779524974841,948.83779524974841,-501.42946403226608,4575.5526029195562,0.0
618523.2936376977,3717751.2368613081,-27500.0,1126.4521622289869,-2238.508749823226,2357.7361732313334,961.2839065840501,-1413.3452167163935,570.54684603451881,2677.3288360517354,110.44239347289314,-568.88743866633661,568.88743866633661,-110.44239347289314,5129.0512753245093,0.0
623523.2936376977,3717751.2368613081,-27500.0,900.23845562987162,-2249.0454806081457,3140.7690917071286,938.24794753851154,-1725.4062434782068,664.99267655393601,2937.1992465047488,-334.0091333259162,-78.343322471801926,78.343322471801926,334.0091333259162,5687.6197088601566,0.0
628523.2936376977,3717751.2368613081,-27500.0,649.12871006149169,-2138.6696096392216,3925.5926808771228,869.11694163264838,-2031.3748056768154,755.71405797958062,3188.1399116156363,-804.59569423225719,507.53860025030701,-507.53860025030701,804.59569423225719,6226.124011925127,0.0
633523.2936376977,3717751.2368613081,-27500.0,398.52625087708395,-1901.1749965096365,4665.0915979151878,752.92213769933733,-2314.0803436373585,837.91664233241647,3418.8926175962288,-1267.0630814160938,1160.9643767405912,-1160.9643767405912,1267.0630814160938,6717.9560736465564,0.0
638523.2936376977,3717751.2368613081,-27500.0,176.19172747218235,-1543.004396259752,5310.2795241918457,593.08067350813315,-2556.1708826209242,906.89544518371474,3618.8074358358181,-1684.1489190738853,1843.3293137506198,-1843.3293137506198,1684.1489190738853,7137.306136586637,0.0
643523.2936376977,3717751.2368613081,-27500.0,8.0655497804443321,-1083.7994603918521,5816.4187017736785,397.44591773988355,-2742.162639533115,958.5596761385608,3777.6974151937229,-2020.6348798453928,2509.1984453918349,-2509.1984453918349,2020.6348798453928,7461.6165323810828,0.0
648523.2936376977,3717751.2368613081,-27500.0,-85.941839173421954,-554.60094909066663,6149.0458120853245,177.61244604817304,-2860.3978086634274,989.91714810239137,3885.281918033254,-2248.4980366840832,3111.9476901680769,-3111.9476901680769,2248.4980366840832,7673.8248692735287,0.0
653523.2936376977,3717751.2368613081,-27500.0,-95.182841462599384,6.0759311082370537,6288.5988810091212,-52.434047607618496,-2904.5115453630042,999.42622878854559,3933.350565511078,-2350.9911012345169,3609.9434384578922,-3609.9434384578922,2350.9911012345169,7764.0204411903769,0.0
658523.2936376977,3717751.2368613081,-27500.0,-19.749896763885793,557.4758926194711,6232.618466566958,-278.06010972083482,-2874.0969123026493,987.14464602817657,3918.4798793398604,-2324.7150031770489,3971.9197034031868,-3971.9197034031868,2324.7150031770489,7730.2044446996179,0.0
663523.2936376977,3717751.2368613081,-27500.0,130.08371432333647,1061.9875330141592,5995.1637807949473,-485.76079816378405,-2774.47093349235,954.65655289824826,3842.3606123281102,-2179.3122371855175,4180.4482105218285,-4180.4482105218285,2179.3122371855175,7578.0808214000263,0.0
668523.2936376977,3717751.2368613081,-27500.0,336.17821167802765,1489.5587551183132,5603.7553368381859,-664.62373584132263,-2615.6397946966831,904.80094332772399,3710.849884216711,-1935.0336109166853,4232.9283334441752,-4232.9283334441752,1935.0336109166853,7319.9508931930641,0.0
673523.2936376977,3717751.2368613081,-27500.0,575.89899940737712,1820.3922583987744,5094.7364405349108,-807.24555806536466,-2410.746161151289,841.26964621180991,3532.8006703241081,-1618.9370065055489,4140.2070069348156,-4140.2070069348156,1618.9370065055489,6972.9948975921179,0.0
678523.2936376977,3717751.2368613081,-27500.0,825.70243288607105,2045.6905224332752,4508.1336532712085,-910.02171848041803,-2174.3372329008075,768.1561526925592,3318.9391544124783,-1260.6643579611091,3923.4525420833334,-3923.4525420833334,1260.6643579611091,6557.264400510875,0.0
683523.2936376977,3717751.2368613081,-27500.0,1064.2110482304281,2166.7012954814709,3882.9970068176476,-972.87863919250958,-1920.7690038477333,689.53294707655198,3080.9507197996491,-888.64844543210961,3610.1730227743028,-3610.1730227743028,888.64844543210961,6093.7179193064485,0.0
688523.2936376977,3717751.2368613081,-27500.0,1274.336244978158,2192.6094069831806,3253.8652550945662,-998.61184548061328,-1662.9620008048012,609.11331854539389,2830.8511230281647,-527.30371306530515,3230.2333099413745,-3230.2333099413745,527.30371306530515,5602.5438384496847,0.0
693523.2936376977,3717751.2368613081,-27500.0,1444.3198746666037,2137.9061569156966,2648.6142552203114,-992.02718267409125,-1411.6043863579293,530.02518661665033,2580.0180259627223,-195.4103262940821,2812.5013887367581,-2812.5013887367581,195.4103262940821,5101.9116533119359,0.0
588523.2936376977,3722751.2368613081,-27500.0,1229.6374974441856,-859.10732205987028,-505.10301517275423,481.0462884403438,-97.232189864775478,116.01439327096857,1297.8841141932112,1129.9141324551176,-1212.1773094574512,1212.1773094574512,-1129.9141324551176,2292.2497711249534,0.0
593523.2936376977,3722751.2368613081,-27500.0,1290.1699208157484,-1102.7751920475398,-221.36737183703494,566.3274305853007,-230.67060386114829,161.54322428447105,1436.363537854118,1083.6982896091006,-1240.2453282784857,1240.2453282784857,-1083.6982896091006,2573.4662027810232,0.0
598523.2936376977,3722751.2368613081,-27500.0,1312.3286740162953,-1345.7020869925391,140.11362764422364,647.52583375791551,-391.67700182708302,214.4883696281052,1596.230848146118,982.05801407390197,-1214.7319064775597,1214.7319064775597,-982.05801407390197,2905.732366169213,0.0
603523.2936376977,3722751.2368613081,-27500.0,1289.6077199542331,-1573.1096555652246,582.04378404202134,719.20482189057259,-580.14384511375033,274.53472989341174,1776.4881842484433,818.63109598996584,-1121.8905893371598,1121.8905893371598,-818.63109598996584,3286.0736745131944,0.0
608523.2936376977,3722751.2368613081,-27500.0,1218.2998081666142,-1767.3931602550185,1101.7126035354083,775.19002077651544,-793.98104605947253,340.81268293332215,1974.3917600756718,590.82457412904159,-949.62074077920829,949.62074077920829,-590.82457412904159,3707.5982277468115,0.0
613523.2936376977,3722751.2368613081,-27500.0,1098.7850474487432,-1909.3398209800753,1689.5053017976857,809.03230739225455,-1028.7028570349457,411.81489370481836,2185.3866504012922,301.30925702802608,-689.48457502750023,689.48457502750023,-301.30925702802608,4159.5323990026,0.0
618523.2936376977,3722751.2368613081,-27500.0,936.54724497981681,-1980.0346242930782,2327.9273679666217,814.66864180173161,-1277.212357876499,485.37079431692842,2403.2189337889163,-40.830428639907495,-338.87027146744668,338.87027146744668,40.830428639907495,4627.4979558102978,0.0
623523.2936376977,3722751.2368613081,-27500.0,742.59755009515357,-1963.3160840206351,2991.5358771140018,787.22355811460613,-1529.8967462380053,558.70298067426563,2620.2628989763516,-419.66075424090025,97.091941093743145,-97.091941093743145,419.66075424090025,5094.0998662983829,0.0
628523.2936376977,3722751.2368613081,-27500.0,533.02288136538812,-1848.444886317533,3648.0957279645504,723.83752344625657,-1775.1147208214227,628.58001022122255,2828.0973227791983,-813.00113745399085,604.34778731561391,-604.34778731561391,813.00113745399085,5539.8833180523097,0.0
633523.2936376977,3722751.2368613081,-27500.0,327.522717705427,-1632.47890705397,4261.0788500918152,624.36492142447639,-2000.092062126773,691.56365882739703,3018.3060225163081,-1194.2220042701108,1159.9346865129976,-1159.9346865129976,1194.2220042701108,5944.6594317294248,0.0
638523.2936376977,3722751.2368613081,-27500.0,147.03854545204047,-1321.7812658442588,4793.3114965984141,491.77386204451597,-2192.146300033357,744.32656939165042,3183.1276576112318,-1535.1191517013142,1733.476550802771,-1733.476550802771,1535.1191517013142,6289.1016903094169,0.0
643523.2936376977,3722751.2368613081,-27500.0,10.851535965373838,-932.18854402317982,5211.240798560947,332.11712475163347,-2340.0655672670914,783.99586017420006,3314.9760612266437,-1809.4353963032304,2290.1175294698073,-2290.1175294698073,1809.4353963032304,6556.4244495254079,0.0
648523.2936376977,3722751.2368613081,-27500.0,-66.27366653773413,-487.63644023211339,5489.0503821892626,154.02835441388979,-2435.4046887385407,808.46637637451306,3405.7443189449536,-1996.3643802642337,2794.4779447024157,-2794.4779447024157,1996.3643802642337,6733.9038544866307,0.0
653523.2936376977,3722751.2368613081,-27500.0,-76.27343012914082,-17.411904436132691,5611.8055031347303,-32.194488815565542,-2473.4519492875538,816.62736293593332,3448.8508455851215,-2083.3073967822311,3214.9092974064088,-3214.9092974064088,2083.3073967822311,6813.995612095021,0.0
658523.2936376977,3722751.2368613081,-27500.0,-18.819794165587947,447.44977211399328,5577.0057195119462,-215.75562852024527,-2453.6863368103946,808.46290132945353,3441.4580672804318,-2067.3122116389786,3527.2167350889149,-3527.2167350889149,2067.3122116389786,6794.8764161737372,0.0
663523.2936376977,3722751.2368613081,-27500.0,98.97912670963342,877.90215234454286,5394.2938049970498,-386.55980558761723,-2379.6553604461415,785.0115214874163,3384.5749332397877,-1954.9483975721432,3717.1454132416966,-3717.1454132416966,1954.9483975721432,6680.3399239548271,0.0
668523.2936376977,3722751.2368613081,-27500.0,264.06134319760235,1250.0467944077714,5083.4972336091669,-536.22804356812367,-2258.3302800229735,748.19941250271859,3282.3214035117853,-1760.7555315013517,3781.248166055233,-3781.248166055233,1760.7555315013517,6479.0986297921081,0.0
673523.2936376977,3722751.2368613081,-27500.0,459.66303891060613,1547.2082456021303,4671.5270796735877,-658.77723231779976,-2099.099886339744,700.58557130306565,3141.1081003228414,-1504.7106217718958,3726.1545816401594,-3726.1545816401594,1504.7106217718958,6203.651570117916,0.0
678523.2936376977,3722751.2368613081,-27500.0,667.81308307751522,1760.7209201765886,4188.805777135497,-750.89807654820959,-1912.6070897149257,645.06659229644652,2968.8502445151753,-1209.303004257966,3566.5871119975809,-3566.5871119975809,1209.303004257966,5868.9141296772623,0.0
683523.2936376977,3722751.2368613081,-27500.0,871.58812976090792,1889.5301511686512,3665.882039734051,-811.85749631487624,-1709.6336890174903,584.59102798141816,2774.3078074704513,-896.78198522467324,3322.6739931928942,-3322.6739931928942,896.78198522467324,5490.8334938140406,0.0
688523.2936376977,3722751.2368613081,-27500.0,1056.7962668476525,1938.9133699239524,3130.6948271582546,-843.11393652356253,-1500.1791487392929,521.91911250311023,2566.6639733990587,-586.97949640874572,3017.1124275871935,-3017.1124275871935,586.97949640874572,5085.1470678892929,0.0
598523.2936376977,3727751.2368613081,-27500.0,1147.5101135025086,-1282.6499768611634,329.32144976278403,580.51293163214814,-405.93512701092544,195.92936455794765,1464.5118943507291,783.10106754694391,-1014.5831691673726,1014.5831691673726,-783.10106754694391,2690.2183354964159,0.0
603523.2936376977,3727751.2368613081,-27500.0,1112.4301547295299,-1463.1300360484443,733.4184374400869,634.07925602620151,-568.35737331839141,245.02607891637876,1623.4228234895097,621.74502732123096,-905.49417133964062,905.49417133964062,-621.74502732123096,3027.3407029219379,0.0
608523.2936376977,3727751.2368613081,-27500.0,1038.3197701878823,-1610.9289595506302,1197.6341496159407,673.53322887134186,-749.40349318334916,298.46080602321081,1795.2225485315648,409.41303549081448,-729.52194115462294,729.52194115462294,-409.41303549081448,3394.359539914999,0.0
613523.2936376977,3727751.2368613081,-27500.0,926.81036590887209,-1711.2447430979576,1712.3209340472772,694.12794547016324,-945.04804771028103,354.98984362471271,1975.8942245644982,149.95025105399009,-481.7801698824469,481.7801698824469,-149.95025105399009,3781.9360900902598,0.0
618523.2936376977,3727751.2368613081,-27500.0,783.40683005673316,-1750.0771755226467,2261.9498418987964,691.57047039671488,-1149.4046955027895,412.9166246333416,2160.2469006051547,-147.95042230317557,-162.16940957809004,162.16940957809004,147.95042230317557,4178.2354055184724,0.0
623523.2936376977,3727751.2368613081,-27500.0,617.60926696687352,-1716.0172986177131,2825.3202255623278,662.58061503861484,-1354.8683498530559,470.14639191149701,2342.1993629262938,-470.65995123793766,223.41908073192246,-223.41908073192246,470.65995123793766,4569.4067929556231,0.0
628523.2936376977,3727751.2368613081,-27500.0,442.41543802684657,-1602.0899740824138,3376.6270769432122,605.44093981132301,-1552.520290109278,524.30298025261163,2515.2490357677984,-800.25910103112642,662.48503785374533,-662.48503785374533,800.25910103112642,4940.3176958178474,0.0
633523.2936376977,3727751.2368613081,-27500.0,273.15359701293812,-1407.3083686751393,3887.4114803784478,520.43619984154361,-1732.7908018101732,572.90331778336088,2673.1068007077074,-1115.9754348282188,1136.158448393018,-1136.158448393018,1115.9754348282188,5275.5228260050353,0.0
638523.2936376977,3727751.2368613081,-27500.0,125.74755732800294,-1137.5817153537589,4329.2263633442035,410.08097491613432,-1886.3197180563886,613.57291271821487,2810.1200370043948,-1396.2945176923258,1620.4374967252206,-1620.4374967252206,1396.2945176923258,5560.3980108477845,0.0
643523.2936376977,3727751.2368613081,-27500.0,14.67836949796566,-805.69674443506392,4676.6451513112979,279.06084651310653,-2004.8962564720757,644.27338545488806,2920.4986936630239,-1621.4406126391789,2088.3577396230476,-2088.3577396230476,1621.4406126391789,5782.3063483578244,0.0
648523.2936376977,3727751.2368613081,-27500.0,-48.981596059925288,-430.2713260099618,4910.1125509769263,133.8660416910069,-2082.3288953827687,663.50735427916368,2997.6362014609504,-1775.7934890639524,2512.7991793696947,-2512.7991793696947,1775.7934890639524,5931.6436979160071,0.0
653523.2936376977,3727751.2368613081,-27500.0,-59.068123850929403,-33.804053750595585,5018.1191362291493,-17.839259350384719,-2115.094623638272,670.46702821902045,3036.2091885812129,-1849.7813062102391,2869.4616977001238,-2869.4616977001238,1849.7813062102391,6002.609773478368,0.0
658523.2936376977,3727751.2368613081,-27500.0,-15.057996962867541,359.84368040785597,4998.3056590398146,-168.00940297668276,-2102.6552562396519,665.10203097017404,3033.9127043397807,-1840.8905532670799,3139.4769533534991,-3139.4769533534991,1840.8905532670799,5993.5936238497225,0.0
663523.2936376977,3727751.2368613081,-27500.0,78.087004649134528,728.07655947884132,4857.3317960676741,-309.03672831741193,-2047.3969043428026,648.09773451823025,2991.3544279938633,-1753.6330837578189,3311.2067773406561,-3311.2067773406561,1753.6330837578189,5907.1289114222063,0.0
668523.2936376977,3727751.2368613081,-27500.0,210.88226275030524,1051.8435518980336,4609.6028859837234,-434.46245987238518,-1954.2217094380592,620.7714689142307,2911.4711410783621,-1598.5418116828891,3380.9657311208289,-3380.9657311208289,1598.5418116828891,5749.4442433364975,0.0
673523.2936376977,3727751.2368613081,-27500.0,370.83996755013129,1317.2235924897338,4275.1748968588308,-539.47853914405164,-1829.8885981885817,584.90945510355175,2798.9511029861383,-1390.4649795189725,3352.6562749290715,-3352.6562749290715,1390.4649795189725,5529.7088633973035,0.0
678523.2936376977,3727751.2368613081,-27500.0,544.21379865178471,1516.1538221428855,3877.2562055531807,-621.16954002040143,-1682.2258985592853,542.57240417003152,2659.6802213360015,-1146.5269026156247,3236.5061192349031,-3236.5061192349031,1146.5269026156247,5259.0891957340573,0.0
608523.2936376977,3732751.2368613081,-27500.0,887.36655208545494,-1461.9324281234362,1250.0768734421749,584.71443907107528,-699.93304528488693,260.64704876371104,1633.7696867677978,267.32978213950526,-548.45388331195352,548.45388331195352,-267.32978213950526,3107.8585469949389,0.0
613523.2936376977,3732751.2368613081,-27500.0,785.28256166974768,-1530.8374160622634,1699.7935323710517,596.04479343067544,-863.19912242538112,305.79062289024409,1788.6051546814715,36.607669662748776,-316.58620053113162,316.58620053113162,-36.607669662748776,3440.3894283508271,0.0
618523.2936376977,3732751.2368613081,-27500.0,659.42561790685647,-1547.0378113374361,2173.11421113914,588.41124174564777,-1031.7413303587664,351.60662109714133,1945.0170101473152,-222.02953933913912,-27.623371400720856,27.623371400720856,222.02953933913912,3776.7816526775955,0.0
623523.2936376977,3732751.2368613081,-27500.0,517.85800352014371,-1502.4977218600832,2652.4831039536839,559.61441613124771,-1199.5518845382817,396.51286724470992,2098.1628040942155,-497.08149020361145,312.45454135635794,-312.45454135635794,497.08149020361145,4105.9898444973878,0.0
628523.2936376977,3732751.2368613081,-27500.0,371.0578995370945,-1392.7655500037968,3117.2226071694067,508.66018220624369,-1359.7722109845113,438.75332607189199,2243.0209228247895,-774.09706462998042,692.76104127651229,-692.76104127651229,774.09706462998042,4416.1787840865918,0.0
633523.2936376977,3732751.2368613081,-27500.0,231.00314864757487,-1217.9959927627647,3545.0427737103046,436.03764357849286,-1505.1825305663176,476.52145424031704,2374.9138453763176,-1036.804724825754,1097.8251722537771,-1097.8251722537771,1036.804724825754,4695.4374692281262,0.0
638523.2936376977,3732751.2368613081,-27500.0,109.89747665425428,-983.49289671792076,3913.9980366431323,343.84679060682112,-1628.8099877221584,508.10735695769023,2489.7407413298711,-1268.6672770100511,1508.5922167379561,-1508.5922167379561,1268.6672770100511,4932.5910390837807,0.0
643523.2936376977,3732751.2368613081,-27500.0,18.723847165068108,-699.60714812982235,4204.6323964853455,235.73314691118324,-1724.5773400097332,532.05011954164206,2582.9165611653675,-1454.6474508284662,1904.0349226601486,-1904.0349226601486,1454.6474508284662,5118.0229828400443,0.0
648523.2936376977,3732751.2368613081,-27500.0,-34.127033803927475,-380.93929715596857,4401.9808316240487,116.62017698199695,-1787.8950550697625,547.27352683506263,2648.8896618910098,-1582.8971620701977,2263.1684693473962,-2263.1684693473962,1582.8971620701977,5244.4041826339189,0.0
653523.2936376977,3732751.2368613081,-27500.0,-43.90101232177846,-44.938208306845347,4497.09420232311,-7.7301782202461826,-1816.1035019609844,553.18464170310779,2683.3561832594414,-1646.0758067712131,2567.1591714768074,-2567.1591714768074,1646.0758067712131,5307.2327162258753,0.0
658523.2936376977,3732751.2368613081,-27500.0,-10.005013613554876,289.88410774266526,4487.8337017046597,-131.26384763869811,-1808.6947010579945,549.72028376740866,2684.4847603694611,-1642.0675745777453,2801.1821023719413,-2801.1821023719413,1642.0675745777453,5305.1116812751752,0.0
663523.2936376977,3732751.2368613081,-27500.0,64.069372639946849,605.82389126208363,4378.823908553476,-248.20172023329906,-1767.2843717095086,537.33555541895987,2652.6486898658609,-1573.9920200111424,2955.7324207789666,-2955.7324207789666,1573.9920200111424,5239.7349523641442,0.0
668523.2936376977,3732751.2368613081,-27500.0,171.37853261611593,887.64341209769202,4180.6154988986873,-353.54220858909389,-1695.3505929108767,516.93873665932188,2589.9687699131068,-1449.5458555928963,3027.2130023083037,-3027.2130023083037,1449.5458555928963,5115.5947671636523,0.0
628523.2936376977,3737751.2368613081,-27500.0,314.34652562770947,-1214.6029736538012,2873.2044519515593,429.26779717785189,-1193.1247626014163,368.4706381164853,2005.7146201475,-739.85655719810472,703.15911745214873,-703.15911745214873,739.85655719810472,3957.4513472336926,0.0
633523.2936376977,3737751.2368613081,-27500.0,197.91901845743234,-1058.2756435593969,3233.3391308787236,367.17463320928533,-1311.1706704631574,398.02740306639708,2116.6592789187916,-959.49246161603173,1050.6778945112299,-1050.6778945112299,959.49246161603173,4191.4442424413819,0.0
638523.2936376977,3737751.2368613081,-27500.0,97.848709130115623,-853.99944588775099,3543.2100809391604,289.85409614565538,-1411.4122822783834,422.74065408224004,2213.6774111163641,-1152.3645664869309,1400.6517371751002,-1400.6517371751002,1152.3645664869309,4390.0962227136379,0.0
643523.2936376977,3737751.2368613081,-27500.0,22.542914767101923,-610.1812453635863,3787.7937400639225,200.1579414942756,-1489.3061078676617,441.55297720316275,2292.9362873409905,-1306.9348470131954,1736.5571971618933,-1736.5571971618933,1306.9348470131954,4546.0154351290812,0.0
648523.2936376977,3737751.2368613081,-27500.0,-21.57751342376503,-338.36021413694931,3955.5286978078962,101.8536683230864,-1541.4150071437921,453.68311373426684,2349.6690660483741,-1414.1296843013538,2042.0135355355474,-2042.0135355355474,1414.1296843013538,4653.5524680021954,0.0
633523.2936376977,3517751.2368613081,-32500.0,95.01405937966183,700.44673736275774,3885.6215043018819,326.68325318704188,1807.5261639651274,625.14369350923801,2497.9738853807385,-899.1960478890494,2944.62037538602,-2944.62037538602,899.1960478890494,4922.7760595234386,0.0
638523.2936376977,3517751.2368613081,-32500.0,6.6665851313324316,416.21512887416031,4030.9144154505025,205.59816083041784,1863.5211061631599,640.8953638945203,2542.3625519475031,-1069.6049178018206,2883.2924524101795,-2883.2924524101795,1069.6049178018206,5010.9053680791803,0.0
643523.2936376977,3517751.2368613081,-32500.0,-45.705356370176744,105.83582793998187,4087.7481772569049,74.601992403382425,1884.2976053440025,645.81631561881136,2555.8602016064206,-1194.494050800306,2741.6624015273401,-2741.6624015273401,1194.494050800306,5040.5654518691044,0.0
648523.2936376977,3517751.2368613081,-32500.0,-56.756902236923352,-214.90691462868372,4048.4381369961884,-60.313886601921475,1867.0629731314748,639.14266039178926,2537.0864627865712,-1264.4766160127301,2523.4321134400684,-2523.4321134400684,1264.4766160127301,5008.7263607263912,0.0
653523.2936376977,3517751.2368613081,-32500.0,-24.829829811171411,-528.4858947362095,3911.2939072750523,-192.53953366279589,1811.2356610004131,620.75250729815025,2486.5045682973087,-1274.1448867138163,2237.9573062636891,-2237.9573062636891,1274.1448867138163,4915.2400718800081,0.0
658523.2936376977,3517751.2368613081,-32500.0,47.638279615964478,-817.33739036526936,3681.1334753339606,-315.45141571932271,1718.6248348513764,591.21269691302484,2406.931009560903,-1222.8580970683192,1899.6031695319034,-1899.6031695319034,1222.8580970683192,4763.018941353329,0.0
663523.2936376977,3517751.2368613081,-32500.0,154.2792658772288,-1065.6668866805016,3369.0137565473333,-423.05153776437925,1593.3360093889169,551.74959667459655,2303.8902284329474,-1114.91846787751,1526.4237850932091,-1526.4237850932091,1114.91846787751,4557.9330178599985,0.0
668523.2936376977,3517751.2368613081,-32500.0,285.53203332681665,-1261.057095152991,2991.1821333755706,-510.54053042498794,1441.404082794171,504.14432150063311,2183.8790923530455,-959.07899613999075,1138.352847808552,-1138.352847808552,959.07899613999075,4308.4257586825306,0.0
673523.2936376977,3517751.2368613081,-32500.0,429.82859547449715,-1395.6103940073274,2567.4098522016566,-574.73318710390777,1270.2069333423221,450.56738577472942,2051.4831414595074,-767.4633649722208,755.19877444405836,-755.19877444405836,767.4633649722208,4024.8937454663123,0.0
678523.2936376977,3517751.2368613081,-32500.0,575.00933410343293,-1466.4544344299366,2118.9862908976816,-614.25693000002457,1087.7544992054463,393.37823038783387,1910.5387948970927,-554.09849856831215,394.77163813962602,-394.77163813962602,554.09849856831215,3718.9136914271717,0.0
683523.2936376977,3517751.2368613081,-32500.0,709.71259199447661,-1475.573643297706,1666.70127385825,-629.5173743596157,901.96414265947726,334.92011675411038,1765.5009504290708,-333.32556145617787,71.423770700636169,-71.423770700636169,333.32556145617787,3402.4132526402072,0.0
618523.2936376977,3522751.2368613081,-32500.0,592.71417708230865,1480.5493539546219,3265.1059834694283,703.47715112676553,1661.8665291123821,619.10386984295872,2450.160117773808,-163.26318742563649,2920.6366043213648,-2920.6366043213648,163.26318742563649,4839.211851193656,0.0
623523.2936376977,3522751.2368613081,-32500.0,425.09044174493403,1328.0304435908101,3652.8054916639016,628.6749293310105,1823.3273263601695,669.73977245598337,2592.1460568946595,-432.74425016242708,3113.8237304167878,-3113.8237304167878,432.74425016242708,5112.5921122829031,0.0
628523.2936376977,3522751.2368613081,-32500.0,263.60738198686357,1111.0616027660958,3994.3456031223604,527.94181320239579,1963.9681229905541,713.19755482704772,2711.897777682394,-698.86404318801488,3236.3812269281852,-3236.3812269281852,698.86404318801488,5343.6213798012341,0.0
633523.2936376977,3522751.2368613081,-32500.0,121.43622395555296,834.13527046697834,4267.5205911145986,403.35792100321527,2075.1533130937751,746.87821488871816,2803.3147310170784,-944.82081530137225,3274.1057943038859,-3274.1057943038859,944.82081530137225,5521.0759464620332,0.0
638523.2936376977,3522751.2368613081,-32500.0,11.468425328961878,507.31626665232261,4451.6613022699221,259.09545527429532,2148.9340439622088,768.42278038308041,2861.159848955182,-1153.2665429069564,3217.2732363209525,-3217.2732363209525,1153.2665429069564,5635.1151424396594,0.0
643523.2936376977,3522751.2368613081,-32500.0,-55.336669898085077,146.03833578153686,4529.9863406510203,101.31932342409199,2178.9174080386852,775.96506050472726,2881.5509880630534,-1308.2016251887599,3062.3519282889438,-3062.3519282889438,1308.2016251887599,5678.228979226662,0.0
648523.2936376977,3522751.2368613081,-32500.0,-71.583485767151402,-229.9135412064652,4491.8405250991227,-62.203006397794788,2161.0851477673282,768.36600229932606,2862.4850158911013,-1396.9905440816096,2813.1362462408738,-2813.1362462408738,1396.9905440816096,5646.0927713511055,0.0
653523.2936376977,3522751.2368613081,-32500.0,-34.728326923050211,-598.19715654648439,4334.4090434974387,-222.76604390963038,2094.4165337156596,745.38903731468929,2804.3877755010217,-1412.1433565473988,2480.9958761176495,-2480.9958761176495,1412.1433565473988,5538.1982656409091,0.0
658523.2936376977,3522751.2368613081,-32500.0,52.276852153801805,-936.26367954845728,4063.529777336651,-371.58666010965555,1981.1825987397301,707.77956616414974,2710.7443857233029,-1352.4967459103436,2084.0757813632172,-2084.0757813632172,1352.4967459103436,5358.1432510068353,0.0
663523.2936376977,3522751.2368613081,-32500.0,181.17545547610601,-1223.8864695066397,3693.3729680214497,-500.72786199612915,1826.8307460558751,657.22684018314703,2588.3772601785786,-1223.5167595055827,1645.4956232559221,-1645.4956232559221,1223.5167595055827,5113.5096527792412,0.0
668523.2936376977,3522751.2368613081,-32500.0,339.44085508332159,-1445.4145644789753,3244.9839981114274,-603.92785987360139,1639.4577552211422,596.20823577835711,2445.2837558802698,-1036.6236486647524,1190.8247054406058,-1190.8247054406058,1036.6236486647524,4815.3279539754612,0.0
673523.2936376977,3522751.2368613081,-32500.0,511.96664583958716,-1591.3399515595268,2743.9288469289131,-677.18990619881686,1428.9534085466125,527.73947624404934,2287.5307281587384,-807.65645534106307,745.2765333493146,-745.2765333493146,807.65645534106307,4477.1944620326231,0.0
678523.2936376977,3522751.2368613081,-32500.0,683.07280717505182,-1658.9221106294451,2217.4722117863012,-719.04064964322015,1205.9647020730652,455.07273258557024,2120.413952205035,-554.78763827521777,331.12316094298933,-331.12316094298933,554.78763827521777,4114.1691030447346,0.0
683523.2936376977,3522751.2368613081,-32500.0,838.4346570398377,-1651.830237087142,1691.7915382407855,-730.43760067265725,980.85831528795711,381.39260743218273,1949.7871456985988,-296.29976746981595,-34.247537504518391,34.247537504518391,296.29976746981595,3741.6067599010753,0.0
688523.2936376977,3522751.2368613081,-32500.0,966.59552168449966,-1578.9737011897514,1189.6704660351613,-714.37953868525256,762.84076496159969,309.55525280214931,1781.591655497994,-48.62363037969854,-339.38712131831721,339.38712131831721,48.62363037969854,3374.0628162842131,0.0
693523.2936376977,3522751.2368613081,-32500.0,1059.8588695426668,-1452.8332021430792,728.96155798892153,-675.32413432007024,559.3456968559002,241.90238353910115,1621.1561260007725,175.07310318592749,-578.92187287950026,578.92187287950026,-175.07310318592749,3024.3759796542008,0.0
698523.2936376977,3522751.2368613081,-32500.0,1114.5189162404247,-1287.6469842362383,321.90727203956794,-618.5354181358648,375.72825172359558,180.16299921607418,1472.7281194796001,365.62059996019502,-752.9215593230706,752.9215593230706,-365.62059996019502,2702.9706684448315,0.0
613523.2936376977,3527751.2368613081,-32500.0,911.95881754101515,1779.0974251035384,2982.9976836167129,891.00229543048647,1650.8553309887179,656.58173738262326,2525.5233140421701,243.11167362716606,2855.7034404789856,-2855.7034404789856,-243.11167362716606,4993.646311399938,0.0
618523.2936376977,3527751.2368613081,-32500.0,725.66842994886326,1699.9380797734129,3468.6166057723044,842.36957878885676,1864.7322991828532,727.37274037658733,2715.9674987285853,-51.956680807694966,3162.3054900188354,-3162.3054900188354,51.956680807694966,5361.8001039383789,0.0
623523.2936376977,3527751.2368613081,-32500.0,527.81670587114627,1543.6705685858178,3932.6031807656395,760.96663015169565,2066.3664791668057,793.1616419047765,2890.0396856197221,-366.75434946831069,3410.0301850066699,-3410.0301850066699,366.75434946831069,5696.9390389536593,0.0
628523.2936376977,3527751.2368613081,-32500.0,333.2266620325704,1307.7286758301266,4347.9874960268971,646.25835216957989,2244.6600699007172,850.41718209670262,3039.0721879649232,-683.47406646898776,3576.8834586000676,-3576.8834586000676,683.47406646898776,5984.0039500976736,0.0
633523.2936376977,3527751.2368613081,-32500.0,158.70645610053123,996.04517732352224,4686.3000576050608,500.29029205000711,2388.0826749379426,895.53069570787432,3154.9450022634737,-981.04138283463067,3643.5029544780791,-3643.5029544780791,981.04138283463067,6208.2186470485321,0.0
638523.2936376977,3527751.2368613081,-32500.0,21.205662535569481,619.96510675791114,4920.3598309546405,327.99556115681747,2485.7623231988268,925.15263197103229,3230.5672004390135,-1237.0326798938902,3595.8830740377061,-3595.8830740377061,1237.0326798938902,6356.3442774650111,0.0
643523.2936376977,3527751.2368613081,-32500.0,-64.468923680346791,198.21378795424533,5027.5284896080821,137.14512111342253,2528.7361256902154,936.57001739552754,3260.5516155724204,-1430.23973773029,3427.9039785371674,-3427.9039785371674,1430.23973773029,6418.024662618589,0.0
648523.2936376977,3527751.2368613081,-32500.0,-88.004129401066649,-244.31207703246901,4992.9292616050398,-62.13746774991187,2511.1724102236844,928.06897807217047,3241.9582440181084,-1543.5199040099965,3143.1252421816148,-3143.1252421816148,1543.5199040099965,6387.0414037611954,0.0
653523.2936376977,3527751.2368613081,-32500.0,-45.508582429448424,-678.92985923995093,4812.0027745768093,-258.29142874336492,2431.334358088709,899.21522296860132,3175.0579004801803,-1566.4047574612368,2755.3448293404899,-2755.3448293404899,1566.4047574612368,6262.2722687721653,0.0
658523.2936376977,3527751.2368613081,-32500.0,59.464390266161004,-1076.4375574014859,4491.8003763202478,-439.55474308391132,2292.0661894366176,850.99017859108653,3064.1214883820348,-1496.8925888501212,2287.6258018154572,-2287.6258018154572,1496.8925888501212,6048.1640142362739,0.0
663523.2936376977,3527751.2368613081,-32500.0,216.12137857655827,-1410.6986173797504,4050.6227999352623,-595.31707682208173,2100.6601414511729,785.74317601684641,2917.6452291717414,-1341.9677726775828,1769.8230787999244,-1769.8230787999244,1341.9677726775828,5754.5975248790155,0.0
668523.2936376977,3527751.2368613081,-32500.0,407.89615923651837,-1661.8427156481016,3515.9716770466011,-717.33673555496205,1868.0901262805394,706.95692442813993,2745.7623373721735,-1116.6673092930657,1235.0154559642522,-1235.0154559642522,1116.6673092930657,5396.1309374371422,0.0
673523.2936376977,3527751.2368613081,-32500.0,614.8903415167764,-1818.4405189469892,2921.1815590901342,-800.58895861689871,1607.7438113479866,618.86508168492185,2556.669858717526,-841.87018184208205,715.53097344123603,-715.53097344123603,841.87018184208205,4990.7268372531826,0.0
678523.2936376977,3527751.2368613081,-32500.0,816.7520261804159,-1878.2621789405407,2301.4025737725469,-843.59957711658103,1333.8937054281591,525.99138393573185,2357.627994395757,-541.2962899357492,239.34001173694747,-239.34001173694747,541.2962899357492,4558.1587704316298,0.0
683523.2936376977,3527751.2368613081,-32500.0,995.37698463225888,-1847.5858569144145,1689.7175018006728,-848.24291359083554,1060.1941558236695,432.69354537400545,2156.3126363868846,-238.3633286507648,-172.54084975123249,172.54084975123249,238.3633286507648,4118.3393350140041,0.0
688523.2936376977,3527751.2368613081,-32500.0,1136.9223968460133,-1739.3596996871661,1114.0594227965146,-819.10326259938972,798.4537167007411,342.78530329724151,1960.237237245927,46.488739144223672,-507.29489209759913,507.29489209759913,-46.488739144223672,3689.784827791585,0.0
693523.2936376977,3527751.2368613081,-32500.0,1232.857610858407,-1570.7284658976462,595.32363528061933,-762.57737454723281,557.83893642364751,259.2835228743192,1775.8828480420332,297.59515303534175,-760.20969620788492,760.20969620788492,-297.59515303534175,3288.3580781609567,0.0
698523.2936376977,3527751.2368613081,-32500.0,1280.0435784845026,-1360.4743857089509,146.7465942895895,-685.91530995807284,344.55090255354946,184.29554569982818,1608.1189469281828,504.84547079148274,-933.52919913659457,933.52919913659457,-504.84547079148274,2926.3415620721494,0.0
703523.2936376977,3527751.2368613081,-32500.0,1280.0407100708042,-1126.8117794501973,-225.64507185595292,-596.36422495571514,161.91606943346213,119.03180518532326,1459.9217535893881,663.54830772303478,-1034.687597551082,1034.687597551082,-663.54830772303478,2611.8254949957791,0.0
708523.2936376977,3527751.2368613081,-32500.0,1237.9529134009247,-885.79237963313631,-521.85884323011896,-500.51859783792179,10.773739705756716,63.91160612460056,1332.350592716715,773.63966673275775,-1074.3616512858853,1074.3616512858853,-773.63966673275775,2348.4054068341029,0.0
603523.2936376977,3532751.2368613081,-32500.0,1424.6481704008672,1907.9470676574472,2005.2955244688956,1042.2433506080413,1311.5520699126064,582.42962681777965,2316.8213253340941,959.43806993977114,2189.8360518613017,-2189.8360518613017,-959.43806993977114,4568.9847378497643,0.0
608523.2936376977,3532751.2368613081,-32500.0,1286.2144003844171,1992.9762488840054,2530.683285927701,1064.5830192481067,1562.8693122323943,672.01663951055968,2547.1696268833962,726.0844400878691,2614.1641483230737,-2614.1641483230737,-726.0844400878691,5033.2740002249493,0.0
613523.2936376977,3532751.2368613081,-32500.0,1106.3606967043377,2011.9794974247447,3089.6362916895519,1055.8930224343453,1825.1948733122736,764.0187217200596,2782.4247536986709,437.59498419325723,3028.4095924887733,-3028.4095924887733,-437.59498419325723,5496.5864218595598,0.0
618523.2936376977,3532751.2368613081,-32500.0,893.34786336432842,1949.847903682027,3660.7798345873957,1010.3172380983104,2088.7668411755444,855.01976271059686,3012.8105538837408,102.60341373506844,3407.7821382122083,-3407.7821382122083,-102.60341373506844,5943.3158444972005,0.0
623523.2936376977,3532751.2368613081,-32500.0,660.56528640669376,1794.9502882116046,4216.0810062360406,923.59921804005558,2341.2151488650825,940.81540624658055,3226.8382330903478,-263.89142350785801,3724.2882034747936,-3724.2882034747936,263.89142350785801,6355.4944524419634,0.0
628523.2936376977,3532751.2368613081,-32500.0,426.10426839207065,1541.5960184043092,4722.04775628486,794.03334651111288,2568.1178348228227,1016.6144639889187,3413.0809550185013,-640.63245641201456,3949.104708189378,-3949.104708189378,640.63245641201456,6713.6982112367796,0.0
633523.2936376977,3532751.2368613081,-32500.0,211.37172107860684,1192.3415808715129,5142.1724506905512,623.33031578490181,2754.0394865464095,1077.3867383587481,3560.669517687892,-1001.2861510463313,4055.8502546147206,-4055.8502546147206,1001.2861510463313,6998.391831754072,0.0
638523.2936376977,3532751.2368613081,-32500.0,38.70914312951917,759.59896385355046,5440.5853277732394,417.19255833777783,2884.0262865035288,1118.3445940375607,3659.9279031671504,-1316.8301394434734,4024.4042222884177,-4024.4042222884177,1316.8301394434734,7191.6455352242228,0.0
643523.2936376977,3532751.2368613081,-32500.0,-71.760766407268207,265.97151839074081,5586.5613571035992,185.38890290478383,2945.4104198651939,1135.5093513652523,3703.3057790658154,-1559.0091199318003,3844.6462140049944,-3844.6462140049944,1559.0091199318003,7279.0551914606685,0.0
648523.2936376977,3532751.2368613081,-32500.0,-105.54069947350375,-257.11332478611354,5559.1768629911649,-58.824702835340595,2929.6496293398559,1126.2769102531793,3686.4420514397771,-1704.3810076890586,3519.2951650712948,-3519.2951650712948,1704.3810076890586,7251.602892669217,0.0
653523.2936376977,3532751.2368613081,-32500.0,-56.674966450518298,-772.56857249573579,5351.1620012382391,-299.96565091586365,2833.836792852097,1089.87259590336,3609.2415779241028,-1738.1740003180917,3065.0297870190602,-3065.0297870190602,1738.1740003180917,7107.1335549086962,0.0
658523.2936376977,3532751.2368613081,-32500.0,70.607395716197942,-1242.2262448769081,4970.9769049223478,-522.11768409726085,2661.5120670921783,1027.5865839861522,3476.8933103011623,-1657.0416847798783,2511.3467718281286,-2511.3467718281286,1657.0416847798783,6851.1325389859658,0.0
663523.2936376977,3532751.2368613081,-32500.0,262.07608924218732,-1631.9852059342434,4442.4462107647541,-710.94035739279013,2422.5269775753691,942.71840192469165,3300.0979809915848,-1469.9562963520966,1897.1399565409506,-1897.1399565409506,1469.9562963520966,6496.5974253501226,0.0
668523.2936376977,3532751.2368613081,-32500.0,495.60352601512011,-1916.4243086218642,3801.8480617861223,-855.48416027551582,2131.9176359330172,840.21957372841314,3092.0331085898752,-1196.9102868184009,1265.5936836895298,-1265.5936836895298,1196.9102868184009,6062.9574039943618,0.0
673523.2936376977,3532751.2368613081,-32500.0,744.74020781047045,-2081.8579558501979,3093.0275825820304,-949.42778223865571,1807.9973038210276,726.09873844261915,2863.9590578689799,-865.68770409809395,658.47266325864666,-658.47266325864666,865.68770409809395,5574.2063438661708,0.0
678523.2936376977,3532751.2368613081,-32500.0,982.89921078734505,-2127.228727542607,2361.6059589122788,-991.50263817628354,1470.0675000335332,606.70790159776072,2625.8227328273992,-507.48721530995493,111.03584268551998,-111.03584268551998,507.48721530995493,5056.5644148319107,0.0
683523.2936376977,3532751.2368613081,-32500.0,1187.1711710805478,-2062.8324765570242,1649.5201497588027,-985.08718162033335,1136.2161167391851,488.05023320136985,2387.690066164067,-152.43221512388891,-351.43972612223871,351.43972612223871,152.43221512388891,4536.0510857433874,0.0
688523.2936376977,3532751.2368613081,-32500.0,1340.995242525677,-1907.4177406701781,990.90510908229714,-937.15572574823841,821.59816501220598,375.22935193809553,2159.0418953343647,174.08904804393381,-715.05748196132777,715.05748196132777,-174.08904804393381,4036.3030432412193,0.0
693523.2936376977,3532751.2368613081,-32500.0,1435.325517905743,-1684.5066960887448,409.84521209013286,-856.88778126612101,537.42082884616889,272.11044276235424,1947.6745050757895,453.67342102817355,-976.73345102524854,976.73345102524854,-453.67342102817355,3576.8347594004463,0.0
698523.2936376977,3532751.2368613081,-32500.0,1468.3714176462167,-1418.7901720179279,-80.006098636183381,-754.25649346230966,290.65794252353624,181.20579830123714,1758.9855377948377,675.61787723909515,-1142.1992838352849,1142.1992838352849,-675.61787723909515,3171.7978039145755,0.0
703523.2936376977,3532751.2368613081,-32500.0,1444.3016795120952,-1133.2205270434165,-474.34138762754003,-638.84234376426525,84.362465205478941,103.74957839701484,1595.69552076126,836.35221385073498,-1223.2907542837881,1223.2907542837881,-836.35221385073498,2829.2235941766949,0.0
708523.2936376977,3532751.2368613081,-32500.0,1371.4212383604638,-847.10190862543288,-776.23451039757447,-519.00329358771864,-81.635180939472463,39.900419518287762,1457.9609177777868,938.04456458723962,-1235.1778321566499,1235.1778321566499,-938.04456458723962,2550.7951035632959,0.0
713523.2936376977,3532751.2368613081,-32500.0,1260.2843933552474,-575.18550470368086,-993.86584179620081,-401.42461931889619,-209.86035654083497,-10.9938867957515,1343.826529277092,986.85929583399184,-1193.9948245022451,1193.9948245022451,-986.85929583399184,2332.3279982163085,0.0
598523.2936376977,3537751.2368613081,-32500.0,1764.2970372903133,1892.5178167408883,1399.9517285601601,1130.5253743401481,1118.7610315220036,555.14280220865385,2259.5474343236529,1411.5000683699532,1711.1286166418986,-1711.1286166418986,-1411.5000683699532,4414.5514447346532,0.0
603523.2936376977,3537751.2368613081,-32500.0,1680.4926958064943,2075.8086619557334,1925.7088520500529,1200.8553869838174,1391.3212983741757,659.07804912724157,2514.3115861319975,1242.873705694549,2185.4842047558286,-2185.4842047558286,-1242.873705694549,4941.0845841523142,0.0
608523.2936376977,3537751.2368613081,-32500.0,1540.399286479691,2207.540056394068,2517.2348593473375,1243.9353678974812,1690.3428887650491,770.88194436618198,2784.2521072536433,1002.013312413121,2682.8380330061455,-2682.8380330061455,-1002.013312413121,5489.2311606467765,0.0
613523.2936376977,3537751.2368613081,-32500.0,1345.8873952929616,2266.4330907533622,3159.7502266768474,1250.7684432316614,2008.0869190586329,887.52243075797981,3064.0503307692629,689.50646967835519,3180.1913247997477,-3180.1913247997477,-689.50646967835519,6044.1930121389141,0.0
618523.2936376977,3537751.2368613081,-32500.0,1104.9557189187412,2231.7306702465667,3829.5064755587359,1212.8711079508214,2333.0013475689852,1004.7166446833193,3343.0270997777784,313.03048838692416,3647.811124994666,-3647.811124994666,-313.03048838692416,6587.1125186536292,0.0
623523.2936376977,3537751.2368613081,-32500.0,832.56322813472286,2086.0860430593916,4493.4474388915069,1123.4788088051671,2649.692997554002,1116.963726108404,3606.8756486719863,-111.3020646423065,4050.6153513988884,-4050.6153513988884,111.3020646423065,7095.5124788669982,0.0
628523.2936376977,3537751.2368613081,-32500.0,550.49929438872266,1819.0089246631433,5110.257128413491,978.94031329001439,2939.4813832669256,1217.7699185381289,3840.5821040373776,-558.55743764447561,4350.9885696685214,-4350.9885696685214,558.55743764447561,7544.3392260427418,0.0
633523.2936376977,3537751.2368613081,-32500.0,285.90318733400363,1430.3460173836836,5633.190413092243,780.08605044691683,3181.6774450760786,1300.1037657472202,4029.5392363333331,-996.05946148075145,4513.0399487195909,-4513.0399487195909,996.05946148075145,7907.6765051982657,0.0
638523.2936376977,3537751.2368613081,-32500.0,68.256343092712086,933.00976694954147,6014.7915383185718,533.26082450024637,3355.6096533087966,1357.08040084399,4160.4476077848831,-1386.2608855383303,4507.9230760969249,-4507.9230760969249,1386.2608855383303,8161.0833896409767,0.0
643523.2936376977,3537751.2368613081,-32500.0,-74.949351594200124,354.03337464224768,6213.1212655950148,250.66702608106021,3443.2292788871869,1382.8130649435188,4222.6210273927827,-1691.3563574766256,4319.3665733871749,-4319.3665733871749,1691.3563574766256,8284.346365132702,0.0
648523.2936376977,3537751.2368613081,-32500.0,-123.16948623425453,-266.83466008627244,6198.5283874945108,-50.275216482076353,3431.8991041302111,1373.3031131250757,4209.525906855768,-1879.0390843151167,3948.1727219927402,-3948.1727219927402,1879.0390843151167,8264.261974327359,0.0
653523.2936376977,3537751.2368613081,-32500.0,-67.261783234937639,-881.29832535025423,5959.5138869723123,-348.65437341164761,3316.7877418207063,1327.1869998401155,4120.332020637672,-1928.2536993419735,3414.3403590885391,-3414.3403590885391,1928.2536993419735,8096.9417061260692,0.0
658523.2936376977,3537751.2368613081,-32500.0,87.841407311237049,-1438.982462660379,5506.1055492504556,-622.69278904425323,3102.2467077849033,1246.1505462940665,3961.2863963289819,-1833.4908479187225,2755.8240568885831,-2755.8240568885831,1833.4908479187225,7789.1139367868209,0.0
663523.2936376977,3537751.2368613081,-32500.0,323.21237863085128,-1894.9279512392379,4869.5765160169976,-852.77699879039039,2801.7115276796267,1134.8740986568655,3746.0334626277208,-1606.3313133837889,2023.7685329062053,-2023.7685329062053,1606.3313133837889,7358.0443043658533,0.0
668523.2936376977,3537751.2368613081,-32500.0,608.98050859940531,-2216.3476734531978,4098.2644957949233,-1024.2127259018152,2436.026144322745,1000.4820518038257,3492.100590841063,-1273.6315400270694,1275.0999415532972,-1275.0999415532972,1273.6315400270694,6829.9789469659927,0.0
673523.2936376977,3537751.2368613081,-32500.0,909.65091658540018,-2386.9773400323306,3250.3742969252539,-1129.0578856560001,2030.5249936169396,851.6018927076675,3215.1955020095884,-872.73664394975049,564.19970970220106,-564.19970970220106,872.73664394975049,6237.3572273774689,0.0
678523.2936376977,3537751.2368613081,-32500.0,1190.273372999628,-2408.0654921057662,2385.514503403806,-1166.6475332992723,1611.5509639596003,697.24084631618064,2929.0039366457349,-445.00233323959327,-64.352553999797749,64.352553999797749,445.00233323959327,5615.3185447208434,0.0
683523.2936376977,3537751.2368613081,-32500.0,1421.874325404963,-2296.0782202004752,1556.953221711181,-1142.8116356210212,1203.1926302722766,545.72222676557089,2646.7400314751299,-29.313557226496755,-580.42859288367242,580.42859288367242,29.313557226496755,4998.1233344778502,0.0
688523.2936376977,3537751.2368613081,-32500.0,1584.9674589780748,-2078.0972216626878,806.13847977483056,-1068.1338675071283,824.87304692892724,403.8803946256042,2380.3097367160908,342.92582482484045,-969.76813179807982,969.76813179807982,-342.92582482484045,4416.0069174754353,0.0
693523.2936376977,3537751.2368613081,-32500.0,1670.6985623570426,-1786.3313450721928,160.16501910233376,-955.78506683546573,490.10000165039867,276.61775996906852,2138.9127010570555,650.52419064676951,-1232.504957869372,1232.504957869372,-650.52419064676951,3892.7465104784719,0.0
698523.2936376977,3537751.2368613081,-32500.0,1679.906997617898,-1453.0630313720158,-368.01240404486202,-819.44883141260607,206.34339992183209,166.82270675334746,1928.183095382135,882.92144348174293,-1379.7905421204371,1379.7905421204371,-882.92144348174293,3443.9979310039712,0.0
703523.2936376977,3537751.2368613081,-32500.0,1620.8356040148872,-1106.8916009966924,-777.40153459119415,-671.69923890793518,-24.236136626076064,75.570209292341943,1749.9966721991159,1038.837574496793,-1429.6828585362518,1429.6828585362518,-1038.837574496793,3076.4269009949426,0.0
708523.2936376977,3537751.2368613081,-32500.0,1506.3225597716937,-770.57361955104818,-1075.8073232597637,-522.98288848214349,-203.58114415421977,2.4919029673887318,1602.886179447351,1123.9361595216687,-1403.2693874264437,1403.2693874264437,-1123.9361595216687,2787.8370756520394,0.0
713523.2936376977,3537751.2368613081,-32500.0,1351.1487717366542,-460.31655196674342,-1276.5259531959507,-381.18189775844053,-336.39762552790398,-53.793601141511012,1482.9398549537877,1148.2362196148877,-1321.6093811332778,1321.6093811332778,-1148.2362196148877,2568.6317285515343,0.0
718523.2936376977,3537751.2368613081,-32500.0,1169.9425664252828,-186.13887352521789,-1395.4642268878756,-251.62958043548775,-428.92795546578901,-95.272386065446725,1384.9501829157136,1123.7912177496539,-1203.7003809789974,1203.7003809789974,-1123.7912177496539,2404.6045013608018,0.0
593523.2936376977,3542751.2368613081,-32500.0,2044.2710695370479,1722.3511961454274,732.26059315797113,1155.7397898548359,865.29147685017529,500.42452175602421,2157.5833957781751,1802.8556584220114,1106.2349583609803,-1106.2349583609803,-1802.8556584220114,4151.1640707750885,0.0
598523.2936376977,3542751.2368613081,-32500.0,2042.8677846627234,1991.7516640626409,1211.9141055514926,1275.4857410210111,1140.021265443318,613.65946524071865,2427.3643615572832,1731.5556996448263,1586.6886558367037,-1586.6886558367037,-1731.5556996448263,4714.4751227909828,0.0
603523.2936376977,3542751.2368613081,-32500.0,1978.3783060975973,2234.0623839482473,1783.6532028373863,1376.8694204743242,1456.282651972421,740.83146481134509,2721.5537551520652,1581.0717749996727,2123.9421695971869,-2123.9421695971869,-1581.0717749996727,5324.5796557376643,0.0
608523.2936376977,3542751.2368613081,-32500.0,1844.3883615528416,2425.3321882332721,2443.0801551778982,1448.8336177997087,1810.3654807589342,880.03726361716497,3037.5666053843338,1342.2228198873399,2701.8301951271296,-2701.8301951271296,-1342.2228198873399,5970.0995586474646,0.0
613523.2936376977,3542751.2368613081,-32500.0,1639.9521766301177,2538.3725724610058,3176.3755437044642,1479.2471306362418,2194.1726174223418,1027.8057932495237,3370.2302459076891,1011.6903485815751,3294.9740973417552,-3294.9740973417552,-1011.6903485815751,6634.2700096216777,0.0
618523.2936376977,3542751.2368613081,-32500.0,1371.7474648154073,2545.1500389300418,3958.1271562969177,1456.0163199063907,2594.3942046552124,1178.8670580204243,3708.2295704809517,594.74074880329772,3868.4015644192095,-3868.4015644192095,-594.74074880329772,7294.6134460844696,0.0
623523.2936376977,3542751.2368613081,-32500.0,1055.7264004353876,2420.442277848008,4750.1306835268479,1368.6957608691282,2992.1444843589757,1326.0938548007018,4034.2407057643632,107.59870905269918,4378.6707873181422,-4378.6707873181422,-107.59870905269918,7923.2106781514913,0.0
628523.2936376977,3542751.2368613081,-32500.0,717.60499601002937,2146.5645725664895,5501.9462862154232,1210.4970801732698,3363.3799145151997,1460.7167532814306,4328.6973435963464,-421.26474248734485,4777.0190561443715,-4777.0190561443715,421.26474248734485,8487.8111245136752,0.0
633523.2936376977,3542751.2368613081,-32500.0,391.50581087162931,1718.5382860532554,6153.951979503312,980.42156160082789,3680.3864064583595,1572.8953697701384,4571.9334286587455,-951.77034731146955,5014.7666739961805,-5014.7666739961805,951.77034731146955,8953.9547987855385,0.0
638523.2936376977,3542751.2368613081,-32500.0,116.29512814672393,1148.5939402745144,6643.2946506692497,685.05827855010239,3914.4742532078521,1652.6766375618101,4745.553892468718,-1435.4842099819068,5050.6485158209889,-5050.6485158209889,1435.4842099819068,9288.1254417742839,0.0
643523.2936376977,3542751.2368613081,-32500.0,-70.305207301474866,468.55557909043063,6912.4375641214392,339.46395532024184,4039.7248602224295,1691.2731292156225,4834.2886126032536,-1821.6706916517701,4858.9733442873821,-4858.9733442873821,1821.6706916517701,9461.6952822318126,0.0
648523.2936376977,3542751.2368613081,-32500.0,-138.94706811439414,-271.29639177652405,6919.0392022770648,-33.424314746333572,4037.2451892357863,1682.4736559167634,4828.254291494748,-2065.4726639162923,4436.7606944398594,-4436.7606944398594,2065.4726639162923,9455.1247527037031,0.0
653523.2936376977,3542751.2368613081,-32500.0,-75.526850905220797,-1007.6349822003708,6644.968402059957,-405.12468355960164,3899.0137157774379,1623.8874904100412,4725.2475226475999,-2136.5623401737721,3807.6430953430809,-3807.6430953430809,2136.5623401737721,9261.6114257820591,0.0
658523.2936376977,3542751.2368613081,-32500.0,114.41012277137611,-1673.2859865313339,6101.8547088656869,-745.48600739804169,3630.2506904245047,1517.6850050270182,4532.6941288154394,-2025.9297464396584,3020.7348582639966,-3020.7348582639966,2025.9297464396584,8889.3030568197009,0.0
663523.2936376977,3542751.2368613081,-32500.0,405.45890453368804,-2208.3009103197583,5331.102400543813,-1027.3317803799337,3249.4600319425986,1370.572245304686,4268.2069874223162,-1748.5789497948231,2143.961050932985,-2143.961050932985,1748.5789497948231,8361.3746089091019,0.0
668523.2936376977,3542751.2368613081,-32500.0,756.83660503538204,-2570.0267534528907,4397.8127677779512,-1230.7241991824619,2785.9048800780924,1192.9322695518513,3955.5571512473498,-1340.9850751010104,1253.1460313389789,-1253.1460313389789,1340.9850751010104,7713.755870739582,0.0
673523.2936376977,3542751.2368613081,-32500.0,1120.4281323837351,-2739.3932943324189,3380.011060463502,-1345.7277352306082,2275.0625058511828,997.30949743251495,3617.0002786155205,-853.88080975011178,419.67615440417433,-419.67615440417433,853.88080975011178,6990.8922509650083,0.0
678523.2936376977,3542751.2368613081,-32500.0,1450.0193549988778,-2721.8767992463918,2356.0907755603862,-1373.0229264140021,1753.2320396048897,796.60924997399457,3271.5258315880656,-342.51482690579451,-299.98509551564632,299.98509551564632,342.51482690579451,6240.4190533064593,0.0
683523.2936376977,3542751.2368613081,-32500.0,1709.0891387421034,-2543.4124760246682,1393.7417085835386,-1322.4260773963777,1252.6419542754109,602.44190285057334,2936.5017556274361,142.80355800004253,-870.48124417130975,870.48124417130975,-142.80355800004253,5507.7892662522936,0.0
688523.2936376977,3542751.2368613081,-32500.0,1875.3389050609308,-2243.0486377478469,542.73201971352148,-1209.9822108003689,798.07725716091466,423.94501682278349,2626.7381575273084,563.54307559570339,-1278.6581532215262,1278.6581532215262,-563.54307559570339,4831.6666059790386,0.0
693523.2936376977,3542751.2368613081,-32500.0,1941.4834097077837,-1864.7447250443349,-167.64345423889219,-1054.5738726645616,405.4384564491487,267.23069735897809,2352.726204283912,896.08338062698783,-1530.4149840880245,1530.4149840880245,-896.08338062698783,4240.4793070765281,0.0
698523.2936376977,3542751.2368613081,-32500.0,1913.030806444234,-1450.3566856991933,-727.10216828456123,-874.88729066422206,82.041351167350768,135.41505969873958,2119.6733776191613,1131.3787953086689,-1645.1112766581141,1645.1112766581141,-1131.3787953086689,3750.2209440520196,0.0
703523.2936376977,3542751.2368613081,-32500.0,1804.3935269670153,-1034.9397899368394,-1140.3780515609919,-687.2443876320707,-171.90160558852725,29.062260265162998,1927.5954141545067,1272.2439345715366,-1649.4226737354156,1649.4226737354156,-1272.2439345715366,3363.6887247440736,0.0
708523.2936376977,3542751.2368613081,-32500.0,1634.6657863434277,-644.55131545340066,-1422.2791048653635,-504.4377715919947,-361.26446620524973,-53.162142103626721,1772.3485744663176,1329.5853256077467,-1572.0320187350503,1572.0320187350503,-1329.5853256077467,3071.697552728715,0.0
713523.2936376977,3542751.2368613081,-32500.0,1424.0048852086179,-296.08751131410725,-1593.0147880071752,-335.43261221454202,-493.9847117101948,-113.80578608080789,1647.2762491785102,1318.6653347587767,-1439.834613142777,1439.834613142777,-1318.6653347587767,2856.6196039429806,0.0
718523.2936376977,3542751.2368613081,-32500.0,1191.0594827936027,1.5703429349970377,-1674.4735687586469,-185.67036948618755,-579.35982912236818,-156.02924045345085,1544.9627925138157,1256.0521917305807,-1275.7410181501089,1275.7410181501089,-1256.0521917305807,2697.4435543766772,0.0
723523.2936376977,3542751.2368613081,-32500.0,951.4888091967515,245.79511510467148,-1687.6618909020581,-57.6979950285982,-626.79678772018815,-183.14628039771176,1458.6043645170789,1157.4987067957679,-1097.8026384346238,1097.8026384346238,-1157.4987067957679,2574.4699928954551,0.0
588523.2936376977,3547751.2368613081,-32500.0,2212.2625502822862,1399.2191345484205,65.300765054891968,1104.9438659103241,569.62381945949744,419.75862304216639,2021.6406044775063,2073.2287587670453,428.84351019654059,-428.84351019654059,-2073.2287587670453,3805.7373913248684,0.0
593523.2936376977,3547751.2368613081,-32500.0,2311.4524062378146,1726.5318093033825,455.7314598841474,1268.0589963292189,824.83050664454288,535.1989015744856,2292.6770532618971,2119.905065743249,865.5365643895409,-865.5365643895409,-2119.905065743249,4371.5259490393928,0.0
598523.2936376977,3547751.2368613081,-32500.0,2352.3040106125168,2057.1935713414937,952.76404494595613,1426.0120911497074,1133.3471743246535,670.31268644477609,2597.5190352331151,2094.1042728212328,1386.4156895405554,-1386.4156895405554,-2094.1042728212328,5008.3817670847693,0.0
603523.2936376977,3547751.2368613081,-32500.0,2320.4188888994931,2369.4509154171365,1563.9671245664497,1567.62001364616,1496.9185893770552,825.0148085519827,2935.441287096759,1977.7706232681987,1986.1554224369809,-1986.1554224369809,-1977.7706232681987,5710.9314313206332,0.0
608523.2936376977,3547751.2368613081,-32500.0,2204.3902518339919,2634.9388700270715,2289.4027756135038,1678.9606491752847,1913.3306028896607,997.64167183173868,3304.2939056804685,1755.5333896391439,2649.8969007742635,-2649.8969007742635,-1755.5333896391439,6467.9204637602334,0.0
613523.2936376977,3547751.2368613081,-32500.0,1998.7274854568784,2819.6371269195547,3118.045312821776,1743.9618419800722,2374.8471644168017,1184.4342948764227,3699.2577288504567,1418.0596535727386,3350.9079201797244,-3350.9079201797244,-1418.0596535727386,7261.0168122773102,0.0
618523.2936376977,3547751.2368613081,-32500.0,1707.0913066121743,2886.3995815216895,4024.252962664978,1745.6770306530354,2866.7483923367654,1379.0896618409545,4108.7019701060744,965.9851995864658,4049.1753117854596,-4049.1753117854596,-965.9851995864658,8063.9734379033598,0.0
623523.2936376977,3547751.2368613081,-32500.0,1345.2043133866891,2799.3896384021095,4965.1548395115788,1668.3599801540006,3366.3554675780629,1572.5152141282686,4512.2345386944826,413.80098588858846,4691.8193546073362,-4691.8193546073362,-413.80098588858846,8842.5068480408991,0.0
628523.2936376977,3547751.2368613081,-32500.0,942.4817884177711,2530.3913490764594,5880.1328839224716,1500.2917282388112,3843.0519683208181,1752.9553287650392,4884.6671090072232,-207.32802845476726,5216.2676881835814,-5216.2676881835814,207.32802845476726,9555.3044105209174,0.0
633523.2936376977,3547751.2368613081,-32500.0,541.24210609723468,2066.3328832883076,6693.6872451898626,1237.044943459807,4259.8374839796752,1906.6556528889687,5199.5448761977595,-849.14329150856838,5556.8465131939283,-5556.8465131939283,849.14329150856838,10156.524253126445,0.0
638523.2936376977,3547751.2368613081,-32500.0,192.52270221716728,1416.5422713297021,7322.6508352576966,884.54035712690973,4576.7934759400132,2019.1694512199215,5431.2940193762452,-1449.5796711224584,5654.7060040364158,-5654.7060040364158,1449.5796711224584,10599.965409320836,0.0
643523.2936376977,3547751.2368613081,-32500.0,-51.773523220230913,617.50124876563052,7687.7736497438527,460.95344939196281,4756.4237439932513,2077.2639684947694,5557.8923526867693,-1940.4753270019451,5469.7865157590459,-5469.7865157590459,1940.4753270019451,10844.706685982605,0.0
648523.2936376977,3547751.2368613081,-32500.0,-149.40036037466578,-267.35484910986708,7728.1404343479899,-3.5367863391376893,4770.167356429065,2071.1678798864932,5564.2416314808297,-2259.1256061832837,4992.1394073661695,-4992.1394073661695,2259.1256061832837,10861.487862152131,0.0
653523.2936376977,3547751.2368613081,-32500.0,-78.457578024188891,-1154.4590586113247,7415.1554931074816,-469.82516739959203,4604.6565293377771,1996.6742938112018,5445.6594535211316,-2361.3751271670226,4248.9799435032965,-4248.9799435032965,2361.3751271670226,10638.575717808721,0.0
658523.2936376977,3547751.2368613081,-32500.0,155.24900762753339,-1953.2588817700423,6761.7870424525454,-895.63679916339811,4265.8640234658224,1856.4908065464099,5210.7915754673559,-2232.5006668648866,3304.1786208843941,-3304.1786208843941,2232.5006668648866,10185.587563747817,0.0
663523.2936376977,3547751.2368613081,-32500.0,517.30423331899431,-2582.8273442185655,5823.3400353925445,-1242.7688835294584,3779.532228004065,1660.3222459611793,4882.6414838094897,-1891.9809413115004,2248.9024050771418,-2248.9024050771418,1891.9809413115004,9533.9717832557708,0.0
668523.2936376977,3547751.2368613081,-32500.0,951.34221478492452,-2987.1656520498314,4688.5126193258429,-1483.8364158908473,3187.3197723073381,1423.5147208713836,4494.0006334413483,-1389.9383727894947,1185.2840955013239,-1185.2840955013239,1389.9383727894947,8733.6481387247568,0.0
673523.2936376977,3547751.2368613081,-32500.0,1391.44629591993,-3144.4394283120319,3462.9795929327283,-1606.5241905607897,2539.5742827159688,1164.5631475068492,4076.9161259989382,-796.07305532322141,207.81152345375904,-207.81152345375904,796.07305532322141,7846.419097395521,0.0
678523.2936376977,3547751.2368613081,-32500.0,1776.194581287227,-3067.5990398773147,2250.4716618292387,-1614.2187743707475,1886.8192102127557,902.16591942048206,3658.0654142492949,-184.76201074206986,-612.01301269008013,612.01301269008013,184.76201074206986,6937.6692896099894,0.0
683523.2936376977,3547751.2368613081,-32500.0,2059.9053642894546,-2797.1188138182906,1136.8282422384214,-1523.223507206762,1272.3239466564953,652.60852139256349,3260.2879933095746,378.88065098363296,-1233.7916127491042,1233.7916127491042,-378.88065098363296,6068.1288275666975,0.0
688523.2936376977,3547751.2368613081,-32500.0,2218.2745443929657,-2389.1939956625001,180.68781513135229,-1357.8598455180704,727.43051568886335,428.04683799401732,2901.6776291750243,848.25187525530032,-1648.2427634047588,1648.2427634047588,-848.25187525530032,5287.0114521828827,0.0
693523.2936376977,3547751.2368613081,-32500.0,2248.0894575528605,-1903.4957938959619,-588.40992219967393,-1145.1422767328713,270.11967573216845,235.88246623308251,2593.455271793463,1198.4539437734759,-1871.0255514129128,1871.0255514129128,-1198.4539437734759,4627.0851468408346,0.0
698523.2936376977,3547751.2368613081,-32500.0,2162.681728315064,-1393.6030696608229,-1166.1487875677155,-910.38760321938264,-93.753691380364373,79.074012589443413,2339.0755573982224,1424.3346613787037,-1933.6344710353667,1933.6344710353667,-1424.3346613787037,4101.9180080543601,0.0
703523.2936376977,3547751.2368613081,-32500.0,1985.5319256496696,-901.45540602883807,-1566.5009199553353,-674.43039504969454,-367.65576422734449,-42.962323210712221,2135.0503332497296,1535.4860618696919,-1874.3850622266671,1874.3850622266671,-1535.4860618696919,3705.9944627898167,0.0
708523.2936376977,3547751.2368613081,-32500.0,1744.0987473031871,-455.60693310002335,-1814.2468752108837,-452.46370002372549,-561.09604871060208,-133.23006923518503,1973.1505051818217,1550.3732712687693,-1731.3721285221095,1731.3721285221095,-1550.3732712687693,3418.6827635715817,0.0
713523.2936376977,3547751.2368613081,-32500.0,1465.0849755633337,-72.195664455886345,-1938.5979883638142,-254.12604393590641,-686.65505680043043,-196.08569992194532,1843.1806635699413,1491.1253899076785,-1538.0379695390227,1538.0379695390227,-1491.1253899076785,3211.5898999253541,0.0
718523.2936376977,3547751.2368613081,-32500.0,1171.5052925934688,242.63424422946855,-1968.6191984389475,-84.332290211966665,-757.70580583774597,-236.381987601578,1735.3739356917722,1379.7165328802064,-1321.1105176983745,1321.1105176983745,-1379.7165328802064,3056.4507657247477,0.0
723523.2936376977,3547751.2368613081,-32500.0,881.36062550829251,489.87933047759407,-1930.4624737388535,55.591894645792983,-786.90877671006604,-258.87004096812171,1641.8149682427202,1235.6381211543285,-1100.2678230448291,1100.2678230448291,-1235.6381211543285,2930.3994792337066,0.0
728523.2936376977,3547751.2368613081,-32500.0,607.47607046128769,675.0381680371321,-1846.0611922437247,166.77558250586532,-785.37849474352174,-267.84028747514611,1556.8724802601184,1074.8115058442904,-888.83396431495112,888.83396431495112,-1074.8115058442904,2817.6821209637765,0.0
583523.2936376977,3552751.2368613081,-32500.0,2224.504134492181,949.84806559011395,-534.87214253499735,974.33940079624699,257.42113791937953,318.0170205857728,1871.6710729872946,2173.1318722730093,-251.20864011489243,251.20864011489243,-2173.1318722730093,3426.5986069032283,0.0
588523.2936376977,3552751.2368613081,-32500.0,2426.6097368855326,1295.0310165535909,-264.49925543075216,1167.2275562666773,472.55194142321881,427.43775232179871,2128.1280807259782,2339.7802624000537,95.794561837447418,-95.794561837447418,-2339.7802624000537,3955.6616444540205,0.0
593523.2936376977,3552751.2368613081,-32500.0,2587.2723090616,1673.6513607009622,111.77758278668631,1370.3275555497958,746.93415924245448,560.86705820045324,2425.6588204914324,2454.3701755542561,541.61291301096844,-541.61291301096844,-2454.3701755542561,4574.7664687375527,0.0
598523.2936376977,3552751.2368613081,-32500.0,2686.9540810907438,2070.8720785316841,612.0313164507287,1574.6386806891335,1088.0308110951933,720.43848043050593,2766.5552685635384,2493.6584296501574,1093.1473896569692,-1093.1473896569692,-2493.6584296501574,5286.5440184304607,0.0
603523.2936376977,3552751.2368613081,-32500.0,2705.4674817021541,2463.5033934082953,1250.7103458508766,1767.2479826174306,1500.822339244525,907.08810745473886,3151.5854752365804,2432.8522585665723,1749.986216460348,-1749.986216460348,-2432.8522585665723,6088.3271722616473,0.0
608523.2936376977,3552751.2368613081,-32500.0,2624.6574751494027,2819.0657621467039,2034.7170374427103,1931.0951940854422,1985.8880489669575,1119.8425210790865,3579.7591935266005,2248.4273913962206,2500.7289104190249,-2500.7289104190249,-2248.4273913962206,6970.2784637513396,0.0
613523.2936376977,3552751.2368613081,-32500.0,2432.1820775006736,3096.0969499626449,2958.4994262149153,2045.352535302447,2537.1074915952763,1355.0087642007325,4047.1965009072674,1922.3174285743521,3319.2024655637965,-3319.2024655637965,-1922.3174285743521,7913.4594536296172,0.0
618523.2936376977,3552751.2368613081,-32500.0,2126.1342036204687,3246.4702706847756,3998.6700716802789,2086.739190322407,3139.2496944364634,1605.3765118692315,4542.5285443202538,1447.3274602214565,4161.4228095697381,-4161.4228095697381,-1447.3274602214565,8888.1680643269501,0.0
623523.2936376977,3552751.2368613081,-32500.0,1719.7830384428212,3220.4438614514402,5109.2169255171893,2032.0522081848196,3765.961158439301,1859.6239624356472,5042.4965768202392,833.12609537724438,4964.5766115225988,-4964.5766115225988,-833.12609537724438,9853.0559146671803,0.0
628523.2936376977,3552751.2368613081,-32500.0,1245.1381059958801,2974.7759738745299,6218.9750726659149,1862.0112661560543,4378.9178205201197,2102.1945351134545,5515.1922311655971,111.49918636603343,5649.5709348914925,-5649.5709348914925,-111.49918636603343,10755.679380250405,0.0
633523.2936376977,3552751.2368613081,-32500.0,753.54860989108727,2483.3981583469554,7233.4642544142062,1566.1398069074587,4929.07780396613,2313.9543809228821,5925.162084208735,-661.12086413783209,6128.5659389561861,-6128.5659389561861,661.12086413783209,11535.184440594347,0.0
638523.2936376977,3552751.2368613081,-32500.0,311.47789865456508,1748.8256157954052,8043.0679602820155,1147.8405823671685,5360.8863035297154,2473.8902585121887,6236.7276997171966,-1406.1590877168842,6318.0387143200169,-6318.0387143200169,1406.1590877168842,12127.642770695251,0.0
643523.2936376977,3552751.2368613081,-32500.0,-9.6261672356207235,811.00613767208631,8538.3829191415771,628.20425759030775,5619.7450033751011,2561.9070102390615,6417.8528271314872,-2032.2147358979564,6156.1299844085343,-6156.1299844085343,2032.2147358979564,12474.031810097871,0.0
648523.2936376977,3552751.2368613081,-32500.0,-148.5346872821957,-250.58382977577045,8631.1758474341004,46.735521859546154,5661.9807189915609,2562.4143896928836,6445.2346642850289,-2451.1570124505201,5620.5551124292579,-5620.5551124292579,2451.1570124505201,12529.972872361102,0.0
653523.2936376977,3552751.2368613081,-32500.0,-70.975323800998169,-1325.0692184581326,8276.234515829492,-542.48396461027301,5465.1479284695597,2467.9339583868264,6309.7773569672727,-2598.0030930352282,4741.2209997830323,-4741.2209997830323,2598.0030930352282,12275.299646226769,0.0
658523.2936376977,3552751.2368613081,-32500.0,217.88799285902499,-2288.9880841523122,7486.9675107132343,-1079.3702469787072,5035.4239673507354,2281.6192298587575,6021.1757271944834,-2448.6103931465523,3601.5008022123266,-3601.5008022123266,2448.6103931465523,11720.796923481725,0.0
663523.2936376977,3552751.2368613081,-32500.0,670.99856295655309,-3031.6085711948335,6337.9209774925994,-1509.3402460454261,4408.9902081487971,2017.6504207035753,5609.8133639522212,-2028.2434337442121,2325.1337424760659,-2325.1337424760659,2028.2434337442121,10909.627343295495,0.0
668523.2936376977,3552751.2368613081,-32500.0,1209.4142529692087,-3478.6895134642577,4951.4617853710597,-1794.254805414439,3646.0801787182713,1699.072039687921,5121.6261942468636,-1406.6445236187581,1051.3613118586461,-1051.3613118586461,1406.6445236187581,9912.3133976272584,0.0
673523.2936376977,3552751.2368613081,-32500.0,1741.8169601668601,-3606.2981521912729,3472.2601848030845,-1919.1176461398707,2819.2109506483398,1353.5907508302812,4603.5282893491449,-680.72250948766691,-93.708591466519465,93.708591466519465,680.72250948766691,8816.235285898134,0.0
678523.2936376977,3552751.2368613081,-32500.0,2186.2595030573566,-3440.3466729362253,2038.2916259633082,-1892.5056015503167,1999.4435576319213,1008.6363434223872,4093.6025189449651,48.668517948421425,-1019.8397674932739,1019.8397674932739,-48.668517948421425,7712.3571018157481,0.0
683523.2936376977,3552751.2368613081,-32500.0,2486.4481346188054,-3043.6537687671689,757.75727132999293,-1741.3128691373763,1244.9634675873724,687.16162493084789,3621.8475922549824,697.47687759852579,-1683.0266737749275,1683.0266737749275,-697.47687759852579,6682.3044168138949,0.0
688523.2936376977,3552751.2368613081,-32500.0,2618.2626585868175,-2496.8583508264487,-302.44105785707291,-1502.4089249747617,594.74312266001573,405.16970452628391,3209.6277698947024,1210.712116057502,-2082.8106283318593,2082.8106283318593,-1210.712116057502,5787.941132947195,0.0
693523.2936376977,3552751.2368613081,-32500.0,2586.9064145061452,-1880.2375430725915,-1116.4536897318997,-1214.2739277927958,67.675851803876341,171.1716159412851,2867.3974189773012,1564.7855796784415,-2250.7286546206119,2250.7286546206119,-1564.7855796784415,5064.3181215517807,0.0
698523.2936376977,3552751.2368613081,-32500.0,2418.264731341374,-1261.0523156439515,-1691.1731150446435,-910.77223647979474,-334.26535811433149,-12.864451418747935,2594.4147032000224,1762.3495165420964,-2235.7523011662033,2235.7523011662033,-1762.3495165420964,4516.8319938863942,0.0
703523.2936376977,3552751.2368613081,-32500.0,2148.7112685155575,-687.67080808610069,-2054.7067961288849,-617.82601614405803,-620.96066161808005,-149.7777397827293,2381.2203790141157,1823.5926569408889,-2091.4024208697688,2091.4024208697688,-1823.5926569408889,4124.4201699106425,0.0
708523.2936376977,3552751.2368613081,-32500.0,1816.4256627979773,-189.24568116797855,-2245.457226483536,-352.64046279068475,-808.97119914818836,-245.33474793433146,2213.8603568042972,1777.4261906038641,-1866.8562056818323,1866.8562056818323,-1777.4261906038641,3849.5363536427408,0.0
713523.2936376977,3552751.2368613081,-32500.0,1455.5782514299124,221.25311334593809,-2303.8209016958458,-124.61879757545627,-917.32629220475781,-306.61588273789715,2078.0798902469273,1654.5471887364531,-1602.2849726271545,1602.2849726271545,-1654.5471887364531,3651.2367708925872,0.0
718523.2936376977,3552751.2368613081,-32500.0,1093.3945108375185,542.69237320121351,-2266.9649702766669,62.91772063854954,-964.63430111304444,-340.84278125971343,1962.0743137992959,1482.9872995321809,-1327.5009043538055,1327.5009043538055,-1482.9872995321809,3495.2079378550325,0.0
723523.2936376977,3552751.2368613081,-32500.0,749.42044336164679,781.49992675943008,-2166.230091500031,210.85853874008387,-967.42709135685141,-354.65064399263645,1857.4771322885849,1285.8834375066094,-1062.6691200624578,1062.6691200624578,-1285.8834375066094,3357.7167031970334,0.0
728523.2936376977,3552751.2368613081,-32500.0,436.15004587272091,948.15858539438454,-2026.3845400306473,322.65598008200936,-939.44573765342761,-353.7228603877395,1759.1161495511933,1080.8538285042953,-820.01213520149781,820.01213520149781,-1080.8538285042953,3224.8869872113496,0.0
733523.2936376977,3552751.2368613081,-32500.0,160.30396060067429,1054.6727820385049,-1865.9820394859084,403.05210499621296,-891.54370696736191,-342.67974579582204,1664.2407116033605,880.34310935579265,-605.77176404629745,605.77176404629745,-880.34310935579265,3090.0722150700321,0.0
578523.2936376977,3557751.2368613081,-32500.0,2056.6421768404871,422.80018027984926,-1012.0762453674038,771.08552330513919,-42.673673673786411,202.92279768546967,1733.6270285996802,2075.741609552761,-860.67646685822501,860.67646685822501,-2075.741609552761,3080.6212426062571,0.0
583523.2936376977,3557751.2368613081,-32500.0,2345.3784259683989,741.91726713738751,-873.93704627983993,974.4584519292863,116.83831623365585,298.26270440526503,1961.674436030095,2343.3133506780077,-635.53210542787508,635.53210542787508,-2343.3133506780077,3536.2902405313221,0.0
588523.2936376977,3557751.2368613081,-32500.0,2618.7306351085535,1117.5270452184677,-645.35303390867625,1202.5894344719297,334.3767382353987,419.65156378573732,2233.4614678763987,2589.0076504828867,-312.98073067287714,312.98073067287714,-2589.0076504828867,4090.5868063159551,0.0
593523.2936376977,3557751.2368613081,-32500.0,2856.6766849229057,1544.6016229776073,-301.94684769474549,1450.6122495672043,622.00422147373229,571.38026145752667,2554.8493728248068,2789.8477685565422,124.17285796951319,-124.17285796951319,-2789.8477685565422,4755.2044407403582,0.0
598523.2936376977,3557751.2368613081,-32500.0,3035.0103447056613,2010.3248859716687,181.64070153410321,1709.5242660858069,991.45932338820523,757.26553074378899,2930.7018597452065,2917.4944420915499,689.91439151730901,-689.91439151730901,-2917.4944420915499,5538.1589640721577,0.0
603523.2936376977,3557751.2368613081,-32500.0,3126.7869605516153,2491.5823512149736,828.74323430478967,1965.1325489658032,1452.4546030500626,979.92863911322115,3364.3249073310199,2939.5042861718784,1391.2319883294895,-1391.2319883294895,-2939.5042861718784,6441.6216971183303,0.0
608523.2936376977,3557751.2368613081,-32500.0,3105.2041385812281,2952.841572996083,1656.0146679437655,2197.2788868060416,2010.2117418052487,1239.8154885989127,3857.0405670985688,2822.1869530902077,2223.1970005544154,-2223.1970005544154,-2822.1869530902077,7459.3096646148206,0.0
613523.2936376977,3557751.2368613081,-32500.0,2948.1963792627944,3345.2636881615158,2667.0368247808356,2379.7361973338984,2662.2389777157296,1533.9857774353086,4407.0501409524149,2535.4930478818028,3163.3084033323544,-3163.3084033323544,-2535.4930478818028,8573.550790585572,0.0
618523.2936376977,3557751.2368613081,-32500.0,2644.6892310847043,3608.1984590436432,3844.5718443321543,2481.2909279526921,3394.5868559981359,1854.7865802426697,5004.3868325875728,2060.0673577985253,4166.0604268670668,-4166.0604268670668,-2060.0673577985253,9752.3749454164172,0.0
623523.2936376977,3557751.2368613081,-32500.0,2201.8295656453543,3674.3610831190767,5142.6251531409143,2468.5673300832877,4178.1842812849227,2188.6533896692531,5623.6433378577904,1395.9683630735667,5159.4165942146719,-5159.4165942146719,-1395.9683630735667,10947.288911014908,0.0
628523.2936376977,3557751.2368613081,-32500.0,1651.5965808927099,3479.7163082731909,6480.5148276296368,2311.0007373552353,4966.3282295720755,2515.4368880466777,6225.2488513751277,571.552018604973,6045.5598998360965,-6045.5598998360965,-571.552018604973,12092.723246743884,0.0
633523.2936376977,3557751.2368613081,-32500.0,1054.1761381898143,2978.0983928698574,7742.1670925825365,1987.8984866941087,5694.8565927740947,2808.7900145203294,6762.0434423977249,-350.23326481771346,6708.5543317958045,-6708.5543317958045,350.23326481771346,13108.381183713422,0.0
638523.2936376977,3557751.2368613081,-32500.0,494.84150159054025,2158.6587146022966,8784.2757110238563,1496.6479485152493,6286.7009659827845,3038.1776354817703,7184.1889051159806,-1271.928904812557,7030.7809621836095,-7030.7809621836095,1271.928904812557,13905.667022439124,0.0
643523.2936376977,3557751.2368613081,-32500.0,71.637982376512952,1061.5644514741159,9455.8772168267242,859.94097496159077,6661.975031273586,3172.8494186413413,7444.7188094256744,-2071.7626516854821,6917.5849071966095,-6917.5849071966095,2071.7626516854821,14398.747688406267,0.0
648523.2936376977,3557751.2368613081,-32500.0,-126.22267718356329,-214.97842161934949,9628.4840764245364,128.84837474694879,6753.1312425763435,3187.5374680433738,7507.2804528211991,-2625.4758582091554,6325.421283941022,-6325.421283941022,2625.4758582091554,14519.412842645954,0.0
653523.2936376977,3557751.2368613081,-32500.0,-44.650057663771364,-1523.311152024736,9230.3624652917861,-621.40546038840762,6522.0870124191606,3068.7291136595231,7354.9409689591175,-2836.449979217592,5284.2495190186019,-5284.2495190186019,2836.449979217592,14232.887205048368,0.0
658523.2936376977,3557751.2368613081,-32500.0,313.85854923754869,-2693.1135901810671,8273.1880253815361,-1304.1633252849967,5973.6775473749331,2819.5043530834246,6997.7755508570826,-2664.8354476917038,3903.1002766118645,-3903.1002766118645,2664.8354476917038,13549.963276214476,0.0
663523.2936376977,3557751.2368613081,-32500.0,884.36642616654456,-3570.6140801677011,6858.3793469996863,-1839.9693928623124,5159.2876219210193,2460.7687539659282,6476.3742413009404,-2143.2063552429158,2351.9263493303147,-2351.9263493303147,2143.2063552429158,12530.582186326224,0.0
668523.2936376977,3557751.2368613081,-32500.0,1554.6988702564879,-4056.3719514876466,5157.0372230455841,-2174.8451861051885,4167.554942848652,2027.7802576821666,5856.0525769916994,-1369.9027769380587,823.04321417264464,-823.04321417264464,1369.9027769380587,11276.271811338978,0.0
673523.2936376977,3557751.2368613081,-32500.0,2196.8537291680295,-4126.3648533405121,3369.4154233469926,-2291.1418216183938,3104.6797877128479,1562.8454088434537,5206.6074599721233,-481.36795148085895,-513.89606340073362,513.89606340073362,481.36795148085895,9912.9230980955454,0.0
678523.2936376977,3557751.2368613081,-32500.0,2701.3255864415373,-3828.7775076864114,1679.683901562971,-2207.1828780503383,2071.6884094421448,1106.782486018308,4583.4405098726902,384.78064111773062,-1546.0325195363193,1546.0325195363193,-384.78064111773062,8568.9279790813671,0.0
683523.2936376977,3557751.2368613081,-32500.0,3000.6365777868091,-3260.7728694259363,222.51042988041482,-1967.2401656200614,1146.6908193409947,692.05577319377505,4025.7642975111276,1120.8694151123873,-2229.7377153162679,2229.7377153162679,-1120.8694151123873,7354.3675294578552,0.0
688523.2936376977,3557751.2368613081,-32500.0,3075.6618968350567,-2537.4763905490654,-930.02889319264682,-1627.1714361773554,376.68232155961823,339.31715883279787,3557.1424539869122,1664.7637557409557,-2581.9195849190187,2581.9195849190187,-1664.7637557409557,6344.8624079007204,0.0
693523.2936376977,3557751.2368613081,-32500.0,2947.2690505791597,-1765.3287946733435,-1762.9762854428343,-1241.3439420750806,-221.38098573476239,57.39793704911439,3183.938721196675,1999.2415561294722,-2659.0869702796354,2659.0869702796354,-1999.2415561294722,5571.781983723472,0.0
698523.2936376977,3557751.2368613081,-32500.0,2660.7024568877323,-1026.2629560742398,-2302.3780489417773,-854.13829615694317,-653.65239295097103,-154.37646427370757,2897.0341764081841,2140.872426713127,-2534.5734440525825,2534.5734440525825,-2140.872426713127,5021.4999878594463,0.0
703523.2936376977,3557751.2368613081,-32500.0,2269.9157174507668,-372.90905165241156,-2596.9083166011237,-496.53674522509755,-940.58323667723971,-302.96162596913217,2677.6860369765313,2125.5740117480286,-2280.8328682347951,2280.8328682347951,-2125.5740117480286,4647.0262412567436,0.0
708523.2936376977,3557751.2368613081,-32500.0,1826.0120082445737,168.56177384617976,-2702.6534804231314,-186.53292358361534,-1109.0493119576686,-398.53493710700445,2504.7662335199029,1995.9707608174751,-1959.0830492295133,1959.0830492295133,-1995.9707608174751,4388.9389582902486,0.0
713523.2936376977,3557751.2368613081,-32500.0,1370.8155735676444,591.99530567458987,-2673.0411029750685,68.38918377626301,-1186.6770147622667,-452.15114410872366,2360.1578506637197,1792.7523041067986,-1615.3708305337589,1615.3708305337589,-1792.7523041067986,4194.5419202905059,0.0
718523.2936376977,3557751.2368613081,-32500.0,934.69368530982979,904.24370409336427,-2553.5829051203777,268.14735818760886,-1198.4736317783747,-474.23461402267003,2231.0083227721275,1550.0657270053332,-1280.8814512667479,1280.8814512667479,-1550.0657270053332,4026.9240251509264,0.0
723523.2936376977,3557751.2368613081,-32500.0,537.11127076240984,1119.2281671599442,-2380.1180197597018,417.19926586738427,-1165.2874052225573,-473.78878904905184,2109.5577893579461,1293.9515561483788,-974.38732554761395,974.38732554761395,-1293.9515561483788,3864.8393709517677,0.0
728523.2936376977,3557751.2368613081,-32500.0,188.53710672567487,1253.6287008335948,-2179.1568829895682,522.30545710299612,-1103.4805919824721,-458.11839358085621,1991.8864675623174,1042.6472830080938,-705.34783674480639,705.34783674480639,-1042.6472830080938,3698.5440114164057,0.0
733523.2936376977,3557751.2368613081,-32500.0,-107.26071121633042,1324.129634286895,-1969.2381381427858,590.97859098463141,-1025.2825958520218,-432.8670259203908,1876.5383074472479,807.80216719111922,-476.82176832695359,476.82176832695359,-807.80216719111922,3525.3433814003315,0.0
738523.2936376977,3557751.2368613081,-32500.0,-351.07362015518493,1345.8876961909934,-1762.5951191685374,630.5213145682045,-939.44384284816931,-402.21683013108748,1763.4294213624651,595.97014349754249,-287.83418941772072,287.83418941772072,-595.97014349754249,3346.2509600953954,0.0
578523.2936376977,3562751.2368613081,-32500.0,2053.4230995495313,134.02112612674458,-1316.8007984949638,704.92689801897109,-207.98042096556679,158.55168063394629,1825.1975230836144,2115.5857061042648,-1245.8688891064899,1245.8688891064899,-2115.5857061042648,3199.5662558125646,0.0
583523.2936376977,3562751.2368613081,-32500.0,2410.0892544668559,456.34775398146883,-1238.2842927842937,932.72748463573669,-61.797610605410597,258.60642220275361,2058.1786801565295,2458.3554345635102,-1073.4100506984742,1073.4100506984742,-2458.3554345635102,3651.8835138484237,0.0
588523.2936376977,3562751.2368613081,-32500.0,2765.1059897791015,851.23627818043065,-1070.1318524310207,1196.2195961041509,148.83908516969382,389.91159983489501,2340.1696500831126,2794.9346942742877,-797.10385100329756,797.10385100329756,-2794.9346942742877,4215.9524522257589,0.0
593523.2936376977,3562751.2368613081,-32500.0,3096.5230979938065,1318.3260677815288,-782.40225728953169,1492.2971019126967,440.25078421533857,558.77600862661359,2680.1774859996199,3100.5747291357534,-392.75827239075488,392.75827239075488,-3100.5747291357534,4911.0849834149085,0.0
598523.2936376977,3562751.2368613081,-32500.0,3375.8212105006123,1848.9382507026294,-341.62425165865892,1813.0150306630433,829.6492050956706,771.39576798044834,3086.7456011239706,3342.4812005909025,162.48801525966314,-162.48801525966314,-3342.4812005909025,5753.4654762549899,0.0
603523.2936376977,3562751.2368613081,-32500.0,3568.8040944203235,2422.3897327926356,286.32625020770803,2143.8820032380809,1333.2967535017874,1032.9932213444295,3567.165731449857,3480.3017158242674,885.86521571219532,-885.86521571219532,-3480.3017158242674,6753.2881958723401,0.0
608523.2936376977,3562751.2368613081,-32500.0,3638.2911297902851,3002.2533094920727,1131.1032883501216,2462.2604103658773,1963.5360987391402,1346.5424821625584,4126.8073916230423,3468.5316036379018,1782.8007321643117,-1782.8007321643117,-3468.5316036379018,7911.2220429456183,0.0
613523.2936376977,3562751.2368613081,-32500.0,3549.2503940193633,3533.5588779013315,2210.0539876470166,2736.3707215640034,2724.5166414410364,1711.055098197266,4767.8919290526246,3261.678269199886,2839.0427578415938,-2839.0427578415938,-3261.678269199886,9214.1720421749869,0.0
618523.2936376977,3562751.2368613081,-32500.0,3276.7254379648753,3942.5137477551416,3517.6937583463496,2925.64970466868,3606.7036657143835,2119.5053385280535,5483.9683432003967,2822.82388826955,4011.9782161390408,-4011.9782161390408,-2822.82388826955,10630.594245265524,0.0
623523.2936376977,3562751.2368613081,-32500.0,2816.1714298034371,4140.8262500523806,5013.5253364479167,2983.4202466441507,4580.7543688791757,2556.6575915340359,6249.2193201671435,2135.5449222458019,5223.152556836927,-5223.152556836927,-2135.5449222458019,12106.09773367508,0.0
628523.2936376977,3562751.2368613081,-32500.0,2194.5108552110419,4036.7853949947657,6610.812430544016,2862.8342048462996,5592.1134465269579,2997.3255931170879,7016.0400793272147,1217.8001024375685,6355.3283486738128,-6355.3283486738128,-1217.8001024375685,13560.690452240937,0.0
633523.2936376977,3562751.2368613081,-32500.0,1478.4227252362844,3554.3274476174461,8170.8622074080213,2526.5996801401971,6558.6313128401925,3405.9092421209316,7722.4856534242199,134.36684105634959,7258.4867484768019,-7258.4867484768019,-134.36684105634959,14889.665757409328,0.0
638523.2936376977,3562751.2368613081,-32500.0,774.62608434821948,2658.7818480311253,9508.9502608826588,1959.8034319537162,7374.2885447368772,3738.2999221938749,8299.0790774186007,-997.88980270329694,7769.0268448515144,-7769.0268448515144,997.88980270329694,15970.483374955553,0.0
643523.2936376977,3562751.2368613081,-32500.0,216.51106086839152,1383.5828546235875,10417.707678674831,1183.0550028971079,7921.9655557265069,3947.1631570451591,8676.5496000237927,-2018.9236061222809,7743.6527391983882,-7743.6527391983882,2018.9236061222809,16677.512965575494,0.0
648523.2936376977,3562751.2368613081,-32500.0,-65.599328781019025,-152.9302221371797,10709.524531132029,260.71038115195466,8096.0788100292439,3990.8324116631061,8797.5747962898276,-2753.6592297172169,7102.9937743983337,-7102.9937743983337,2753.6592297172169,16904.523867605549,0.0
653523.2936376977,3562751.2368613081,-32500.0,14.38440152884616,-1753.9287784590695,10270.258330276569,-702.289532044407,7831.2186330746035,3844.3477172712546,8631.2547255147074,-3057.1769761478718,5871.0159333423544,-5871.0159333423544,3057.1769761478718,16591.092013533646,0.0
658523.2936376977,3562751.2368613081,-32500.0,460.90799459580802,-3181.6639760881185,9105.241784636215,-1578.967917714584,7127.1070684234946,3509.0332006450622,8186.2688786043236,-2863.1377200034149,4190.1298230782641,-4190.1298230782641,2863.1377200034149,15744.900880936182,0.0
663523.2936376977,3562751.2368613081,-32500.0,1183.5663888821996,-4219.1396660087585,7353.7612609270591,-2251.1179583507528,6057.485469674356,3015.9487653504966,7517.5076722657332,-2212.9175322721831,2296.6762033565674,-2296.6762033565674,2212.9175322721831,14450.196503395073,0.0
668523.2936376977,3562751.2368613081,-32500.0,2020.3918953243365,-4731.7697978757305,5258.5032863978649,-2640.8745342444331,4755.4577574703262,2420.3009866619268,6719.3478027579304,-1247.1329514916713,459.95735525865643,-459.95735525865643,1247.1329514916713,12856.324089904674,0.0
673523.2936376977,3562751.2368613081,-32500.0,2789.761166685033,-4700.2580925879338,3099.6626999996215,-2728.8867045978568,3379.4945713978886,1788.2498555107895,5897.2224678236016,-160.40145824472251,-1090.2410683578646,1090.2410683578646,160.40145824472251,11148.548371086565,0.0
678523.2936376977,3562751.2368613081,-32500.0,3345.687879482065,-4210.927709404119,1123.1188262378566,-2551.6758101441228,2074.7376033873938,1181.5776472352086,5133.3421213295906,858.67025785108319,-2215.434292453574,2215.434292453574,-858.67025785108319,9510.8251521194925,0.0
683523.2936376977,3562751.2368613081,-32500.0,3611.4322301833472,-3413.5939626706836,-507.56391971740436,-2182.193892059332,945.23405664781228,646.24896244509421,4478.3347304579529,1674.342309481161,-2881.3306009255052,2881.3306009255052,-1674.342309481161,8091.2944990104725,0.0
688523.2936376977,3562751.2368613081,-32500.0,3582.4517626540483,-2471.097976029876,-1723.084911690572,-1704.8461316839362,44.446494697877824,207.90887802578476,3954.3994960018904,2221.904372106178,-3136.4659232038011,3136.4659232038011,-2221.904372106178,6976.8833401247102,0.0
693523.2936376977,3562751.2368613081,-32500.0,3306.8875284834498,-1521.2827255899895,-2531.6668589226688,-1195.3425032920854,-618.59938687927718,-126.40436026076161,3557.1296573503923,2499.5844211209483,-3075.2496440958562,3075.2496440958562,-2499.5844211209483,6181.2765029684797,0.0
698523.2936376977,3562751.2368613081,-32500.0,2858.5467103889173,-659.28267503776146,-2989.8366817259403,-709.95077970932721,-1065.272794770573,-363.12035400511581,3262.5077672286443,2546.878759169053,-2803.4604827962316,2803.4604827962316,-2546.878759169053,5653.4637584511047,0.0
703523.2936376977,3562751.2368613081,-32500.0,2313.9846774412308,63.110550722161527,-3174.5214895019512,-283.32043605582487,-1332.6057695004322,-516.33390917514407,3038.8438695768509,2421.7490736728059,-2415.4292043079231,2415.4292043079231,-2421.7490736728059,5308.5268081904815,0.0
708523.2936376977,3562751.2368613081,-32500.0,1738.4203701700649,628.6159760566602,-3163.2272262520255,68.409849801901501,-1461.8868290046589,-603.01623008099011,2857.4238115871931,2183.6051732694814,-1983.6939492167148,1983.6939492167148,-2183.6051732694814,5063.8355611011939,0.0
713523.2936376977,3562751.2368613081,-32500.0,1179.9987067765524,1042.9096365238354,-3023.1470792481646,342.45816222940368,-1491.6008158420459,-639.80798389486642,2697.6953852952238,1883.6283206104556,-1557.6055689481352,1557.6055689481352,-1883.6283206104556,4859.9024019698236,0.0
718523.2936376977,3562751.2368613081,-32500.0,669.71474783215183,1324.3206275651714,-2807.1097571649234,544.3125052592568,-1454.0455530622439,-641.27458893479411,2547.5203582293184,1561.0352007080453,-1166.6878219904054,1166.6878219904054,-1561.0352007080453,4662.8286396641806,0.0
723523.2936376977,3562751.2368613081,-32500.0,224.2285107216743,1496.2791562312175,-2553.6784083747034,683.68488997897805,-1374.4253655070045,-619.2315711604457,2401.0957793827884,1243.0675418284732,-825.61279845704337,825.61279845704337,-1243.0675418284732,4457.7014756452763,0.0
728523.2936376977,3562751.2368613081,-32500.0,-150.4106806564925,1582.5425739029904,-2289.2342533917526,771.71949464925228,-1271.3248283826715,-582.72953950401848,2256.5593984773982,946.80859380798722,-539.00809548711698,539.00809548711698,-946.80859380798722,4240.9419345777942,0.0
733523.2936376977,3562751.2368613081,-32500.0,-455.24154725626983,1604.6087274529002,-2030.6634047952982,819.29258875680557,-1157.7863446925314,-538.37791713968079,2114.1280387986571,681.57197244058523,-305.34335742156156,305.34335742156156,-681.57197244058523,4014.6390913053888,0.0
738523.2936376977,3562751.2368613081,-32500.0,-695.54089712855114,1580.6148408988181,-1787.916011572139,836.12032231054002,-1042.525254179699,-490.79499238263116,1974.8953549850062,451.18266538475609,-119.74721338336181,119.74721338336181,-451.18266538475609,3783.0889138444413,0.0
743523.2936376977,3562751.2368613081,-32500.0,-878.73982906537128,1525.132231994683,-1566.1349697524784,830.4004391873915,-931.04601430929984,-443.06264302894328,1840.1502477284225,255.86233039334064,24.114281391887289,-24.114281391887289,-255.86233039334064,3550.9335048915423,0.0
573523.2936376977,3567751.2368613081,-32500.0,1570.1349796135059,-453.65308459545338,-1567.0407040456562,385.0188994835886,-473.37494800141155,20.294941418636064,1743.1839356991904,1679.1803628935586,-1674.1897964565715,1674.1897964565715,-1679.1803628935586,3019.2927117623858,0.0
578523.2936376977,3567751.2368613081,-32500.0,1964.2495679992228,-222.93189249183362,-1617.648631471006,586.85678240541415,-402.35353305923098,92.390854931146933,1935.6510445188178,2067.5674314228418,-1652.1468584180725,1652.1468584180725,-2067.5674314228418,3361.1019072600507,0.0
583523.2936376977,3567751.2368613081,-32500.0,2390.3564374170064,85.653673309987937,-1612.7588485985925,833.947827466739,-279.9837478952112,193.1558780610757,2169.0256970367536,2487.1373338828762,-1552.7509541711424,1552.7509541711424,-2487.1373338828762,3794.8075622996121,0.0
588523.2936376977,3567751.2368613081,-32500.0,2834.2127312241955,482.50394761191257,-1524.7281373319558,1129.4457278340622,-88.581550865993975,330.41294575014678,2454.5636654655682,2922.5000534824662,-1348.3458347603705,1348.3458347603705,-2922.5000534824662,4347.9163812033648,0.0
593523.2936376977,3567751.2368613081,-32500.0,3273.5388847445192,973.73624732387771,-1318.6633736729841,1473.2840316813017,192.95082902352152,513.01397185509245,2805.0039503139897,3349.1117170810667,-1007.3723093758008,1007.3723093758008,-3349.1117170810667,5049.7331668960951,0.0
598523.2936376977,3567751.2368613081,-32500.0,3676.7736208125561,1557.39779603281,-952.85800946216261,1860.1455166429207,588.4432968884887,750.35502846658937,3233.7946720454338,3731.4554400260422,-496.68000147177759,496.68000147177759,-3731.4554400260422,5928.3099604020563,0.0
603523.2936376977,3567751.2368613081,-32500.0,4002.9130396823371,2218.5096199557747,-381.03133586226261,2276.9569489311011,1122.7238495734721,1051.4449040453142,3754.0946923105039,4022.2058247377399,214.04745443938259,-214.04745443938259,-4022.2058247377399,7006.5355548440511,0.0
608523.2936376977,3567751.2368613081,-32500.0,4203.3815248323699,2923.3102241782121,442.61935193868925,2700.1479641554401,1818.3443142529443,1423.3703746724445,4377.8139870323357,4163.4375007661592,1145.1216689228161,-1145.1216689228161,-4163.4375007661592,8297.3240603955164,0.0
613523.2936376977,3567751.2368613081,-32500.0,4227.0670977096943,3613.720093805272,1554.5135579193441,3093.2211397902479,2690.2907223170528,1869.0273708470147,5114.2463881780322,4091.2402559374273,2296.6385423231955,-2296.6385423231955,-4091.2402559374273,9797.6971109196274,0.0
618523.2936376977,3567751.2368613081,-32500.0,4029.5492583921109,4203.9797161174565,2968.2784451663842,3405.6105991213203,3738.4214828126578,2384.0867838946383,5964.1009330508296,3745.1516757842683,3635.7688962028042,-3635.7688962028042,-3745.1516757842683,11481.717369981317,0.0
623523.2936376977,3567751.2368613081,-32500.0,3586.8430758443719,4582.4741545244688,4657.3209313653197,3574.2886311803391,4937.9580898040213,2953.3822294484598,6904.7407581238458,3083.2671741957911,5083.6114669986928,-5083.6114669986928,-3083.2671741957911,13292.833308556756,0.0
628523.2936376977,3567751.2368613081,-32500.0,2912.366133340438,4622.518946603288,6536.0104664346682,3529.9424328597224,6229.4476941761986,3547.2951495713396,7881.5548599183612,2102.3529430194485,6505.8426351354228,-6505.8426351354228,-2102.3529430194485,15137.230819185426,0.0
633523.2936376977,3567751.2368613081,-32500.0,2073.0853969644536,4205.529257791477,8445.3291925313861,3209.3984383001471,7511.3067437548125,4119.3084915620548,8814.8254900706106,859.39719762895311,7713.8315137067175,-7713.8315137067175,-859.39719762895311,16881.137951635563,0.0
638523.2936376977,3567751.2368613081,-32500.0,1197.2385469609849,3257.2429254751323,10152.43656461476,2574.6832156366272,8640.0330704843345,4606.6167038559697,9608.3728585807312,-513.11051766355331,8484.2900643094963,-8484.2900643094963,513.11051766355331,18356.311291393758,0.0
643523.2936376977,3567751.2368613081,-32500.0,463.24114824045256,1791.2144118974174,11375.481137106246,1635.933533983969,9444.3853710987532,4936.1836884465838,10159.72850997344,-1809.9688616974358,8603.4714621102194,-8603.4714621102194,1809.9688616974358,19378.281708963026,0.0
648523.2936376977,3567751.2368613081,-32500.0,61.111049841050992,-56.176051077229062,11841.055971136855,470.22308062692758,9757.9618089057749,5038.0496937473636,10377.636706472198,-2786.2495159533673,7933.1206465681889,-7933.1206465681889,2786.2495159533673,19779.666579269826,0.0
653523.2936376977,3567751.2368613081,-32500.0,128.8361959825352,-2023.5169365242202,11367.539012412904,-776.3712958739336,9467.0105495972875,4864.8587926348828,10206.159386820549,-3223.370146406693,6478.9173064772986,-6478.9173064772986,3223.370146406693,19454.47471198588,0.0
658523.2936376977,3567751.2368613081,-32500.0,686.5333067968686,-3775.2281758583158,9944.9226762300787,-1914.6350481043876,8557.553578798168,4411.4588591443407,9648.4197206485787,-3009.9121205992565,4425.7894440322252,-4425.7894440322252,3009.9121205992565,18399.883916874507,0.0
663523.2936376977,3567751.2368613081,-32500.0,1607.3227198999393,-4999.870432074048,7766.3322733151008,-2764.1675697200517,7136.5100968661618,3724.252645683338,8779.651208011479,-2196.7912597588788,2106.5582564166384,-2106.5582564166384,2196.7912597588788,16735.707589283633,0.0
668523.2936376977,3567751.2368613081,-32500.0,2653.164858237606,-5513.5538999158553,5181.0527125501358,-3210.0799546620046,5408.4764552975157,2892.3002824637269,7738.8631599089731,-987.97245479625531,-96.364983610817774,96.364983610817774,987.97245479625531,14687.049318736099,0.0
673523.2936376977,3567751.2368613081,-32500.0,3563.180175981106,-5312.3193851673786,2584.7683222957412,-3234.6209642030894,3614.8772644747633,2022.2773594565713,6687.5892356791701,335.35783001059099,-1870.5447806308175,1870.5447806308175,-335.35783001059099,12533.019455512374,0.0
678523.2936376977,3567751.2368613081,-32500.0,4144.616055984804,-4547.715114009995,303.74160232286448,-2908.4354740745794,1966.086671188559,1209.6082311406328,5749.9315796884475,1514.5202690089923,-3052.5283213880571,3052.5283213880571,-1514.5202690089923,10540.977673630408,0.0
683523.2936376977,3567751.2368613081,-32500.0,4319.3171832825719,-3449.5779276204612,-1472.421139921257,-2352.0373134673123,598.0412643597457,519.06195559062076,4989.3756872793656,2383.6373557185625,-3635.6389591673724,3635.6389591673724,-2383.6373557185625,8907.527773154914,0.0
688523.2936376977,3567751.2368613081,-32500.0,4115.2347486162153,-2244.4172688116055,-2693.9745460918448,-1692.0844295986124,-435.53285786497742,-19.992980196959937,4417.7491581793111,2886.4660443212615,-3722.8800004046898,3722.8800004046898,-2886.4660443212615,7718.7143289957494,0.0
693523.2936376977,3567751.2368613081,-32500.0,3625.3973249421683,-1103.9581462790425,-3411.8434064908802,-1031.3711682896333,-1145.103476682081,-407.183890194767,4007.5872039402984,3051.847027892135,-3463.6188479497205,3463.6188479497205,-3051.847027892135,6941.7115852155139,0.0
698523.2936376977,3567751.2368613081,-32500.0,2963.3791990983523,-130.07572977590667,-3727.7562262440729,-437.37696076586622,-1578.4606961375878,-660.32329166689919,3711.1676594188129,2954.4246163571024,-3003.9072876391774,3003.9072876391774,-2954.4246163571024,6461.8184999734904,0.0
703523.2936376977,3567751.2368613081,-32500.0,2232.2362439041917,635.8454096565024,-3754.5959764062427,55.611217079642181,-1797.2842211200502,-805.35807908953882,3481.3371795943458,2680.838835649,-2460.2475750803137,2460.2475750803137,-2680.838835649,6147.8808895342363,0.0
708523.2936376977,3567751.2368613081,-32500.0,1509.9599844318316,1194.0842684432564,-3593.2043553964195,438.12286010331968,-1861.8285847002796,-869.30260726618769,3283.616591412881,2308.9533662096305,-1912.6801196467572,1912.6801196467572,-2308.9533662096305,5900.3383314005932,0.0
713523.2936376977,3567751.2368613081,-32500.0,847.08813424503376,1568.2497620697927,-3322.9965231079609,716.22874059890569,-1823.2731012677525,-876.2790336673977,3098.0038732028142,1899.0126050314075,-1408.8308868115091,1408.8308868115091,-1899.0126050314075,5662.4341620655496,0.0
718523.2936376977,3567751.2368613081,-32500.0,270.74276934313758,1791.6003929750548,-3001.1339294879181,903.97015302502871,-1721.3630257318496,-845.88980824010855,2915.4504540873108,1492.5407536115749,-972.00943110163462,972.00943110163462,-1492.5407536115749,5410.0661132743144,0.0
723523.2936376977,3567751.2368613081,-32500.0,-209.18181763006564,1898.4943532698142,-2665.7588300523589,1018.1641863663322,-1584.979362269592,-793.02364869684232,2733.5015673480989,1115.0534735639912,-609.36828991411176,609.36828991411176,-1115.0534735639912,5138.1597460984585,0.0
728523.2936376977,3567751.2368613081,-32500.0,-594.06031948314171,1919.8929297244856,-2340.4394003306556,1075.3096530845007,-1433.9613046021227,-728.38762637505999,2552.9763381686193,779.97499605335588,-318.46308228263752,318.46308228263752,-779.97499605335588,4850.656813753475,0.0
733523.2936376977,3567751.2368613081,-32500.0,-891.7754154853327,1881.5477042737944,-2038.3785773982986,1090.0210642359773,-1281.2056637876071,-659.30654334064013,2375.921105136219,492.39237987101035,-91.89263471673209,91.89263471673209,-492.39237987101035,4554.6522415926747,0.0
738523.2936376977,3567751.2368613081,-32500.0,-1113.3271835079213,1803.7412035781431,-1765.8351014411592,1074.4425422450722,-1134.5749811864912,-590.53620369646717,2204.5222786019513,252.10266607817618,79.715099028115318,-79.715099028115318,-252.10266607817618,4257.4300613523374,0.0
743523.2936376977,3567751.2368613081,-32500.0,-1270.6276387569485,1701.800842695849,-1524.6685936068748,1038.2213159873959,-998.44320751783766,-524.97195327381621,2040.6154391773944,55.853868689184765,205.94417849814386,-205.94417849814386,-55.853868689184765,3965.1887261254064,0.0
568523.2936376977,3572751.2368613081,-32500.0,944.89886160576361,-953.82796486426139,-1630.8533227248495,47.129661331465087,-661.46948649067281,-105.48023662873977,1720.740610371447,1088.904950261282,-1892.1393182854194,1892.1393182854194,-1088.904950261282,3013.4584662338993,0.0
573523.2936376977,3572751.2368613081,-32500.0,1324.4760707412472,-833.61251556756383,-1773.5402720987381,202.06701711161642,-658.91805009421421,-64.32970297456805,1883.9375479148257,1465.9831270001148,-1996.5439070241125,1996.5439070241125,-1465.9831270001148,3276.2303735197825,0.0
578523.2936376977,3572751.2368613081,-32500.0,1761.5719207542325,-645.25217088048805,-1895.2582648214832,403.9380986154834,-622.36656749918279,-0.012843962420127499,2075.8387988226978,1901.6811315285054,-2057.9743660030003,2057.9743660030003,-1901.6811315285054,3596.4344891840828,0.0
583523.2936376977,3572751.2368613081,-32500.0,2252.3379150326105,-372.10665647093003,-1975.7470972965962,660.83696242612143,-535.96658408833764,95.530223438346894,2306.335505885625,2392.3902285871418,-2052.0496702053288,2052.0496702053288,-2392.3902285871418,3999.580367559905,0.0
588523.2936376977,3572751.2368613081,-32500.0,2786.0897585074222,2.5694957255035824,-1986.5263087133992,979.89342023967845,-379.05109494084718,232.26247933749278,2588.5183781916221,2927.1584204343335,-1947.4112860913547,1947.4112860913547,-2927.1584204343335,4519.1916468759146,0.0
593523.2936376977,3572751.2368613081,-32500.0,3342.7273326989771,493.0326143021357,-1889.3053926626246,1365.6079261699567,-125.60912013208844,422.05564840266499,2938.7857590289154,3484.6149279668475,-1705.6897948198025,1705.6897948198025,-3484.6149279668475,5195.6396283770691,0.0
598523.2936376977,3572751.2368613081,-32500.0,3890.1772239928987,1106.858384635113,-1635.1546227791007,1817.388786295078,255.64030483188131,678.37283292542156,3376.3994092617545,4029.6889742835938,-1282.9404026392342,1282.9404026392342,-4029.6889742835938,6072.7969441431178,0.0
603523.2936376977,3572751.2368613081,-32500.0,4382.5893549923503,1838.8324694917162,-1165.4276928764232,2326.196723868467,800.02568439415938,1015.4197590836419,3922.4956355825752,4510.8463118236832,-633.54266916417919,633.54266916417919,-4510.8463118236832,7192.6922194640611,0.0
608523.2936376977,3572751.2368613081,-32500.0,4760.4979408196577,2662.9598297688071,-415.87994245460135,2870.3921436271626,1543.7905619936726,1446.5005439461145,4598.8697729065361,4859.1254686928633,282.26309305683844,-282.26309305683844,-4859.1254686928633,8588.6174757005883,0.0
613523.2936376977,3572751.2368613081,-32500.0,4954.6579029047707,3523.4008170685547,674.21627780935319,3411.2590353695614,2518.1317004912698,1981.2844417280583,5426.4368442522591,4990.9038889589938,1486.1608969104159,-1486.1608969104159,-4990.9038889589938,10276.763355779447,0.0
618523.2936376977,3572751.2368613081,-32500.0,4895.532260501881,4326.4488709951202,2146.2384699545933,3889.2937842677929,3739.5386590721241,2621.7267956825349,6418.9732347370509,4816.8094230479983,2964.6100512879102,-2964.6100512879102,-4816.8094230479983,12245.986871721108,0.0
623523.2936376977,3572751.2368613081,-32500.0,4530.0202659931929,4937.4693478115478,3998.9678262097182,4223.2144627794705,5196.0729030525035,3356.5643283634122,7563.7245134143423,4259.088196695091,4648.3314313750088,-4648.3314313750088,-4259.088196695091,14445.615307484688,0.0
628523.2936376977,3572751.2368613081,-32500.0,3845.362421798065,5188.6223981980056,6159.8420373405952,4314.6314933948743,6830.5547884703892,4154.7432374011869,8802.9955153551327,3278.3624177284341,6393.1547688524915,-6393.1547688524915,-3278.3624177284341,16772.580448106077,0.0
633523.2936376977,3572751.2368613081,-32500.0,2896.5560342092635,4904.1708713013068,8457.3190176160533,4062.0095878598941,8524.1822006110815,4959.0233349361561,10037.498544913253,1907.2324370322085,7971.2920509888472,-7971.2920509888472,-1907.2324370322085,19061.596275019256,0.0
638523.2936376977,3572751.2368613081,-32500.0,1827.6926504986682,3948.2530947275563,10607.519364210626,3386.9478320539411,10088.032055088315,5682.5332038170009,11135.991068542062,281.9244852243919,9086.3855725982121,-9086.3855725982121,-281.9244852243919,21085.204465024828,0.0
643523.2936376977,3572751.2368613081,-32500.0,870.38457900027674,2292.0537329619501,12234.601169232712,2272.0050116108987,11274.260941004304,6213.100253180598,11947.24362086224,-1345.4644740291824,9426.5217294804297,-9426.5217294804297,1345.4644740291824,22573.162869737742,0.0
648523.2936376977,3572751.2368613081,-32500.0,299.13108325706685,80.504425697511749,12943.881916867966,800.08138656496556,11819.739755477345,6431.2951060380719,12325.077506969845,-2638.2622000480642,8759.959298077827,-8759.959298077827,2638.2622000480642,23259.665739906548,0.0
653523.2936376977,3572751.2368613081,-32500.0,335.87055250603282,-2342.9703599596651,12448.260603578476,-827.82242221816011,11524.707217165622,6244.6537709595614,12168.529625779711,-3266.9741469790247,7051.287655942926,-7051.287655942926,3266.9741469790247,22957.248405202117,0.0
658523.2936376977,3572751.2368613081,-32500.0,1033.7237694179757,-4500.414135672313,10706.20758153371,-2324.8939910293311,10342.788447692807,5629.0376906653473,11465.997097564417,-3043.2468596181202,4537.6963794717285,-4537.6963794717285,3043.2468596181202,21636.130675863216,0.0
663523.2936376977,3572751.2368613081,-32500.0,2213.4191334554789,-5937.3864523280081,7988.102106035888,-3407.5888940778568,8430.5731901905128,4653.8922119604376,10322.09592727195,-2025.7305943939577,1693.450027792062,-1693.450027792062,2025.7305943939577,19468.596938678042,0.0
668523.2936376977,3572751.2368613081,-32500.0,3518.2826331172582,-6401.1190813488274,4803.4635736915488,-3901.9320443277707,6110.9313134054792,3468.6169405114406,8946.4843443465597,-514.36611191556506,-931.53186499544961,931.53186499544961,514.36611191556506,16803.173158678499,0.0
673523.2936376977,3572751.2368613081,-32500.0,4569.4016540933007,-5925.4899920375701,1713.8589561887857,-3800.9362376771937,3759.7057926391662,2252.0101643904441,7590.018070326194,1079.9206460731116,-2913.5687519313315,2913.5687519313315,-1079.9206460731116,14070.850144784605,0.0
678523.2936376977,3572751.2368613081,-32500.0,5118.2459513363419,-4773.19299925219,-855.63840238257592,-3239.8707082855622,1683.0242280080645,1154.8164926814586,6441.7455785074926,2404.5252570274888,-4075.0332130875431,4075.0332130875431,-2404.5252570274888,11664.352130099258,0.0
683523.2936376977,3572751.2368613081,-32500.0,5105.9370782176184,-3293.1389185138105,-2704.9951831598005,-2418.1031531084377,50.980112850495672,266.58215486597362,5575.7565381584582,3268.6661987552548,-4471.6917678211612,4471.6917678211612,-3268.6661987552548,9834.3226850535939,0.0
688523.2936376977,3572751.2368613081,-32500.0,4624.4311080517482,-1791.137548046753,-3835.4114919570043,-1522.7520298502479,-1098.6402266930436,-385.41344133284622,4973.4608521850514,3647.1802541896423,-4295.3004216659747,4295.3004216659747,-3647.1802541896423,8630.5768238309702,0.0
693523.2936376977,3572751.2368613081,-32500.0,3836.174808652263,-467.49199476780007,-4368.6540219964236,-687.25768555351215,-1816.5054154277577,-817.86748918439059,4564.1954806802914,3622.7442368345428,-3769.6593403015913,3769.6593403015913,-3622.7442368345428,7922.4615412986432,0.0
698523.2936376977,3572751.2368613081,-32500.0,2905.4738961028588,584.28735207944897,-4467.8276656309426,15.222390017431202,-2193.1879380410223,-1069.7065600493252,4267.5909384400065,3319.5693763487748,-3085.0853785269387,3085.0853785269387,-3319.5693763487748,7504.1669491889188,0.0
703523.2936376977,3572751.2368613081,-32500.0,1961.6446567331495,1348.5703152163489,-4286.5207861013978,559.25727233103623,-2324.5586309547962,-1185.6439730383029,4022.4344896393886,2857.6694668853361,-2374.837090058325,2374.837090058325,-2857.6694668853361,7203.1359369658885,0.0
708523.2936376977,3572751.2368613081,-32500.0,1089.3039193539908,1854.2481656470338,-3946.5755646757007,949.73388402846194,-2293.7425810402033,-1206.765509793338,3793.5817755697467,2331.5838757379825,-1717.8816648400259,1717.8816648400259,-2331.5838757379825,6919.0855814946917,0.0
713523.2936376977,3572751.2368613081,-32500.0,333.70950693152224,2148.9839391301666,-3534.3929123294274,1207.0685780503766,-2165.0436986242498,-1166.5590274016677,3565.9219333003784,1806.0028544147328,-1152.1790812683091,1152.1790812683091,-1806.0028544147328,6610.4093574402023,0.0
718523.2936376977,3572751.2368613081,-32500.0,-288.65915767970336,2283.3014014208147,-3105.9759244523634,1357.1482979307318,-1984.4285674855187,-1090.2230988510503,3335.9942725362821,1319.7576055903808,-688.98124400073243,688.98124400073243,-1319.7576055903808,6269.0780486686863,0.0
723523.2936376977,3572751.2368613081,-32500.0,-779.67639231211251,2302.5111716676979,-2694.5057352700433,1425.5147921836467,-1782.7165733661534,-995.57741328934821,3105.7464935013636,892.43971465928837,-324.26124987486662,324.26124987486662,-892.43971465928837,5902.1145830456244,0.0
728523.2936376977,3572751.2368613081,-32500.0,-1151.3865035014526,2243.6680612865357,-2317.453005977206,1434.5567167160571,-1579.3336622934703,-894.54032422612522,2878.8959284736238,530.7588595788817,-46.556220931615258,46.556220931615258,-530.7588595788817,5521.2374747554031,0.0
733523.2936376977,3572751.2368613081,-32500.0,-1420.3649756354209,2135.2879078787505,-1982.1853367775479,1402.5478098068713,-1385.6639138053649,-794.62871567897832,2659.1348574369326,233.57815296103587,158.20265577487271,-158.20265577487271,-233.57815296103587,5137.9682003507596,0.0
738523.2936376977,3572751.2368613081,-32500.0,-1604.2070270768593,1998.3377973935878,-1689.983302109782,1343.6843708657448,-1207.6917920511839,-700.24408214769221,2449.4073034509324,-4.50859621118056,304.00263649090277,-304.00263649090277,4.50859621118056,4761.7358668990591,0.0
743523.2936376977,3572751.2368613081,-32500.0,-1719.5587323568675,1847.650512693815,-1438.7366018629214,1268.583160035985,-1047.9381202948607,-613.67898770858164,2251.7359355277399,-190.82786700314659,403.43775857088758,-403.43775857088758,190.82786700314659,4399.448310582984,0.0
748523.2936376977,3572751.2368613081,-32500.0,-1781.1655463380134,1693.3334368377161,-1224.661868008825,1184.9289729037589,-906.808007833077,-535.85804174546774,2067.2960908266809,-333.18930220855327,467.21231880788218,-467.21231880788218,333.18930220855327,4055.6966854857988,0.0
563523.2936376977,3577751.2368613081,-32500.0,245.88627163721992,-1319.7051524739518,-1540.9398619245319,-276.61141948970669,-766.98884066698122,-210.40892929500055,1741.6127541995152,418.68371610954421,-1906.1005119940869,1906.1005119940869,-418.68371610954421,3131.2705245677485,0.0
568523.2936376977,3577751.2368613081,-32500.0,564.20893323470739,-1307.8979295077115,-1732.8268013930472,-181.34071936657253,-818.3460987360661,-199.43818447152017,1893.3784048179109,734.53572796272977,-2096.9139244300704,2096.9139244300704,-734.53572796272977,3368.222191602516,0.0
573523.2936376977,3577751.2368613081,-32500.0,952.44974159597734,-1247.9123949625773,-1931.5707599228128,-44.891268083875737,-853.51608127421594,-172.59323992696267,2063.6682595558104,1121.5447201002412,-2278.2316968571422,2278.2316968571422,-1121.5447201002412,3633.4583741922856,0.0
578523.2936376977,3577751.2368613081,-32500.0,1416.4442803392546,-1122.2376465623313,-2126.2740108304224,143.35014860211447,-860.71872405940951,-122.78339844176496,2258.3364023107306,1586.536693963179,-2433.4396123160018,2433.4396123160018,-1586.536693963179,3940.7403686438215,0.0
583523.2936376977,3577751.2368613081,-32500.0,1958.2029316067726,-910.08474726697648,-2299.2668787972598,395.11884420254484,-823.28902331510392,-40.616421634861155,2486.3034648843859,2132.5813113602612,-2538.607182181488,2538.607182181488,-2132.5813113602612,4312.5339225340304,0.0
588523.2936376977,3577751.2368613081,-32500.0,2573.2249058706457,-588.25258635269427,-2423.5981393107281,722.4164739339011,-718.33674402894042,86.035472049680678,2760.7416326207563,2756.0464598751873,-2560.7678031061218,2560.7678031061218,-2756.0464598751873,4783.1066660560218,0.0
593523.2936376977,3577751.2368613081,-32500.0,3247.0176289994001,-133.2748481517865,-2460.2583223993661,1135.8997316300902,-515.43539281801418,272.35684559371015,3100.2119668298365,3442.6341477737742,-2456.6265487389492,2456.6265487389492,-3442.6341477737742,5400.5099479545561,0.0
598523.2936376977,3577751.2368613081,-32500.0,3951.0269710298471,474.46785918795825,-2355.6666046169876,1642.1975285002845,-175.7052637846335,536.62967791397318,3529.348455902641,4162.5126686445956,-2172.5013223085652,2172.5013223085652,-4162.5126686445956,6225.5401126610404,0.0
603523.2936376977,3577751.2368613081,-32500.0,4638.6257220580019,1243.9205020695615,-2040.501025090771,2239.8402218456181,348.05337803365705,899.73307726226346,4078.7043711304023,4865.1156208609964,-1646.7939712772456,1646.7939712772456,-4865.1156208609964,7326.2272154017983,0.0
608523.2936376977,3577751.2368613081,-32500.0,5242.4989808836899,2163.2738404236256,-1431.7109852816761,2913.6117212733648,1109.1318780814925,1383.7283378571315,4783.7848039372511,5474.9352361909878,-816.79599904715224,816.79599904715224,-5474.9352361909878,8768.0171958686587,0.0
613523.2936376977,3577751.2368613081,-32500.0,5675.6758879634453,3186.8511024946665,-440.4019342759733,3627.4992194066213,2161.1033875458247,2009.0277811336819,5683.4506930065145,5890.699162139088,368.08377582202547,-368.08377582202547,-5890.699162139088,10600.972892270642,0.0
618523.2936376977,3577751.2368613081,-32500.0,5839.3479105238557,4220.8042893895799,1011.1731294922658,4317.1662877944973,3546.6195754631135,2789.5318943912198,6813.6374979906086,5991.4829902805086,1925.0260854342819,-1925.0260854342819,-5991.4829902805086,12844.550468161262,0.0
623523.2936376977,3577751.2368613081,-32500.0,5640.9418961485462,5112.1562536781921,2960.82662129754,4884.1513325288843,5279.1525388998271,3725.0892964348677,8183.0958305669164,5654.0375533086517,3808.699537184295,-3808.699537184295,-5654.0375533086517,15469.143002880792,0.0
628523.2936376977,3577751.2368613081,-32500.0,5024.7506634431784,5649.2478780262391,5365.9255594894685,5195.8565347965014,7317.2517734541889,4790.8591761714033,9740.3210848470044,4784.9455186955956,5878.7137569749093,-5878.7137569749093,-4784.9455186955956,18374.172202916692,0.0
633523.2936376977,3577751.2368613081,-32500.0,4013.5325998822436,5584.917162459923,8057.3974794906908,5097.6210668337571,9534.1294287274759,5924.0485957152387,11367.975690757305,3367.849582367533,7874.650290079242,-7874.650290079242,-3367.849582367533,21366.025335711536,0.0
638523.2936376977,3577751.2368613081,-32500.0,2751.3501875074949,4694.2950939572438,10704.730199930978,4444.8008987697231,11691.797567949525,7010.9405516214911,12891.375912902648,1518.2373672158328,9418.1855923508156,-9418.1855923508156,-1518.2373672158328,24145.281077579344,0.0
643523.2936376977,3577751.2368613081,-32500.0,1524.3367433435469,2871.8729977266075,12821.53894500513,3160.6059312429279,13439.036788946269,7882.2661584808548,14089.650080622152,-475.7650792853774,10068.726018671317,-10068.726018671317,475.7650792853774,26320.288987649605,0.0
648523.2936376977,3577751.2368613081,-32500.0,720.83699450297286,248.77676217552758,13849.908405378004,1312.3693605018252,14362.027834497905,8331.9996351038681,14728.765248303453,-2167.0626917306618,9453.9754729423948,-9453.9754729423948,2167.0626917306618,27468.726858544545,0.0
653523.2936376977,3577751.2368613081,-32500.0,696.43639039953757,-2733.4085162488846,13344.509635858165,-831.17276968700878,14109.143681930038,8175.0023187976567,14627.243045157926,-3064.736099026743,7459.5419393203319,-7459.5419393203319,3064.736099026743,27258.102881819657,0.0
658523.2936376977,3577751.2368613081,-32500.0,1570.4843865878333,-5390.936280804789,11206.609671635159,-2828.5588861042734,12562.836488747,7336.1181558275075,13739.450077621486,-2850.4687423923065,4383.6777124384616,-4383.6777124384616,2850.4687423923065,25596.923133817894,0.0
663523.2936376977,3577751.2368613081,-32500.0,3088.4625833210835,-7051.8667616148769,7818.6229092279636,-4219.6042868861196,9954.7571082928389,5918.7812452871376,12212.932399969437,-1582.4260146547747,908.40281233075643,-908.40281233075643,1582.4260146547747,22735.225579094222,0.0
668523.2936376977,3577751.2368613081,-32500.0,4705.0787224065143,-7369.9012924643348,3930.5859779809371,-4733.6568423181243,6808.6633069686995,4186.3202970447364,10372.821252263722,293.34815535984512,-2169.3035010671911,2169.3035010671911,-293.34815535984512,19227.837092246307,0.0
673523.2936376977,3577751.2368613081,-32500.0,5865.9785908817876,-6463.2412129805371,335.7432684292051,-4398.2192280182935,3720.9592978302912,2452.4357177798979,8613.7829464024744,2171.9653749333993,-4284.3691734022514,4284.3691734022514,-2171.9653749333993,15755.892696056346,0.0
678523.2936376977,3577751.2368613081,-32500.0,6267.3401948962492,-4781.4767086518377,-2435.0113860440874,-3472.0903097899927,1133.6224227397965,960.1072233194468,7222.0521775812076,3581.9549856741814,-5279.7162918763461,5279.7162918763461,-3581.9549856741814,12896.56267803304,0.0
683523.2936376977,3577751.2368613081,-32500.0,5916.03011980255,-2842.7643694358744,-4213.1512343525455,-2283.6283395975797,-760.27343629280563,-173.54835759648574,6267.9237749109316,4330.2683719836541,-5335.1275272101057,5335.1275272101057,-4330.2683719836541,10937.261367649126,0.0
688523.2936376977,3577751.2368613081,-32500.0,5019.2693856715714,-1038.5986371145809,-5102.8131326072507,-1100.4672434508832,-1974.5115515779316,-940.64955272659631,5662.3192741988905,4463.8295554672068,-4776.7904678869627,4776.7904678869627,-4463.8295554672068,9808.9566424325658,0.0
693523.2936376977,3577751.2368613081,-32500.0,3838.0200031918539,423.83147898476091,-5330.8975895223011,-82.018017153062544,-2633.7195966851409,-1395.7943410295265,5264.372357052368,4150.3775427254141,-3918.2623921656345,3918.2623921656345,-4150.3775427254141,9210.9699255326941,0.0
698523.2936376977,3577751.2368613081,-32500.0,2592.1400511271991,1486.9508327876542,-5133.4671779408745,707.91689609040259,-2892.1150192481828,-1614.7470791661915,4958.1602872342664,3576.2215693436356,-2987.4920307782158,2987.4920307782158,-3576.2215693436356,8838.0792000052934,0.0
703523.2936376977,3577751.2368613081,-32500.0,1427.8365158464337,2181.6786735635815,-4701.2860527314624,1267.6823076773737,-2888.3871471507969,-1670.1216110375883,4677.0064647348499,2893.1966384727975,-2119.4579735668103,2119.4579735668103,-2893.1966384727975,8503.1926171116647,0.0
708523.2936376977,3577751.2368613081,-32500.0,422.82197333942497,2576.8101127237269,-4167.5510205253586,1627.1552297476878,-2729.5593656570386,-1621.2305216169723,4393.4232292802444,2204.5700462699961,-1377.6157694433748,1377.6157694433748,-2204.5700462699961,8129.018879433147,0.0
713523.2936376977,3577751.2368613081,-32500.0,-394.94365842271355,2747.986327929229,-3615.6314605983489,1827.192374459368,-2490.6545485800002,-1512.1280746154896,4101.8938458727544,1570.595246741419,-779.88355309320332,779.88355309320332,-1570.595246741419,7700.8500474458115,0.0
718523.2936376977,3577751.2368613081,-32500.0,-1028.2166018083994,2762.6361344067068,-3092.4209280394284,1908.2734293276246,-2220.5535754080443,-1373.348146571805,3806.3765904189404,1020.130985274422,-319.31168941792055,319.31168941792055,-1020.130985274422,7230.5743531338439,0.0
723523.2936376977,3577751.2368613081,-32500.0,-1495.9073424925207,2674.7687693090656,-2620.7058767011031,1905.3723638280728,-1948.9901392415038,-1224.8087452087273,3513.4911529553319,561.78655901925595,22.276228942166824,-22.276228942166824,-561.78655901925595,6737.4906773792572,0.0
728523.2936376977,3577751.2368613081,-32500.0,-1823.4823037144063,2524.811934279151,-2208.5444910231827,1846.4150504860277,-1692.6246970955528,-1078.6932679930865,3229.4455432502082,192.4528582800321,266.33921395536953,-266.33921395536953,-192.4528582800321,6239.9102808515463,0.0
733523.2936376977,3577751.2368613081,-32500.0,-2037.3112085101193,2341.5520496921522,-1855.6681832210636,1752.5366196208197,-1459.6616560584469,-941.85353403796285,2958.9593462094745,-96.904110431936971,433.50885663727502,-433.50885663727502,96.904110431936971,5752.2715272507094,0.0
738523.2936376977,3577751.2368613081,-32500.0,-2161.7177322072021,2144.6265845068469,-1557.5543353660653,1639.0833487481216,-1253.1020866069543,-817.63692991700884,2705.1165563026721,-317.63117713679696,541.79042194483975,-541.79042194483975,317.63117713679696,5284.7297889063166,0.0
743523.2936376977,3577751.2368613081,-32500.0,-2217.7122900302079,1946.8653709171822,-1307.8744068024723,1516.800040605634,-1072.9210420549134,-707.19418117994974,2469.5893696329244,-481.30808178486075,606.03767620288056,-606.03767620288056,481.30808178486075,4843.709676127718,0.0
748523.2936376977,3577751.2368613081,-32500.0,-2222.6897312253714,1756.2274561858451,-1099.8815662000563,1392.9396023543034,-917.4664105597451,-610.37380613041387,2252.9638931343675,-598.66430490062771,638.06447222755332,-638.06447222755332,598.66430490062771,4432.7215135834367,0.0
558523.2936376977,3582751.2368613081,-32500.0,-454.6441838074669,-1531.0896341237019,-1345.3535169620172,-559.82974136002326,-796.12847426108226,-289.71647828640693,1779.1405071013121,-254.71845647015175,-1750.6628427052331,1750.6628427052331,254.71845647015175,3292.6984335807501,0.0
563523.2936376977,3582751.2368613081,-32500.0,-230.27422053391908,-1608.6002901208938,-1547.4230358786108,-527.64939774715458,-882.92092323160421,-305.0701100243171,1934.5194869643326,-33.929927644880195,-1982.6400449184789,1982.6400449184789,33.929927644880195,3546.6367900609689,0.0
568523.2936376977,3582751.2368613081,-32500.0,62.495930507821889,-1661.581759532206,-1773.7520063915772,-465.35478282206878,-968.63892330173894,-312.30430127221234,2103.9337353430637,255.43686322016435,-2230.9157625873572,2230.9157625873572,-255.43686322016435,3817.2066607502634,0.0
573523.2936376977,3582751.2368613081,-32500.0,435.89195545034283,-1675.9173659854632,-2021.8158526337538,-362.43806412761671,-1046.3910372232203,-306.13463331895264,2289.6076609588335,626.65684837978563,-2487.9184479503201,2487.9184479503201,-626.65684837978563,4107.582050245348,0.0
578523.2936376977,3582751.2368613081,-32500.0,901.69740495460144,-1632.9852265991933,-2285.0085419346674,-205.95941794338168,-1105.3795844399617,-279.07772002684243,2495.2546068166248,1092.9723327154327,-2740.5280153136609,2740.5280153136609,-1092.9723327154327,4424.8518335057797,0.0
583523.2936376977,3582751.2368613081,-32500.0,1469.4444401601368,-1509.0978254386946,-2550.344686800936,19.454140329269762,-1129.3271502036309,-220.77511387441353,2727.2053799834312,1665.7739159047569,-2967.8127349132419,2967.8127349132419,-1665.7739159047569,4783.3695391544406,0.0
588523.2936376977,3582751.2368613081,-32500.0,2143.5718926223421,-1275.513377783519,-2795.3385810125719,331.16030663176207,-1094.5086148152097,-117.23033381471706,2996.1194205301813,2351.620941525925,-3138.3430604401115,3138.3430604401115,-2351.620941525925,5209.7807515451104,0.0
593523.2936376977,3582751.2368613081,-32500.0,2919.2955217005097,-899.63406819709689,-2984.0588596656712,747.26832014061438,-967.47147836185309,49.967023086876672,3319.3180016254946,3147.7458877800996,-3207.4000679868418,3207.4000679868418,-3147.7458877800996,5749.3680872120985,0.0
598523.2936376977,3582751.2368613081,-32500.0,3777.0947909314646,-348.32853822538209,-3062.6816388785724,1284.1480750552028,-702.73386471508979,304.28053610379334,3723.4925792962631,4035.810756913048,-3114.8383707776447,3114.8383707776447,-4035.810756913048,6471.6550568246039,0.0
603523.2936376977,3582751.2368613081,-32500.0,4676.1471820520537,405.36513538742099,-2955.5093738539617,1952.0827542831182,-241.11700095096316,674.46695942258998,4247.1146648565809,4974.0886103458488,-2785.066906261472,2785.066906261472,-4974.0886103458488,7470.9727230081562,0.0
608523.2936376977,3582751.2368613081,-32500.0,5547.8842945459037,1370.777517604648,-2563.5129892365753,2748.4216217903008,490.03168872816326,1193.9824769323225,4941.7111800301363,5889.1079186177849,-2131.5683478128353,2131.5683478128353,-5889.1079186177849,8857.4234382851955,0.0
613523.2936376977,3582751.2368613081,-32500.0,6292.2160126654871,2522.5009993456165,-1768.9805134554722,3647.7903078897457,1572.6231086879191,1898.8659495818308,5871.5059463915368,6669.2844483064491,-1069.3489114557838,1069.3489114557838,-6669.2844483064491,10737.613446898637,0.0
618523.2936376977,3582751.2368613081,-32500.0,6780.7581032415383,3778.4910864081912,-451.4337051559848,4589.6213771857174,3086.5428270896191,2823.0369791130993,7107.7701543485564,7165.1204964496983,460.95815072898677,-460.95815072898677,-7165.1204964496983,13189.020215858163,0.0
623523.2936376977,3582751.2368613081,-32500.0,6872.9838810172851,4977.8677402804578,1479.4755116905744,5464.8403682350454,5087.5373740726873,3989.435840754883,8699.8762195927775,7202.6006481571667,2455.1248857895689,-2455.1248857895689,-7202.6006481571667,16230.600525236134,0.0
628523.2936376977,3582751.2368613081,-32500.0,6451.3185424298354,5868.6163848280576,4030.7958736296105,6106.3836476936758,7571.0360069062936,5394.896812622369,10621.001419670409,6617.16512482904,4796.2142965914245,-4796.2142965914245,-6617.16512482904,19788.010545415284,0.0
633523.2936376977,3582751.2368613081,-32500.0,5477.8926570378981,6122.0502080841397,7057.2329902562205,6292.6453767524245,10421.995651449259,6986.6305427546176,12744.051427188129,5313.1955242372806,7206.4916236016124,-7206.4916236016124,-5313.1955242372806,23653.169536889574,0.0
638523.2936376977,3582751.2368613081,-32500.0,4066.4994048220319,5395.6462347418992,10195.216335857747,5778.8691246091803,13359.557056935884,8630.5809428701195,14845.289093991316,3346.1142967865785,9226.2540969511283,-9226.2540969511283,-3346.1142967865785,27447.738011208956,0.0
643523.2936376977,3582751.2368613081,-32500.0,2543.7243624709076,3462.7428620274877,12840.520153472618,4376.0418867153103,15903.167684243313,10081.30355876865,16609.081196447809,1006.8744214790149,10260.96975542885,-10260.96975542885,-1006.8744214790149,30616.652483692291,0.0
648523.2936376977,3582751.2368613081,-32500.0,1438.4127478423484,401.5357104017516,14233.082744240086,2086.2124909659178,17414.428663544866,10984.482893073571,17665.108161155749,-1145.7860167451581,9745.123728100918,-9745.123728100918,1145.7860167451581,32496.457279976632,0.0
653523.2936376977,3582751.2368613081,-32500.0,1310.6503113216895,-3239.3078284396438,13709.40569123259,-752.34822865767183,17281.92158801078,10964.565566228952,17691.051972003981,-2402.3681912790134,7433.3246471914636,-7433.3246471914636,2402.3681912790134,32502.346861910417,0.0
658523.2936376977,3582751.2368613081,-32500.0,2405.7853621277018,-6485.6970066599679,11082.691450924127,-3453.6781373900662,15242.640385525927,9816.5772615521364,16568.766429650874,-2232.6679933759692,3692.4325488302788,-3692.4325488302788,2232.6679933759692,30412.111457106985,0.0
663523.2936376977,3582751.2368613081,-32500.0,4361.429747219011,-8340.1143366186534,6900.279531107667,-5247.9321340448096,11643.31387039808,7692.2786073316956,14508.761581384506,-672.76173610362707,-494.05295418029868,494.05295418029868,672.76173610362707,26590.956312127095,0.0
668523.2936376977,3582751.2368613081,-32500.0,6328.7069421062497,-8340.0324210688432,2264.2223120205354,-5705.0610005549024,7354.1927042414227,5082.6727828044659,12029.856017685161,1610.7766678177979,-3975.8726442031802,3975.8726442031802,-1610.7766678177979,21944.753043774599,0.0
673523.2936376977,3582751.2368613081,-32500.0,7498.7600720551973,-6780.6104048739062,-1732.638148653813,-4946.4911153272524,3330.4216514834025,2563.8128582575005,9759.3390274238482,3729.5560469489524,-6033.3095363211669,6033.3095363211669,-3729.5560469489524,17567.710003401953,0.0
678523.2936376977,3582751.2368613081,-32500.0,7543.7358426792443,-4414.6538276439269,-4485.6769142452149,-3466.6514604544077,189.11554887973844,529.58581245053142,8116.7292769339401,5080.4775535081708,-6613.9853886475021,6613.9853886475021,-5080.4775535081708,14288.344286217645,0.0
683523.2936376977,3582751.2368613081,-32500.0,6629.3004964422626,-1978.7685018613604,-5945.1554421033688,-1796.1706649595149,-1900.1686237974725,-889.50305851257906,7120.7294195900322,5525.845491209272,-6118.5047369691683,6118.5047369691683,-5525.845491209272,12343.486904336209,0.0
688523.2936376977,3582751.2368613081,-32500.0,5151.1200447759702,72.077727610549985,-6389.8819003799263,-293.7690217904314,-3070.6728355108712,-1748.5061540516203,6543.0646485926554,5249.2714028003156,-5054.0041092569645,5054.0041092569645,-5249.2714028003156,11390.019732173385,0.0
693523.2936376977,3582751.2368613081,-32500.0,3491.5751549407746,1572.7680252270954,-6179.9110965044447,880.06121521831267,-3568.1252250049033,-2178.105175538587,6150.7495386632645,4536.1942185394246,-3819.7063382741881,3819.7063382741881,-4536.1942185394246,10898.970587650541,0.0
698523.2936376977,3582751.2368613081,-32500.0,1913.4454747461048,2542.2049096273477,-5619.0497007356944,1701.1518570275102,-3630.2801010982766,-2313.357055675423,5805.7282218508153,3636.4061326359797,-2654.3257279271793,2654.3257279271793,-3636.4061326359797,10505.852878211033,0.0
703523.2936376977,3582751.2368613081,-32500.0,555.22584279598368,3079.6120938757163,-4916.5066087937776,2213.49506991917,-3440.9084776516302,-2264.5060637239931,5452.8366908298713,2719.6209056215284,-1667.1327060898284,1667.1327060898284,-2719.6209056215284,10056.450275488349,0.0
708523.2936376977,3582751.2368613081,-32500.0,-534.54693877789691,3300.4125591408292,-4197.6965032500193,2483.8225252230523,-3125.7010144774345,-2111.629977853233,5081.6930862481677,1881.3974297882951,-886.87104566440439,886.87104566440439,-1881.3974297882951,9519.7204414752541,0.0
713523.2936376977,3582751.2368613081,-32500.0,-1360.5038826145649,3306.6952194915452,-3528.546283143362,2578.1603778790563,-2763.6557703489034,-1908.6859794950142,4699.6737570742507,1164.4581459809892,-300.8228028723629,300.8228028723629,-1164.4581459809892,8914.5522439185261,0.0
718523.2936376977,3582751.2368613081,-32500.0,-1953.3394080088196,3178.0979562666944,-2937.677969707725,2552.3086368316522,-2400.8014031529424,-1689.8261845497425,4318.3770540163314,579.10726083536019,120.6608508151557,-120.6608508151557,-579.10726083536019,8272.426970019922,0.0
723523.2936376977,3582751.2368613081,-32500.0,-2353.0289953121123,2972.2428805840686,-2432.3938173792417,2449.5681143073452,-2061.6045031092431,-1475.2616166742489,3948.1603572969939,118.12159950889333,410.88995182352193,-410.88995182352193,-118.12159950889333,7622.3954661882481,0.0
728523.2936376977,3582751.2368613081,-32500.0,-2599.6667058062799,2728.6156415766109,-2008.9267195466141,2301.6903246187762,-1757.2085906611601,-1275.9027911387113,3596.5351668355706,-233.73895595700043,600.61129529641494,-600.61129529641494,233.73895595700043,6986.5610610200138,0.0
733523.2936376977,3582751.2368613081,-32500.0,-2729.1300805467704,2473.0203441890762,-1658.5306981283152,2130.9501786515661,-1490.9549753219408,-1096.7445592228942,3268.1580896043911,-494.19272504904717,715.68826599868839,-715.68826599868839,494.19272504904717,6379.8440162891739,0.0
738523.2936376977,3582751.2368613081,-32500.0,-2771.5225290050871,2221.4894553236713,-1370.871981312918,1952.3552412576782,-1261.9026177666462,-939.20497080575024,2965.3628217243263,-680.49243422392146,776.73776926428172,-776.73776926428172,680.49243422392146,5811.2035598590728,0.0
743523.2936376977,3582751.2368613081,-32500.0,-2751.0728203721897,1983.3460701025599,-1135.7817447610498,1775.5855747850644,-1066.982472899168,-802.67191153553529,2688.7807864693636,-808.05114715198977,799.62910399535815,-799.62910399535815,808.05114715198977,5285.1347054449143,0.0
748523.2936376977,3582751.2368613081,-32500.0,-2686.7151757885945,1763.4574962226773,-944.06309472770704,1606.5480565213031,-902.2640871712606,-685.48703647364857,2437.8844410307802,-889.96173324117638,796.27771050433978,-796.27771050433978,889.96173324117638,4803.0078498002649,0.0
558523.2936376977,3587751.2368613081,-32500.0,-978.1750943489161,-1731.2913176159359,-1278.6584026019611,-811.32079129659132,-866.99901075843934,-378.14542874178545,1975.7628520414689,-754.48298776560659,-1709.3090534028306,1709.3090534028306,754.48298776560659,3721.8973292683108,0.0
563523.2936376977,3587751.2368613081,-32500.0,-806.6515735473622,-1866.2459941626919,-1493.3089170337601,-820.73295438169998,-980.3149694630572,-412.95310340955399,2156.7850007926618,-588.40752577536728,-1973.0291536776001,1973.0291536776001,588.40752577536728,4031.0439263125663,0.0
568523.2936376977,3587751.2368613081,-32500.0,-564.90017960675402,-1989.4431093531941,-1742.1905880026784,-805.13618959427583,-1100.6795533266479,-443.55860927090015,2353.0794966721051,-352.79659670401838,-2267.9756952569478,2267.9756952569478,352.79659670401838,4358.4930531164837,0.0
573523.2936376977,3587751.2368613081,-32500.0,-236.46537161943016,-2088.2324186762357,-2026.9607771241729,-753.39338675031763,-1223.1746591839421,-465.09630864345939,2565.4768653405517,-30.111065361846613,-2591.2144983312214,2591.2144983312214,30.111065361846613,4703.4243578097557,0.0
578523.2936376977,3587751.2368613081,-32500.0,196.59589623413052,-2144.7160539711354,-2346.4066415115358,-651.01265498791383,-1339.1083128741298,-470.27156610137683,2795.3624741661297,399.28611539486724,-2935.0397278361424,2935.0397278361424,-399.28611539486724,5066.1854465087508,0.0
583523.2936376977,3587751.2368613081,-32500.0,752.36450660526327,-2134.4505335949161,-2694.1757811723674,-479.65051838320392,-1434.1477759853237,-448.4511171534964,3045.5234435683246,955.90828941153836,-3284.3764935160234,3284.3764935160234,-955.90828941153836,5450.6980582855322,0.0
588523.2936376977,3587751.2368613081,-32500.0,1446.5355740498621,-2025.373302010689,-3055.3733132208467,-216.90623083612033,-1485.7726856287111,-384.53003111283192,3321.7606861436225,1658.674755067058,-3613.3108416818141,3613.3108416818141,-1658.674755067058,5869.1406317398632,0.0
593523.2936376977,3587751.2368613081,-32500.0,2288.1987584141621,-1777.5570488446021,-3401.7471290613507,163.23667977262204,-1459.968478721996,-257.58866310198169,3635.7256464770835,2520.5683359486593,-3880.8189075703986,3880.8189075703986,-2520.5683359486593,6350.1743937984211,0.0
598523.2936376977,3587751.2368613081,-32500.0,3273.386576369689,-1344.8733242422245,-3685.397250322957,688.73977175192431,-1307.2433082519758,-39.406964583374702,4009.4579119037408,3541.7255939793458,-4026.1962535699968,4026.1962535699968,-3541.7255939793458,6951.4066686481401,0.0
603523.2936376977,3587751.2368613081,-32500.0,4376.1049681505001,-680.31239937897351,-3831.5730643391657,1385.7221237579993,-958.44255062059278,306.99858791204673,4481.7625750599418,4699.4492092088694,-3965.5557237429789,3965.5557237429789,-4699.4492092088694,7773.7171953543548,0.0
608523.2936376977,3587751.2368613081,-32500.0,5537.365173770384,252.61363709399956,-3732.4556813131553,2271.3221981810943,-321.60980452259167,828.46754870725533,5115.6008351372166,5935.3845176521245,-3592.205802793289,3592.205802793289,-5935.3845176521245,8968.3393809158861,0.0
613523.2936376977,3587751.2368613081,-32500.0,6654.4826170468386,1459.7649146037877,-3246.1453375802403,3341.7522059921121,717.51087226853019,1581.7072784670665,6004.2925012630658,7141.861416234442,-2785.6918426681477,2785.6918426681477,-7141.861416234442,10722.450839193212,0.0
618523.2936376977,3587751.2368613081,-32500.0,7575.835630005161,2886.2948579046074,-2208.2442033157149,4554.3666352368427,2286.7362200260254,2630.7818578445567,7270.6614830353592,8152.4882719355774,-1436.0899965313415,1436.0899965313415,-8152.4882719355774,13217.614084704705,0.0
623523.2936376977,3587751.2368613081,-32500.0,8109.9461556184933,4379.8080367623925,-466.10695635138114,5804.0879160004743,4503.6164810501059,4039.2789264819908,9034.9658794167808,8746.1587327805319,510.11342656011311,-510.11342656011311,-8746.1587327805319,16573.077851240439,0.0
628523.2936376977,3587751.2368613081,-32500.0,8060.287894742286,5658.7479539418873,2055.2749832774298,6898.2807730784534,7428.483190876048,5852.1583428854628,11329.41443636602,8676.8537307008519,2981.6946158285946,-2981.6946158285946,-8676.8537307008519,20785.725278621765,0.0
633523.2936376977,3587751.2368613081,-32500.0,7295.4567303761341,6310.0368536408596,5256.5066689716277,7541.2706211180866,10988.917862471169,8059.580408679989,14037.272620107728,7740.7553378661532,5704.6579588917748,-5704.6579588917748,-7740.7553378661532,25663.790498669372,0.0
638523.2936376977,3587751.2368613081,-32500.0,5854.987108979537,5850.5439654568327,8758.537409520919,7351.5765780018883,14880.75400873435,10534.325901201699,16886.727885614393,5884.5191128356364,8148.551002735825,-8148.551002735825,-5884.5191128356364,30755.068989533673,0.0
643523.2936376977,3587751.2368613081,-32500.0,4068.8910242722195,3888.9354758516574,11843.162260153731,5952.7317179376305,18476.762588244877,12945.750663713443,19442.004861989641,3342.0173703678201,9555.6027304452509,-9555.6027304452509,-3342.0173703678201,35299.795822325381,0.0
648523.2936376977,3587751.2368613081,-32500.0,2614.8836723535023,402.73814526621453,13530.358353069059,3187.8890466480361,20828.020665364405,14699.902698232634,21133.042111691651,745.70242919659177,9131.7279025801417,-9131.7279025801417,-745.70242919659177,38284.140207675664,0.0
653523.2936376977,3587751.2368613081,-32500.0,2341.8068128283262,-3953.4036520476598,12903.207030559865,-564.71909466893032,20909.648752974492,15042.77841857161,21402.975780266013,-938.70347355296281,6457.554722366207,-6457.554722366207,938.70347355296281,38706.626915823152,0.0
658523.2936376977,3587751.2368613081,-32500.0,3715.3439072039009,-7816.166197773593,9680.0297758828292,-4242.3838626621355,18191.942013773874,13458.998708934789,19990.92507773008,-863.02864322031633,1985.5707425232397,-1985.5707425232397,863.02864322031633,36090.296945409842,0.0
663523.2936376977,3587751.2368613081,-32500.0,6217.7616934026937,-9728.613526522855,4656.7606975297558,-6532.4023230030307,13203.965251281232,10165.553699425716,17199.412184203185,1001.6838602779746,-2879.9089589936393,2879.9089589936393,-1001.6838602779746,30970.518108840537,0.0
668523.2936376977,3587751.2368613081,-32500.0,8515.0075935717323,-9118.9342590135184,-587.27480328891806,-6750.9840773954884,7406.5877108180484,6125.8322810340624,13875.24614959766,3667.2258474139935,-6527.3678023901075,6527.3678023901075,-3667.2258474139935,24851.109105438514,0.0
673523.2936376977,3587751.2368613081,-32500.0,9456.0725640173368,-6630.6470272376837,-4642.672616200186,-5256.1135238987072,2307.2846655176741,2429.8601690273163,11015.652842169573,5856.4975925457138,-8136.9017626788745,8136.9017626788745,-5856.4975925457138,19489.197362850726,0.0
678523.2936376977,3587751.2368613081,-32500.0,8797.4841464370365,-3469.6091548343475,-6954.6508797833512,-2977.8845950446935,-1304.2080074844639,-304.27752187369254,9184.9800686542749,6867.5188161417227,-7928.7636321815098,7928.7636321815098,-6867.5188161417227,15981.879526570277,0.0
683523.2936376977,3587751.2368613081,-32500.0,7026.1004495640982,-599.44201916546456,-7735.2735865247232,-733.10563263320694,-3400.94797210259,-2002.0142400263114,8226.9904988958333,6732.5549364733806,-6644.8218993652799,6644.8218993652799,-6732.5549364733806,14266.299647898488,0.0
688523.2936376977,3587751.2368613081,-32500.0,4805.6407842936087,1542.2709823617481,-7504.665553428129,1056.88010259818,-4341.8252745983164,-2875.5813846722567,7689.1344121105685,5852.8349974314024,-4986.6582214184236,4986.6582214184236,-5852.8349974314024,13528.774679838029,0.0
693523.2936376977,3587751.2368613081,-32500.0,2630.9311960391587,2913.2114418144042,-6748.8582477745931,2292.9219631476553,-4541.0925322652538,-3191.6003518358953,7261.1368011546929,4645.883035148312,-3391.3748855992376,3391.3748855992376,-4645.883035148312,13052.419084156183,0.0
698523.2936376977,3587751.2368613081,-32500.0,762.42187056423791,3652.469556079307,-5801.1596614081473,3038.4685540703495,-4324.6905799874912,-3169.0557587622066,6820.3609302860186,3400.8840066207522,-2054.2833179748231,2054.2833179748231,-3400.8840066207522,12512.38849260656,0.0
703523.2936376977,3587751.2368613081,-32500.0,-712.20341215324925,3939.2858971736805,-4851.0969544154232,3407.7586805536675,-3908.895230496255,-2961.0164448808746,6344.0084109953932,2273.9480938146094,-1022.0214418532593,1022.0214418532593,-2273.9480938146094,11836.839343933992,0.0
708523.2936376977,3587751.2368613081,-32500.0,-1801.8821117702098,3930.8944229791568,-3989.464268240738,3512.6311383078169,-3423.2763961951118,-2666.0040893227219,5845.0908202824749,1328.5304581742089,-269.98628277008811,269.98628277008811,-1328.5304581742089,11053.048174769898,0.0
713523.2936376977,3587751.2368613081,-32500.0,-2558.4508841088291,3745.8227521079525,-3249.2147467561399,3444.2815531091223,-2939.2213386346257,-2343.7930881149732,5343.6347612893514,574.94617490847452,251.7260238809813,-251.7260238809813,-574.94617490847452,10211.335235216593,0.0
718523.2936376977,3587751.2368613081,-32500.0,-3046.1888189456567,3466.237598243009,-2633.1177345541018,3270.7026496897988,-2492.2343595123375,-2028.4016710875392,4856.6550258341367,-2.5892441178609715,595.78444593901747,-595.78444593901747,2.5892441178609715,9357.1733443890862,0.0
723523.2936376977,3587751.2368613081,-32500.0,-3326.9264648499757,3145.8603856725099,-2130.1089043156803,3039.7860885062901,-2096.9303050064909,-1737.4368661186368,4395.8643502732375,-430.10940143027301,808.43425669783073,-808.43425669783073,430.10940143027301,8523.9709992382013,0.0
728523.2936376977,3587751.2368613081,-32500.0,-3453.9720516367106,2818.0267335343669,-1724.1559397528197,2783.7744831859645,-1756.4234354225446,-1478.4647887104877,3968.099511600386,-735.51200255063338,926.91050159190002,-926.91050159190002,735.51200255063338,7733.3513705387459,0.0
733523.2936376977,3587751.2368613081,-32500.0,-3470.5589359358423,2502.2134675692869,-1398.6956264602063,2523.4332723903485,-1467.9509751358462,-1253.2032556027611,3576.4628231722527,-944.58486507076145,979.73792925577845,-979.73792925577845,944.58486507076145,6997.5873882931528,0.0
738523.2936376977,3587751.2368613081,-32500.0,-3410.3909039345867,2208.8349924331492,-1138.6229233754902,2271.4496459196371,-1226.1187808960362,-1060.1928777731673,3221.4627765418436,-1079.4548731156096,988.07222693274116,-988.07222693274116,1079.4548731156096,6322.2356997896413,0.0
743523.2936376977,3587751.2368613081,-32500.0,-3299.0057768660909,1942.5821132339604,-930.99786818968767,2035.0100375707661,-1024.6963528898812,-896.438192638641,2901.9365273571161,-1158.2842866227472,967.24110628970061,-967.24110628970061,1158.2842866227472,5708.3425455768429,0.0
748523.2936376977,3587751.2368613081,-32500.0,-3155.321443746132,1704.6657167947369,-765.12406582716778,1817.6692090753404,-857.55262272274649,-758.37440165066869,2615.7292907102678,-1195.5522975398601,928.14312265647982,-928.14312265647982,1195.5522975398601,5154.1081938699499,0.0
753523.2936376977,3587751.2368613081,-32500.0,-2993.0761929533815,1494.2839008760936,-632.34887971119861,1620.6626059689702,-719.09735190616925,-642.40613084902679,2360.1684142519816,-1202.5660561184163,878.39738502215107,-878.39738502215107,1202.5660561184163,4656.0702474616,0.0
553523.2936376977,3592751.2368613081,-32500.0,-1617.9313762808031,-1698.1511733737134,-983.20301781702665,-1019.27702659589,-791.76566712723206,-419.82872145750974,1995.0737151554504,-1364.2495273454574,-1342.4556244478581,1342.4556244478581,1364.2495273454574,3837.5080635511358,0.0
558523.2936376977,3592751.2368613081,-32500.0,-1571.6159180720176,-1878.4965871576551,-1161.8311098375611,-1089.4732981375942,-912.34700901977476,-474.22671699094764,2190.6121105134575,-1323.6969113051468,-1581.2966721438224,1581.2966721438224,1323.6969113051468,4191.2681738276788,0.0
563523.2936376977,3592751.2368613081,-32500.0,-1475.2753263615007,-2067.9772473084695,-1376.0418026958882,-1150.9985813096869,-1048.861504602422,-532.04742209475694,2404.6891893615534,-1235.689627795809,-1860.4602038437438,1860.4602038437438,1235.689627795809,4572.7716539582707,0.0
568523.2936376977,3592751.2368613081,-32500.0,-1312.8109689788955,-2260.778223113985,-1631.8277065787561,-1196.3489308852641,-1200.960341527745,-591.09598358728897,2637.8515247783125,-1083.8109432409919,-2183.9931741611026,2183.9931741611026,1083.8109432409919,4980.6533106111438,0.0
573523.2936376977,3592751.2368613081,-32500.0,-1064.5479156657377,-2447.2850107688146,-1935.0424279346512,-1214.9156399558258,-1366.3881489375631,-647.52467962484627,2890.2365173667272,-847.57476548421971,-2554.3369664265078,2554.3369664265078,847.57476548421971,5412.1536418370961,0.0
578523.2936376977,3592751.2368613081,-32500.0,-707.15416163530188,-2612.5169249088353,-2290.3558223249615,-1192.0459699793432,-1539.6770881663049,-695.03456374066013,3161.5790654605939,-502.11780494366872,-2970.6937191996076,2970.6937191996076,502.11780494366872,5863.1334276551706,0.0
583523.2936376977,3592751.2368613081,-32500.0,-214.14749290258874,-2734.1776879023505,-2699.3764428628224,-1107.9858081155578,-1710.1674331966058,-723.7791145466058,3451.4696880414795,-18.436891578239738,-3426.4748817021,3426.4748817021,18.436891578239738,6328.7940835754389,0.0
588523.2936376977,3592751.2368613081,-32500.0,442.51390563271235,-2780.453054929696,-3157.4815989982899,-936.82649090392215,-1859.085139387724,-718.89264097934051,3760.1862411946372,635.30299188175059,-3905.5001016726615,3905.5001016726615,-635.30299188175059,6806.0308781023732,0.0
593523.2936376977,3592751.2368613081,-32500.0,1289.0035753462485,-2707.9884766291466,-3648.7694333725449,-645.73522707411007,-1955.3691369319499,-658.55850590643934,4090.7310360554875,1490.5679479152946,-4376.6641308906619,4376.6641308906619,-1490.5679479152946,7299.2405750510434,0.0
598523.2936376977,3592751.2368613081,-32500.0,2343.3181474706435,-2461.0565883267768,-4138.5355863665827,-195.02828823289178,-1949.9814992372392,-511.52051129560704,4453.2049403229275,2572.1877246063113,-4787.0753480863495,4787.0753480863495,-2572.1877246063113,7832.7310185652696,0.0
603523.2936376977,3592751.2368613081,-32500.0,3604.8894477662457,-1973.9406522746524,-4563.0808338744282,459.86113973828503,-1768.7169452866265,-233.94151058851998,4873.3390291413307,3887.5969645017021,-5054.5213396429799,5054.5213396429799,-3887.5969645017021,8473.8258928165415,0.0
608523.2936376977,3592751.2368613081,-32500.0,5039.2871849556104,-1180.0122842838796,-4817.9630975921427,1362.6904481658937,-1304.330223557871,234.42173992509208,5407.3320869818126,5410.3904480946057,-5061.9186794265061,5061.9186794265061,-5410.3904480946057,9367.0298683208439,0.0
613523.2936376977,3592751.2368613081,-32500.0,6558.8947602855769,-32.494131924255981,-4748.8437149707515,2544.1165639625174,-410.64376123655853,974.41915671543609,6163.5124845201626,7058.5327432121867,-4659.6127156317852,4659.6127156317852,-7058.5327432121867,10762.442442117112,0.0
618523.2936376977,3592751.2368613081,-32500.0,8004.5330565469312,1458.0363543369222,-4154.4052664817164,3999.0597361363434,1095.2400050841832,2090.6684940070049,7322.97810660906,8671.5063170588837,-3685.6450215636432,3685.6450215636432,-8671.5063170588837,12994.651172620523,0.0
623523.2936376977,3592751.2368613081,-32500.0,9139.9787913954424,3168.8881797032791,-2817.4008937238718,5650.5950208861295,3411.3846650163059,3709.5514009047133,9119.5603802046535,9997.711541329576,-2016.9193909985629,2016.9193909985629,-9997.711541329576,16381.717051995212,0.0
628523.2936376977,3592751.2368613081,-32500.0,9678.9001315452406,4805.8423284595519,-582.57966461545323,7301.7286316166737,6693.9984148556678,5962.6230949489127,11709.351945178083,10711.532391365665,340.52431416419495,-340.52431416419495,-10711.532391365665,21086.420030754405,0.0
633523.2936376977,3592751.2368613081,-32500.0,9365.3592491985837,5873.9324532017772,2511.6148617308936,8587.5014810631219,10949.57510803122,8937.9193356548385,15027.819342592957,10482.064279258198,3134.4181299072497,-3134.4181299072497,-10482.064279258198,26993.542388789436,0.0
638523.2936376977,3592751.2368613081,-32500.0,8117.1060138890425,5734.8624871350894,6077.2848228885896,8959.6661895469188,15875.550510164854,12573.256443480881,18764.747971847974,9104.7633254589728,5772.4209455552136,-5772.4209455552136,-9104.7633254589728,33596.130835927186,0.0
643523.2936376977,3592751.2368613081,-32500.0,6214.3096751803096,3809.8489209061195,9281.9019155302867,7770.0111278033337,20686.689954460591,16470.94760225945,22342.84526466695,6686.6619823906194,7339.9892913256344,-7339.9892913256344,-6686.6619823906194,39895.20083666659,0.0
648523.2936376977,3592751.2368613081,-32500.0,4457.7720477577286,-42.355094144506474,10942.516825169332,4568.7359656999106,24044.372880665429,19686.561822538228,24923.133050649431,3847.3058915250622,6834.6078333298392,-6834.6078333298392,-3847.3058915250622,44409.843124949221,0.0
653523.2936376977,3592751.2368613081,-32500.0,4047.1438028234033,-5048.2372948694046,9947.2169693603937,-306.33266135973923,24350.66489235788,20773.441272842047,25592.05558807389,1774.7870218637213,3702.0975948095361,-3702.0975948095361,-1774.7870218637213,45513.665773057437,0.0
658523.2936376977,3592751.2368613081,-32500.0,5776.3339147902043,-9365.4564462238577,6024.6139914065452,-5245.8946286144519,20679.154729441696,18546.369683283425,23838.202475960632,1717.0816178463624,-1444.3186883700387,1444.3186883700387,-1717.0816178463624,42291.143124069662,0.0
663523.2936376977,3592751.2368613081,-32500.0,8896.2795908020853,-10982.032075795983,355.91217230879465,-8029.8524925279962,13869.946066740704,13312.231827090807,20099.550219818753,3825.6081652661023,-6663.3678371972101,6663.3678371972101,-3825.6081652661023,35532.087678267148,0.0
668523.2936376977,3592751.2368613081,-32500.0,11336.041502480626,-9329.3216392114537,-4949.0638245674572,-7621.2890062873712,6324.7902507930676,7007.4994711886129,15768.02317463054,6680.3949129309294,-9874.1504668164162,9874.1504668164162,-6680.3949129309294,27727.602654805825,0.0
673523.2936376977,3592751.2368613081,-32500.0,11572.009584534277,-5668.2617178216151,-8329.7516014485482,-4926.9731944850118,279.612683400072,1676.2570167559029,12388.004744612852,8547.7146817768225,-10379.48451135747,10379.48451135747,-8547.7146817768225,21598.852512759222,0.0
678523.2936376977,3592751.2368613081,-32500.0,9706.2747249698132,-1769.4034250826057,-9553.3886948656727,-1613.9538380117513,-3445.8412173955585,-1817.2301024634146,10561.159453418612,8765.5166710355898,-8930.3530875627202,8930.3530875627202,-8765.5166710355898,18292.49424387774,0.0
683523.2936376977,3592751.2368613081,-32500.0,6771.214201851315,1288.2502963870445,-9249.0577364968813,1183.9046828982516,-5187.9554060184746,-3654.9415160054614,9719.288165966118,7711.8246731599038,-6682.9614138470961,6682.9614138470961,-7711.8246731599038,16977.994210668487,0.0
688523.2936376977,3592751.2368613081,-32500.0,3728.739288176329,3243.855279016866,-8170.7340306147544,3101.5284919967798,-5643.5344412852337,-4370.4222818866128,9167.2831254714984,6063.5949297784628,-4452.0487164521182,4452.0487164521182,-6063.5949297784628,16333.793115458566,0.0
693523.2936376977,3592751.2368613081,-32500.0,1106.4930110376217,4268.248955741994,-6849.4933400789068,4210.9070810140711,-5403.667543779291,-4433.8595894972705,8607.603324478705,4332.8039254543883,-2603.2435347590454,2603.2435347590454,-4332.8039254543883,15664.0412294414,0.0
698523.2936376977,3592751.2368613081,-32500.0,-923.43482001879636,4641.1284986090823,-5570.033977419318,4717.6984676773272,-4849.9218368789516,-4158.478203291168,7984.9841881511838,2786.9223874531167,-1215.7001174508209,1215.7001174508209,-2786.9223874531167,14797.970224035022,0.0
703523.2936376977,3592751.2368613081,-32500.0,-2378.5204552905398,4608.1064072005192,-4451.8427565591601,4821.0784778779071,-4196.7681681854419,-3731.190365837539,7322.1087341172715,1521.9044646745892,-240.7160874127768,240.7160874127768,-1521.9044646745892,13769.341915369405,0.0
708523.2936376977,3592751.2368613081,-32500.0,-3350.019167671358,4346.6296524849913,-3525.485971017918,4674.6899910383363,-3553.483385014486,-3257.7641303696023,6653.2929405551386,543.04083833433447,408.04108070263402,-408.04108070263402,-543.04083833433447,12656.02494208674,0.0
713523.2936376977,3592751.2368613081,-32500.0,-3944.1271734289207,3973.1479231130752,-2780.7276343066046,4386.458845684353,-2969.5561151333768,-2795.1196208852389,6005.7552603590457,-183.12230093830669,815.26071549268568,-815.26071549268568,183.12230093830669,11527.03471932803,0.0
718523.2936376977,3592751.2368613081,-32500.0,-4257.5675058914039,3559.4195218498048,-2192.1680151156561,4028.3199609842427,-2462.4447507109894,-2371.3065916056262,5396.9576282550361,-701.65884397013588,1050.9755967764731,-1050.9755967764731,701.65884397013588,10431.172634661167,0.0
723523.2936376977,3592751.2368613081,-32500.0,-4369.9272292395253,3147.1884244029957,-1731.4835217503453,3646.2409845779662,-2033.3929625045566,-1997.6170471739736,4836.2826854897239,-1056.8351719629054,1168.7272771330317,-1168.7272771330317,1056.8351719629054,9398.6009402604122,0.0
728523.2936376977,3592751.2368613081,-32500.0,-4343.1870236991635,2759.008301207738,-1372.6141564602724,3268.2540616581323,-1676.1336765507072,-1675.9731632840303,4327.3669451772885,-1287.2432000941369,1207.6906121437644,-1207.6906121437644,1287.2432000941369,8445.3707064835344,0.0
733523.2936376977,3592751.2368613081,-32500.0,-4223.938354539443,2405.6035467368383,-1093.5104715158868,2910.3781697629697,-1381.5370022440632,-1403.4143517706946,3870.0950870145771,-1424.5305388451536,1195.7263618556756,-1195.7263618556756,1424.5305388451536,7577.8037325485739,0.0
738523.2936376977,3592751.2368613081,-32500.0,-4046.2982598461558,2090.6674107102099,-876.32270954993953,2580.8122422721194,-1139.9874020012462,-1174.7621259282587,3462.082289078231,-1493.7106423966416,1152.2348532466381,-1152.2348532466381,1493.7106423966416,6795.9491910936804,0.0
743523.2936376977,3592751.2368613081,-32500.0,-3834.7046089674159,1813.9030112318014,-706.96185781617658,2282.8242915396008,-942.50983656560834,-984.14055708785838,3099.7042419566242,-1514.0718526618534,1090.4823501244291,-1090.4823501244291,1514.0718526618534,6096.0828486786968,0.0
748523.2936376977,3592751.2368613081,-32500.0,-3606.2969280956895,1572.9052780920672,-574.47241726994071,2016.6944928075645,-781.22318606210558,-825.79103250426942,2778.7793633842748,-1500.2220645443683,1019.377655837209,-1019.377655837209,1500.2220645443683,5472.4180255118181,0.0
753523.2936376977,3592751.2368613081,-32500.0,-3372.8259167039191,1364.2961997849175,-470.40934891582214,1780.992418820839,-649.44567193877685,-694.46529629666725,2495.0021974832944,-1463.0680257978281,944.78048697331155,-944.78048697331155,1463.0680257978281,4918.2286139495991,0.0
553523.2936376977,3597751.2368613081,-32500.0,-2178.9668816431949,-1739.414170274626,-836.9465781952789,-1265.4474059830816,-792.67044720273384,-500.33132137503776,2188.8068756330699,-1897.4298011219585,-1132.473895254946,1132.473895254946,1897.4298011219585,4258.1461374504115,0.0
558523.2936376977,3597751.2368613081,-32500.0,-2217.914652118237,-1953.0732578015522,-999.72223603328632,-1386.3405856808956,-924.5998238469416,-575.21384933507977,2418.1526919928133,-1943.9615039096896,-1360.2571636009004,1360.2571636009004,1943.9615039096896,4685.6476225314327,0.0
563523.2936376977,3597751.2368613081,-32500.0,-2218.1045020759475,-2187.973122117734,-1199.3525215342379,-1509.3612509590048,-1078.135724191864,-659.00473848873924,2672.0459917702365,-1955.9635328447839,-1633.8259432142618,1633.8259432142618,1955.9635328447839,5153.9921347450054,0.0
568523.2936376977,3597751.2368613081,-32500.0,-2163.2814893339478,-2441.9243039290063,-1444.0524210953465,-1628.9908837580656,-1255.2187585102729,-750.92779594418573,2951.7357742306103,-1917.4160362337618,-1960.9264797001485,1960.9264797001485,1917.4160362337618,5663.2823334632831,0.0
573523.2936376977,3597751.2368613081,-32500.0,-2032.3847721904419,-2709.7055924308352,-1743.2253285533077,-1736.668553744465,-1456.6839592325964,-848.84052403672581,3257.8006557999047,-1807.0947842793075,-2349.324078041509,2349.324078041509,1807.0947842793075,6211.5624311255515,0.0
578523.2936376977,3597751.2368613081,-32500.0,-1798.6657703496423,-2981.4043985204494,-2107.0156828678168,-1819.591617790888,-1681.1502139411198,-948.4297453182736,3589.8080225055251,-1597.4238413475809,-2805.6861913804137,2805.6861913804137,1597.4238413475809,6793.9684151023257,0.0
583523.2936376977,3597751.2368613081,-32500.0,-1429.0394196017276,-3240.0948793407097,-2545.1903733841732,-1859.1639922288655,-1923.1969129780637,-1042.0477860435685,3945.9484689807373,-1253.462012987663,-3333.5614904522336,3333.5614904522336,1253.462012987663,7401.8695196977806,0.0
588523.2936376977,3597751.2368613081,-32500.0,-884.11315557162118,-3458.7490773940485,-3064.8184665853373,-1829.0657160491321,-2170.4407638945577,-1117.0526641666261,4322.7915097571295,-732.45264247875502,-3929.9454296241443,3929.9454296241443,732.45264247875502,8022.436231927114,0.0
593523.2936376977,3597751.2368613081,-32500.0,-119.72049987761616,-3596.4733963239269,-3665.9246427216658,-1693.008355758386,-2398.9611588073744,-1153.4489880894828,4715.5653675613603,15.240331264079032,-4579.7740940571302,4579.7740940571302,-15.240331264079032,8639.7965622109386,0.0
598523.2936376977,3597751.2368613081,-32500.0,908.60245456899383,-3594.6894464842862,-4333.9639384622351,-1402.4773285700101,-2566.3467999896657,-1120.4961102980926,5119.9589323200235,1042.3509096313242,-5247.6747906908531,5247.6747906908531,-1042.3509096313242,9240.5991008090423,0.0
603523.2936376977,3597751.2368613081,-32500.0,2235.9484436587604,-3375.0723259604652,-5027.8602212342184,-895.33175450272722,-2601.5955762063809,-971.71400980251053,5537.803169262068,2395.7484970608066,-5866.7996581342059,5866.7996581342059,-2395.7484970608066,9830.3236725288389,0.0
608523.2936376977,3597751.2368613081,-32500.0,3870.2444794382413,-2843.3530394614909,-5663.1509630136434,-97.387625068391387,-2391.6104355560747,-637.41079493116729,5991.8184418275832,4099.09708439121,-6326.3323074246282,6326.3323074246282,-4099.09708439121,10472.494854707315,0.0
613523.2936376977,3597751.2368613081,-32500.0,5764.0523154712155,-1906.589647813074,-6092.934209515407,1068.5627457281601,-1766.0524047375197,-13.790127284714004,6559.2036024092613,6124.1690503086547,-6463.4977901743123,6463.4977901743123,-6124.1690503086547,11364.477433156755,0.0
618523.2936376977,3597751.2368613081,-32500.0,7778.1569125871392,-514.80946113229732,-6096.8952154938725,2658.4868631349436,-487.53138522679546,1051.0404790890618,7434.3567810823624,8351.4991388534872,-6073.5588842402612,6073.5588842402612,-8351.4991388534872,12928.374993915131,0.0
623523.2936376977,3597751.2368613081,-32500.0,9650.61951031016,1264.1716910447853,-5401.4604585928873,4657.3884929374772,1735.8507930420894,2769.0125506414465,8985.5177476001645,10531.471065057107,-4960.3254778245109,4960.3254778245109,-10531.471065057107,15787.553778498781,0.0
628523.2936376977,3597751.2368613081,-32500.0,11003.032028029222,3145.4947570922145,-3765.9408447535516,6898.0944814303539,5185.4343841389664,5405.5521595114906,11614.910431685414,12274.567687856506,-3050.1615236675225,3050.1615236675225,-12274.567687856506,20491.09649928243,0.0
633523.2936376977,3597751.2368613081,-32500.0,11428.190603677464,4553.7863296035848,-1159.7790227374894,8961.7085377229123,9979.0986369708135,9219.5952823436073,15412.89397094917,13113.722873141451,-563.93203232617361,563.93203232617361,-13113.722873141451,27155.624466369565,0.0
638523.2936376977,3597751.2368613081,-32500.0,10685.274232412365,4677.1137751001306,2006.5717547648162,10110.772212839041,15821.336595229135,14295.25667600719,20051.065544094294,12667.252751104857,1832.1949876446215,-1832.1949876446215,-12667.252751104857,35255.286305888025,0.0
643523.2936376977,3597751.2368613081,-32500.0,8970.6888836625112,2754.5643182045401,4751.5079519667515,9357.5248427997558,21724.006272134404,20207.225859352991,24784.448844380568,10877.223799707279,3061.1865707775596,-3061.1865707775596,-10877.223799707279,43505.405024226515,0.0
648523.2936376977,3597751.2368613081,-32500.0,7166.0967803632975,-1394.0956253428046,5721.5170791752635,5848.1094558285895,25885.409076965265,25550.174443578391,28441.660690535995,8263.4020872376459,2007.6496673263218,-2007.6496673263218,-8263.4020872376459,49851.913274847495,0.0
653523.2936376977,3597751.2368613081,-32500.0,6793.0949657538031,-6759.2807856435284,3835.7413915903821,-205.75181489791566,26087.49996508563,27783.258253259202,29642.148657288504,6093.3167257461791,-1773.9783831658933,1773.9783831658933,-6093.3167257461791,51867.830341646972,0.0
658523.2936376977,3597751.2368613081,-32500.0,8982.8106515144191,-10972.169612426907,-800.73457372263351,-6471.7858528617598,21064.677978891261,24524.330421723313,27517.329079012354,5946.1808679597589,-7263.1238454031636,7263.1238454031636,-5946.1808679597589,48034.230346009128,0.0
663523.2936376977,3597751.2368613081,-32500.0,12612.249294743589,-11595.570202410378,-6418.7994696299438,-9410.150793020468,12245.774931438476,16261.112455779432,22721.733327427151,8101.6622846914515,-11959.775806655351,11959.775806655351,-8101.6622846914515,39545.395206088157,0.0
668523.2936376977,3597751.2368613081,-32500.0,14644.855488706957,-8421.8803870644952,-10610.313656843769,-7669.0805746119568,3282.4166973067836,6770.7315079389919,17495.617598381898,10654.912795104054,-13642.439439434114,13642.439439434114,-10654.912795104054,30372.922817759267,0.0
673523.2936376977,3597751.2368613081,-32500.0,13386.648303075666,-3606.6757258889211,-12197.927483778916,-3263.9285517142775,-2971.5478962674915,-398.17323399688905,14013.687431035134,11521.021997454594,-12226.188928386211,12226.188928386211,-11521.021997454594,24277.300519732798,0.0
678523.2936376977,3597751.2368613081,-32500.0,9746.6396777057016,636.36011753353853,-11643.376146246153,1116.8373383250507,-6070.436265880162,-4359.0103080030276,12482.670462845854,10379.073270629731,-9213.735508356549,9213.735508356549,-10379.073270629731,21686.158972015557,0.0
683523.2936376977,3597751.2368613081,-32500.0,5478.4503177284341,3418.3192646436569,-10004.544965030886,4189.1861997872365,-6962.4093807653053,-5949.7851691860697,11714.988267107441,8124.0150160989779,-6049.3869248716601,6049.3869248716601,-8124.0150160989779,20652.176377486965,0.0
688523.2936376977,3597751.2368613081,-32500.0,1723.5187059697721,4843.3149003228418,-8099.2864610593733,5889.0836010791954,-6690.1322141286937,-6213.7151626147988,10981.826007445525,5666.3681994026811,-3441.8252518350109,3441.8252518350109,-5666.3681994026811,19753.781986189475,0.0
693523.2936376977,3597751.2368613081,-32500.0,-1128.7210950755868,5329.5959735134011,-6344.018251533781,6585.9354803231663,-5934.1230753644486,-5844.8147643769871,10141.573927727522,3497.5178450693224,-1542.8723548167577,1542.8723548167577,-3497.5178450693224,18596.341097673365,0.0
698523.2936376977,3597751.2368613081,-32500.0,-3101.0578839802829,5260.8780559891347,-4883.1479203910922,6654.5001239081712,-5050.3732995981081,-5217.6655025054542,9236.4766518249271,1774.6873849135641,-261.18952974685044,261.18952974685044,-1774.6873849135641,17212.795479347176,0.0
703523.2936376977,3597751.2368613081,-32500.0,-4358.3080377512497,4902.778665681486,-3727.8914671366902,6364.8970544775693,-4201.2728214294148,-4520.2224795944412,8326.6476187425033,488.68244867837291,553.558619816857,-553.558619816857,-488.68244867837291,15720.218011295616,0.0
708523.2936376977,3597751.2368613081,-32500.0,-5080.9741068165795,4418.2400303479453,-2838.6798030698219,5890.9007325260927,-3450.1556790187506,-3843.8958544149259,7454.3634336534205,-429.16415479668439,1038.6981978465892,-1038.6981978465892,429.16415479668439,14218.500085299551,0.0
713523.2936376977,3597751.2368613081,-32500.0,-5422.8199288007991,3900.3426386841379,-2163.9288368253906,5339.1589483060934,-2813.3350644318884,-3230.311770862646,6643.6023571247633,-1057.6973132749065,1300.5123274803602,-1300.5123274803602,1057.6973132749065,12774.37878507303,0.0
718523.2936376977,3597751.2368613081,-32500.0,-5503.1076936866621,3398.8853110976811,-1655.4617040264372,4772.9939085399683,-2286.2207133658121,-2694.7371910232764,5905.4165613233572,-1467.6339288350698,1415.6025758096073,-1415.6025758096073,1467.6339288350698,11426.626847738566,0.0
723523.2936376977,3597751.2368613081,-32500.0,-5410.2080795581987,2938.0625968338877,-1273.2669277214277,4228.3265787898708,-1856.0178045001021,-2238.4877551003397,5242.6509298187611,-1716.7015589443506,1437.1775263983275,-1437.1775263983275,1716.7015589443506,10194.123321271052,0.0
728523.2936376977,3597751.2368613081,-32500.0,-5207.7914893496245,2527.4192298516778,-985.89954050037738,3723.9167964835433,-1507.7668500633581,-1855.900278434656,4653.246979546585,-1849.8765014050655,1401.3592585553451,-1401.3592585553451,1849.8765014050655,9082.6493510927467,0.0
733523.2936376977,3597751.2368613081,-32500.0,-4940.7467153084535,2168.4379428230072,-769.35727703181908,3267.9521831280877,-1227.0853869325713,-1538.3272756248061,4132.427385041241,-1901.2496148376601,1332.2413156618888,-1332.2413156618888,1901.2496148376601,8089.8857077061512,0.0
738523.2936376977,3597751.2368613081,-32500.0,-4640.080861067484,1858.4273183185312,-605.61030234422901,2862.2974995482336,-1001.2705094224546,-1276.367900460516,3674.1010479132383,-1896.180776023637,1245.6243429296678,-1245.6243429296678,1896.180776023637,7208.8724348743099,0.0
743523.2936376977,3597751.2368613081,-32500.0,-4326.7396264645859,1592.773338236017,-481.23223271116154,2505.2179891619562,-819.60039818417397,-1061.0335870920399,3271.7416265497754,-1853.2626098093431,1151.6705575601106,-1151.6705575601106,1853.2626098093431,6430.3058255057958,0.0
748523.2936376977,3597751.2368613081,-32500.0,-4014.4917712383426,1366.2082212873436,-386.26636595795901,2193.0989049924146,-673.26389422439092,-884.28297679640048,2918.9157095781106,-1785.9558963888599,1056.751091814524,-1056.751091814524,1785.9558963888599,5744.0055330119667,0.0
753523.2936376977,3597751.2368613081,-32500.0,-3712.0580395282518,1173.4951542027613,-313.33906452216928,1921.5028776418833,-555.13744365123102,-739.19873736390343,2609.5782242589844,-1703.8880046051847,964.71424113348144,-964.71424113348144,1703.8880046051847,5139.8049654090228,0.0
548523.2936376977,3602751.2368613081,-32500.0,-2607.1324066084117,-1500.1884357410893,-556.02520492956819,-1354.893730970125,-647.48438287538067,-498.13173135888815,2147.9759165949149,-2290.604591986631,-689.40960253119351,689.40960253119351,2290.604591986631,4224.4234281964191,0.0
553523.2936376977,3602751.2368613081,-32500.0,-2755.4382174475973,-1704.4877172959871,-665.81075828661631,-1514.7779212939788,-761.47958680693694,-580.93902907305733,2385.167117939171,-2442.9072337782059,-849.4267438198458,849.4267438198458,2442.9072337782059,4678.6901474129663,0.0
558523.2936376977,3602751.2368613081,-32500.0,-2891.8634981784944,-1937.6403396440419,-802.82480773578698,-1690.8238347319261,-897.31319613226822,-677.435634194248,2651.7926048974045,-2588.4110557945564,-1046.9921826144041,1046.9921826144041,2588.4110557945564,5186.2574968370591,0.0
563523.2936376977,3602751.2368613081,-32500.0,-3006.0611879051457,-2202.2484130334992,-974.46165728422477,-1882.2627520209712,-1058.822839507013,-789.11062141528907,2950.9091091495475,-2717.8060012495916,-1290.813974144339,1290.813974144339,2717.8060012495916,5751.5268906817901,0.0
568523.2936376977,3602751.2368613081,-32500.0,-3083.5611714829906,-2500.0223203957562,-1190.066195220486,-2086.7476863750148,-1250.0687235427042,-917.05410086462007,3285.4140879665388,-2817.6418482295385,-1591.2651734089216,1591.2651734089216,2817.6418482295385,6377.9858753263243,0.0
573523.2936376977,3602751.2368613081,-32500.0,-3104.4343896866712,-2830.8811981085282,-1461.2867285025454,-2299.4853129189432,-1474.9555018499505,-1061.5199081436249,3657.7287521715634,-2868.8534658652916,-1960.3632528074349,1960.3632528074349,2868.8534658652916,7067.3664152017609,0.0
578523.2936376977,3602751.2368613081,-32500.0,-3041.6489457644243,-3191.5127422183095,-1802.3129160797646,-2511.9855740452849,-1736.4924847120478,-1221.2460853217001,4069.3085805691367,-2844.8919556714563,-2411.4067375103987,2411.4067375103987,2844.8919556714563,7818.4028604018304,0.0
583523.2936376977,3602751.2368613081,-32500.0,-2859.1580473548483,-3573.1243021467722,-2229.7657212484451,-2710.2703742194585,-2035.4324862522176,-1392.4255593794044,4519.9064599164067,-2709.4635493072051,-2957.9414826388188,2957.9414826388188,2709.4635493072051,8625.0561318303844,0.0
588523.2936376977,3602751.2368613081,-32500.0,-2509.9332950478538,-3958.0361937527719,-2761.7734612688892,-2872.3224300740935,-2367.8540286814937,-1567.1657225116219,5006.5037215251987,-2414.0309150364983,-3611.4929216045384,3611.4929216045384,2414.0309150364983,9474.1078192536988,0.0
593523.2936376977,3602751.2368613081,-32500.0,-1934.5445342370438,-4314.7540612311095,-3415.3615114002614,-2964.4858919250387,-2720.9603099447204,-1731.1491551431568,5521.8629583534512,-1895.5782938349105,-4377.1547597427434,4377.1547597427434,1895.5782938349105,10342.247946767306,0.0
598523.2936376977,3602751.2368613081,-32500.0,-1061.7213881510502,-4591.4018528933084,-4200.6363898105137,-2936.5382844158403,-3065.9108546153197,-1859.9171703545164,6052.8909987792631,-1075.9021133256824,-5245.6971874692808,5245.6971874692808,1075.9021133256824,11193.59403839852,0.0
603523.2936376977,3602751.2368613081,-32500.0,186.09535224804034,-4708.3988514951188,-5109.441357773725,-2715.5143116863119,-3345.9104361823079,-1912.5663300569095,6579.8946112714075,134.83154884837541,-6180.6441032673938,6180.6441032673938,-134.83154884837541,11981.152408239519,0.0
608523.2936376977,3602751.2368613081,-32500.0,1876.7940534032934,-4553.9845576144962,-6095.7944948134073,-2199.7865729892778,-3457.4255955309977,-1820.5144827320585,7080.6590628299937,1825.0975063780393,-7099.6894232544491,7099.6894232544491,-1825.0975063780393,12662.938958831908,0.0
613523.2936376977,3602751.2368613081,-32500.0,4034.5813929647152,-3991.9461928167148,-7047.4170573427837,-1258.7903558410449,-3223.6902159665156,-1467.677000060743,7551.5466084008185,4051.6627009862864,-7854.0407119146603,7854.0407119146603,-4051.6627009862864,13260.717047580754,0.0
618523.2936376977,3602751.2368613081,-32500.0,6582.4308953369818,-2899.7033667865489,-7756.2036155481428,248.42610677953539,-2366.0846328414405,-658.87221827822907,8079.0234732571625,6784.2176615825319,-8220.2158208717356,8220.2158208717356,-6784.2176615825319,14014.548390807682,0.0
623523.2936376977,3602751.2368613081,-32500.0,9270.7981736162546,-1260.5169966908365,-7915.6701221479761,2412.4686109316149,-496.13051155769341,919.03917439674103,9019.0462042878426,9828.6775505425358,-7937.6905142903806,7937.6905142903806,-9828.6775505425358,15638.238064274688,0.0
628523.2936376977,3602751.2368613081,-32500.0,11638.868265043435,683.66032701833649,-7202.036602082715,5146.0106786015613,2819.0758219508693,3715.2755140576874,11119.558146718087,12764.762189573637,-6840.6574998140941,6840.6574998140941,-12764.762189573637,19317.437163847153,0.0
633523.2936376977,3602751.2368613081,-32500.0,13098.236405764002,2281.9402954633665,-5500.6127009382253,7997.610830032886,7840.4491297432041,8241.9017563518591,14929.861925577281,14978.534906671917,-5102.9128800049539,5102.9128800049539,-14978.534906671917,25905.674245912265,0.0
638523.2936376977,3602751.2368613081,-32500.0,13216.542141322638,2510.1486086897476,-3248.1780147691261,10003.869931740048,14252.963227730279,14799.044590374002,20211.813797331331,15874.768077094413,-3484.9357748281545,3484.9357748281545,-15874.768077094413,35046.004694534895,0.0
643523.2936376977,3602751.2368613081,-32500.0,12131.555264523397,425.03661115142921,-1625.9338700509941,9784.3143345816825,20723.460311559222,22910.773347402795,25990.950395067481,15233.084943646943,-3266.2606975053668,3266.2606975053668,-15233.084943646943,45054.198879029005,0.0
648523.2936376977,3602751.2368613081,-32500.0,10829.984290619361,-3990.6317791846063,-2137.9105233149903,6117.5010849717537,24847.603437552487,30547.592009470784,30670.37435130505,13493.264407473265,-5545.6548795516956,5545.6548795516956,-13493.264407473265,53149.819259098855,0.0
653523.2936376977,3602751.2368613081,-32500.0,10984.754353206859,-9151.9887328665609,-5468.3700698376679,-780.3511797498943,23988.03241833573,33775.652894316227,32370.924397913866,11836.415823690975,-10168.53714464427,10168.53714464427,-11836.415823690975,56075.774485077971,0.0
658523.2936376977,3602751.2368613081,-32500.0,13726.779800815619,-12182.147213034035,-10494.698185880507,-7699.177992947134,17180.185065744445,28745.140600000133,29912.593712296843,11817.562034196591,-15219.40773914415,15219.40773914415,-11817.562034196591,51812.358434925794,0.0
663523.2936376977,3602751.2368613081,-32500.0,17295.082573580909,-10863.228605049868,-14715.684209225723,-9736.6900568724086,6983.4665117065033,16525.755305523784,24379.904798338219,13644.963400425222,-17902.481315044286,17902.481315044286,-13644.963400425222,42253.985838487228,0.0
668523.2936376977,3602751.2368613081,-32500.0,17816.348673714983,-6022.4724611192805,-16192.12046966681,-5741.6612209847563,-1925.6240134708883,3701.1803060926118,19094.096528844588,15062.859343394824,-16770.374095271713,16770.374095271713,-15062.859343394824,33084.940857239337,0.0
673523.2936376977,3602751.2368613081,-32500.0,14104.706837789228,-650.3775263022228,-14980.673742500323,536.16862245305333,-6910.3798477478349,-4573.1129241848421,16289.11732015975,14096.694540140001,-12942.531354699262,12942.531354699262,-14096.694540140001,28230.48477178083,0.0
678523.2936376977,3602751.2368613081,-32500.0,8359.8804117331856,3174.2734088606931,-12389.521503650787,5510.7656431378064,-8461.6378364516113,-8087.1771972866363,15125.168419478588,11161.156186044762,-8522.4520834659888,8522.4520834659888,-11161.156186044762,26380.075222688502,0.0
683523.2936376977,3602751.2368613081,-32500.0,2935.251293379757,5151.0577897951653,-9591.8700668765141,8234.249407650761,-8131.3270612790329,-8782.398646515323,14151.559566053897,7670.5324421277282,-4823.0637430741162,4823.0637430741162,-7670.5324421277282,25076.042055127684,0.0
688523.2936376977,3602751.2368613081,-32500.0,-1169.3837735664749,5804.6020683944516,-7163.3568378122827,9225.2014966839524,-7077.1901555469731,-8242.5231692311008,12987.522917502512,4572.1703915588678,-2182.9521766608364,2182.9521766608364,-4572.1703915588678,23456.638974114303,0.0
693523.2936376977,3602751.2368613081,-32500.0,-3906.9767374154999,5707.3507605907807,-5253.8768952958553,9198.3719606461473,-5882.3037374683536,-7278.5121640924617,11716.091712658175,2176.5961624678389,-463.93055098338709,463.93055098338709,-2176.5961624678389,21540.577049886579,0.0
698523.2936376977,3602751.2368613081,-32500.0,-5563.6155269300507,5250.0089883975852,-3823.8128364397626,8654.6317291558225,-4779.6925304864199,-6234.538993002092,10451.695148077099,457.77330328260643,583.76672355521657,-583.76672355521657,-457.77330328260643,19508.36852341094,0.0
703523.2936376977,3602751.2368613081,-32500.0,-6451.7378478129303,4656.4725972014721,-2778.4694294835008,7883.6727335993783,-3840.1093417546563,-5247.0668233834003,9261.5004454003029,-716.37568640610846,1179.5586369259781,-1179.5586369259781,716.37568640610846,17500.384877154462,0.0
708523.2936376977,3602751.2368613081,-32500.0,-6820.7387301897297,4043.559406786494,-2023.1767400418144,7042.4484952967305,-3068.8363535461954,-4367.2584949870652,8175.4254315474427,-1483.5606131817563,1483.658769734217,-1483.658769734217,1483.5606131817563,15599.938235254363,0.0
713523.2936376977,3602751.2368613081,-32500.0,-6850.8629203582723,3467.3269769228164,-1480.0340880025865,6213.7191772454444,-2447.8824474079238,-3609.4950470591834,7202.5172367185714,-1957.3900905037065,1604.8781786421039,-1604.8781786421039,1957.3900905037065,13849.830633296917,0.0
718523.2936376977,3602751.2368613081,-32500.0,-6667.6263659764427,2951.1443474448533,-1089.7640434553612,5439.300884141946,-1953.153138269912,-2970.954350471337,6341.118628823484,-2224.2768705285121,1614.7755043494703,-1614.7755043494703,2224.2768705285121,12267.378174364105,0.0
723523.2936376977,3602751.2368613081,-32500.0,-6356.935188834781,2501.3992621398875,-808.89902506516603,4737.9852327122308,-1561.1254067757616,-2440.7385682337076,5584.2791419629884,-2347.7761169743671,1559.6151751593763,-1559.6151751593763,2347.7761169743671,10854.397513419044,0.0
728523.2936376977,3602751.2368613081,-32500.0,-5976.7969734001881,2116.0602235401166,-606.14821545105781,4115.4825790565255,-1251.1917918069601,-2004.7636757997905,4922.6344699900656,-2373.8641894465877,1468.9261717606519,-1468.9261717606519,2373.8641894465877,9603.6288342673488,0.0
733523.2936376977,3602751.2368613081,-32500.0,-5565.7486302394163,1789.2939844506268,-459.18945839262602,3570.2086078863585,-1006.2095958601067,-1648.4870264703343,4346.0045131858005,-2335.4418195389144,1361.2880911030729,-1361.2880911030729,2335.4418195389144,8502.9064165695563,0.0
738523.2936376977,3602751.2368613081,-32500.0,-5148.8209339616033,1513.9180397290888,-352.15845921627164,3096.7583952450595,-812.32241726903862,-1358.3434478828688,3844.30122502831,-2255.8287689610911,1248.1627105134748,-1248.1627105134748,2255.8287689610911,7537.8533845960401,0.0
743523.2936376977,3602751.2368613081,-32500.0,-4741.7457976023334,1282.6618366735822,-273.78828633066883,2688.0003213824848,-658.52058504834724,-1122.3879281448781,3408.0308013177646,-2151.3858568832902,1136.41185720102,-1136.41185720102,2151.3858568832902,6693.5721374121786,0.0
748523.2936376977,3602751.2368613081,-32500.0,-4353.9186551540806,1088.77145635232,-216.06685901096219,2336.3121683274635,-536.14643633100422,-930.47330185222518,3028.5454390841219,-2033.4551592465507,1029.9471468329705,-1029.9471468329705,2033.4551592465507,5955.6509778050213,0.0
753523.2936376977,3602751.2368613081,-32500.0,-3990.4749556160978,926.25767567265484,-173.28270010155566,2034.2776650499613,-438.43289628895457,-774.17865882865874,2698.1392504280625,-1909.7830734954157,930.80853321721929,-930.80853321721929,1909.7830734954157,5310.7140935271173,0.0
548523.2936376977,3607751.2368613081,-32500.0,-3085.932330504907,-1383.4213929569503,-401.37927561860738,-1551.6043479816451,-587.33899818066527,-558.90422400748173,2310.0712683029205,-2734.8327350801446,-386.12777763359395,386.12777763359395,2734.8327350801446,4561.5401826901871,0.0
553523.2936376977,3607751.2368613081,-32500.0,-3320.6672382185229,-1585.1018660783882,-483.14043842555151,-1756.4238421007349,-695.49843077536946,-658.30783227257098,2578.8288655715096,-2972.8933637604268,-502.5883962804462,502.5883962804462,2972.8933637604268,5082.2309962641411,0.0
558523.2936376977,3607751.2368613081,-32500.0,-3560.8423002037612,-1819.7505360270786,-587.15113085850282,-1989.0557494496811,-826.17868333358649,-776.44169305948014,2884.5326275772027,-3222.6810876122663,-651.09255700207245,651.09255700207245,3222.6810876122663,5671.5955804408659,0.0
563523.2936376977,3607751.2368613081,-32500.0,-3799.491287677904,-2092.3451485144265,-720.31949961526277,-2252.0052576574267,-984.16691562498863,-916.44012618813576,3232.2271274475265,-3478.9224246639151,-840.53144974089628,840.53144974089628,3478.9224246639151,6337.9755724273627,0.0
568523.2936376977,3607751.2368613081,-32500.0,-4025.9102487166233,-2408.0308775506555,-891.81581405560564,-2547.1397290656882,-1175.0654202124829,-1081.5999899372721,3627.3638263541761,-3732.8658330310345,-1082.1839565034143,1082.1839565034143,3732.8658330310345,7089.8308283466686,0.0
573523.2936376977,3607751.2368613081,-32500.0,-4224.0991003301251,-2771.6296584881566,-1113.7774127468899,-2875.0637135842549,-1405.2357089902769,-1275.144374571197,4075.6292968388129,-3970.6914213640721,-1390.2164000384146,1390.2164000384146,3970.6914213640721,7935.1160225923541,0.0
578523.2936376977,3607751.2368613081,-32500.0,-4370.5997178678326,-3186.7115588359561,-1402.1564143451328,-3234.1288641587339,-1681.5421568282445,-1499.8249932159667,4582.599545639081,-4171.2676159560688,-1782.1334795365078,1782.1334795365078,4171.2676159560688,8880.2130290773766,0.0
583523.2936376977,3607751.2368613081,-32500.0,-4431.5284674100749,-3653.917704610818,-1777.6299503522671,-3618.858992882931,-2010.7032861102757,-1757.298954759558,5153.0849482607846,-4303.0208043591274,-2278.9790942846507,2278.9790942846507,4303.0208043591274,9928.1466149989537,0.0
588523.2936376977,3607751.2368613081,-32500.0,-4358.6073805070218,-4168.0239655732348,-2266.3163813471278,-4017.3966836292002,-2397.8813631625871,-2047.1744870819543,5789.9096159977325,-4319.6522565324176,-2904.8534412260933,2904.8534412260933,4319.6522565324176,11075.622699288202,0.0
593523.2936376977,3607751.2368613081,-32500.0,-4084.18945742089,-4712.9610038336605,-2899.6508018056484,-4407.2743817651617,-2843.7880282400415,-2365.4883469664301,6491.6669654560446,-4154.5316205665413,-3684.871126639935,3684.871126639935,4154.5316205665413,12308.159699121827,0.0
598523.2936376977,3607751.2368613081,-32500.0,-3516.0077633260371,-5253.7610853510187,-3711.9716407397382,-4748.3546047272303,-3338.8842161487955,-2701.9535835516172,7248.7107857141536,-3714.1044137423519,-4639.9065735035711,4639.9065735035711,3714.1044137423519,13592.339227353186,0.0
603523.2936376977,3607751.2368613081,-32500.0,-2534.3835171167011,-5724.6620445094586,-4732.9519481475418,-4971.3872812737991,-3851.9844646500678,-3034.1767311800886,8036.4968761332366,-2872.2183427399586,-5775.370459621,5775.370459621,2872.2183427399586,14864.634568019377,0.0
608523.2936376977,3607751.2368613081,-32500.0,-999.0623559428459,-6014.7405661701087,-5970.0588334202594,-4961.3312093009108,-4308.7222832499265,-3314.5024856817968,8806.3316453052048,-1471.117776387322,-7060.4462993841826,7060.4462993841826,1471.117776387322,16019.769715180866,0.0
613523.2936376977,3607751.2368613081,-32500.0,1219.8978713797676,-5959.4651235928632,-7375.4218966868411,-4539.2668762542871,-4554.2384661752731,-3440.949507859445,9478.7746408418789,657.92632704500875,-8396.338193533591,8396.338193533591,-657.92632704500875,16915.239153292208,0.0
618523.2936376977,3607751.2368613081,-32500.0,4167.0702005042231,-5362.1155985749592,-8797.6669439393154,-3460.6248970734728,-4299.5712145167281,-3200.6133374945048,9964.4606990596239,3632.967232009727,-9583.6248977324285,9583.6248977324285,-3632.967232009727,17449.660526935582,0.0
623523.2936376977,3607751.2368613081,-32500.0,7674.9988132771623,-4089.8341279691613,-9944.3266492912171,-1473.5978648903597,-3075.4978661355881,-2183.3199277397043,10306.796006406474,7400.7933404574105,-10328.505004092989,10328.505004092989,-7400.7933404574105,17860.596706230925,0.0
628523.2936376977,3607751.2368613081,-32500.0,11238.752415199546,-2285.1974794298744,-10431.770413443694,1496.540403430748,-275.77959652383993,291.15156755898727,11175.3257022828,11583.420111342421,-10368.836985763206,10368.836985763206,-11583.420111342421,19360.649140800917,0.0
633523.2936376977,3607751.2368613081,-32500.0,14054.299469355308,-635.77997585591731,-10038.129295938259,5015.0763042187455,4555.8626190582881,5089.3743256445141,13912.719866626718,15419.040035439313,-9790.1191623504928,9790.1191623504928,-15419.040035439313,24161.155982025095,0.0
638523.2936376977,3607751.2368613081,-32500.0,15426.521988970264,-407.18254516768025,-9166.3356126572071,7831.7750532675045,11079.345672915189,12783.509680013214,18942.714615779198,18007.272056950638,-9408.5003541487713,9408.5003541487713,-18007.272056950638,33159.585788663702,0.0
643523.2936376977,3607751.2368613081,-32500.0,15471.364198846613,-2760.31901891292,-9129.593093925283,8075.6615115901586,17422.219205761667,22654.887145905715,25284.153526788479,18904.63535014321,-10692.487856154557,10692.487856154557,-18904.63535014321,44301.690925433628,0.0
648523.2936376977,3607751.2368613081,-32500.0,15414.140752216332,-7345.6694057260875,-11453.462646459024,4377.8864495731686,20339.154469836812,31636.713819370907,30635.640753074953,18578.986850773279,-14579.0809465039,14579.0809465039,-18578.986850773279,53677.923847485101,0.0
653523.2936376977,3607751.2368613081,-32500.0,16801.621361811576,-11570.117705202507,-16063.215395627061,-2418.7444731052278,17195.721987990622,34417.956347365536,32590.982769385679,18111.350020981463,-19806.605417001261,19806.605417001261,-18111.350020981463,57233.059822632073,0.0
658523.2936376977,3607751.2368613081,-32500.0,19919.001489095397,-12227.206971734196,-20422.632181192759,-8116.2126505291426,8642.7713833255148,26620.449756685575,30116.238640466148,18492.518446153073,-23201.671767653803,23201.671767653803,-18492.518446153073,53037.054716965788,0.0
663523.2936376977,3607751.2368613081,-32500.0,22113.125913675594,-8464.6369925839717,-21691.334360509918,-7508.7186426163635,-1059.8712154649231,10961.438433295451,25196.335677952826,19429.263759894027,-22445.61600705087,22445.61600705087,-19429.263759894027,44069.944503471088,0.0
668523.2936376977,3607751.2368613081,-32500.0,19680.089246767857,-2695.2841220621485,-19474.767494576481,-818.26771130641498,-7534.5933294010056,-3298.1627000913504,21247.866593001134,18778.517616645273,-18021.284523124283,18021.284523124283,-18778.517616645273,36817.188260093062,0.0
673523.2936376977,3607751.2368613081,-32500.0,12971.54319797017,2066.3489018881946,-15479.243869109123,6567.0082279594981,-9798.2240023581853,-10661.053086738297,19364.972292866172,15446.669543157224,-12271.718073960668,12271.718073960668,-15446.669543157224,33552.685324817816,0.0
678523.2936376977,3607751.2368613081,-32500.0,5430.5910104233399,4705.1326201114107,-11415.027336218285,11086.530214515888,-9403.0365937074348,-12441.772844597806,18147.688332440361,10759.557664132555,-7196.5289047172464,7196.5289047172464,-10759.557664132555,31662.671931651821,0.0
683523.2936376977,3607751.2368613081,-32500.0,-556.49487295538586,5631.3619182060711,-8077.3937971049609,12698.935536154117,-7991.1234384659865,-11650.414206823365,16609.182247701468,6360.9532782736451,-3528.1170138327971,3528.1170138327971,-6360.9532782736451,29439.811220064112,0.0
688523.2936376977,3607751.2368613081,-32500.0,-4497.5428011060985,5579.6361186501681,-5596.3604179160739,12567.690707594782,-6441.4436171664393,-10101.788110017918,14842.911514895943,2968.923346844781,-1163.9186525111299,1163.9186525111299,-2968.923346844781,26798.714084773666,0.0
693523.2936376977,3607751.2368613081,-32500.0,-6781.6254792328937,5083.3142653760342,-3838.9371024944344,11636.518674025772,-5076.0355223490251,-8502.3179183136872,13083.758235454172,608.62865358056126,249.67906929804042,-249.67906929804042,-608.62865358056126,24035.973481012825,0.0
698523.2936376977,3607751.2368613081,-32500.0,-7931.3679301955635,4438.0624546198696,-2622.9468900864722,10423.242622727812,-3964.4545752262816,-7059.2800015326484,11457.812553156364,-937.31271755351236,1039.835313529331,-1039.835313529331,937.31271755351236,21365.446800669055,0.0
703523.2936376977,3607751.2368613081,-32500.0,-8357.3281315999593,3786.4292788363982,-1790.9652045416417,9170.9795837727652,-3088.3301725124943,-5814.8329877854467,10006.786647035786,-1901.3902673110531,1441.5543791323646,-1441.5543791323646,1901.3902673110531,18889.985367484252,0.0
708523.2936376977,3607751.2368613081,-32500.0,-8337.8451959460417,3189.2859036586724,-1224.5821038799595,7985.7167290280477,-2407.1765849218559,-4764.5406276341928,8732.9160318283248,-2466.2380636397088,1608.3360383765753,-1608.3360383765753,2466.2380636397088,16648.192332503706,0.0
713523.2936376977,3607751.2368613081,-32500.0,-8053.3939313797164,2667.4188462551401,-839.73946919488969,6910.0901926168253,-1880.5081075119658,-3890.8448343933223,7623.6994645111126,-2762.1400415536855,1636.6839108940576,-1636.6839108940576,2762.1400415536855,14647.142259113416,0.0
718523.2936376977,3607751.2368613081,-32500.0,-7619.9424680215589,2222.9794543468179,-578.3434203123843,5957.2075532269528,-1473.9035920505601,-3172.046185290405,6662.2481022530528,-2879.2493209845284,1586.3471930429764,-1586.3471930429764,2879.2493209845284,12878.456822066821,0.0
723523.2936376977,3607751.2368613081,-32500.0,-7111.8772415975291,1850.0696817292585,-400.74997048410893,5125.8800143295111,-1159.7763015413011,-2585.5669277029683,5831.1288397865001,-2879.5046298320403,1494.0219517621442,-1494.0219517621442,2879.5046298320403,11325.966809777019,0.0
728523.2936376977,3607751.2368613081,-32500.0,-6576.5602490601505,1539.8732854344673,-280.05559224338617,4407.9452887085254,-916.59238448097688,-2109.7839066764163,5113.7586398531739,-2805.4086497535732,1382.0415580836802,-1382.0415580836802,2805.4086497535732,9969.8035463899159,0.0
733523.2936376977,3607751.2368613081,-32500.0,-6043.5710457042687,1283.0868980662949,-198.03365838209012,3792.1227486683701,-727.76450572135604,-1725.1322871236989,4494.9302052520679,-2686.0599397281599,1263.7880541631066,-1263.7880541631066,2686.0599397281599,8788.8605492569113,0.0
738523.2936376977,3607751.2368613081,-32500.0,-5530.7137447759951,1071.0118659836596,-142.33067968072956,3266.1688576507831,-580.60606021735271,-1414.6306497760743,3961.0048922849974,-2541.2619130651233,1147.0611918150348,-1147.0611918150348,2541.2619130651233,7762.3363828365063,0.0
743523.2936376977,3607751.2368613081,-32500.0,-5048.0114577070472,895.97832435629982,-104.56009085939607,2818.0865300443988,-465.4483535843579,-1163.9787137917924,3499.9469983428603,-2384.3492108498203,1036.1873095857252,-1036.1873095857252,2384.3492108498203,6870.6613837803106,0.0
748523.2936376977,3607751.2368613081,-32500.0,-4600.3978755183252,751.44258134698623,-79.01577194837003,2436.7639596032982,-374.93237466343066,-961.39065111804507,3101.2661123840921,-2224.1530358945747,933.34706764511157,-933.34706764511157,2224.1530358945747,6095.9908191299037,0.0
753523.2936376977,3607751.2368613081,-32500.0,-4189.5399947440328,631.93119212279657,-61.806099626343048,2112.2640332396668,-303.45523493479686,-797.29767116579205,2755.9055407908195,-2066.3785460643262,839.41402854401224,-839.41402854401224,2066.3785460643262,5422.404064915042,0.0
543523.2936376977,3612751.2368613081,-32500.0,-3232.3382327751792,-1041.3308833488825,-212.77734954355071,-1517.7181085656241,-421.83675278201969,-518.62837079484802,2202.5050609111281,-2846.8147978264801,-2.8314897242457846,2.8314897242457846,2846.8147978264801,4357.1906694476602,0.0
548523.2936376977,3612751.2368613081,-32500.0,-3526.0945861965761,-1196.4039407354117,-253.12620807613274,-1731.0285674931104,-499.68817440890734,-613.95209893712763,2463.5219184998246,-3136.6070032123998,-47.136743129023898,47.136743129023898,3136.6070032123998,4867.6624045307981,0.0
553523.2936376977,3612751.2368613081,-32500.0,-3844.5437135699835,-1379.0288302976596,-305.22227137613294,-1978.3905357307931,-594.39742794156848,-728.80803704707398,2763.0184780148493,-3456.4216129212709,-108.1770814251106,108.1770814251106,3456.4216129212709,5451.0722592916964,0.0
558523.2936376977,3612751.2368613081,-32500.0,-4186.8769902801696,-1594.5303929431286,-373.13443272098249,-2265.2760275523628,-709.98112904060372,-867.28799983762133,3107.3383330855472,-3807.289593155956,-191.59199501478906,191.59199501478906,3807.289593155956,6118.6986467875204,0.0
563523.2936376977,3612751.2368613081,-32500.0,-4550.4952472828327,-1849.1946549993907,-462.48033445924108,-2597.818257186992,-851.43089068690801,-1034.230919334284,3503.8945446209887,-4188.9245924272891,-304.92734757983953,304.92734757983953,4188.9245924272891,6883.3701872406282,0.0
568523.2936376977,3612751.2368613081,-32500.0,-4930.0207903856835,-2150.3362295378674,-581.05105247646782,-2982.7484583907458,-1024.9215660309585,-1235.2866072654913,3961.3242060498296,-4598.8366536120602,-458.28057643096145,458.28057643096145,4598.8366536120602,7759.5042857769649,0.0
573523.2936376977,3612751.2368613081,-32500.0,-5315.8085871263793,-2506.2620863843899,-739.68887271693063,-3427.2220405509711,-1238.0363939056297,-1476.9595820555487,4489.6337457828604,-5030.9692622547054,-665.14666105303968,665.14666105303968,5030.9692622547054,8763.0134504151847,0.0
578523.2936376977,3612751.2368613081,-32500.0,-5691.6785435920201,-2926.005713620285,-953.50751906266225,-3938.4409248845568,-1499.9821798304449,-1766.6442251334538,5100.289783957227,-5473.5937886671454,-943.4998357037075,943.4998357037075,5473.5937886671454,9910.9532268607909,0.0
583523.2936376977,3612751.2368613081,-32500.0,-6031.4190305615057,-3418.5750616711698,-1243.5433469303325,-4522.8725787937447,-1821.7243538991468,-2112.6949018793207,5806.1351231908238,-5906.0269806268207,-1317.1021752775632,1317.1021752775632,5906.0269806268207,11220.647160733084,0.0
588523.2936376977,3612751.2368613081,-32500.0,-6293.3760542576802,-3991.2075094657507,-1638.8709263499604,-5184.6224003550842,-2215.8605008428526,-2524.6199183368458,6620.8392729895268,-6293.4782537281772,-1816.8998551062764,1816.8998551062764,6293.4782537281772,12707.733856534305,0.0
593523.2936376977,3612751.2368613081,-32500.0,-6412.1905964203343,-4645.6554564835415,-2178.98951873233,-5921.9614978264808,-2695.7593544799752,-3013.4638473908749,7557.204131378493,-6578.971340122911,-2482.0216016619343,2482.0216016619343,6578.971340122911,14381.947866684513,0.0
598523.2936376977,3612751.2368613081,-32500.0,-6286.8666814182743,-5370.7546359711778,-2915.6397319518783,-6719.9102179322681,-3272.7425836344005,-3592.0718442531097,8622.8891480376205,-6671.0389542364992,-3359.0687395461669,3359.0687395461669,6671.0389542364992,16238.271260442636,0.0
603523.2936376977,3612751.2368613081,-32500.0,-5765.898306832617,-6128.6372698897831,-3911.6560295108279,-7534.9560978008249,-3948.3251670339787,-4273.3995201661646,9810.8744032896666,-6426.510523142686,-4496.7043250033967,4496.7043250033967,6426.510523142686,18239.336668887529,0.0
608523.2936376977,3612751.2368613081,-32500.0,-4635.7396880807428,-6832.1923762232891,-5231.3430565501958,-8266.2793533846125,-4694.93568933186,-5060.6465003995172,11080.695485486562,-5631.4528323052273,-5929.7913602741919,5929.7913602741919,5631.4528323052273,20283.987716068546,0.0
613523.2936376977,3612751.2368613081,-32500.0,-2632.2685657290785,-7317.0032017373032,-6912.4572716652492,-8710.5169359369029,-5413.245225220714,-5913.5398406878721,12327.528364688062,-3994.4996229648227,-7645.2082152678104,7645.2082152678104,3994.4996229648227,22162.736548713008,0.0
618523.2936376977,3612751.2368613081,-32500.0,484.05597440340091,-7331.1337199876571,-8909.3771274965056,-8515.7957211047033,-5853.1302160840014,-6662.2848026083047,13347.125827435946,-1189.1765651093729,-9527.9946757215766,9527.9946757215766,1189.1765651093729,23531.859107599055,0.0
623523.2936376977,3612751.2368613081,-32500.0,4742.2677428140005,-6608.0866421495402,-11018.470553667981,-7202.3762268340988,-5510.8060298760829,-6844.0030815173477,13848.360113055231,2996.4484654638691,-11320.778625886032,11320.778625886032,-2996.4484654638691,24036.730381154386,0.0
628523.2936376977,3612751.2368613081,-32500.0,9693.0438138687787,-5120.1441126447826,-12867.807430593206,-4390.3564158465542,-3608.9723819359892,-5512.2719511667137,13763.903653241381,8379.6868329414629,-12704.197717051264,12704.197717051264,-8379.6868329414629,23931.070386155305,0.0
633523.2936376977,3612751.2368613081,-32500.0,14308.060374635565,-3498.0922894677788,-14144.561287821096,-348.78106662358795,571.9874343604406,-1285.3912964242634,14665.846145945241,14126.328044157959,-13642.437844473112,13642.437844473112,-14126.328044157959,25437.94874288245,0.0
638523.2936376977,3612751.2368613081,-32500.0,17487.441217074214,-3197.9132350533678,-15121.554980125213,3387.4843058832284,6744.814243351916,6845.9969423282591,18004.571455156132,18919.812595201518,-14884.152611162923,14884.152611162923,-18919.812595201518,32111.723837722599,0.0
643523.2936376977,3612751.2368613081,-32500.0,19200.994875142525,-5591.7635588398671,-16959.93965834922,4306.3577430639561,12462.676339297037,17711.157072097642,22756.142296835977,21843.870536969003,-17857.780213881477,17857.780213881477,-21843.870536969003,43259.119159956332,0.0
648523.2936376977,3612751.2368613081,-32500.0,20918.544864857657,-9908.1717205306686,-20720.359829222532,1071.8570439377011,13600.660382113078,26558.14523233537,28446.761492390753,23272.482428547351,-23018.404798003066,23018.404798003066,-23272.482428547351,53416.536580247099,0.0
653523.2936376977,3612751.2368613081,-32500.0,23714.775724253177,-12554.350996080353,-25263.946421933553,-4080.0186058669165,8060.1606571811772,26999.387901820901,31141.652150946404,24190.465139613021,-27830.4556210503,27830.4556210503,-24190.465139613021,57343.294456834206,0.0
658523.2936376977,3612751.2368613081,-32500.0,26210.240461059657,-10587.778483488888,-27266.399698235778,-6220.938800556054,-924.7245944716999,16396.03039457924,30043.867522413937,24717.055730521708,-28421.23816849514,28421.23816849514,-24717.055730521708,53723.435545735651,0.0
663523.2936376977,3612751.2368613081,-32500.0,25299.293772186313,-5288.234997099783,-24856.242615075589,-1936.0174308310566,-7809.8506163919183,198.98363654941588,26794.191460923954,23974.150782667239,-24087.477967168372,24087.477967168372,-23974.150782667239,46527.475317727905,0.0
668523.2936376977,3612751.2368613081,-32500.0,19167.993942445326,-141.90738011671991,-19574.023791995547,6384.674127562891,-10316.447437033616,-11994.139564402381,23800.531755000815,20728.433920003634,-17442.0176215053,17442.0176215053,-20728.433920003634,41308.333799505453,0.0
673523.2936376977,3612751.2368613081,-32500.0,10071.690103609442,2977.7113190410691,-13979.516225321002,13236.959868106507,-9754.5727804473117,-16469.115453735973,22226.492821712462,15257.3554525789,-11091.707085227565,11091.707085227565,-15257.3554525789,38499.911416121664,0.0
678523.2936376977,3612751.2368613081,-32500.0,1746.7588676924454,4215.6858841130024,-9445.6082598248049,16271.712180796387,-8036.598997536581,-15944.576302283071,20556.881417084103,9426.3096951011066,-6224.3396811128277,6224.3396811128277,-9426.3096951011066,35799.820508787416,0.0
683523.2936376977,3612751.2368613081,-32500.0,-4049.8648002778391,4340.8095905178761,-6195.9307660123122,16399.982322741227,-6235.5012823109828,-13700.947282667508,18387.556868364467,4670.283023441596,-2951.6432528768332,2951.6432528768332,-4670.283023441596,32512.885223406392,0.0
688523.2936376977,3612751.2368613081,-32500.0,-7431.1829203249099,3960.5736900748766,-3995.5580957889665,15121.803685397259,-4721.2451847507255,-11321.020156204204,16097.591159862342,1337.5219793911351,-930.00568101196268,930.00568101196268,-1337.5219793911351,28986.792048686759,0.0
693523.2936376977,3612751.2368613081,-32500.0,-9110.5552902075524,3412.8274099803261,-2545.036105326617,13388.067389583606,-3546.4170624890626,-9253.5371591661933,13960.834458206884,-803.38981624675739,243.39803501467196,-243.39803501467196,803.38981624675739,25582.40950739403,0.0
698523.2936376977,3612751.2368613081,-32500.0,-9733.442764602778,2855.4608777925241,-1601.9080169643598,11632.222512142236,-2662.884091532916,-7540.0068027014277,12074.915243356427,-2099.0246865751105,883.25346499026966,-883.25346499026966,2099.0246865751105,22466.789827981342,0.0
703523.2936376977,3612751.2368613081,-32500.0,-9737.193304788505,2351.850599714056,-994.01233177126539,10014.847466420995,-2005.5257805606534,-6132.3324591349174,10446.408064950221,-2834.0978595943229,1200.4651589629807,-1200.4651589629807,2834.0978595943229,19684.303353535473,0.0
708523.2936376977,3612751.2368613081,-32500.0,-9391.3483391653372,1920.9571927399481,-605.11028828918643,8581.8285303333105,-1517.3325221748241,-4979.2114343446538,9050.3456887128013,-3206.6616407878328,1327.1552073467274,-1327.1552073467274,3206.6616407878328,17228.44486088134,0.0
713523.2936376977,3612751.2368613081,-32500.0,-8858.3828263198866,1562.512663471322,-358.39666672114788,7335.9084566550982,-1153.9747290186222,-4038.4325547318904,7855.7287129414435,-3347.3188335712448,1343.8228252700674,-1343.8228252700674,3347.3188335712448,15075.746876521122,0.0
718523.2936376977,3612751.2368613081,-32500.0,-8236.634209659609,1268.8583784940702,-203.62586955604311,6264.4010542006745,-882.43568799619834,-3274.7359187008187,6833.610183275795,-3341.3974967159602,1299.0545183645972,-1299.0545183645972,3341.3974967159602,13197.91392516102,0.0
723523.2936376977,3612751.2368613081,-32500.0,-7585.9078431937442,1030.2739080519943,-108.08631473682118,5349.4152435995375,-678.51305837846598,-2657.6601648317437,5958.737445737911,-3244.9692250422854,1222.0791727752244,-1222.0791727752244,3244.9692250422854,11565.774796237607,0.0
728523.2936376977,3612751.2368613081,-32500.0,-6942.2525996461936,837.25065126397294,-50.533576166250739,4571.8341506235702,-524.55004172549741,-2160.756394972911,5209.3948456270937,-3095.1258586112649,1130.3954020945098,-1130.3954020945098,3095.1258586112649,10150.822400171763,0.0
733523.2936376977,3612751.2368613081,-32500.0,-6326.7029535096417,681.35502662689532,-17.189553014863687,3913.0757653258388,-407.66220483593963,-1761.3838739473376,4566.942572008963,-2916.4380499807626,1034.3536307112458,-1034.3536307112458,2916.4380499807626,8926.0820638974255,0.0
738523.2936376977,3612751.2368613081,-32500.0,-5750.6762962847515,555.45720527906894,0.87088580979013896,3355.9522154076785,-318.42397428997208,-1440.5425457406691,4015.3997700317832,-2725.0806017273962,939.92353463369102,-939.92353463369102,2725.0806017273962,7866.6788244622567,0.0
743523.2936376977,3612751.2368613081,-32500.0,-5219.4369458229367,453.68548651482143,9.4199403532932866,2885.0699879369422,-249.91416486019699,-1182.5803799856074,3541.1021643465565,-2531.5413266081841,850.38405355534883,-850.38405355534883,2531.5413266081841,6950.1625415361086,0.0
748523.2936376977,3612751.2368613081,-32500.0,-4734.3705173477711,371.27771752872343,12.180177758985437,2486.9553185800978,-197.02832454253226,-974.79369362313219,3132.408211952024,-2342.4408899995333,767.36721442013447,-767.36721442013447,2342.4408899995333,6156.6209556221693,0.0
753523.2936376977,3612751.2368613081,-32500.0,-4294.4918719138468,304.40577178910246,11.541186644988123,2150.0106260518119,-155.98372624504313,-806.98399201793768,2779.4355435376915,-2161.7760660319445,691.50831040334901,-691.50831040334901,2161.7760660319445,5468.6311045437978,0.0
543523.2936376977,3617751.2368613081,-32500.0,-3549.4260489221119,-820.04167012873768,-106.63340114644079,-1641.6830617070912,-326.28174491548043,-555.20511764855621,2316.1080962480555,-3125.3087464563541,301.37858741873265,-301.37858741873265,3125.3087464563541,4575.1341588609203,0.0
548523.2936376977,3617751.2368613081,-32500.0,-3903.527500916146,-944.140037307424,-124.90268230504023,-1884.0471666926235,-386.75757804587084,-660.64378639783774,2599.3444919949006,-3471.8099478367603,309.49391367353269,-309.49391367353269,3471.8099478367603,5129.5717267427926,0.0
553523.2936376977,3617751.2368613081,-32500.0,-4296.1210213948771,-1091.3786464956329,-149.62741872277169,-2168.5274995736186,-460.64206453356252,-788.81720320426575,2926.6634152990864,-3862.1938403475915,311.41129159306638,-311.41129159306638,3862.1938403475915,5767.9291222668926,0.0
558523.2936376977,3617751.2368613081,-32500.0,-4730.0159809404322,-1266.7358159295068,-183.50261214118993,-2503.1830885414329,-551.31077289294865,-944.95195658794216,3306.1656875301292,-4301.3914451783821,303.75824281038558,-303.75824281038558,4301.3914451783821,6504.7763684785314,0.0
563523.2936376977,3617751.2368613081,-32500.0,-5207.2656468366176,-1476.3572206027295,-230.42490522072933,-2897.6828044111394,-663.06848040254249,-1135.4690774551125,3747.6619652677618,-4794.2332658915111,281.69402843171747,-281.69402843171747,4794.2332658915111,7357.4014620851385,0.0
568523.2936376977,3617751.2368613081,-32500.0,-5728.4753833848599,-1727.8279678708948,-296.06078371726397,-3363.6438542387341,-801.4265948271858,-1368.2515879709877,4263.107504040745,-5344.9664020182718,238.28042009209867,-238.28042009209867,5344.9664020182718,8346.3440307468882,0.0
573523.2936376977,3617751.2368613081,-32500.0,-6291.6513901826102,-2030.4826330143449,-388.69764225771684,-3915.0495529283944,-973.4774033150278,-1653.0075039392489,4867.1645665863998,-5956.4068801193889,163.57169304035779,-163.57169304035779,5956.4068801193889,9496.0293111806677,0.0
578523.2936376977,3617751.2368613081,-32500.0,-6890.2684822373749,-2395.7137672121157,-520.5211796572388,-4568.7585323621297,-1188.4090452029479,-2001.8316460666251,5577.9264529301163,-6628.4691766380784,43.301670898061275,-43.301670898061275,6628.4691766380784,10835.512593754424,0.0
583523.2936376977,3617751.2368613081,-32500.0,-7509.9323083160962,-2837.1521948935888,-709.5269352205878,-5345.0400082216183,-1458.2230720034604,-2430.1863191463913,6417.7790841685237,-7355.5574224140846,-143.00371351946706,143.00371351946706,7355.5574224140846,12399.229815468756,0.0
588523.2936376977,3617751.2368613081,-32500.0,-8122.5144963952453,-3370.3806057210545,-982.34116581377123,-6267.8371660488128,-1798.71540197533,-2958.7342483863554,7414.2200881648405,-8121.8475162151735,-424.68435213059092,424.68435213059092,8121.8475162151735,14227.378234345826,0.0
593523.2936376977,3617751.2368613081,-32500.0,-8675.8120660441145,-4011.3493437611519,-1378.2420533045408,-7363.7713025692892,-2230.6712400624647,-3616.7321009807902,8599.99546271295,-8892.6276280380243,-843.49768818648727,843.49768818648727,8892.6276280380243,16364.769003718849,0.0
598523.2936376977,3617751.2368613081,-32500.0,-9075.7688579266178,-4771.6085477036995,-1954.4390479413983,-8657.1712299830378,-2780.7072616067449,-4447.7281713082366,10010.808477170363,-9598.4840803675834,-1457.7522950356815,1457.7522950356815,9598.4840803675834,18855.128715914176,0.0
603523.2936376977,3617751.2368613081,-32500.0,-9158.1337906498593,-5646.581361910643,-2791.6713078716384,-10154.732486630528,-3479.4922523514192,-5516.947712084132,11676.616728167748,-10107.623714598074,-2345.3200794084069,2345.3200794084069,10107.623714598074,21724.102372687321,0.0
608523.2936376977,3617751.2368613081,-32500.0,-8650.7279552908312,-6590.7789648468197,-3996.284079698954,-11807.329383514601,-4350.456783087111,-6913.7937911920526,13598.903145960599,-10182.438617126343,-3600.3534231822114,3600.3534231822114,10182.438617126343,24938.523047013077,0.0
613523.2936376977,3617751.2368613081,-32500.0,-7144.8317827250848,-7474.9864977688685,-5688.5574522687266,-13431.908856030112,-5372.3444958544533,-8726.0702973665902,15702.922275990713,-9427.2215294069683,-5312.3427509113799,5312.3427509113799,9427.2215294069683,28326.397923967106,0.0
618523.2936376977,3617751.2368613081,-32500.0,-4135.9379682137687,-8038.330088392564,-7958.3793883106846,-14591.973333742431,-6386.6959365298353,-10930.186042927051,17758.371803669223,-7270.0804657712561,-7512.1638864714441,7512.1638864714441,7270.0804657712561,31460.979230731249,0.0
623523.2936376977,3617751.2368613081,-32500.0,753.43770604146107,-7907.7409878525814,-10774.797988567743,-14515.286572573064,-6934.6247056651009,-13117.408643033243,19294.110679462075,-3090.4971735693725,-10092.418026309606,10092.418026309606,3090.4971735693725,33605.639490183363,0.0
628523.2936376977,3617751.2368613081,-32500.0,7306.8489059812591,-6849.5604295947187,-13904.052138550816,-12300.754379397866,-6130.7058436892585,-14074.693412806379,19633.663923670905,3367.4746220935267,-12804.239072560344,12804.239072560344,-3367.4746220935267,34073.195745572993,0.0
633523.2936376977,3617751.2368613081,-32500.0,14311.466250011057,-5341.9248387581765,-17039.152909486766,-7741.0376414774601,-2982.34949626362,-11659.077254130572,18686.50065920809,11394.175721507407,-15548.048738010617,15548.048738010617,-11394.175721507407,33692.737090114817,0.0
638523.2936376977,3617751.2368613081,-32500.0,20041.401925871327,-4921.0893987182126,-20271.592448655352,-2476.4960017821945,2343.6622920825316,-4001.6399183584113,21021.37862787451,19189.881268462374,-18890.521719335815,18890.521719335815,-19189.881268462374,36626.316832574172,0.0
643523.2936376977,3617751.2368613081,-32500.0,23891.900650969306,-7033.0226063941491,-24224.661525475512,233.57468155250561,6991.9790938239694,7444.3419582578317,25792.169190320947,24933.348867988509,-23780.730623775515,23780.730623775515,-24933.348867988509,45711.519001543245,0.0
648523.2936376977,3617751.2368613081,-32500.0,27108.657908535301,-10508.011355116842,-28749.896767500581,-1114.3172184859368,6508.6563571242386,15956.157783527478,30446.488134234824,28283.023927332502,-29570.677497489542,29570.677497489542,-28283.023927332502,55530.727446704528,0.0
653523.2936376977,3617751.2368613081,-32500.0,30018.277930893604,-11450.593884168995,-31540.07089952776,-3105.4519683537806,31.647611722276061,14460.699635618192,33101.474505946753,29843.171795028502,-32715.726177391902,32715.726177391902,-29843.171795028502,59127.426147956452,0.0
658523.2936376977,3617751.2368613081,-32500.0,30059.327998256093,-8038.1097415120203,-30024.019754295441,-1110.1047237148478,-7188.9560873408409,3478.8916575860867,31832.927833843529,29287.512389916308,-30186.508916444393,30186.508916444393,-29287.512389916308,55426.172194759929,0.0
663523.2936376977,3617751.2368613081,-32500.0,25226.445048780475,-3089.8255729353687,-24615.119609916073,5392.7757902240692,-10124.842798659633,-9547.3859421774632,28088.60340755208,26114.363991625756,-23571.19234929937,23571.19234929937,-26114.363991625756,48822.568829644813,0.0
668523.2936376977,3617751.2368613081,-32500.0,16394.217345479523,244.5798619196668,-17954.136628856537,12970.723469853907,-9137.1792789410756,-17496.466822938684,24958.197677371601,20613.794826108715,-16455.948589650412,16455.948589650412,-20613.794826108715,43813.939258503822,0.0
673523.2936376977,3617751.2368613081,-32500.0,6612.2015938657696,1571.2398611857809,-12127.35970130577,17856.921475056239,-6881.2969296603715,-19060.894166662416,23309.620504268285,13992.843273092825,-10647.53052532885,10647.53052532885,-13992.843273092825,40438.206091876571,0.0
678523.2936376977,3617751.2368613081,-32500.0,-1281.4839675496305,1795.7643864105507,-7820.9054542883832,19170.945520111047,-4847.8103229475782,-17080.100286204586,21318.967051003372,7906.1435595196017,-6419.7969369383318,6419.7969369383318,-7906.1435595196017,37037.819324737087,0.0
683523.2936376977,3617751.2368613081,-32500.0,-6368.7844262125473,1608.693047804469,-4900.6001711953968,18156.420570551349,-3345.8492779483777,-14193.394425460017,18868.04556121994,3302.2455384027285,-3557.0729286848295,3557.0729286848295,-3302.2455384027285,33244.287957364555,0.0
688523.2936376977,3617751.2368613081,-32500.0,-9111.2581389408097,1313.9971888699308,-3003.8485118407762,16183.480514849067,-2295.1749329527884,-11534.652807153672,16388.557719215354,232.36871916810253,-1725.1272134550841,1725.1272134550841,-232.36871916810253,29405.311297062653,0.0
693523.2936376977,3617751.2368613081,-32500.0,-10299.744340520547,1022.014516011237,-1799.1140196209353,14034.669004298907,-1570.8715968973652,-9343.4266261387529,14132.742213933056,-1655.2414937330441,-602.31849176845435,602.31849176845435,1655.2414937330441,25816.626657630251,0.0
698523.2936376977,3617751.2368613081,-32500.0,-10566.754796732024,769.0083948582901,-1044.6043638503661,12029.079906047367,-1074.14685790215,-7573.6324504035247,12173.609323395887,-2741.9347127816586,61.791756134935895,-61.791756134935895,2741.9347127816586,22593.382998349069,0.0
703523.2936376977,3617751.2368613081,-32500.0,-10318.278748497403,563.26413902685943,-577.9893316118015,10259.4357978843,-734.24899961905533,-6140.2330267750058,10500.351304521522,-3314.9976584980323,439.33775706711617,-439.33775706711617,3314.9976584980323,19747.687519680225,0.0
708523.2936376977,3617751.2368613081,-32500.0,-9795.1244838848324,402.06657758873052,-293.81508193528668,8732.348213690826,-501.65244152920599,-4975.6461090291477,9076.9471756463008,-3565.3241081218953,640.88334848343538,-640.88334848343538,3565.3241081218953,17254.348757688142,0.0
713523.2936376977,3617751.2368613081,-32500.0,-9137.7437387217451,278.76976542584799,-124.49492155507016,7427.6589923493257,-342.15476875759447,-4030.1720706059459,7865.6229462754081,-3614.8247681778712,735.29570751752453,-735.29570751752453,3614.8247681778712,15079.284797775983,0.0
718523.2936376977,3617751.2368613081,-32500.0,-8428.6122110920405,185.99947436009813,-26.974797037688585,6319.1200313836625,-232.40165040169737,-3264.9984279270871,6833.333647277791,-3541.1892454405247,765.09469198918896,-765.09469198918896,3541.1892454405247,13188.148493794763,0.0
723523.2936376977,3617751.2368613081,-32500.0,-7716.3922444356276,117.0325198215638,26.074157578370052,5380.6762846613719,-156.56602815361902,-2647.9452621382106,5952.3489989508162,-3394.4509369932348,756.5864839305932,-756.5864839305932,3394.4509369932348,11548.260508163263,0.0
728523.2936376977,3617751.2368613081,-32500.0,-7029.3791759769192,66.262165398814318,51.945445247670463,4588.2171818491679,-103.95412451063116,-2151.7229922717856,5199.4428889734072,-3207.1418971342073,726.12922960079868,-726.12922960079868,3207.1418971342073,10129.028755868212,0.0
733523.2936376977,3617751.2368613081,-32500.0,-6383.2223770722849,29.233448689105973,61.541625193839863,3920.0604517503775,-67.333459068382652,-1753.2788107114798,4555.0428923495301,-3000.4597259764309,683.92629402900229,-683.92629402900229,3000.4597259764309,8902.2049991793974,0.0
738523.2936376977,3617751.2368613081,-32500.0,-5785.5923128466393,2.5039063807049016,61.70006897655572,3357.0664062672017,-41.79322508744422,-1433.4130481423815,4002.5834129210602,-2788.10636628872,636.32704288787636,-636.32704288787636,2788.10636628872,7842.1152305809464,0.0
743523.2936376977,3617751.2368613081,-32500.0,-5239.1349333382987,-16.543339702591947,56.675452513920078,2882.5972888122797,-23.979439866922352,-1176.3805732578376,3528.0277559706806,-2578.760425480421,587.24099350538211,-587.24099350538211,2578.760425480421,6925.796082274639,0.0
748523.2936376977,3617751.2368613081,-32500.0,-4743.3973081346403,-29.879021836866514,49.083969261030262,2482.3775699439548,-11.585439028783156,-969.43843795389103,3119.4938755671915,-2377.7176940833638,539.02118121087449,-539.02118121087449,2377.7176940833638,6133.0001838671305,0.0
753523.2936376977,3617751.2368613081,-32500.0,-4296.0958238991689,-38.979713839044564,40.50515515907675,2144.2881380822214,-3.0130916870623898,-802.37580813906357,2766.9418533918733,-2188.0014436918805,493.02478066240383,-493.02478066240383,2188.0014436918805,5446.0828406285646,0.0
543523.2936376977,3622751.2368613081,-32500.0,-3795.2958013649391,-555.25201910553187,-27.99444771395115,-1737.5884316157228,-214.48807842353014,-583.40885569959914,2406.9781668757405,-3330.5083241133116,601.25981190183757,-601.25981190183757,3330.5083241133116,4746.4936213326082,0.0
548523.2936376977,3622751.2368613081,-32500.0,-4196.3015624558266,-637.40873296412951,-29.428026694816371,-2002.4287100313525,-252.86524012328127,-696.62744475549619,2708.1059537198958,-3719.0275672647026,662.73337674118875,-662.73337674118875,3719.0275672647026,5335.5139313970367,0.0
553523.2936376977,3622751.2368613081,-32500.0,-4646.8133079287545,-735.03371422693988,-33.048524585446664,-2315.7213471536006,-299.60579867945972,-835.06151051721758,3057.8596223322993,-4162.0008077120438,729.4376405198127,-729.4376405198127,4162.0008077120438,6017.2719479256166,0.0
558523.2936376977,3622751.2368613081,-32500.0,-5152.7075750687136,-851.64946002387001,-40.320088118582049,-2687.6314728176008,-356.83084955070348,-1004.8343399239783,3465.8043775676106,-4667.5162489329596,800.79583797364467,-800.79583797364467,4667.5162489329596,6809.0981004560517,0.0
563523.2936376977,3622751.2368613081,-32500.0,-5720.0907617773601,-991.73150756999166,-53.521259855001041,-3130.7580975813166,-427.28027898033218,-1213.6321093215925,3943.7894899612575,-5244.6581745737039,875.50243805918171,-875.50243805918171,5244.6581745737039,7732.0926404939573,0.0
568523.2936376977,3622751.2368613081,-32500.0,-6354.9605169434462,-1161.0143679361483,-76.188542074017775,-3660.8577300764241,-514.53222195381693,-1471.15231081159,4506.6542166913023,-5903.4604108467374,951.08627761226808,-951.08627761226808,5903.4604108467374,8812.1491862608764,0.0
573523.2936376977,3622751.2368613081,-32500.0,-7062.5280782845257,-1366.911067434155,-113.80996414631353,-4297.862679552848,-623.33249011605938,-1789.7639608065003,5173.2147254634265,-6654.6820538221618,1023.2211508577489,-1023.2211508577489,6654.6820538221618,10081.349708695914,0.0
578523.2936376977,3622751.2368613081,-32500.0,-7845.8905411954465,-1619.0714181650756,-174.91471183037515,-5067.3421389106397,-760.10770663534788,-2185.5843925261447,5967.6597502254308,-7509.2169936920673,1084.6400752901932,-1084.6400752901932,7509.2169936920673,11579.905061133824,0.0
583523.2936376977,3622751.2368613081,-32500.0,-8703.3825583063863,-1930.0901000546539,-272.79583431519347,-6002.5703707668636,-933.80261248837689,-2680.4086578080446,6921.4910706576811,-8476.6937333927417,1123.3971165535841,-1123.3971165535841,8476.6937333927417,13358.819626771523,0.0
588523.2936376977,3622751.2368613081,-32500.0,-9623.2149854703821,-2316.25155764481,-428.23777942049827,-7147.2272613417472,-1157.2663268810097,-3305.3688122031995,8076.0417834889258,-9562.2493256134057,1120.0658064706549,-1120.0658064706549,9562.2493256134057,15483.273781697353,0.0
593523.2936376977,3622751.2368613081,-32500.0,-10572.653604343002,-2797.8610556693607,-673.81171704910753,-8558.1270580077107,-1449.5016217595723,-4107.9488101997804,9485.2026127006575,-10759.251776376412,1043.2268486658841,-1043.2268486658841,10759.251776376412,18036.026411539886,0.0
598523.2936376977,3622751.2368613081,-32500.0,-11476.664714081029,-3397.7937087501459,-1060.4911476296736,-10305.299289025974,-1838.9667137692309,-5164.8415160348513,11216.742419476697,-12033.274282272523,842.36158625628104,-842.36158625628104,12033.274282272523,21117.971498042807,0.0
603523.2936376977,3622751.2368613081,-32500.0,-12178.153994766872,-4134.8071597515127,-1667.2660109951373,-12461.363818663762,-2367.0584672097898,-6602.8444001538828,13347.66709820661,-13288.457032114218,437.42037947578683,-437.42037947578683,13288.457032114218,24837.81273440213,0.0
608523.2936376977,3622751.2368613081,-32500.0,-12372.151694433895,-5004.339192889136,-2613.1936491108445,-15060.638642448926,-3086.8536318445795,-8623.8642047575668,15943.265708623025,-14302.739895606046,-293.90004578883145,293.90004578883145,14302.739895606046,29272.72242452198,0.0
613523.2936376977,3622751.2368613081,-32500.0,-11522.050365698478,-5935.7236738364245,-4066.6824079309245,-17991.158781689846,-4040.8766965450254,-11506.084570945239,19001.080556112542,-14621.970890299577,-1524.0676161804522,1524.0676161804522,14621.970890299577,34368.497470330025,0.0
618523.2936376977,3622751.2368613081,-32500.0,-8825.1555886163842,-6723.230456304932,-6235.3450635608906,-20780.452200849984,-5179.6897041661241,-15492.173684951737,22336.882826065063,-13442.299681915181,-3459.0759636327793,3459.0759636327793,13442.299681915181,39749.178395341718,0.0
623523.2936376977,3622751.2368613081,-32500.0,-3418.5054691708397,-6986.6717943999856,-9305.0481452162021,-22328.659188519843,-6171.8160405686676,-20387.326920378975,25415.706386290862,-9633.8836795822335,-6270.7696207961508,6270.7696207961508,9633.8836795822335,44487.372882203592,0.0
628523.2936376977,3622751.2368613081,-32500.0,4921.2352908481344,-6364.5091395327518,-13318.992485592369,-20965.55934579128,-6171.3001957219813,-24760.017406394334,27243.064056898074,-2239.0689544490251,-10009.968805600127,10009.968805600127,2239.0689544490251,47188.23651346418,0.0
633523.2936376977,3622751.2368613081,-32500.0,14822.422929700382,-5178.5713872829983,-18125.325521864335,-15579.474505157143,-4055.8400538943642,-25375.515007770049,26651.744176394728,8392.703908800695,-14697.611666745286,14697.611666745286,-8392.703908800695,47275.355028337268,0.0
638523.2936376977,3622751.2368613081,-32500.0,23543.138379928627,-4975.8503488527176,-23570.808141098445,-7694.7522268691164,34.349984335144981,-18846.664531320042,24809.794380378815,19805.100158073707,-20619.451352756194,20619.451352756194,-19805.100158073707,47658.964273143647,0.0
643523.2936376977,3622751.2368613081,-32500.0,29261.568180137747,-7075.4981988472919,-29334.788158518924,-1557.1048843116698,2972.8019005429405,-6437.3671069146221,30349.359317623974,28653.66660350321,-27699.422856076795,27699.422856076795,-28653.66660350321,52915.912808650886,0.0
648523.2936376977,3622751.2368613081,-32500.0,32439.75338802825,-9817.1689100890489,-33666.701584416849,445.18821561552915,929.1447148510656,3442.7620245619246,34494.414038109768,33185.744845527093,-33581.457922818983,33581.457922818983,-33185.744845527093,59885.854062746053,0.0
653523.2936376977,3622751.2368613081,-32500.0,33157.609621052477,-9741.9762156513807,-33764.580832822845,1554.5854996529574,-5016.7171345081606,3180.2580043502662,35221.395595002323,33688.90797351503,-34443.791316256218,34443.791316256218,-33688.90797351503,61143.617927871899,0.0
658523.2936376977,3622751.2368613081,-32500.0,29682.341406115898,-6459.7167927953151,-29201.363416966869,5382.8889878117407,-9272.0074063035081,-4732.3971047890436,32085.761014769512,30758.219487589846,-29557.646176410799,29557.646176410799,-30758.219487589846,55634.6859894843,0.0
663523.2936376977,3622751.2368613081,-32500.0,22148.902353105859,-2978.6779046231891,-22522.622531841655,11064.690006479916,-8945.4144584645564,-12972.806274926366,27030.335918604811,25372.313369159456,-22330.211821341225,22330.211821341225,-25372.313369159456,47896.766613394095,0.0
668523.2936376977,3622751.2368613081,-32500.0,12845.046423060288,-1343.150244059012,-16148.222448417026,16071.671854976759,-6018.8875835259996,-17271.028449421126,23422.93767969391,18875.190341114485,-15953.870358233366,15953.870358233366,-18875.190341114485,41993.014169658789,0.0
673523.2936376977,3622751.2368613081,-32500.0,4108.0296014557553,-1150.7613625273466,-11025.930375225467,18710.862457692892,-3173.223133948853,-17485.262321136775,21866.073996829324,12385.622317928221,-11164.954630137468,11164.954630137468,-12385.622317928221,38118.03899671157,0.0
678523.2936376977,3622751.2368613081,-32500.0,-2550.2173724614354,-1381.3695074172217,-7259.6511982071988,18877.318767758356,-1332.0743676613911,-15508.177077622133,20058.055591380344,6845.1920638477359,-7645.8784633139849,7645.8784633139849,-6845.1920638477359,34773.123759898343,0.0
683523.2936376977,3622751.2368613081,-32500.0,-6794.1768000580278,-1546.2468714677693,-4650.4566792480637,17492.962330731072,-325.13329591475934,-12993.84582506976,17854.270789120637,2730.0641406236628,-5096.7645503329113,5096.7645503329113,-2730.0641406236628,31334.051025415967,0.0
688523.2936376977,3622751.2368613081,-32500.0,-9083.1359235914842,-1572.9537412365348,-2915.0413838024174,15495.101259282572,185.90602607227731,-10682.340609865181,15608.133442107361,-22.119395393192235,-3306.2287084390173,3306.2287084390173,22.119395393192235,27897.80662073358,0.0
693523.2936376977,3622751.2368613081,-32500.0,-10061.830446907727,-1508.4547833059153,-1790.5173670041074,13431.280808203674,426.81669750890154,-8741.8886345822339,13538.620529627218,-1729.2706502399044,-2083.8036088180588,2083.8036088180588,1729.2706502399044,24653.80197662874,0.0
698523.2936376977,3622751.2368613081,-32500.0,-10248.011382504368,-1399.184452178328,-1074.1182856336038,11529.523981039527,521.14210723478402,-7144.1742889408597,11718.858599366391,-2720.5318670766883,-1263.3646839777327,1263.3646839777327,2720.5318670766883,21697.869433179127,0.0
703523.2936376977,3622751.2368613081,-32500.0,-9982.3049330409649,-1272.6395865510642,-623.70151009920255,9854.4865311294307,536.06845180008986,-5829.6847060273549,10148.204428541931,-3246.3869199124019,-716.93036722805209,716.93036722805209,3246.3869199124019,19053.048154834523,0.0
708523.2936376977,3622751.2368613081,-32500.0,-9471.9221534417957,-1143.3312050865657,-344.31938612301343,8406.6597193816488,509.7076211255183,-4748.7842446286122,8800.7447959616238,-3476.0959320753482,-354.34393851118716,354.34393851118716,3476.0959320753482,16710.088107482217,0.0
713523.2936376977,3622751.2368613081,-32500.0,-8840.4263974475998,-1018.8503781228109,-174.01344020238611,7166.3437386100113,464.14820753695858,-3863.0937249962626,7646.3488482071671,-3519.4645695914505,-114.93985797031814,114.93985797031814,3519.4645695914505,14648.373643757666,0.0
718523.2936376977,3622751.2368613081,-32500.0,-8161.7650457239615,-903.11396037708209,-72.795018494105292,6109.3866885062034,412.00435940295483,-3141.0558179009336,6657.3195798607385,-3447.4213805408408,41.492750760507761,-41.492750760507761,3447.4213805408408,12843.539043984292,0.0
723523.2936376977,3622751.2368613081,-32500.0,-7480.3044886265834,-797.92947386156038,-14.996185428635831,5212.0083328613518,360.14286663837242,-2555.3432132817502,5809.6234638996784,-3306.1849281400546,141.67521514409873,-141.67521514409873,3306.1849281400546,11270.048486944201,0.0
728523.2936376977,3622751.2368613081,-32500.0,-6822.2538662100633,-703.82125492871228,15.802600135844875,4452.1469377744424,311.98618421154822,-2082.0239902408293,5082.620891495947,-3126.1246253286636,203.54977627156109,-203.54977627156109,3126.1246253286636,9902.4124454254579,0.0
733523.2936376977,3622751.2368613081,-32500.0,-6202.3576948658747,-620.53385178974384,30.071252359439633,3809.8500719150347,268.96005830454231,-1700.4134027324992,4458.5827604161468,-2927.223165431843,239.30893124739828,-239.30893124739828,2927.223165431843,8716.0600675161804,0.0
738523.2936376977,3622751.2368613081,-32500.0,-5628.0143684510331,-547.36658511220696,34.458367097231424,3267.3926859331559,231.38853533350769,-1392.9967042965145,3922.2804939294097,-2722.5193316873301,257.3237167270081,-257.3237167270081,2722.5193316873301,7687.9982719365798,0.0
743523.2936376977,3622751.2368613081,-32500.0,-5101.9281554908439,-483.39750706680843,33.160562652559925,2809.2711279895616,199.02962193746933,-1145.2323901114569,3460.6611164204901,-2520.351725955622,263.38445317171886,-263.38445317171886,2520.351725955622,6797.2394668319266,0.0
748523.2936376977,3622751.2368613081,-32500.0,-4623.864117748848,-427.62844038605959,28.802721601624736,2422.107397846049,171.38486353293021,-945.2393834640842,3062.5744593828399,-2325.8634346558647,261.51373898344195,-261.51373898344195,2325.8634346558647,6025.0064432819718,0.0
753523.2936376977,3622751.2368613081,-32500.0,-4191.822252134064,-379.07391856165964,23.004086945511109,2094.4869933454293,147.87054259581242,-783.42584570418296,2718.5303974353355,-2142.0320895989421,254.50992031660508,-254.50992031660508,2142.0320895989421,5354.7589749027511,0.0
543523.2936376977,3627751.2368613081,-32500.0,-3956.6012705502071,-259.75427208878125,15.426396569859715,-1800.6071215883949,-91.249204897309298,-601.91068362028716,2470.0285038311308,-3450.069015338212,879.66160515406523,-879.66160515406523,3450.069015338212,4864.1528566877287,0.0
548523.2936376977,3627751.2368613081,-32500.0,-4387.020225988982,-292.16231353609925,23.147514383636601,-2079.6708890598393,-104.18543366120269,-720.05991260659687,2783.1445507136823,-3861.9945702054783,990.62416305569786,-990.62416305569786,3861.9945702054783,5476.1300792952097,0.0
553523.2936376977,3627751.2368613081,-32500.0,-4873.7315276816698,-329.97134551914212,31.032212173471631,-2411.1201299225222,-119.2863003479834,-864.9586304367034,3147.877156051768,-4334.1975753931947,1117.5756677309544,-1117.5756677309544,4334.1975753931947,6186.6562302635266,0.0
558523.2936376977,3627751.2368613081,-32500.0,-5424.5359925101566,-374.38129494455217,38.330789371314999,-2806.4332034929548,-136.955392291615,-1043.2781767830104,3574.7593434217306,-4876.5550918226108,1262.6915606107355,-1262.6915606107355,4876.5550918226108,7014.9171140869084,0.0
563523.2936376977,3627751.2368613081,-32500.0,-6048.1283214768628,-426.96641538135549,43.732354105268058,-3280.0567079856346,-157.68939955908087,-1263.4813534909249,4077.0053774578128,-5500.6132907133751,1428.2299935579531,-1428.2299935579531,5500.6132907133751,7984.6117758310347,0.0
568523.2936376977,3627751.2368613081,-32500.0,-6754.0255353692928,-489.84051427941523,45.02575704695878,-3850.3969486652063,-182.12312678765653,-1536.3890032548725,4671.4148618537274,-6219.8430892353699,1616.3666345579595,-1616.3666345579595,6219.8430892353699,9125.3415676468539,0.0
573523.2936376977,3627751.2368613081,-32500.0,-7552.2842674711237,-565.91334870906383,38.559985173567107,-4541.2779337567208,-211.12049769512998,-1876.0450736887858,5379.684378784852,-7049.8852007414471,1828.8823080494758,-1828.8823080494758,7049.8852007414471,10474.600964019588,0.0
578523.2936376977,3627751.2368613081,-32500.0,-8452.72681227867,-659.28788755134724,18.383607767848908,-5384.1335477730772,-245.9639317645609,-2301.1682010358468,6230.3345116316823,-8008.6754383641237,2066.5879606143135,-2066.5879606143135,8008.6754383641237,12080.687536267124,0.0
583523.2936376977,3627751.2368613081,-32500.0,-9463.0324736597631,-775.85924741478232,-25.138492546832328,-6421.3168539718399,-288.74883817368897,-2837.8124639349303,7261.533744230248,-9116.1301559211424,2328.2669331105981,-2328.2669331105981,9116.1301559211424,14006.969327088589,0.0
588523.2936376977,3627751.2368613081,-32500.0,-10584.224906997724,-924.16085860425972,-107.56469729500898,-7710.9250341004436,-343.18877367387358,-3524.5319839634781,8525.0965007915584,-10392.507729823703,2608.6976772443686,-2608.6976772443686,10392.507729823703,16337.941103549172,0.0
593523.2936376977,3627751.2368613081,-32500.0,-11800.344987412163,-1116.3640993769943,-254.03662057768113,-9333.0667492672928,-416.17895970225106,-4422.5797170461956,10091.621582441579,-11853.176593987911,2894.8853130309899,-2894.8853130309899,11853.176593987911,19186.962512142167,0.0
598523.2936376977,3627751.2368613081,-32500.0,-13055.774474795437,-1368.8740202879089,-505.30428162067699,-11395.438132435018,-520.57995670092885,-5635.5315516676637,12055.570859649306,-13494.406296540801,3158.7868395943442,-3158.7868395943442,13494.406296540801,22703.507634060443,0.0
603523.2936376977,3627751.2368613081,-32500.0,-14208.337652259694,-1700.6629179674378,-927.63339540565062,-14029.649982363124,-679.33695443296347,-7344.0952621183478,14535.844185516245,-15258.474157725332,3343.3697351953288,-3343.3697351953288,15258.474157725332,27071.894116875064,0.0
608523.2936376977,3627751.2368613081,-32500.0,-14941.494662364919,-2124.6098106513923,-1628.6941918035322,-17353.677999322219,-928.81006334967765,-9857.2616714334945,17660.210367501506,-16956.217083948151,3337.0339216792454,-3337.0339216792454,16956.217083948151,32480.380037451956,0.0
613523.2936376977,3627751.2368613081,-32500.0,-14628.342908088183,-2622.7262461774417,-2780.9529946840603,-21344.721761254073,-1311.2715845373723,-13652.887345698065,21509.220036407889,-18117.74705554176,2931.5718816505159,-2931.5718816505159,18117.74705554176,39017.193370513713,0.0
618523.2936376977,3627751.2368613081,-32500.0,-12205.811666833222,-3097.1062624848555,-4648.1574305848144,-25535.305463031451,-1827.0254456351208,-19290.673759491805,25980.785228748107,-17771.251121642355,1768.7572492122154,-1768.7572492122154,17771.251121642355,46430.637398659783,0.0
623523.2936376977,3627751.2368613081,-32500.0,-6311.8520536768583,-3325.3743351314347,-7589.6915618163284,-28518.873145524685,-2293.3793856459411,-26899.938808921845,30547.258622736335,-14309.547504368453,-685.37000940874441,685.37000940874441,14309.547504368453,53741.282142265249,0.0
628523.2936376977,3627751.2368613081,-32500.0,3800.5644923749478,-3083.3126782842537,-11977.27289694747,-27720.459642630663,-2127.7633222190188,-34889.574283159665,33999.766386061325,-5985.574860208495,-5048.427309376244,5048.427309376244,5985.574860208495,59015.205691938536,0.0
633523.2936376977,3627751.2368613081,-32500.0,16509.691240027358,-2716.7602287273776,-17947.704634157224,-20809.364629248972,-511.30763943512852,-38593.239898733875,34630.010859272923,7285.1117868863075,-11747.078627227398,11747.078627227398,-7285.1117868863075,60390.042823166084,0.0
638523.2936376977,3627751.2368613081,-32500.0,27476.077243432923,-3662.3748478619968,-25005.37360654365,-9290.2307912789474,2104.8628558548176,-32407.1791747184,31625.849213124773,21941.419872041995,-20567.808423431576,20567.808423431576,-21941.419872041995,59245.273061106913,0.0
643523.2936376977,3627751.2368613081,-32500.0,33254.943088977954,-6740.7961231593063,-31482.980213173465,731.71162431643666,2537.1944815558791,-17388.458925368323,33287.271253926403,32416.129699009274,-29675.472113334086,29675.472113334086,-32416.129699009274,60286.295922326819,0.0
648523.2936376977,3627751.2368613081,-32500.0,34152.858263751783,-9553.7592197304002,-34428.470912347373,5210.5113685930637,-1506.7519398109548,-3964.156608035204,35965.37291986007,35885.362481379583,-34989.390791690072,34989.390791690072,-35885.362481379583,62484.175006485035,0.0
653523.2936376977,3627751.2368613081,-32500.0,31591.417475090373,-9283.7364373867185,-32012.160291595395,6803.797507094856,-6824.1881775643924,-620.58517361583938,34493.0304427218,33724.585961666504,-33662.581433834821,33662.581433834821,-33724.585961666504,59760.994846079091,0.0
658523.2936376977,3627751.2368613081,-32500.0,25906.156506379077,-6701.4688605799629,-26073.405158546211,9172.1610561321049,-8788.9797140645751,-4714.9354097430005,29643.021099714424,28576.118321124792,-27637.593661535982,27637.593661535982,-28576.118321124792,51640.181339161827,0.0
663523.2936376977,3627751.2368613081,-32500.0,18216.879925840734,-4381.5170566386023,-19792.233579211577,12239.494534122361,-6808.9564092824794,-9735.7218858772922,23555.02108979991,22426.816786454703,-20922.947471878,20922.947471878,-22426.816786454703,42540.350951973756,0.0
668523.2936376977,3627751.2368613081,-32500.0,10330.524597262327,-3539.4861030157867,-14637.822373139656,14735.850285028451,-3314.1264086815436,-12574.726833737681,19193.484223730869,16417.418202125307,-15687.326673471674,15687.326673471674,-16417.418202125307,36029.608191389088,0.0
673523.2936376977,3627751.2368613081,-32500.0,3448.4145502554061,-3689.2235016521281,-10631.007281314838,15951.118692223401,-433.46083534191956,-13050.038507809153,18293.328650420688,10998.191404746942,-11931.128915346477,11931.128915346477,-10998.191404746942,32293.183953747168,0.0
678523.2936376977,3627751.2368613081,-32500.0,-1821.8007921320875,-3995.2692268605078,-7543.6305848056645,15833.805883236615,1230.5389429475285,-12082.858779020449,17164.487498484748,6459.3376169222338,-9089.3171027310218,9089.3171027310218,-6459.3376169222338,29730.019391055986,0.0
683523.2936376977,3627751.2368613081,-32500.0,-5369.221912594694,-4072.6004312754212,-5232.5763996893711,14794.095046125569,1952.4306258856764,-10571.694618314486,15621.577047048089,2986.4982562779351,-6852.1083182134607,6852.1083182134607,-2986.4982562779351,27305.406284612563,0.0
688523.2936376977,3627751.2368613081,-32500.0,-7464.2299614264857,-3906.7932757698582,-3568.3443689303399,13319.869046330288,2135.119775119259,-9010.1506478708798,13931.717207356287,541.19389713200098,-5106.6283869178751,5106.6283869178751,-541.19389713200098,24805.494757076238,0.0
693523.2936376977,3627751.2368613081,-32500.0,-8510.9552489034759,-3595.5024409369853,-2407.3494088629795,11745.47409557946,2053.1870481172177,-7580.3810303996515,12287.727007148573,-1071.1523880378491,-3776.89494695966,3776.89494695966,1071.1523880378491,22310.048053598512,0.0
698523.2936376977,3627751.2368613081,-32500.0,-8868.7948769902068,-3224.9465614637306,-1614.1424851010354,10239.223287345938,1857.0726631175116,-6325.2370046609358,10779.709171984541,-2075.7445273131789,-2781.2814471261281,2781.2814471261281,2075.7445273131789,19917.809065261092,0.0
703523.2936376977,3627751.2368613081,-32500.0,-8798.4089698218941,-2847.4358535131023,-1078.9119765127107,8867.6726996174511,1623.5592854582944,-5244.0026082843888,9434.931448579795,-2660.7968322623692,-2041.5176547949668,2041.5176547949668,2660.7968322623692,17689.674208254692,0.0
708523.2936376977,3627751.2368613081,-32500.0,-8473.0364403567037,-2489.9424347429035,-720.42209689487117,7649.1029554519455,1390.7647187190623,-4325.1846371581933,8252.0209828957577,-2963.798740223725,-1492.584486278324,1492.584486278324,2963.798740223725,15655.013762961977,0.0
713523.2936376977,3627751.2368613081,-32500.0,-8004.4611211444271,-2164.6213843326445,-481.50130968447627,6581.6772633766059,1176.5864102762685,-3553.9912862137426,7218.9498227538324,-3079.9508341112196,-1084.6969873022683,1084.6969873022683,3079.9508341112196,13823.391447795571,0.0
718523.2936376977,3627751.2368613081,-32500.0,-7464.4466390132484,-1875.5912181976155,-322.93769142358929,5655.5159681777786,988.11228858053823,-2913.7746362137686,6320.5906280554191,-3074.1960312930928,-781.06878772492473,781.06878772492473,3074.1960312930928,12192.141257254247,0.0
723523.2936376977,3627751.2368613081,-32500.0,-6898.9490518961748,-1622.720396664346,-218.18021122441013,4857.5420835125105,826.67810983360778,-2387.0143612885772,5541.5277756795012,-2990.8466371277491,-554.78562413797954,554.78562413797954,2990.8466371277491,10751.001538973596,0.0
728523.2936376977,3627751.2368613081,-32500.0,-6337.0196793170726,-1403.7097541425085,-149.36042050548753,4173.6027428212055,690.72171553911653,-1956.4513208176415,4867.0818420440792,-2860.2086851365402,-386.11568231931733,386.11568231931733,2860.2086851365402,9485.2735403649604,0.0
733523.2936376977,3627751.2368613081,-32500.0,-5796.4446819216146,-1215.2671451955011,-104.4871353177968,3589.5893075215363,577.41072959115218,-1606.0398845038708,4283.7114921481752,-2702.9726971317205,-260.50762836748891,260.50762836748891,2702.9726971317205,8378.0996182374056,0.0
738523.2936376977,3627751.2368613081,-32500.0,-5287.4481625590061,-1053.7792738280864,-75.523457844315672,3092.1110348389884,483.54356010357981,-1321.5301415069152,3779.1808457483062,-2533.1501450197907,-167.16585838185392,167.16585838185392,2533.1501450197907,7412.0743465812202,0.0
743523.2936376977,3627751.2368613081,-32500.0,-4815.2009309191444,-915.68951624642068,-57.086160880882701,2668.8913377737381,406.0168346724098,-1090.6934822225865,3342.6077571934975,-2360.0812407197991,-98.042402906746929,98.042402906746929,2360.0812407197991,6570.306826673007,0.0
748523.2936376977,3627751.2368613081,-32500.0,-4381.5532745921437,-797.69674345149872,-45.572057249419473,2308.9635466168597,342.03955628871466,-903.29481678082368,2964.4372729047104,-2189.8371367544992,-47.116297359484179,47.116297359484179,2189.8371367544992,5837.0560311603986,0.0
753523.2936376977,3627751.2368613081,-32500.0,-3986.2340119510986,-696.84500344990249,-38.571889678644261,2002.7204774826098,289.20634597244339,-750.91772185878563,2636.3633168052156,-2026.2107454468855,-9.8712116529710556,9.8712116529710556,2026.2107454468855,5198.0515481792663,0.0
543523.2936376977,3632751.2368613081,-32500.0,-4025.0216579885096,50.894095975568973,18.961411066473161,-1827.7214776845315,37.680924454692054,-609.88425965820579,2502.2819043210211,-3477.0838017201222,1120.6117638898875,-1120.6117638898875,3477.0838017201222,4923.4065724983711,0.0
548523.2936376977,3632751.2368613081,-32500.0,-4464.8359131864818,71.854492188588466,26.665298008334489,-2111.7102216099215,51.752478440465666,-729.79730551282887,2820.5235829429444,-3891.5931556448086,1272.6356522162234,-1272.6356522162234,3891.5931556448086,5545.236734542932,0.0
553523.2936376977,3632751.2368613081,-32500.0,-4962.5776459980207,98.567316610733229,34.398182971264973,-2449.1856138476469,70.382673041915083,-876.90727080694649,3191.488011217974,-4366.6038725227045,1449.1995341036586,-1449.1995341036586,4366.6038725227045,6267.8554516669792,0.0
558523.2936376977,3632751.2368613081,-32500.0,-5526.4292076611,132.55797849619987,41.355319188215354,-2851.9394871680706,95.097083031987211,-1058.014648000812,3626.0435739413324,-4912.0249150312093,1654.5851398048808,-1654.5851398048808,4912.0249150312093,7111.1395362192061,0.0
563523.2936376977,3632751.2368613081,-32500.0,-6165.603931559669,175.73967119046276,46.159280207187166,-3334.8583730467089,127.95787745147997,-1281.7585773445794,4137.8833178766945,-5539.4740547439897,1893.7688505186277,-1893.7688505186277,5539.4740547439897,8099.7697989394792,0.0
568523.2936376977,3632751.2368613081,-32500.0,-6890.3429984482955,230.49057766016875,46.526834911697456,-3916.9892754225625,171.75671668549344,-1559.2110235774267,4744.5072030840329,-6262.577113115859,2172.4709992842936,-2172.4709992842936,6262.577113115859,9264.7750336424288,0.0
573523.2936376977,3632751.2368613081,-32500.0,-7711.7436367964365,299.72498007952851,38.74878516479162,-4623.1304837283069,230.27211818649243,-1904.7976298687577,5468.6652799342901,-7097.2996050347556,2497.1519399795811,-2497.1519399795811,7097.2996050347556,10645.780902960936,0.0
578523.2936376977,3632751.2368613081,-32500.0,-8641.1637258801038,386.93883490829694,16.875593025931547,-5486.2722436877002,308.60799302953484,-2337.8726248604439,6340.5151013088071,-8062.2396628952865,2874.8891801052837,-2874.8891801052837,8062.2396628952865,12294.365067880408,0.0
583523.2936376977,3632751.2368613081,-32500.0,-9688.5695232005892,496.1853430655147,-28.562920171639519,-6551.366253316738,413.62327031656685,-2885.658911076157,7400.8436453257837,-9178.6102048782577,3312.9753245279626,-3312.9753245279626,9178.6102048782577,14279.082974852901,0.0
588523.2936376977,3632751.2368613081,-32500.0,-10858.340846634412,631.9168284487464,-112.58742822091067,-7881.003956128292,554.45739078418092,-3589.0628876891806,8705.760930107499,-10469.097098449063,3817.8692301213046,-3817.8692301213046,10469.097098449063,16692.832168190143,0.0
593523.2936376977,3632751.2368613081,-32500.0,-12139.161732781364,798.57331286561191,-259.03095555619853,-9563.2321695214177,743.13120142319406,-4514.3962691496326,10333.052199291884,-11953.371218080385,4392.5957191857033,-4392.5957191857033,11953.371218080385,19662.844741946828,0.0
598523.2936376977,3632751.2368613081,-32500.0,-13480.78665032221,999.77049214691863,-505.8908047402229,-11719.692254677937,995.20489487170289,-5776.4879767200455,12389.267410569597,-13634.631453560956,5030.4489515099931,-5030.4489515099931,13634.631453560956,23361.616992298106,0.0
603523.2936376977,3632751.2368613081,-32500.0,-14743.915000314826,1236.8613611602573,-914.34294371647968,-14505.453101861074,1330.5469094644666,-7581.1799720566987,15013.431429187602,-15464.377212877356,5700.1025731421723,-5700.1025731421723,15464.377212877356,28011.235755389109,0.0
608523.2936376977,3632751.2368613081,-32500.0,-15601.653811349579,1506.508278374115,-1584.2868657862859,-18073.39244580637,1774.6932711412135,-10291.986705691923,18365.561320628236,-17259.688154666528,6311.8726500561861,-6311.8726500561861,17259.688154666528,33859.288864053327,0.0
613523.2936376977,3632751.2368613081,-32500.0,-15375.968476211507,1796.0549501681282,-2681.0211075116417,-22436.541626873161,2362.5322622639083,-14496.382061041404,22573.459910722526,-18533.676456011359,6647.2457304194268,-6647.2457304194268,18533.676456011359,41077.808783514978,0.0
618523.2936376977,3632751.2368613081,-32500.0,-12859.314060111212,2071.3189701991555,-4477.0045949526739,-27109.048339428002,3148.135620233405,-20939.698546838637,27590.28406565453,-18220.556319545405,6233.0476769226989,-6233.0476769226989,18220.556319545405,49503.463261429009,0.0
623523.2936376977,3632751.2368613081,-32500.0,-6410.0320204265026,2235.5249704717166,-7395.8657886092542,-30453.806660846218,4220.3948664134932,-29942.853751789098,32910.921005083663,-14452.375700104833,4187.1476052849475,-4187.1476052849475,14452.375700104833,58157.519299828666,0.0
628523.2936376977,3632751.2368613081,-32500.0,4961.1603327461953,2001.3430256787697,-11972.804329448401,-29222.929821938087,5672.0836219501653,-39721.889708851813,37207.710524808674,-5069.8639218178059,-756.81432498979848,756.81432498979848,5069.8639218178059,64785.380538306315,0.0
633523.2936376977,3632751.2368613081,-32500.0,19118.965531271413,652.48830877583987,-18479.779255566296,-20233.008742299426,7273.2711956413068,-44284.597390724448,38403.847270539954,9990.7488690443406,-9527.6180777859863,9527.6180777859863,-9990.7488690443406,66617.457117501195,0.0
638523.2936376977,3632751.2368613081,-32500.0,29978.646381388058,-2757.7414477150146,-25963.117967596587,-5594.3886054051545,7569.0082688867315,-36091.630516280937,35490.015737487891,25650.138582753953,-21014.028618223358,21014.028618223358,-25650.138582753953,63931.613861500715,0.0
643523.2936376977,3632751.2368613081,-32500.0,33201.487998835262,-7566.9527197762864,-31517.651587867276,5964.4671845556713,4048.8481893405501,-16998.45969450604,34201.910495032942,34438.733069321555,-30948.650825931105,30948.650825931105,-34438.733069321555,61541.732157980841,0.0
648523.2936376977,3632751.2368613081,-32500.0,30840.842695489217,-10492.51616873988,-32104.729690003234,9337.6761579140148,-2790.3786636215309,-380.98045603417023,34514.715949769721,34417.930228774028,-34431.19330155832,34431.19330155832,-34417.930228774028,59890.614528941231,0.0
653523.2936376977,3632751.2368613081,-32500.0,26472.376998572126,-9765.4588787075845,-27948.518762502637,8324.0578483934023,-8071.049298830384,4910.4824124146535,31291.854912554369,29585.29506406319,-31013.590215009412,31013.590215009412,-29585.29506406319,54244.994836165417,0.0
658523.2936376977,3632751.2368613081,-32500.0,21220.286515456952,-7293.9857954291947,-22117.723562839434,7833.4859819341,-8729.4821564570084,2026.5420201522818,25736.138182912815,23836.910750597461,-24667.715024906909,24667.715024906909,-23836.910750597461,44576.597260431889,0.0
663523.2936376977,3632751.2368613081,-32500.0,15387.128528448891,-5376.8128287884165,-17071.667183353708,8720.5597517568549,-5970.0028716745819,-2639.2613808261358,19849.822755676272,18593.67422559881,-18927.592863566137,18927.592863566137,-18593.67422559881,34859.817603338837,0.0
668523.2936376977,3632751.2368613081,-32500.0,9642.3044637614112,-4730.340370634879,-13320.602031410985,10002.821015578487,-2308.8304860427197,-6004.4332289988934,14881.236701592919,14033.324463281031,-14872.052138936782,14872.052138936782,-14033.324463281031,28215.432657569607,0.0
673523.2936376977,3632751.2368613081,-32500.0,4535.4500280363281,-4906.8734939310907,-10436.70028340424,10927.745427798354,611.16381631640559,-7630.8020323645305,13786.920661179567,10039.131803611019,-12082.639032736208,12082.639032736208,-10039.131803611019,24932.462093867496,0.0
678523.2936376977,3632751.2368613081,-32500.0,380.66403498728869,-5236.7918486441322,-8066.0229555018332,11216.040557273231,2340.1435644980679,-7982.6348856632449,13475.040333562712,6594.1998939831483,-9934.4461245695293,9934.4461245695293,-6594.1998939831483,23382.655995704972,0.0
683523.2936376977,3632751.2368613081,-32500.0,-2703.3259239107442,-5355.3649724254465,-6106.5614717015733,10920.722081799704,3096.4556600426395,-7612.7371604608707,12731.189261729833,3780.0832270457336,-8115.3804384399282,8115.3804384399282,-3780.0832270457336,22171.307479162297,0.0
688523.2936376977,3632751.2368613081,-32500.0,-4788.5954172988013,-5204.8950686929038,-4542.6178476020614,10236.74502735289,3245.601075195003,-6907.3227377259254,11722.132288195822,1627.2450267297481,-6550.6591165874479,6550.6591165874479,-1627.2450267297481,20792.260414192147,0.0
693523.2936376977,3632751.2368613081,-32500.0,-6062.7529887869068,-4861.0258423933747,-3341.854519331901,9353.2532747319347,3074.0298078031856,-6082.3652543562202,10612.087509070991,72.482668465577262,-5233.9603271771621,5233.9603271771621,-72.482668465577262,19213.14058316081,0.0
698523.2936376977,3632751.2368613081,-32500.0,-6735.7344004772303,-4415.5495411182364,-2446.1335269197966,8400.9142253389546,2759.2905539068465,-5248.9045831203675,9505.8494863739179,-997.25695074664418,-4153.13391831223,4153.13391831223,997.25695074664418,17529.740382395717,0.0
703523.2936376977,3632751.2368613081,-32500.0,-6987.9852172617484,-3936.7532181968995,-1789.9411721749486,7457.0560033149122,2400.2254045968298,-4463.8203189611013,8459.0312141696086,-1698.7893346379949,-3281.3797424791574,3281.3797424791574,1698.7893346379949,15838.899153708206,0.0
708523.2936376977,3632751.2368613081,-32500.0,-6957.4803769595928,-3466.7234016325692,-1314.0556382961724,6564.1060044878677,2048.0693583325642,-3755.4753252404416,7497.167506678773,-2131.0893618661585,-2585.7259237233438,2585.7259237233438,2131.0893618661585,14210.261969589448,0.0
713523.2936376977,3632751.2368613081,-32500.0,-6744.3788252756794,-3028.3364742584977,-970.58651669962376,5743.7546152216537,1726.9522722524653,-3135.3730126725513,6629.2745147334272,-2371.0323751834912,-2034.0311005534274,2034.0311005534274,2371.0323751834912,12686.830166400438,0.0
718523.2936376977,3632751.2368613081,-32500.0,-6419.6979916498858,-2632.1698017295903,-723.02618845097561,5005.2808863509126,1445.9989017120724,-2604.4020898813874,5855.5291219564369,-2476.0982389428755,-1598.0808494712446,1598.0808494712446,2476.0982389428755,11291.158761944074,0.0
723523.2936376977,3632751.2368613081,-32500.0,-6033.0372254555914,-2281.4170242117598,-544.42397352318642,4350.3018088047384,1206.331043233989,-2157.0517063623297,5171.3985152632686,-2488.5302407240206,-1254.3145749881105,1254.3145749881105,2488.5302407240206,10031.451831359411,0.0
728523.2936376977,3632751.2368613081,-32500.0,-5618.4606927939249,-1975.0706544653983,-415.23361079582708,3775.7143087711784,1005.1074588201511,-1784.4743846540748,4569.9433362360587,-2439.0596289532364,-983.54677109920169,983.54677109920169,2439.0596289532364,8906.4814934639744,0.0
733523.2936376977,3632751.2368613081,-32500.0,-5198.8203127931092,-1709.9140566725323,-321.41609928303166,3275.6770308383725,837.81818090598051,-1476.5976739853807,4043.1785530119605,-2349.8333945125255,-770.37115486842015,770.37115486842015,2349.8333945125255,7909.2758859550577,0.0
738523.2936376977,3632751.2368613081,-32500.0,-4788.9334030192504,-1481.7410794074422,-252.9390769242882,2842.982754723902,699.53818167984241,-1223.4425483551017,3582.9036356150045,-2236.6360031808276,-602.52485940755867,602.52485940755867,2236.6360031808276,7029.7444468221074,0.0
743523.2936376977,3632751.2368613081,-32500.0,-4397.9280066754209,-1286.0785876181114,-202.64921349161114,2469.9862947302818,585.56546756031219,-1015.8445871567525,3181.2015142215214,-2110.563582242713,-470.30644951698196,470.30644951698196,2110.563582242713,6256.4543954134788,0.0
748523.2936376977,3632751.2368613081,-32500.0,-4030.9672654922647,-1118.592695476397,-165.44765028672626,2149.1950127625059,491.70503813104233,-845.77078222026842,2830.7172638404481,-1979.2818213783844,-366.07447324473549,366.07447324473549,1979.2818213783844,5577.7654168631871,0.0
753523.2936376977,3632751.2368613081,-32500.0,-3690.5080738640149,-975.29742108761036,-137.6965303125873,1873.6134914669667,414.35810433185793,-706.39060170890639,2524.7921597937789,-1847.9682306179971,-283.82862707836057,283.82862707836057,1847.9682306179971,4982.5089653773339,0.0
543523.2936376977,3637751.2368613081,-32500.0,-3998.1612724260112,359.82466872163383,-18.383448970338989,-1818.0303619638232,166.08921339618041,-607.08526729758603,2502.5490388994976,-3410.8887384782311,1310.951466790111,-1310.951466790111,3410.8887384782311,4922.3145330132138,0.0
548523.2936376977,3637751.2368613081,-32500.0,-4426.7390968473592,433.09980560475344,-20.133989732368562,-2097.3752524042293,206.77251754845872,-725.51498314362675,2818.6960373294878,-3807.0221244128816,1491.9532149701151,-1491.9532149701151,3807.0221244128816,5540.3371037300258,0.0
553523.2936376977,3637751.2368613081,-32500.0,-4909.5191386135511,522.83984173402223,-24.570892262924705,-2428.3727173934008,258.54229347559112,-870.47100405619847,3186.6677714547895,-4258.2272942780146,1702.6273112857782,-1702.6273112857782,4258.2272942780146,6257.6103360280904,0.0
558523.2936376977,3637751.2368613081,-32500.0,-5453.4311564689669,633.1192181545083,-33.370312976485224,-2822.0787533070074,324.76220069493525,-1048.4495803596767,3616.9903662656588,-4772.6540048014522,1948.2432014385836,-1948.2432014385836,4772.6540048014522,7093.4456253528642,0.0
563523.2936376977,3637751.2368613081,-32500.0,-6065.988956541938,769.09228547709017,-49.087681016862945,-3292.3295774501116,409.92009088117538,-1267.6417233270374,4122.8766766349718,-5359.5337407243414,2234.9580698582131,-2234.9580698582131,5359.5337407243414,8071.7389672298623,0.0
568523.2936376977,3637751.2368613081,-32500.0,-6755.1161984943701,937.28567280635536,-75.6067154889043,-3856.6601074070068,520.03999886086137,-1538.4554685884941,4721.1448299795456,-6029.2324038797879,2569.9021460390331,-2569.9021460390331,6029.2324038797879,9222.4173046038868,0.0
573523.2936376977,3637751.2368613081,-32500.0,-7528.7390498954792,1145.9647402744647,-118.82100273206213,-4537.6741876000733,663.26432700763314,-1874.3268158847814,5433.5682303432459,-6793.2329710205267,2961.2216068053713,-2961.2216068053713,6793.2329710205267,10583.546535904015,0.0
578523.2936376977,3637751.2368613081,-32500.0,-8393.8542821172705,1405.5793433321221,-187.67357769009561,-5365.1401792888,850.69055758491231,-2293.1209163040553,6288.884195443401,-7663.918578236955,3418.0092106892589,-3418.0092106892589,7663.918578236955,12204.458181370595,0.0
583523.2936376977,3637751.2368613081,-32500.0,-9354.411595921747,1729.2749896065402,-295.75013547950169,-6379.2166974102738,1097.602338186543,-2819.7913185486268,7325.7850931464936,-8653.8150210909735,3949.9619780539615,-3949.9619780539615,8653.8150210909735,14150.416333947967,0.0
588523.2936376977,3637751.2368613081,-32500.0,-10406.488671837244,2133.3876851186674,-463.73979380906798,-7635.2517547505768,1425.3311041174843,-3491.7198689086758,8597.2484298317759,-9773.3731882549546,4566.3579399007895,-4566.3579399007895,9773.3731882549546,16509.403880266233,0.0
593523.2936376977,3637751.2368613081,-32500.0,-11527.373086430935,2637.6284215599767,-723.27109814009725,-9210.1338840432254,1864.1353093526129,-4369.5788356110615,10176.306960163047,-11024.930231321943,5273.3042145868021,-5273.3042145868021,11024.930231321943,19401.161050947238,0.0
598523.2936376977,3637751.2368613081,-32500.0,-12651.522257349421,3264.1027339693369,-1122.9766787591871,-11207.998024482431,2457.6809486832717,-5558.8010805962986,12162.273123942246,-12387.19423292693,6066.6559175837465,-6066.6559175837465,12387.19423292693,22986.662296798364,0.0
603523.2936376977,3637751.2368613081,-32500.0,-13620.236427913918,4032.7747438736128,-1738.195281082365,-13756.023847521861,3269.6811320225897,-7248.7333668044112,14683.232236609578,-13777.751665720356,6914.3865013078548,-6914.3865013078548,13777.751665720356,27470.335424490513,0.0
608523.2936376977,3637751.2368613081,-32500.0,-14085.585409709567,4947.3040384287933,-2686.4976500378452,-16962.621989875879,4391.9554071690782,-9772.3635763104503,17883.252564979131,-14969.706872726589,7714.8682756320177,-7714.8682756320177,14969.706872726589,33073.602662650315,0.0
613523.2936376977,3637751.2368613081,-32500.0,-13357.399006895552,5957.4028086888229,-4151.3525645252766,-20772.013865499008,5946.9261749372108,-13658.512845913461,21868.738161207089,-15429.173023393114,8206.2870589592949,-8206.2870589592949,15429.173023393114,39932.611311813715,0.0
618523.2936376977,3637751.2368613081,-32500.0,-10256.242130533203,6872.484609332153,-6411.2902147928125,-24601.791356467202,8056.8240323970931,-19539.435959973918,26568.877424972176,-14071.691385073718,7799.5801840810454,-7799.5801840810454,14071.691385073718,47841.713652763407,0.0
623523.2936376977,3637751.2368613081,-32500.0,-3285.4720323311976,7204.9756359907205,-9845.5670210603967,-26714.558840385384,10701.234034181081,-27528.262623873023,31462.405740457954,-9131.1406674102545,5372.6156147720667,-5372.6156147720667,9131.1406674102545,55785.302242364516,0.0
628523.2936376977,3637751.2368613081,-32500.0,8135.345177483744,6022.5338983305382,-14801.918795548801,-23880.328113282645,13324.207686544203,-35511.621169128921,35238.548635112347,1125.3193958167635,-648.03464544650853,648.03464544650853,-1125.3193958167635,61500.083321917744,0.0
633523.2936376977,3637751.2368613081,-32500.0,21087.826798350739,2239.3867490073762,-21072.919808021088,-13413.20046017025,14227.193784489638,-37207.688136820143,35953.676306633453,15757.947395454434,-11059.586172122785,11059.586172122785,-15757.947395454434,62290.759428883248,0.0
638523.2936376977,3637751.2368613081,-32500.0,28898.562609287041,-3957.0703906379194,-26964.873374992432,1189.3682127877389,10796.255098811656,-25643.274934138277,33254.17680249345,28481.146051256968,-23289.674571974167,23289.674571974167,-28481.146051256968,58732.763032680392,0.0
643523.2936376977,3637751.2368613081,-32500.0,28435.106490416871,-9623.6653375660098,-29447.696373053186,10067.746800737332,2384.4895596775063,-4837.1351619823527,32042.508200244421,32372.906516112329,-31277.872928933648,31277.872928933648,-32372.906516112329,55951.327771695804,0.0
648523.2936376977,3637751.2368613081,-32500.0,24207.633924944668,-11310.717620337662,-27118.47492307951,9532.5855258634965,-6862.7677427775179,10763.273539312966,31088.05252388899,28483.465543811209,-31347.511933545218,31347.511933545218,-28483.465543811209,54062.684673179603,0.0
653523.2936376977,3637751.2368613081,-32500.0,20435.740100841289,-9235.1197388756445,-22113.687760454246,5412.0365444354056,-11642.758020102339,14340.49357540163,27146.813720005266,22648.538660058337,-26025.998176220121,26025.998176220121,-22648.538660058337,48359.598432901301,0.0
658523.2936376977,3637751.2368613081,-32500.0,17282.895258002478,-6313.2778772384245,-17335.375852534038,2976.4954443400602,-10963.263051317925,10279.862171710949,21514.595200129472,18025.620372099027,-19959.68709804882,19959.68709804882,-18025.620372099027,38881.418278740755,0.0
663523.2936376977,3637751.2368613081,-32500.0,13884.38670415729,-4509.558505557422,-13930.856442130278,2933.5760227194833,-7300.7234344930412,4608.9948154201666,16516.090185628371,14654.741866158196,-15511.755308655944,15511.755308655944,-14654.741866158196,29128.182433918708,0.0
668523.2936376977,3637751.2368613081,-32500.0,10165.977631451173,-4058.2018327223232,-11636.069722880229,4054.4741100655338,-3188.3187246683278,149.00433952960168,12722.852827652525,11872.441498197109,-12773.570360503014,12773.570360503014,-11872.441498197109,22056.697687032647,0.0
673523.2936376977,3637751.2368613081,-32500.0,6476.6487572241012,-4403.3152722444001,-9859.8703241111434,5324.3157514710238,55.768248042266336,-2643.4746742138168,10485.646495982799,9303.0998093856797,-11043.914811694205,11043.914811694205,-9303.0998093856797,18555.035374651627,0.0
678523.2936376977,3637751.2368613081,-32500.0,3147.6672077268236,-4935.0325928499096,-8254.5896109309306,6271.0219945167082,2107.7392992816181,-4111.8677236800158,10031.073406104748,6881.7573070289918,-9706.108237576429,9706.108237576429,-6881.7573070289918,17444.360458693911,0.0
683523.2936376977,3637751.2368613081,-32500.0,387.28883626415063,-5292.1487870825076,-6752.0803704877026,6771.9113931249094,3148.8503421510154,-4696.0716282729036,9834.1312403599222,4698.9117273417287,-8466.6180369000667,8466.6180369000667,-4698.9117273417287,17083.963317979062,0.0
688523.2936376977,3637751.2368613081,-32500.0,-1732.3795361380592,-5368.1183011804633,-5401.2282168773245,6875.4681371445731,3499.3973675252823,-4740.9295812650971,9408.5830860225051,2852.3051803498674,-7266.758196755547,7266.758196755547,-2852.3051803498674,16627.613285159092,0.0
693523.2936376977,3637751.2368613081,-32500.0,-3247.016992112367,-5198.9916464562311,-4249.501408039102,6686.4595547528834,3441.1412244767903,-4479.9334031535182,8797.469622211891,1379.2146259700585,-6138.0306271162226,6138.0306271162226,-1379.2146259700585,15875.396175364107,0.0
698523.2936376977,3637751.2368613081,-32500.0,-4249.6086229458142,-4865.31105311589,-3308.8400504544634,6307.9086740019529,3171.320780189686,-4063.0106398096405,8089.16747094107,259.96920171974671,-5118.8307954956008,5118.8307954956008,-259.96920171974671,14876.123006953936,0.0
703523.2936376977,3637751.2368613081,-32500.0,-4848.4203251897707,-4442.9792300084418,-2563.1680819959433,5821.8127376155689,2812.693169958347,-3584.4714035187712,7351.0442995222274,-555.19088316396733,-4229.2117303872155,4229.2117303872155,555.19088316396733,13731.931224650207,0.0
708523.2936376977,3637751.2368613081,-32500.0,-5144.0619057299473,-3988.2675315868041,-1983.3531828227478,5287.6592364162489,2435.7426741577469,-3101.9436791225653,6626.4424115836327,-1124.2189288748482,-3471.5753176437024,3471.5753176437024,1124.2189288748482,12534.000439863576,0.0
713523.2936376977,3637751.2368613081,-32500.0,-5220.9043878291322,-3537.8530889426174,-1537.7505444114906,4746.1937268109732,2077.6870797657612,-2648.4272627860159,5940.819872103235,-1501.6549722798513,-2837.3600713540977,2837.3600713540977,1501.6549722798513,11348.43869002712,0.0
718523.2936376977,3637751.2368613081,-32500.0,-5145.8605458909897,-3113.2433232287649,-1197.490361456199,4223.7378231335897,1755.7260655094487,-2240.4692343500469,5307.5785006259657,-1734.1517795551417,-2312.7694771893307,2312.7694771893307,1734.1517795551417,10217.818895137469,0.0
723523.2936376977,3637751.2368613081,-32500.0,-4970.1146051236801,-2725.4296987414355,-938.3775752240515,3735.938032034157,1475.5868779896236,-1884.0405368210966,4732.2970992325882,-1859.6128036336895,-1882.4101012325364,1882.4101012325364,1859.6128036336895,9166.4708314898289,0.0
728523.2936376977,3637751.2368613081,-32500.0,-4731.7318837734856,-2378.6009597340858,-741.06981813369043,3290.828249008091,1236.8159714182977,-1578.758753515446,4215.6358957921047,-1907.8548885213609,-1531.3010256561165,1531.3010256561165,1907.8548885213609,8205.8024305476865,0.0
733523.2936376977,3637751.2368613081,-32500.0,-4458.3032573140135,-2072.8091019147346,-590.53165064041389,2891.2542428570191,1035.9466435365548,-1320.798811536273,3755.3044833250028,-1901.7919181550415,-1245.8526508756304,1245.8526508756304,1901.7919181550415,7338.6417743132852,0.0
738523.2936376977,3637751.2368613081,-32500.0,-4169.3108187867674,-1805.7749355967821,-475.27483869233629,2536.720676812467,868.32131930952801,-1104.782876066125,3347.3797898175271,-1858.7024778147024,-1014.2447751905542,1014.2447751905542,1858.7024778147024,6562.4711292947977,0.0
743523.2936376977,3637751.2368613081,-32500.0,-3878.1143521892145,-1574.0580361719201,-386.61327858715191,2224.7385260645888,729.08543898486857,-924.92486162196292,2987.1710889962028,-1791.3991443344898,-826.47306178015424,826.47306178015424,1791.3991443344898,5871.7034156277778,0.0
748523.2936376977,3637751.2368613081,-32500.0,-3593.5512962631947,-1373.7830928247399,-318.01962406083584,1951.7630342744708,613.68684878622958,-775.66606264289396,2669.7691854685095,-1709.2325028051823,-674.2258659166522,674.2258659166522,1709.2325028051823,5259.2132513803999,0.0
753523.2936376977,3637751.2368613081,-32500.0,-3321.1865841076537,-1201.0679765182676,-264.60406369317434,1713.8164321795648,518.09060486868884,-651.98568026446844,2390.3791689525247,-1618.9167024347005,-550.68602372600185,550.68602372600185,1618.9167024347005,4717.3238292338738,0.0
543523.2936376977,3642751.2368613081,-32500.0,-3879.7666352160581,650.51270346815511,-93.793714949837565,-1772.8259384362868,287.8707852475423,-593.87056068579466,2471.2943125549245,-3257.1267646423112,1441.6397676666356,-1441.6397676666356,3257.1267646423112,4861.8139548646668,0.0
548523.2936376977,3642751.2368613081,-32500.0,-4277.866107033512,770.53233965676884,-113.4154136769306,-2038.4985592523487,352.86256956912689,-707.73571572090498,2778.3355075717304,-3615.8928505042431,1637.2986422713029,-1637.2986422713029,3615.8928505042431,5462.7807910896563,0.0
553523.2936376977,3642751.2368613081,-32500.0,-4721.6421519279093,915.83342549698148,-140.60978612405333,-2351.299365207411,434.58206259306661,-846.42151398080637,3134.4024246644335,-4019.4196304162679,1863.6990596063315,-1863.6990596063315,4019.4196304162679,6157.868525218506,0.0
558523.2936376977,3642751.2368613081,-32500.0,-5215.3813811619038,1092.3167066069118,-178.55838461451845,-2720.6190860284673,537.85161141429069,-1015.7305977654013,3549.0538393833708,-4472.6420458595312,2125.7635509354145,-2125.7635509354145,4472.6420458595312,6964.6521824021765,0.0
563523.2936376977,3642751.2368613081,-32500.0,-5763.0448668874951,1307.3457554348295,-231.83393044905461,-3157.9390502123997,669.0243447183758,-1222.8514577241481,4034.1458579069758,-4980.4495075106515,2428.9920935168602,-2428.9920935168602,4980.4495075106515,7904.610035067104,0.0
568523.2936376977,3642751.2368613081,-32500.0,-6367.7478021990164,1570.1065962372188,-307.03831026862304,-3677.4215810501005,836.51819587548596,-1476.7254567723769,4604.5629688916779,-5547.2928666357884,2779.3655844973246,-2779.3655844973246,5547.2928666357884,9004.2497897338162,0.0
573523.2936376977,3642751.2368613081,-32500.0,-7030.8676573641933,1892.0396216303345,-413.74860565752124,-4296.7691049504665,1051.5653900992493,-1788.6086302742274,5279.2746739885733,-6176.5243297743091,3183.105522679456,-3183.105522679456,6176.5243297743091,10296.716830699917,0.0
578523.2936376977,3642751.2368613081,-32500.0,-7750.4314251819696,2287.3260136883396,-565.92694316578911,-5038.4979669775021,1329.2849886605959,-2173.0507802016664,6082.8688267335929,-6869.2386801836346,3646.1545753139922,-3646.1545753139922,6869.2386801836346,11824.10779640353,0.0
583523.2936376977,3642751.2368613081,-32500.0,-8518.0810878835855,2773.3621363170378,-784.03459266806283,-5931.8174846214852,1690.263980258426,-2649.8001983398644,7047.7698969877274,-7622.1441538971503,4173.1126778782491,-4173.1126778782491,7622.1441538971503,13640.806579559561,0.0
588523.2936376977,3642751.2368613081,-32500.0,-9313.1056033834284,3370.9898615797811,-1098.2145405343172,-7015.1729306496773,2162.948626214536,-3247.702280054285,8217.2922207273023,-8423.3763172401905,4765.0257853467792,-4765.0257853467792,8423.3763172401905,15818.047826961751,0.0
593523.2936376977,3642751.2368613081,-32500.0,-10090.446157676715,4103.8215906428286,-1553.0882448521422,-8338.8172703158252,2787.3131404546002,-4012.6555536489391,9649.3353061690832,-9243.8310199326206,5414.6535217731571,-5414.6535217731571,9243.8310199326206,18449.302534995015,0.0
598523.2936376977,3642751.2368613081,-32500.0,-10756.733274018583,4994.8705879567287,-2214.9181766669876,-9964.3540632404201,3620.3352990405797,-5022.9940789732227,11419.34570535155,-10018.79975978611,6096.0675982849934,-6096.0675982849934,10018.79975978611,21653.950346073536,0.0
603523.2936376977,3642751.2368613081,-32500.0,-11124.524639898395,6055.9502735593014,-3181.9182123685691,-11951.454561169892,4743.1177837998921,-6415.8385671637461,13618.147507948624,-10609.726578151214,6741.691001953277,-6741.691001953277,10609.726578151214,25571.163047293561,0.0
608523.2936376977,3642751.2368613081,-32500.0,-10833.883592159475,7259.3367897715016,-4597.4975440408862,-14306.361767749589,6265.7719101722996,-8421.030348365488,16333.903300593844,-10729.995576218067,7193.276049381444,-7193.276049381444,10729.995576218067,30324.189243466772,0.0
613523.2936376977,3642751.2368613081,-32500.0,-9248.604542976127,8470.8992037922617,-6661.2934343020625,-16839.711855606802,8312.9844701352667,-11367.688253613356,19596.968113900897,-9822.6309843074887,7106.520050107727,-7106.520050107727,9822.6309843074887,35916.300503735729,0.0
618523.2936376977,3642751.2368613081,-32500.0,-5417.2806506628385,9317.0573720173561,-9616.0467926214678,-18865.209848007547,10937.445600985837,-15536.880842712328,23256.506693537474,-6932.635877125741,5802.2766086361617,-5802.2766086361617,6932.635877125741,42006.432380973456,0.0
623523.2936376977,3642751.2368613081,-32500.0,1594.4972902582067,9000.7492362542725,-13645.383543601047,-18789.923294695916,13844.178311766394,-20570.264763352003,26775.744375936032,-817.50452824610386,2162.5425195053808,-2162.5425195053808,817.50452824610386,47570.476604748656,0.0
628523.2936376977,3642751.2368613081,-32500.0,11467.002613306695,6307.0455427432025,-18556.844425503517,-14221.503145974195,15818.125787872987,-24188.257264467084,29074.423657679697,9081.9983138576572,-5004.4908368459937,5004.4908368459937,-9081.9983138576572,50783.364551914499,0.0
633523.2936376977,3642751.2368613081,-32500.0,20784.188445558953,493.63429317702241,-23222.913950996797,-4190.5011042288788,14294.40270052857,-21387.385439360209,29013.95844892718,20426.379910002037,-15376.424922492613,15376.424922492613,-20426.379910002037,50255.544010079619,0.0
638523.2936376977,3642751.2368613081,-32500.0,24212.533540253822,-6705.2474537974931,-25460.975884115029,6753.6343103071922,6900.9393907724443,-8380.7543578669447,27699.774625773429,27255.330173083108,-25018.972317438929,25018.972317438929,-27255.330173083108,48221.796045269497,0.0
643523.2936376977,3642751.2368613081,-32500.0,21205.433703698527,-11055.357662918021,-23677.108995504983,10678.662562135229,-4495.5042614859831,9235.3811463257643,28215.711469424899,25822.981568108295,-28411.827199524723,28411.827199524723,-25822.981568108295,48886.310758352207,0.0
648523.2936376977,3642751.2368613081,-32500.0,17121.85584255842,-10380.363913205045,-19018.01344511826,6729.467821242215,-13748.104450038982,20095.856223650269,28145.997129122654,19893.808017180891,-24815.401701887538,24815.401701887538,-19893.808017180891,49482.916443171649,0.0
653523.2936376977,3642751.2368613081,-32500.0,15069.263550271449,-6842.1954736796251,-14324.160558335381,1101.0984376677291,-16806.399833352603,20724.909487071345,25261.932904171295,14853.001263154738,-18550.840270030618,18550.840270030618,-14853.001263154738,45317.192184681102,0.0
658523.2936376977,3642751.2368613081,-32500.0,14094.144930522896,-3584.3866821901765,-11285.362326275717,-1965.4002908412947,-14540.319219507062,15609.025207346869,20071.180409639528,12151.774884427752,-13468.853807776988,13468.853807776988,-12151.774884427752,37003.455155126234,0.0
663523.2936376977,3642751.2368613081,-32500.0,12770.742148688403,-1987.5732623672002,-9801.0632043659643,-2266.9775528916671,-9908.0515452969012,9505.3403598442965,14483.324396678283,10780.839464862873,-10595.153338541264,10595.153338541264,-10780.839464862873,27716.792608994481,0.0
668523.2936376977,3642751.2368613081,-32500.0,10721.862140776582,-1873.0312103973838,-9084.9589017001017,-1091.2579002915443,-5213.5616310801333,4566.2331837256752,11012.354282672268,9685.0702251989442,-9315.8559114278632,9315.8559114278632,-9685.0702251989442,20097.746896426292,0.0
673523.2936376977,3642751.2368613081,-32500.0,8209.5279441797866,-2557.9162210880427,-8498.0711544204223,494.6342104623572,-1515.7037643849856,1161.5223337486207,8870.6449667025972,8417.178351166458,-8763.7920443597213,8763.7920443597213,-8417.178351166458,15437.547325704109,0.0
678523.2936376977,3642751.2368613081,-32500.0,5601.9981894896709,-3440.6712756571992,-7755.3185623000281,1938.4976689065218,964.40881552817189,-970.42604568869035,7818.7821475532437,6939.1763430845431,-8353.3585233883769,8353.3585233883769,-6939.1763430845431,13542.634455941597,0.0
683523.2936376977,3642751.2368613081,-32500.0,3181.010028605122,-4163.9752627545304,-6837.4045766444715,3031.1154973255057,2397.2216078396204,-2183.5095566973828,7558.0966353527065,5378.7673184508194,-7827.103908738919,7827.103908738919,-5378.7673184508194,13123.329911740599,0.0
688523.2936376977,3642751.2368613081,-32500.0,1111.4948518691624,-4592.2899696692575,-5839.649300762414,3740.7357849021755,3068.8724681015719,-2773.2508285719641,7406.1672388404813,3884.5382170717148,-7144.6442597287096,7144.6442597287096,-3884.5382170717148,13034.832397144368,0.0
693523.2936376977,3642751.2368613081,-32500.0,-542.93951493327495,-4728.580091406061,-4865.3612740434473,4115.0179473679336,3247.2846545927214,-2959.0829528305817,7128.6590774479091,2560.9309467336784,-6360.9465581613185,6360.9465581613185,-2560.9309467336784,12790.2536352838,0.0
698523.2936376977,3642751.2368613081,-32500.0,-1789.2551138852814,-4636.265767816114,-3983.1361090107298,4228.0161419773722,3136.877296244922,-2897.1121870797456,6728.0187164377139,1456.6350855833628,-5548.6441966834755,5548.6441966834755,-1456.6350855833628,12298.097184208125,0.0
703523.2936376977,3642751.2368613081,-32500.0,-2673.6185844481988,-4390.6448908697494,-3223.9953653730818,4154.0942560630774,2876.9577848066046,-2695.3423326748762,6250.4498959877183,577.85417641319782,-4765.0793799142984,4765.0793799142984,-577.85417641319782,11607.104440824511,0.0
708523.2936376977,3642751.2368613081,-32500.0,-3257.8631284537132,-4056.8412772130241,-2592.6027124328825,3957.0651816581008,2555.3001504357026,-2426.0544409458553,5738.8432492106067,-93.977193346037211,-4045.5130985116139,4045.5130985116139,93.977193346037211,10794.385684134952,0.0
713523.2936376977,3642751.2368613081,-32500.0,-3605.1424412286733,-3683.5016779750254,-2079.0960160040672,3687.0878340939598,2223.4609793625941,-2135.4335821927789,5224.5643866804166,-588.49775550343975,-3406.7336266234038,3406.7336266234038,588.49775550343975,9928.028906886133,0.0
718523.2936376977,3642751.2368613081,-32500.0,-3772.5987882624258,-3303.6351204787379,-1667.4523486280987,3381.1454615590014,1909.286094482037,-1851.1333310053021,4728.1813278254594,-937.9472954176241,-2852.8956108293478,2852.8956108293478,937.9472954176241,9058.3262231884946,0.0
723523.2936376977,3642751.2368613081,-32500.0,-3808.4324531376506,-2937.8195591330541,-1340.3768903405166,3064.9894156541495,1625.912028498484,-1588.1693615583938,4261.9342391899227,-1172.6590789943689,-2380.5779923231266,2380.5779923231266,1172.6590789943689,8218.6820839095471,0.0
728523.2936376977,3642751.2368613081,-32500.0,-3751.4306415859405,-2597.6380394475586,-1081.7580564882785,2755.4967161555314,1377.8150953890461,-1353.354625241087,3832.1394097637913,-1319.0528972013619,-1982.4062430103893,1982.4062430103893,1319.0528972013619,7429.1602765996868,0.0
733523.2936376977,3642751.2368613081,-32500.0,-3631.7265477224478,-2288.5729704213768,-877.66502743519254,2462.9219188288521,1164.6861492090561,-1148.4800755261736,3441.1193431907377,-1399.0548227841582,-1649.3937790389564,1649.3937790389564,1399.0548227841582,6700.1856452480761,0.0
738523.2936376977,3642751.2368613081,-32500.0,-3472.0695644054654,-2012.1963149342321,-716.56389814395288,2192.8135721645158,983.81313227295925,-972.48363561070278,3088.6388197952092,-1430.2626900999203,-1372.3405113562844,1372.3405113562844,1430.2626900999203,6035.6341055547919,0.0
743523.2936376977,3642751.2368613081,-32500.0,-3289.206255352995,-1767.7218315070731,-589.15847883251149,1947.5266644400961,831.48417222341664,-822.85508722343354,2772.9234344455745,-1426.4529903477751,-1142.5946566383618,1142.5946566383618,1426.4529903477751,5435.1706160202712,0.0
748523.2936376977,3642751.2368613081,-32500.0,-3095.1690298167618,-1553.0548824548866,-488.08333098497303,1727.3529136016648,703.77272540450861,-696.49996042876012,2491.3569998245421,-1398.2002889501719,-952.41231684576405,952.41231684576405,1398.2002889501719,4895.9211731466394,0.0
543523.2936376977,3647751.2368613081,-32500.0,-3679.2193916682654,908.37334455374048,-201.03568530971543,-1695.4263993741722,397.57831321649292,-571.15386247231493,2410.4909776759232,-3027.0503039952237,1508.516314530935,-1508.516314530935,3027.0503039952237,4745.5720749770771,0.0
548523.2936376977,3647751.2368613081,-32500.0,-4030.7652234803409,1065.8233277265754,-244.81698478951822,-1939.6670237250812,482.95766649302942,-677.76157880667142,2702.1347490496719,-3333.2234879726284,1703.9630501771799,-1703.9630501771799,3333.2234879726284,5317.5507683327323,0.0
553523.2936376977,3647751.2368613081,-32500.0,-4415.8696356775308,1254.3666863901169,-302.40358852713837,-2224.3663093445725,589.27049537672758,-806.63153238141194,3038.4062431046059,-3670.4025534948364,1927.1882546429829,-1927.1882546429829,3670.4025534948364,5975.4637602227758,0.0
558523.2936376977,3647751.2368613081,-32500.0,-4835.3079065953734,1480.6361568996651,-378.75545971313051,-2556.584428944343,722.20856017912934,-962.57794758300622,3427.4170850019505,-4039.4769899053836,2181.5291212763377,-2181.5291212763377,4039.4769899053836,6734.229770344873,0.0
563523.2936376977,3647751.2368613081,-32500.0,-5288.4100026553451,1752.6621147929463,-480.76324357253168,-2944.5515637416329,889.12941629059753,-1151.381007573417,3879.0126069054127,-4439.9694024218334,2470.1663790267889,-2470.1663790267889,4439.9694024218334,7611.6608426191706,0.0
568523.2936376977,3647751.2368613081,-32500.0,-5772.1636158279871,2080.0932942954105,-618.04908692169658,-3397.8423487078321,1099.5707127392056,-1379.9519564238192,4405.242190831078,-4869.1742147003342,2795.6890394125094,-2795.6890394125094,4869.1742147003342,8629.135958263656,0.0
573523.2936376977,3647751.2368613081,-32500.0,-6279.8161687467264,2474.3813313728838,-804.11703578738502,-3927.5920255899532,1365.9378268034397,-1656.5702922312453,5021.0063962586883,-5320.8456423634334,3159.3488339111691,-3159.3488339111691,5320.8456423634334,9812.500431060691,0.0
578523.2936376977,3647751.2368613081,-32500.0,-6798.6114622542482,2948.8264867442149,-1058.0068136979824,-4546.7561265512604,1704.4314015114269,-1991.3140482160363,5744.9386033778128,-5783.1432607624101,3559.7808289148929,-3559.7808289148929,5783.1432607624101,11193.248958777142,0.0
583523.2936376977,3647751.2368613081,-32500.0,-7306.0105695477932,3518.2742245507925,-1406.6686470110897,-5270.3681325048956,2136.3242263218685,-2396.980499823148,6600.5863952036871,-6235.3217652202975,3990.8014501793159,-3990.8014501793159,6235.3217652202975,12810.055010375019,0.0
588523.2936376977,3647751.2368613081,-32500.0,-7763.1123548851392,4197.9572661179236,-1888.3443989002681,-6115.4693358877121,2689.7254520260308,-2891.1090417780233,7617.8118226670158,-6642.1235730226017,4437.500353834781,-4437.500353834781,6642.1235730226017,14710.429161487273,0.0
593523.2936376977,3647751.2368613081,-32500.0,-8102.9395424283657,5000.3146642759511,-2557.2530566851665,-7099.5443897123187,3401.9253728048511,-3500.1843530775941,8833.9033129744985,-6943.8665313919664,4869.0625101383957,-4869.0625101383957,6943.8665313919664,16951.515485545511,0.0
598523.2936376977,3647751.2368613081,-32500.0,-8209.826854007606,5927.1487330842592,-3489.6583117043579,-8234.0368096619422,4321.9939456334596,-4267.3734099506291,10292.790356563048,-7038.6101484307101,5225.238276764906,-5225.238276764906,7038.6101484307101,19597.044250584346,0.0
603523.2936376977,3647751.2368613081,-32500.0,-7885.4644013031602,6951.3935788942035,-4790.3001181662385,-9504.2219242201954,5511.4940710123474,-5263.6314915797648,12038.288198554763,-6750.9584449247677,5390.7932853396642,-5390.7932853396642,6750.9584449247677,22702.974872746465,0.0
608523.2936376977,3647751.2368613081,-32500.0,-6802.3850379674277,7977.466734284948,-6594.4888770184625,-10816.914986021755,7035.2693601757519,-6593.8159227204442,14093.063428232505,-5783.5715383315437,5149.6409987553452,-5149.6409987553452,5783.5715383315437,26276.706072417786,0.0
613523.2936376977,3647751.2368613081,-32500.0,-4471.5429848764325,8764.237626439839,-9050.8488496018126,-11887.366713820096,8918.5162421338737,-8363.5263788931097,16410.445394398532,-3664.9920040335101,4114.5575858404254,-4114.5575858404254,3664.9920040335101,30187.395318719035,0.0
618523.2936376977,3647751.2368613081,-32500.0,-324.89549616245415,8807.123068132858,-12246.438413340093,-12056.187451916419,11014.94414062746,-10516.355064562034,18789.985985001131,228.02300213087165,1663.9752038518081,-1663.9752038518081,-228.02300213087165,34018.073315951617,0.0
623523.2936376977,3647751.2368613081,-32500.0,5861.0394067605184,7261.8052848761336,-16004.475308537112,-10171.627659065272,12706.933191415272,-12401.56260703915,20789.308454966853,6351.6147743368538,-2962.0093681940716,2962.0093681940716,-6351.6147743368538,36949.805169859821,0.0
628523.2936376977,3647751.2368613081,-32500.0,13021.705129925978,3232.8594496221867,-19521.678558105494,-5061.8869383375195,12494.328785959467,-12141.674734465467,21814.211062271243,14071.381616260827,-10043.581753912451,10043.581753912451,-14071.381616260827,38077.722837363217,0.0
633523.2936376977,3647751.2368613081,-32500.0,18115.401859395166,-3076.6001653230032,-21155.536578789164,2683.8838271103623,8159.0343130668753,-6868.1052406603585,21870.528959229254,20528.967854880233,-18039.370743160041,18039.370743160041,-20528.967854880233,37881.025451107365,0.0
638523.2936376977,3647751.2368613081,-32500.0,18136.871783040333,-8995.2914787152204,-19290.517447209313,8940.7875952660615,-1161.5392307748275,4215.2634483314441,22794.143451360487,21735.827651018964,-23025.968643931625,23025.968643931625,-21735.827651018964,39499.083082388417,0.0
643523.2936376977,3647751.2368613081,-32500.0,14373.402250808678,-10851.003084907861,-14341.490893267868,9057.4865711385901,-12199.203129859932,16240.977313171632,25338.427334310181,17212.134446080385,-21859.945346658267,21859.945346658267,-17212.134446080385,43902.9475896488,0.0
648523.2936376977,3647751.2368613081,-32500.0,11268.127547421716,-8138.6424886492887,-8992.9447167681155,3889.8641069243849,-19483.077500809544,22501.952072510125,26704.216884149755,11320.732242902328,-16156.928426721393,16156.928426721393,-11320.732242902328,46337.843637291306,0.0
653523.2936376977,3647751.2368613081,-32500.0,10618.937138276853,-3761.0496757599444,-5598.785328660103,-1736.1603839191321,-20675.764751965253,21669.242470625821,25073.564470485464,7799.57805116689,-10184.230779359328,10184.230779359328,-7799.57805116689,43569.204053668233,0.0
658523.2936376977,3647751.2368613081,-32500.0,11114.399370392955,-444.08310048160916,-4544.3443631497212,-4854.5345536108653,-17383.516403276535,16959.030811419074,21085.127945199376,6849.1429693727459,-6471.364973106256,6471.364973106256,-6849.1429693727459,36725.013712348555,0.0
663523.2936376977,3647751.2368613081,-32500.0,11260.806443006717,948.11376393196167,-4933.8970118764137,-5410.180565267673,-12308.290687826804,11562.782072083428,16299.941736331759,7068.8276681975058,-5105.6097272863899,5105.6097272863899,-7068.8276681975058,28499.80691826285,0.0
668523.2936376977,3647751.2368613081,-32500.0,10537.184804516997,801.7791464499004,-5745.0617527033755,-4445.7584426785515,-7355.4162913497848,7000.5909141050588,12012.137708288825,7330.837791488907,-5146.5380027462916,5146.5380027462916,-7330.837791488907,21060.97471266508,0.0
673523.2936376977,3647751.2368613081,-32500.0,9077.4579201872166,-166.52015520818523,-6348.1291724265093,-2891.002021158859,-3383.6002510548178,3615.73364290066,8933.3221606205952,7170.8462674787115,-5688.4484732371311,5688.4484732371311,-7170.8462674787115,15589.483078021109,0.0
678523.2936376977,3647751.2368613081,-32500.0,7208.2918227350092,-1366.3135056279207,-6514.8710403054192,-1295.3372296502853,-574.67918129020052,1281.5879546054164,7148.4624419207757,6551.2879157371744,-6180.656943204257,6180.656943204257,-6551.2879157371744,12399.306318074554,0.0
683523.2936376977,3647751.2368613081,-32500.0,5230.0675946287929,-2439.0390063546256,-6267.3920855223778,80.306011936255203,1208.3070777739254,-234.03112285871003,6353.8114884331135,5610.6943909676265,-6391.9010290376427,6391.9010290376427,-5610.6943909676265,11021.379141073288,0.0
688523.2936376977,3647751.2368613081,-32500.0,3357.2394880908691,-3225.5237214577724,-5733.5471483686606,1143.1075915482893,2206.40861250129,-1148.6306676259476,6051.1623586866917,4521.6956082470833,-6291.7347650935999,6291.7347650935999,-4521.6956082470833,10569.776485772261,0.0
693523.2936376977,3647751.2368613081,-32500.0,1716.4487876547882,-3698.2028421778909,-5053.5059052686474,1889.5161419015819,2658.8919968724754,-1639.6785854428269,5844.3432772567803,3427.0859142656668,-5944.77003735176,5944.77003735176,-3427.0859142656668,10359.782513133923,0.0
698523.2936376977,3647751.2368613081,-32500.0,363.05103724817144,-3898.1423263044931,-4336.9418827068621,2358.8563465863031,2761.3625959006717,-1844.7408097062405,5592.9686790070673,2420.7415200400669,-5441.4520027406797,5441.4520027406797,-2420.7415200400669,10086.733513664121,0.0
703523.2936376977,3647751.2368613081,-32500.0,-697.24131548986043,-3891.0200309631041,-3653.8030436450194,2606.319219892458,2657.3501797817812,-1866.6238382228755,5279.9203435746549,1551.430862535361,-4863.1472191060057,4863.1472191060057,-1551.430862535361,9676.502536068956,0.0
708523.2936376977,3647751.2368613081,-32500.0,-1488.3031957698511,-3742.4815089920198,-3040.7149395743168,2687.946287222318,2444.56658496109,-1779.2647751136976,4923.0011354802,834.94417266429059,-4270.1603456539915,4270.1603456539915,-834.94417266429059,9146.8210499347897,0.0
713523.2936376977,3647751.2368613081,-32500.0,-2048.2526157698776,-3507.4073242198538,-2511.4094558740048,2653.2111067391215,2185.5353864657886,-1633.6098643531525,4544.8366823912856,266.53645651707097,-3701.5221583834191,3701.5221583834191,-266.53645651707097,8540.0520032130426,0.0
718523.2936376977,3647751.2368613081,-32500.0,-2419.2607248907216,-3227.1903157037691,-2065.945833271448,2542.2374548624839,1917.8669771665311,-1463.1191481754722,4164.2787333272126,-169.39249287277948,-3179.2360923997785,3179.2360923997785,169.39249287277948,7897.4075574307844,0.0
723523.2936376977,3647751.2368613081,-32500.0,-2641.6084359316778,-2930.8034831114992,-1697.2995595107254,2385.6265517310235,1662.5301424477723,-1288.5685877263695,3794.7834551663768,-492.80342336842955,-2713.271253452961,2713.271253452961,492.80342336842955,7251.1542027857313,0.0
728523.2936376977,3647751.2368613081,-32500.0,-2750.7445887093545,-2637.2173111094194,-1395.520792417188,2205.5653758624967,1429.9068137972019,-1121.951952941796,3444.9603950827245,-724.12064174056138,-2305.8299414530898,2305.8299414530898,724.12064174056138,6623.7768876402042,0.0
733523.2936376977,3647751.2368613081,-32500.0,-2776.2481367442729,-2357.9616433238784,-1150.1130727340599,2017.4030296471569,1223.9609484073849,-969.4552947701776,3119.6581255078786,-882.15877774981755,-1954.5272541956706,1954.5272541956706,882.15877774981755,6029.4827242809997,0.0
738523.2936376977,3647751.2368613081,-32500.0,-2741.8812066623964,-2099.3368493986882,-951.2527843006286,1831.246207720794,1044.979506561762,-833.60304013369478,2821.0291225118967,-983.21459011134823,-1654.5691342483888,1654.5691342483888,983.21459011134823,5476.2066007473104,0.0
743523.2936376977,3647751.2368613081,-32500.0,-2666.1867184949961,-1864.139075211634,-790.31351064285479,1653.357874321305,891.30387298583753,-714.73399517572557,2549.4043085838061,-1040.843746417386,-1400.1502693364089,1400.1502693364089,1040.843746417386,4967.4418146723219,0.0
748523.2936376977,3647751.2368613081,-32500.0,-2563.2960144984659,-1652.9256523474328,-660.00404535223595,1487.2877622921221,760.38238992426795,-611.97479207405138,2303.9547516598659,-1066.0033237061061,-1185.2969425652168,1185.2969425652168,1066.0033237061061,4503.7039487418087,0.0
543523.2936376977,3652751.2368613081,-32500.0,-3410.3998389397466,1122.0523321778073,-331.29389349002111,-1590.794693841767,490.87270162680284,-540.30552933125045,2323.4041304939101,-2736.1883161781379,1512.4180528619881,-1512.4180528619881,2736.1883161781379,4579.6032499053335,0.0
548523.2936376977,3652751.2368613081,-32500.0,-3703.758963531553,1305.1081387570018,-402.66133393080787,-1807.6553943609081,591.5703704197648,-637.52105390950067,2594.4975810947567,-2979.5188154476896,1693.8943468927605,-1693.8943468927605,2979.5188154476896,5112.7049717957607,0.0
553523.2936376977,3652751.2368613081,-32500.0,-4016.5769784716831,1521.4893681933224,-494.36181179566739,-2056.9056622858398,715.64629734817561,-753.83901298007061,2904.682926673604,-3238.4706358967887,1896.8144600165924,-1896.8144600165924,3238.4706358967887,5721.2948566569949,0.0
558523.2936376977,3652751.2368613081,-32500.0,-4345.9046373181,1777.3557316443371,-612.97533581330413,-2342.9542336089271,868.98168124711299,-892.91501828760477,3260.3558724161603,-3509.8009829704351,2122.056948991325,-2122.056948991325,3509.8009829704351,6417.0712675104933,0.0
563523.2936376977,3652751.2368613081,-32500.0,-4686.3228329342537,2079.7563788370917,-767.38226125700749,-2670.411639912903,1058.9686746518059,-1058.9093884652646,3669.0198262923259,-3787.7336797930366,2369.3987229485938,-2369.3987229485938,3787.7336797930366,7213.48074864308,0.0
568523.2936376977,3652751.2368613081,-32500.0,-5028.783213193502,2436.5389337864412,-969.6027139015647,-3043.8658266010248,1294.8681849653071,-1256.4461013696098,4139.4815578011003,-4062.7779798940305,2636.7128110472245,-2636.7128110472245,4062.7779798940305,8125.9122969627906,0.0
573523.2936376977,3652751.2368613081,-32500.0,-5358.9164102134619,2856.0404611721569,-1235.9367524028037,-3467.5059092615616,1588.2225814514941,-1490.5266514756383,4682.078398601222,-4320.0341829305798,2918.7125577387069,-2918.7125577387069,4320.0341829305798,9171.8675440182433,0.0
578523.2936376977,3652751.2368613081,-32500.0,-5654.5280288850045,3346.3651798357878,-1588.4944140705134,-3944.5041486630703,1953.3091103094641,-1766.4317380508787,5308.9332369504036,-4536.7472962576758,3204.9878742330161,-3204.9878742330161,4536.7472962576758,10371.058771195872,0.0
583523.2936376977,3652751.2368613081,-32500.0,-5881.8047363420255,3913.8757460913239,-2057.1952846971799,-4475.9519369680966,2407.5842045032209,-2089.716527248409,6034.1792205847141,-4678.7135451776403,3476.9078940401814,-3476.9078940401814,4678.7135451776403,11745.271662936493,0.0
588523.2936376977,3652751.2368613081,-32500.0,-5989.4466949254274,4560.1639530158927,-2682.2344297561758,-5058.851319216019,2971.9652509000066,-2466.5242515027753,6873.9394767830463,-4694.8908559866213,3702.6605941533144,-3702.6605941533144,4694.8908559866213,13317.527225343247,0.0
593523.2936376977,3652751.2368613081,-32500.0,-5899.6100186860422,5276.0764447574493,-3516.7262676833057,-5681.9537140258335,3670.4997758193435,-2904.5299765133836,7845.4832341653555,-4509.2394239035602,3829.2090426862487,-3829.2090426862487,4509.2394239035602,15109.406330329677,0.0
598523.2936376977,3652751.2368613081,-32500.0,-5494.5857653894518,6030.0667731884469,-4628.393608594637,-6316.6518659599415,4528.0963595192097,-3414.4836046388441,8964.1721950109786,-4008.6713804839414,3769.2507281158128,-3769.2507281158128,4008.6713804839414,17133.934278282133,0.0
603523.2936376977,3652751.2368613081,-32500.0,-4600.2314881878865,6746.1136797325771,-6096.9344541225437,-6897.2530925239153,5562.6044478119056,-4010.3219427073273,10235.436115126597,-3027.2991103438326,3380.9398191567579,-3380.9398191567579,3027.2991103438326,19378.988289936809,0.0
608523.2936376977,3652751.2368613081,-32500.0,-2975.7632690969253,7264.7660231673872,-7998.3868036910062,-7281.7643494399326,6761.7557660444354,-4699.2926676771367,11637.602865631901,-1333.8385998223321,2440.6927260894327,-2440.6927260894327,1333.8385998223321,21774.008284959506,0.0
613523.2936376977,3652751.2368613081,-32500.0,-343.18251010039154,7285.4984551841289,-10357.204394520786,-7188.0468210136705,8024.3120519981449,-5438.4839398195018,13093.007763544856,1350.0844541074327,622.71569389631554,-622.71569389631554,-1350.0844541074327,24137.658071666272,0.0
618523.2936376977,3652751.2368613081,-32500.0,3466.7164619044197,6318.1741294301564,-13033.031967337311,-6134.752141977553,9033.4294920514549,-6014.3573127216569,14438.968260393985,5227.7142944985799,-2460.4525133140851,2460.4525133140851,-5227.7142944985799,26137.505537278157,0.0
623523.2936376977,3652751.2368613081,-32500.0,8154.2805023257406,3759.346544829546,-15519.416467554574,-3523.4705793136354,9057.5654061631903,-5822.6107979207854,15457.782653771519,10084.208494997256,-7025.1226868911508,7025.1226868911508,-10084.208494997256,27398.426903394247,0.0
628523.2936376977,3652751.2368613081,-32500.0,12472.079523316334,-665.48610849491956,-16755.865935466169,854.78201028127501,6849.812136254347,-3721.4034719914616,16121.017964769519,14736.158834351965,-12544.035163195305,12544.035163195305,-14736.158834351965,28062.070496122389,0.0
633523.2936376977,3652751.2368613081,-32500.0,14362.552077921155,-6015.4054255663523,-15376.072721480736,5833.9118462674332,1186.0510620355967,1440.1954441429521,17143.909265646551,16912.758244074044,-17107.527274362437,17107.527274362437,-16912.758244074044,29697.795060093045,0.0
638523.2936376977,3652751.2368613081,-32500.0,12710.035057508097,-9763.1650787138424,-10878.047367817975,8614.5109682199582,-7558.6890803719216,9188.4571469739039,19668.72022978844,14809.063710090844,-17998.225213344456,17998.225213344456,-14809.063710090844,34142.653529443931,0.0
643523.2936376977,3652751.2368613081,-32500.0,9261.3740618592765,-9591.2938500833188,-4841.7280248486304,7036.6448862741499,-16337.280304691378,16453.157349271241,22864.078337952189,9568.0808821683204,-14254.523731810103,14254.523731810103,-9568.0808821683204,39715.082014188862,0.0
648523.2936376977,3652751.2368613081,-32500.0,7048.6421857351625,-5937.2257472906913,-21.116175127250543,2244.8159041746781,-21443.537278470802,19916.595882352569,24468.07764995077,4692.4882972511896,-8198.4199366930534,8198.4199366930534,-4692.4882972511896,42507.463532259913,0.0
653523.2936376977,3652751.2368613081,-32500.0,7080.8355322702091,-1406.6560989835302,2007.9165868767891,-2640.5156013558399,-21651.467109758625,19055.506677902053,23479.51523513635,2455.9545634041219,-3119.3379149016951,3119.3379149016951,-2455.9545634041219,40780.937800305699,0.0
658523.2936376977,3652751.2368613081,-32500.0,8260.6181124811701,1852.159016065689,1557.5961983665206,-5624.9815631940792,-18345.433726746342,15641.780072164034,20478.477128767761,2590.1306351502885,-555.84870098134206,555.84870098134206,-2590.1306351502885,35549.482312856235,0.0
663523.2936376977,3652751.2368613081,-32500.0,9279.7177012918328,3217.0136652268357,-188.47465103680696,-6530.7790378638647,-13597.86378281303,11565.202520661722,16608.235767079397,3769.3925199115019,-218.0218122707372,218.0218122707372,-3769.3925199115019,28813.46856640439,0.0
668523.2936376977,3652751.2368613081,-32500.0,9529.0856687192536,3062.191598015459,-2161.822382441615,-6019.793337070575,-8905.9074517814788,7872.7767825748115,12827.235479442854,4939.2577552172097,-1139.2837894156346,1139.2837894156346,-4939.2577552172097,22245.163193958837,0.0
673523.2936376977,3652751.2368613081,-32500.0,8978.2535756471098,2039.1420119626223,-3748.8133964292874,-4797.3891641274804,-5000.179585910666,4915.6356576601383,9704.8072551025471,5618.0478328768377,-2460.7067804702328,2460.7067804702328,-5618.0478328768377,16831.589473970613,0.0
678523.2936376977,3652751.2368613081,-32500.0,7846.3120057649739,703.90444312710224,-4735.1532147022854,-3354.4393647175784,-2084.1223912906935,2706.2470326867042,7477.1930549198823,5724.2513226600768,-3657.8984662629537,3657.8984662629537,-5724.2513226600768,12973.739611502442,0.0
683523.2936376977,3652751.2368613081,-32500.0,6396.3530248933303,-582.15476042061209,-5147.5665416113707,-1973.8754708619472,-89.154970140405624,1139.5976952269057,6130.1241734376681,5365.692201208748,-4499.5483758068576,4499.5483758068576,-5365.692201208748,10627.375324707269,0.0
688523.2936376977,3652751.2368613081,-32500.0,4851.2084292074323,-1633.5187857549765,-5118.9503397593617,-794.65148055616919,1159.999412258584,85.712612740202587,5430.985728183744,4706.4767629238631,-4943.1104790820664,4943.1104790820664,-4706.4767629238631,9409.4434510421961,0.0
693523.2936376977,3652751.2368613081,-32500.0,3369.7582925604361,-2389.0075554219488,-4803.035219373508,133.9293232197403,1856.8191325704308,-578.66582166146361,5053.5729629649959,3900.5173376942184,-5043.3301835575749,5043.3301835575749,-3900.5173376942184,8811.0252612896875,0.0
698523.2936376977,3652751.2368613081,-32500.0,2048.4658219456933,-2861.0069323058983,-4331.7597883544477,814.65701022546932,2172.3276229276207,-959.8385182274975,4778.6028441797689,3065.3178613107639,-4890.0810623113493,4890.0810623113493,-3065.3178613107639,8442.0148947821272,0.0
703523.2936376977,3652751.2368613081,-32500.0,933.13672319294278,-3096.7328270837297,-3801.296800189959,1277.2562563932809,2241.2827730140116,-1144.1622672248723,4514.8597574268815,2277.7637610199426,-4573.2183433990876,4573.2183433990876,-2277.7637610199426,8101.1515570891816,0.0
708523.2936376977,3652751.2368613081,-32500.0,33.609471184795652,-3153.3688686680985,-3273.4914970257996,1562.0811608897459,2162.0524122578863,-1198.3098966485788,4237.237345016164,1580.2616629199033,-4166.8999820713871,4166.8999820713871,-1580.2616629199033,7717.2126207581587,0.0
713523.2936376977,3652751.2368613081,-32500.0,-662.671179695609,-3084.618194396608,-2783.3310234213905,1710.3269301761213,2002.3076245594361,-1171.3846227586641,3946.1505049626389,990.10778388112863,-3725.5594011486028,3725.5594011486028,-990.10778388112863,7281.8369714824166,0.0
718523.2936376977,3652751.2368613081,-32500.0,-1180.0302024685823,-2934.9798067917664,-2347.2338218910522,1758.8853226783476,1806.2190205286395,-1097.9639381358199,3649.6427862110149,508.37484273530845,-3285.6081239681826,3285.6081239681826,-508.37484273530845,6809.9574731330504,0.0
723523.2936376977,3652751.2368613081,-32500.0,-1547.2106356271206,-2738.4923054319502,-1969.9578176041703,1738.2564904806063,1601.1064036722621,-1001.3436861051342,3356.4098275542451,126.8807727370563,-2869.2102677603903,2869.2102677603903,-126.8807727370563,6321.4477748028294,0.0
728523.2936376977,3652751.2368613081,-32500.0,-1792.8272286510378,-2519.6658637424143,-1649.6072826319914,1672.2715175077028,1402.7992297074547,-896.50332839225825,3073.4481043477927,-166.95241169430233,-2488.2430935104458,2488.2430935104458,166.95241169430233,5833.9264944490542,0.0
733523.2936376977,3652751.2368613081,-32500.0,-1942.9046715764291,-2295.2336451915162,-1380.944453786532,1578.7461392550028,1219.623781370655,-792.56095114161769,2805.5785312550811,-387.0158347804886,-2147.6581852374939,2147.6581852374939,387.0158347804886,5360.6622382689957,0.0
738523.2936376977,3652751.2368613081,-32500.0,-2019.808061854179,-2076.0011889286102,-1157.4242092903576,1470.502777422304,1055.2091141046681,-694.66611872149633,2555.6682905675157,-546.73736263158185,-1848.0399213178691,1848.0399213178691,546.73736263158185,4910.5807143847478,0.0
743523.2936376977,3652751.2368613081,-32500.0,-2042.0203526668672,-1868.474488934022,-972.35483611078553,1356.4425148102525,910.38004750821165,-605.38348475904922,2325.0559123924895,-658.18387189085138,-1587.4209299254983,1587.4209299254983,658.18387189085138,4489.0047915073828,0.0
543523.2936376977,3657751.2368613081,-32500.0,-3090.1251176018845,1284.2322695629825,-474.29613674024068,-1465.009049185968,564.81593275902685,-503.01321772839003,2214.3200843818886,-2402.614123989466,1458.6724164415034,-1458.6724164415034,2402.614123989466,4371.7079245997138,0.0
548523.2936376977,3657751.2368613081,-32500.0,-3318.7244110925226,1480.0152763791393,-573.55985487232556,-1650.6491149946062,675.17897360503002,-589.35869458879188,2461.1667672651597,-2578.307172127405,1614.8881111494043,-1614.8881111494043,2578.307172127405,4858.5667357652173,0.0
553523.2936376977,3657751.2368613081,-32500.0,-3552.4019778525194,1707.789871962455,-698.93166052601055,-1860.0266495342273,809.5324549761159,-691.32643066573223,2741.0089048895893,-2754.4493438541535,1783.949720085488,-1783.949720085488,2754.4493438541535,5409.1419400207596,0.0
558523.2936376977,3657751.2368613081,-32500.0,-3784.8997411375526,1972.1918087866168,-858.07303890618482,-2094.9297136300106,973.30318178919572,-811.37435616534412,3058.5098835010199,-2924.2623650259375,1963.9239905929971,-1963.9239905929971,2924.2623650259375,6031.744741084206,0.0
563523.2936376977,3657751.2368613081,-32500.0,-4006.8043150173139,2277.9307886222423,-1061.0037624874687,-2356.4973231537069,1173.0357472269782,-952.02865286443728,3418.8621081813903,-3077.6895883528623,2150.8774607222504,-2150.8774607222504,3077.6895883528623,6735.3410408167365,0.0
568523.2936376977,3657751.2368613081,-32500.0,-4204.3397040709597,2629.3151226478126,-1320.8043483968686,-2644.7014592083715,1416.5037704415065,-1115.6703457654942,3827.7503089102402,-3200.1537802884559,2337.8164428142954,-2337.8164428142954,3200.1537802884559,7529.3457563251641,0.0
573523.2936376977,3657751.2368613081,-32500.0,-4357.7362378869248,3029.388511822041,-1654.4724610875871,-2957.5736269169738,1712.7286867814105,-1304.1932340621872,4291.2529336435864,-3270.9047971597502,2513.1377576495706,-2513.1377576495706,3270.9047971597502,8423.233104703826,0.0
578523.2936376977,3657751.2368613081,-32500.0,-4439.0414883418089,3478.4260217851593,-2083.9033075272514,-3290.0584054872406,2071.8037904006037,-1518.5077840052097,4815.6496742201689,-3260.8551456669638,2658.3838864870804,-2658.3838864870804,3260.8551456669638,9425.8602298602273,0.0
583523.2936376977,3657751.2368613081,-32500.0,-4409.1876452847273,3971.3489268802045,-2636.854547001315,-3632.271744825362,2504.3209382998239,-1757.8760292645813,5407.0364940598247,-3129.7846809949656,2745.0019606783085,-2745.0019606783085,3129.7846809949656,10544.264395085462,0.0
588523.2936376977,3657751.2368613081,-32500.0,-4214.1746649573524,4493.3383415064463,-3347.5171204306876,-3966.7626008164038,3020.0146775434687,-2019.0843174416957,6070.5660527075588,-2822.8731854336961,2729.7284037377763,-2729.7284037377763,2822.8731854336961,11781.53114955124,0.0
593523.2936376977,3657751.2368613081,-32500.0,-3780.4625001250483,5012.4502749420408,-4255.7546335018415,-4263.9658207261537,3624.8142219158258,-2295.3811222170689,6808.9078586187934,-2266.7727712097958,2548.1812857097957,-2548.1812857097957,2266.7727712097958,13132.906687968012,0.0
598523.2936376977,3657751.2368613081,-32500.0,-3010.7206084873233,5467.4649738872358,-5402.8725956438666,-4474.3916197380777,4314.5840553362232,-2574.6756499656135,7619.2410347030955,-1366.3991250657773,2106.6011633978601,-2106.6011633978601,1366.3991250657773,14578.840135059088,0.0
603523.2936376977,3657751.2368613081,-32500.0,-1784.1705342371879,5749.0194979075332,-6819.3403674048077,-4515.4689223251344,5061.9162069770264,-2835.0347892409013,8487.9003145880779,-6.3933803031954994,1273.3306801922395,-1273.3306801922395,6.3933803031954994,16073.487870481697,0.0
608523.2936376977,3657751.2368613081,-32500.0,26.746759265527288,5674.4033361873362,-8495.6466356611254,-4252.1981034703476,5788.9943851546386,-3032.0330565394188,9382.7786481957683,1931.8714865482279,-122.9707386657019,122.9707386657019,-1931.8714865482279,17529.879977154509,0.0
613523.2936376977,3657751.2368613081,-32500.0,2498.3068996897059,4967.0376290618015,-10322.631414435105,-3479.51928234243,6316.2479961457184,-3067.1797049744669,10248.684744211294,4513.5953356711425,-2267.7437052354207,2267.7437052354207,-4513.5953356711425,18815.33571147146,0.0
618523.2936376977,3657751.2368613081,-32500.0,5521.0284283436067,3281.0186071273492,-11991.265829313621,-1941.3412563551965,6282.819483730641,-2727.0681323026574,11025.763954035381,7616.7561288499628,-5262.5999076707167,5262.5999076707167,-7616.7561288499628,19806.352059937093,0.0
623523.2936376977,3657751.2368613081,-32500.0,8591.6543075716127,359.96747648128246,-12882.558390684564,531.99502887946255,5078.9378340517014,-1615.827259674016,11737.337185873992,10710.734143584079,-8897.0221885300416,8897.0221885300416,-10710.734143584079,20609.742238032977,0.0
628523.2936376977,3657751.2368613081,-32500.0,10704.345336065893,-3581.1920679815998,-12096.434652795773,3687.4790170803149,1944.9352516403885,795.05533090827657,12679.2127376483,12696.514946337027,-12324.161916573388,12324.161916573388,-12696.514946337027,21971.474439375539,0.0
633523.2936376977,3657751.2368613081,-32500.0,10760.613158156826,-7416.7099920261244,-8895.6242455567153,6479.9154516384779,-3515.7616922187103,4781.4749757420404,14463.322801655071,12245.896935530718,-13999.680751213245,13999.680751213245,-12245.896935530718,25152.789460026714,0.0
638523.2936376977,3657751.2368613081,-32500.0,8644.7066619403904,-9310.3931966204927,-3576.4688507791134,7323.8789190419129,-10501.641327206891,9710.8440996967056,17261.88071158146,8938.0772791697982,-12503.585119734505,12503.585119734505,-8938.0772791697982,30254.661063738113,0.0
643523.2936376977,3657751.2368613081,-32500.0,5840.4406383784644,-8062.7455082677952,2120.7313201685615,5364.4578227109969,-16842.763026407603,13945.548264290288,20030.846034839036,4210.4891599651655,-8002.446655689715,8002.446655689715,-4210.4891599651655,35243.005959767026,0.0
648523.2936376977,3657751.2368613081,-32500.0,4246.2468205551768,-4353.6740451453743,6049.0696990418201,1485.1034069333912,-20333.078354573168,15954.42281775129,21412.850650600376,450.61788150896928,-2535.2861561312452,2535.2861561312452,-450.61788150896928,37722.752332525124,0.0
653523.2936376977,3657751.2368613081,-32500.0,4472.4562558254984,-134.11015121143666,7205.9830879921674,-2466.8705281567914,-20295.916025228817,15471.277123279129,20871.894648180183,-993.98578625407549,1624.2834628965086,-1624.2834628965086,993.98578625407549,36775.856027679183,0.0
658523.2936376977,3657751.2368613081,-32500.0,5787.5988602356101,2983.4001179532975,6044.0728950135917,-5178.5063920157763,-17615.726575356457,13322.234478050928,18767.637280087591,-418.18871038325847,3494.8576988556279,-3494.8576988556279,418.18871038325847,33060.525659875675,0.0
663523.2936376977,3657751.2368613081,-32500.0,7178.7450369073858,4451.1903027030476,3668.9138728492012,-6356.7164374625017,-13693.661534472727,10527.140615962793,15842.222602058324,1134.932467469107,3378.3849928416703,-3378.3849928416703,-1134.932467469107,27901.521221980729,0.0
668523.2936376977,3657751.2368613081,-32500.0,8029.664438998796,4502.8556266264541,1074.6238669579093,-6322.6899304088047,-9647.6580021088448,7774.1405396554837,12778.81735056503,2759.1479457303194,2092.0447711124671,-2092.0447711124671,-2759.1479457303194,22508.86420419252,0.0
673523.2936376977,3657751.2368613081,-32500.0,8169.294165863711,3653.5400971079284,-1138.5996655332897,-5545.3446800068314,-6105.7559723113282,5388.5470822417929,10033.136829034793,3966.754241078715,393.71514947968672,-393.71514947968672,-3966.754241078715,17681.202443762788,0.0
678523.2936376977,3657751.2368613081,-32500.0,7687.9429028788873,2391.8664764632417,-2730.8868595923291,-4418.8698081558596,-3308.3229278579538,3470.190330772065,7842.3318893790347,4612.8867986643345,-1218.5281571911501,1218.5281571911501,-4612.8867986643345,13819.360079353015,0.0
683523.2936376977,3657751.2368613081,-32500.0,6774.5366822036958,1069.0688805530228,-3693.9894927921564,-3213.2621132203867,-1265.331927801346,2008.9752071346213,6280.1484120548639,4746.0773454864529,-2496.3330326843788,2496.3330326843788,-4746.0773454864529,11028.113669632583,0.0
688523.2936376977,3657751.2368613081,-32500.0,5625.0504791627782,-107.76567809146782,-4134.0129397508754,-2090.0832762242103,123.78682804616339,948.27665065392955,5281.1797260873518,4494.3148168262333,-3366.1830482870937,3366.1830482870937,-4494.3148168262333,9200.9105002843899,0.0
693523.2936376977,3657751.2368613081,-32500.0,4401.8891263332598,-1044.4294733469224,-4192.6338129864534,-1131.181658113891,996.82182213901785,215.61741048295244,4671.9217256195698,3998.4505630219696,-3855.0553681474435,3855.0553681474435,-3998.4505630219696,8093.4456804222082,0.0
698523.2936376977,3657751.2368613081,-32500.0,3221.3200822987419,-1721.5248993200939,-4003.6159561136519,-364.87023244441718,1489.4994228587577,-262.05527240243629,4273.4231291383221,3379.782124368397,-4035.4316092657232,4035.4316092657232,-3379.782124368397,7423.7861549205909,0.0
703523.2936376977,3657751.2368613081,-32500.0,2155.2567193585537,-2161.8846946724971,-3674.2635909873707,213.30023837436354,1717.6882506935428,-550.474826331391,3970.0125735916317,2728.6530080156613,-3990.7838695175165,3990.7838695175165,-2728.6530080156613,6967.0839883049603,0.0
708523.2936376977,3657751.2368613081,-32500.0,1239.5754442818309,-2407.1299655838739,-3281.7570361884668,625.22976066395972,1772.0785800843225,-704.46235590685524,3703.863239317564,2104.6090110632394,-3797.2372563836052,3797.2372563836052,-2104.6090110632394,6588.5079778914514,0.0
713523.2936376977,3657751.2368613081,-32500.0,484.26810306830805,-2503.0063624146437,-2876.7777945973103,899.8509655768961,1719.3537881081065,-767.124358986782,3451.0973285430523,1541.8034484071313,-3516.0974157307355,3516.0974157307355,-1541.8034484071313,6224.907653692695,0.0
718523.2936376977,3657751.2368613081,-32500.0,-117.21606945464887,-2491.5151612143513,-2489.617999343187,1066.7168734282604,1606.1271316413051,-770.74265110297858,3204.4927037496864,1055.8219990245507,-3192.6747504544874,3192.6747504544874,-1055.8219990245507,5854.9544263947491,0.0
723523.2936376977,3657751.2368613081,-32500.0,-580.59176862802667,-2407.5820352092392,-2136.2396972040897,1152.5572194424997,1463.5291682112515,-738.49005618725187,2963.9258434996068,649.94880789979402,-2858.1557553086195,2858.1557553086195,-649.94880789979402,5477.1899074798494,0.0
728523.2936376977,3657751.2368613081,-32500.0,-925.52270626608788,-2278.3859872616663,-1823.2474434998412,1179.8227392164677,1311.4063591361462,-686.36728151889838,2731.657294614814,320.10832771294417,-2532.5344605818841,2532.5344605818841,-320.10832771294417,5097.669456426388,0.0
733523.2936376977,3657751.2368613081,-32500.0,-1172.2830645639322,-2124.0323510373159,-1551.5568803584333,1166.4258137575523,1161.7385860639258,-625.00694530568717,2510.2178856563369,58.391378385660119,-2227.5566307472486,2227.5566307472486,-58.391378385660119,4723.9839890616304,0.0
738523.2936376977,3657751.2368613081,-32500.0,-1339.8424048334455,-1958.7570025313003,-1318.9108738472726,1126.1114371290782,1021.2269682512485,-561.18452255077818,2301.5936728082752,-144.62483306357478,-1949.226505000448,1949.226505000448,144.62483306357478,4362.7662300982383,0.0
743523.2936376977,3657751.2368613081,-32500.0,-1444.9320156495314,-1792.2146479108001,-1121.5054334033787,1069.0951662278269,893.15720452921016,-498.99868198663393,2107.0189786099977,-298.46799709379309,-1699.7534451887886,1699.7534451887886,298.46799709379309,4018.9099856328248,0.0
543523.2936376977,3662751.2368613081,-32500.0,-2736.4222657511446,1391.8775543220174,-619.52100314877111,-1324.6690875937934,617.97824460877007,-461.12418177976247,2088.2958560270449,-2045.1010667681146,1356.1021704103994,-1356.1021704103994,2045.1010667681146,4130.8081807027593,0.0
548523.2936376977,3662751.2368613081,-32500.0,-2898.6930010753626,1587.8763766938985,-744.09524609791663,-1477.3913671432631,732.33679610764625,-535.80237967754601,2308.9173987416202,-2153.5768037987918,1479.1055430102001,-1479.1055430102001,2153.5768037987918,4566.7851069694761,0.0
553523.2936376977,3662751.2368613081,-32500.0,-3052.8813785483148,1811.4940046911674,-898.95972463551288,-1645.3779505101695,869.62625555828049,-622.57352020470785,2556.5457269150611,-2249.1027753166359,1605.3944170115965,-1605.3944170115965,2249.1027753166359,5054.3218057421554,0.0
558523.2936376977,3662751.2368613081,-32500.0,-3190.2977258542019,2065.1388342714586,-1092.084727776014,-1828.11674617517,1034.3129424881438,-722.77355555424754,2834.3314922727295,-2322.4367089671596,1730.3984112011503,-1730.3984112011503,2322.4367089671596,5598.5372683858432,0.0
563523.2936376977,3662751.2368613081,-32500.0,-3298.8769711618152,2350.3773539812446,-1333.5020487590941,-2023.8262553429097,1231.4470205036805,-837.44550992158202,3145.4775597247303,-2360.8586483126896,1846.9132247903103,-1846.9132247903103,2360.8586483126896,6204.3156192725874,0.0
568523.2936376977,3662751.2368613081,-32500.0,-3362.1540145571716,2667.1235634823611,-1635.7132046908796,-2228.7936923184402,1466.505354498257,-967.01091894212755,3493.0500449612541,-2347.1357475789446,1943.9799106609614,-1943.9799106609614,2347.1357475789446,6875.853232466864,0.0
573523.2936376977,3662751.2368613081,-32500.0,-3358.0248222072319,3012.3529527923261,-2014.048316745334,-2436.4506275578783,1745.0147970204207,-1110.7733269408084,3879.7202331305889,-2258.2993512648468,2005.3669966324519,-2005.3669966324519,2258.2993512648468,7615.9749712259882,0.0
578523.2936376977,3662751.2368613081,-32500.0,-3257.3262060144421,3378.0981243506067,-2486.813235874065,-2636.1001894800775,2071.7932535482942,-1266.2036037848136,4307.4027249039191,-2064.3055558275619,2007.5680201163968,-2007.5680201163968,2064.3055558275619,8425.1272370573279,0.0
583523.2936376977,3662751.2368613081,-32500.0,-3022.3602072518393,3748.3758155979303,-3074.8930247629382,-2811.1726305323496,2449.5361413488267,-1427.9537448781575,4776.727602713303,-1726.7722880023637,1917.2605975015688,-1917.2605975015688,1726.7722880023637,9299.9124023866061,0.0
588523.2936376977,3662751.2368613081,-32500.0,-2605.7303470202601,4094.5740095635474,-3800.1523273007606,-2936.8385943450721,2876.2857486433904,-1586.5373666727878,5286.2791688633697,-1198.2649972203951,1688.3138068639412,-1688.3138068639412,1198.2649972203951,10231.005598995276,0.0
593523.2936376977,3662751.2368613081,-32500.0,-1950.3911977211676,4368.7488368504255,-4681.364533710148,-2976.7453049054507,3340.9783713074676,-1726.5442822977845,5831.5411836416815,-423.17538203141788,1258.8100500705009,-1258.8100500705009,423.17538203141788,11200.312014524447,0.0
598523.2936376977,3662751.2368613081,-32500.0,-993.0307397827761,4494.5329493771333,-5725.3674430829833,-2878.7013449360047,3815.6867785654463,-1824.0083614944147,6403.6470034362219,657.54789812504157,549.53559873019287,-549.53559873019287,-657.54789812504157,12177.631500329499,0.0
603523.2936376977,3662751.2368613081,-32500.0,324.69826691617078,4356.6548278373766,-6909.5914004347724,-2569.7619585755892,4242.3235379343951,-1841.895462481194,6988.6289408455141,2093.2241485955929,-532.31608299441325,532.31608299441325,-2093.2241485955929,13118.673301405039,0.0
608523.2936376977,3662751.2368613081,-32500.0,2028.7670376893798,3794.2331527799088,-8150.7270694356603,-1953.701329587024,4510.9933018645897,-1721.6000260726437,7569.7643442721856,3893.5082926229038,-2075.780714447294,2075.780714447294,-3893.5082926229038,13971.29764846049,0.0
613523.2936376977,3662751.2368613081,-32500.0,4058.11613488374,2612.9154991310361,-9256.1705338385746,-920.71556488133854,4429.3208761817923,-1368.0371777085757,8139.9864673227557,5970.4333776089243,-4119.3262658042022,4119.3262658042022,-5970.4333776089243,14708.833825288924,0.0
618523.2936376977,3662751.2368613081,-32500.0,6180.6987268985922,647.43114873518675,-9868.7409257926647,608.3820188405258,3693.7885568981433,-631.24881032289079,8737.1953646966467,8049.040420684194,-6554.7759816383568,6554.7759816383568,-8049.040420684194,15425.929810812684,0.0
623523.2936376977,3662751.2368613081,-32500.0,7921.695066568991,-2085.6761855142554,-9454.6656242528225,2574.2703355306794,1905.3911471584825,692.58925199064299,9507.3591203521501,9585.4781739416321,-8984.6676912868352,8984.6676912868352,-9585.4781739416321,16504.684687516161,0.0
628523.2936376977,3662751.2368613081,-32500.0,8631.6585856638958,-5158.3067994926605,-7444.1275294521547,4618.4267146450038,-1285.691061749546,2785.0954038713767,10732.613956268302,9823.1851144479042,-10625.988350891472,10625.988350891472,-9823.1851144479042,18638.618205922503,0.0
633523.2936376977,3662751.2368613081,-32500.0,7848.4366030601614,-7611.3900927311206,-3619.6522944961048,6014.032043752075,-5849.3249348847712,5608.5472582503699,12648.002433892541,8167.3656469397247,-10491.012631932426,10491.012631932426,-8167.3656469397247,22266.482555511073,0.0
638523.2936376977,3662751.2368613081,-32500.0,5829.9117396575821,-8290.0005164831346,1413.6385558602153,5945.1013938771093,-11031.941757213201,8693.4385271257415,15041.517364646168,4802.9782381753757,-8011.3045868268655,8011.3045868268655,-4802.9782381753757,26789.281537641134,0.0
643523.2936376977,3662751.2368613081,-32500.0,3650.6178280815316,-6653.8158712335589,6222.8460395203256,4120.5376835941324,-15460.470063203695,11213.455717850737,17171.837888312384,932.72341798578645,-3714.9290847314983,3714.9290847314983,-932.72341798578645,30744.011173174833,0.0
648523.2936376977,3662751.2368613081,-32500.0,2471.6969407989723,-3316.7231338178485,9317.2466074311287,1126.6034318222114,-17877.679745329166,12457.855008491038,18271.888722303498,-1915.9318087996191,886.49270022164569,-886.49270022164569,1915.9318087996191,32769.92713306941,0.0
653523.2936376977,3662751.2368613081,-32500.0,2689.0231555110167,375.10844522113888,10046.725438030135,-1967.7949966356957,-17878.812705807821,12265.891191728835,18028.060728432487,-2925.5337317465933,4281.0733893893166,-4281.0733893893166,2925.5337317465933,32347.844475997146,0.0
658523.2936376977,3662751.2368613081,-32500.0,3869.7205822136416,3253.2061917275996,8767.2151548105758,-4312.8837967507952,-15948.462509220848,10989.519882379647,16625.875860410655,-2291.9596276405073,5793.4082761317986,-5793.4082761317986,2291.9596276405073,29839.925225564795,0.0
663523.2936376977,3662751.2368613081,-32500.0,5295.9450943100537,4817.6500496856033,6343.8950759472309,-5594.6701570829773,-12957.549016544392,9151.1894379354999,14512.191922790185,-750.76172195723439,5611.887935373943,-5611.887935373943,750.76172195723439,26060.420045075702,0.0
668523.2936376977,3662751.2368613081,-32500.0,6422.5099112998923,5146.4042717072589,3616.2092843482851,-5912.773337449732,-9694.2825720062428,7180.2353368083577,12148.403758758428,975.85121917948163,4341.759595232611,-4341.759595232611,-975.85121917948163,21836.948425257895,0.0
673523.2936376977,3662751.2368613081,-32500.0,7002.3429578833693,4593.3018891600486,1147.4043160445244,-5540.608263647593,-6674.6556461527789,5340.251495878485,9883.4872826173596,2427.8710651128881,2604.5816466272749,-2604.5816466272749,-2427.8710651128881,17786.365044978869,0.0
678523.2936376977,3662751.2368613081,-32500.0,7017.6821079453857,3551.6691256539125,-790.96659928290467,-4763.4846041511546,-4152.5743714833125,3759.5714645048565,7931.8956276207455,3410.5806656277628,854.88117160898855,-854.88117160898855,-3410.5806656277628,14275.709345679285,0.0
683523.2936376977,3662751.2368613081,-32500.0,6573.6546730510927,2339.9872774010487,-2138.0079999444224,-3810.7780480019569,-2198.7996459239666,2479.9430116070648,6395.7375291573717,3908.6835691058013,-646.1469447769075,646.1469447769075,-3908.6835691058013,11466.707270940557,0.0
688523.2936376977,3662751.2368613081,-32500.0,5817.9475008224472,1171.6168939986026,-2952.689529132399,-2841.7595762399533,-778.77845263569759,1493.4487080763313,5282.3060772188119,4000.2772212483824,-1790.2618188517911,1790.2618188517911,-4000.2772212483824,9373.4248283781326,0.0
693523.2936376977,3662751.2368613081,-32500.0,4893.9021187308326,165.13979568572509,-3344.9805795990669,-1953.3669226006889,190.95138946688451,766.32369742023968,4517.6086841891229,3796.5774995534266,-2568.4594578440601,2568.4594578440601,-3796.5774995534266,7908.703121136854,0.0
698523.2936376977,3662751.2368613081,-32500.0,3918.3026385784042,-631.38834182035646,-3433.0031364560327,-1194.5799719007609,807.5725784859635,254.03610185489174,3992.7112417006451,3406.8686723522574,-3025.3582133529039,3025.3582133529039,-3406.8686723522574,6925.672541237569,0.0
703523.2936376977,3662751.2368613081,-32500.0,2974.6682346754455,-1215.4078906204911,-3320.9205147933444,-581.14076343394845,1162.7009077257503,-89.297464337559859,3613.5331084166946,2921.8097458188613,-3227.1085243367306,3227.1085243367306,-2921.8097458188613,6263.6489771300212,0.0
708523.2936376977,3662751.2368613081,-32500.0,2115.2341464573824,-1609.4602396147777,-3090.6359611515718,-108.12742203352508,1333.6764727269647,-305.49462167689677,3316.6449938625974,2408.3608403248945,-3241.8461696469785,3241.8461696469785,-2408.3608403248945,5788.0266086219563,0.0
713523.2936376977,3662751.2368613081,-32500.0,1366.9321531946252,-1846.8041049543901,-2801.3855023009219,240.46989995898267,1381.2329687441861,-429.76140555111192,3064.7754576618113,1911.112698960756,-3129.6350627725756,3129.6350627725756,-1911.112698960756,5407.6554443811374,0.0
718523.2936376977,3662751.2368613081,-32500.0,738.38973278989556,-1962.4641983520785,-2493.0322941073728,485.15034197004559,1350.5608500392873,-490.06582464268712,2838.233987088488,1456.4390575406178,-2938.6573674343445,2938.6573674343445,-1456.4390575406178,5070.8467346696962,0.0
723523.2936376977,3662751.2368613081,-32500.0,226.29943929023324,-1988.401816826118,-2190.4941704596836,646.80605547085122,1273.8302552425939,-507.63476227277249,2627.716353409277,1057.2970916342224,-2704.9959035011548,2704.9959035011548,-1057.2970916342224,4752.89526596214,0.0
728523.2936376977,3662751.2368613081,-32500.0,-179.5279523709641,-1951.4424544876545,-1907.9700775617619,744.48865318999208,1173.0479608139549,-497.97908451083561,2429.4571174894759,717.56331765852201,-2454.1537954226364,2454.1537954226364,-717.56331765852201,4444.5243312322727,0.0
733523.2936376977,3662751.2368613081,-32500.0,-492.53526602375445,-1872.8485948609421,-1652.417112714684,794.43034522634161,1062.6795194795291,-472.0605670789941,2242.3351525682883,435.47489152662718,-2203.1690260776472,2203.1690260776472,-435.47489152662718,4144.0802266164465,0.0
738523.2936376977,3662751.2368613081,-32500.0,-727.02984699805324,-1768.752170218223,-1426.1700369456173,809.82931669550169,951.81298994211045,-437.38541224069894,2066.2942542453288,206.13288335305538,-1962.7110578683453,1962.7110578683453,-206.13288335305538,3853.0455691414395,0.0
543523.2936376977,3667751.2368613081,-32500.0,-2366.9007633156616,1445.952779988882,-757.29054451495824,-1176.3257689507652,650.36779169971862,-416.49210263999129,1951.0853774089919,-1681.444633477447,1215.7525305499712,-1215.7525305499712,1681.444633477447,3866.2696947383288,0.0
548523.2936376977,3667751.2368613081,-32500.0,-2465.6561199436919,1631.1934657955944,-902.28909502244414,-1296.3856666613624,763.52279399826148,-479.3421866092819,2145.4965667522852,-1727.5187577661907,1301.2475478069489,-1301.2475478069489,1727.5187577661907,4249.3936886872971,0.0
553523.2936376977,3667751.2368613081,-32500.0,-2545.4854142183808,1837.5104628743527,-1079.6639184394924,-1424.0275182719283,897.2094986213674,-550.9367558442874,2361.6290643903362,-1750.0932930854829,1380.7431823524685,-1380.7431823524685,1750.0932930854829,4672.3716232168599,0.0
558523.2936376977,3667751.2368613081,-32500.0,-2596.3703099642548,2064.8122529856782,-1296.8723924453102,-1556.9467913353037,1054.622612134415,-631.64893803387338,2601.3253486416288,-1738.7342283458079,1447.619990437563,-1447.619990437563,1738.7342283458079,5137.6024555322001,0.0
563523.2936376977,3667751.2368613081,-32500.0,-2605.1565302374338,2311.3526096160231,-1562.8385944456409,-1691.2256162905123,1238.9759600712775,-721.30081464945545,2866.1060096656352,-1679.8494410869987,1492.3750126135653,-1492.3750126135653,1679.8494410869987,5646.6566778986344,0.0
568523.2936376977,3667751.2368613081,-32500.0,-2554.8772463248547,2572.7257796986455,-1887.9845200527611,-1820.6706663185084,1453.1178722920367,-818.78266564415435,3157.0071300803402,-1556.0457620083064,1501.6460229460752,-1501.6460229460752,1556.0457620083064,6199.7512001633449,0.0
573523.2936376977,3667751.2368613081,-32500.0,-2424.1033704026718,2840.4053200687358,-2284.0115350050633,-1935.9543734756678,1698.850919939784,-921.50421669737227,3474.3573921951388,-1345.5595881826919,1457.0241918807826,-1457.0241918807826,1345.5595881826919,6795.047944323519,0.0
578523.2936376977,3667751.2368613081,-32500.0,-2186.4890256276694,3099.667877065951,-2763.1843844545797,-2023.5368170381601,1975.783695254129,-1024.6320327464609,3817.4743217474925,-1021.9722337733893,1333.7119919995694,-1333.7119919995694,1021.9722337733893,7427.7598890635436,0.0
583523.2936376977,3667751.2368613081,-32500.0,-1810.8445939183557,3326.7403075056072,-3336.691970769898,-2064.3764314492378,2279.4590544702487,-1120.0720271658436,4184.3160885606794,-554.61135951922529,1099.2194416027864,-1099.2194416027864,554.61135951922529,8089.1127190402576,0.0
588523.2936376977,3667751.2368613081,-32500.0,-1262.3501719073042,3485.0712441027522,-4011.3675198501319,-2032.4958666866992,2598.3806884277319,-1195.1598927767911,4571.1901456227379,89.643956239216948,712.564944479102,-712.564944479102,-89.643956239216948,8765.3492705959488,0.0
593523.2936376977,3667751.2368613081,-32500.0,-506.02140424508354,3520.8882628929805,-4783.6207309345909,-1893.6162101045511,2909.3995887453452,-1231.0177687817011,4972.7675732484422,941.90294012965842,124.99039026132914,-124.99039026132914,-941.90294012965842,9437.3385655761685,0.0
598523.2936376977,3667751.2368613081,-32500.0,485.65995031024437,3358.9574420411059,-5628.9326942621974,-1604.4405306924737,3170.7849410592594,-1200.4936699405268,5383.0163714999026,2022.0874167615639,-715.7845874822525,715.7845874822525,-2022.0874167615639,10082.327096727246,0.0
603523.2936376977,3667751.2368613081,-32500.0,1718.0410854146298,2901.2048907708186,-6484.9864267128314,-1114.0189414345384,3312.3693445354916,-1065.5010953855806,5798.369743507662,3322.0176212881252,-1854.0699392358811,1854.0699392358811,-3322.0176212881252,10681.467615965539,0.0
608523.2936376977,3667751.2368613081,-32500.0,3149.2066549512601,2034.4319189923763,-7227.639562786916,-370.50153407141943,3223.1757672190906,-773.63321919222699,6225.6766748131695,4777.459533002344,-3301.5949225333379,3301.5949225333379,-4777.459533002344,11240.820429684694,0.0
613523.2936376977,3667751.2368613081,-32500.0,4654.243806481104,658.80086181262095,-7644.1261963462875,660.34149383877821,2740.5276695592997,-254.93238502741701,6698.1938128100483,6229.1003417807769,-4993.1541425294399,4993.1541425294399,-6229.1003417807769,11837.091471656669,0.0
618523.2936376977,3667751.2368613081,-32500.0,5990.9831624659755,-1247.5434186012126,-7421.372427098031,1956.2024998545949,1653.4036066828346,576.55830683268175,7298.3459817427374,7385.2750093570867,-6722.7975806627564,6722.7975806627564,-7385.2750093570867,12686.11825447226,0.0
623523.2936376977,3667751.2368613081,-32500.0,6805.7387753317598,-3523.8224519023383,-6189.5881954648576,3377.2851216697318,-253.61233748368301,1804.2892884573769,8166.3400586110511,7827.2341622815738,-8086.9849647189867,8086.9849647189867,-7827.2341622815738,14161.943534971964,0.0
628523.2936376977,3667751.2368613081,-32500.0,6741.9352401583064,-5726.4973337733527,-3672.5823385351596,4612.1707835469606,-3085.5410930767798,3456.8554167394941,9446.173597126548,7126.297079477481,-8509.7357485869925,8509.7357485869925,-7126.297079477481,16607.160170748357,0.0
633523.2936376977,3667751.2368613081,-32500.0,5675.0701503323171,-7156.8557662722787,58.22428252160087,5208.6784529431789,-6664.2091827197619,5424.6024679734792,11148.672665717721,5107.8441075306182,-7449.1146763179204,7449.1146763179204,-5107.8441075306182,19962.280740066955,0.0
638523.2936376977,3667751.2368613081,-32500.0,3938.7240856663589,-7141.5456803839998,4383.0013574801042,4765.0472172017089,-10417.246221922722,7405.5561285877702,13024.643955159812,2130.777051638785,-4771.7492711901796,4771.7492711901796,-2130.777051638785,23608.370922878621,0.0
643523.2936376977,3667751.2368613081,-32500.0,2267.4547478586328,-5472.2234030281106,8251.3890111451619,3209.6795772386072,-13508.85342082241,8976.3451805046279,14609.88464766895,-922.83053582508069,-1024.2065239259559,1024.2065239259559,922.83053582508069,26624.806081836679,0.0
648523.2936376977,3667751.2368613081,-32500.0,1377.361729683741,-2625.4523754146776,10672.264751211607,918.90953278137124,-15220.246632603343,9789.9489695033571,15465.0078486658,-3087.9253775583588,2741.1158848724185,-2741.1158848724185,3087.9253775583588,28233.890470138165,0.0
653523.2936376977,3667751.2368613081,-32500.0,1534.6144855351693,495.85015736165093,11211.487501386238,-1478.9255596545281,-15296.477507793832,9744.9902147520515,15394.662474988976,-3850.7795239109537,5523.6371236475106,-5523.6371236475106,3850.7795239109537,28122.007656704689,0.0
658523.2936376977,3667751.2368613081,-32500.0,2497.7226286430882,3063.7520681712222,10094.810945881361,-3436.2850831890196,-13983.152809927667,8986.7483860527227,14483.260304273785,-3315.3900716328899,6836.5075128222998,-6836.5075128222998,3315.3900716328899,26470.645773200304,0.0
663523.2936376977,3667751.2368613081,-32500.0,3784.7978103838927,4645.1510235964461,7934.7985231380999,-4679.3170027263741,-11797.883338025718,7780.5681886947268,12989.139467311166,-1968.7247997241698,6758.3517252996244,-6758.3517252996244,1968.7247997241698,23761.243604220672,0.0
668523.2936376977,3667751.2368613081,-32500.0,4958.9529285128656,5208.5831589320815,5387.0644125834633,-5195.1659490377006,-9271.41318774717,6386.3843573565046,11212.202512303258,-352.39504531633975,5697.0296890550117,-5697.0296890550117,352.39504531633975,20538.848821632728,0.0
673523.2936376977,3667751.2368613081,-32500.0,5759.6743791935733,4964.7128843442906,2945.7392978742682,-5122.8016932205637,-6803.0355414932328,4998.2163560786457,9407.6248664326158,1133.0680692961848,4128.6877164600046,-4128.6877164600046,-1133.0680692961848,17259.016394082952,0.0
678523.2936376977,3667751.2368613081,-32500.0,6101.5221145528103,4203.1962339709735,893.34455814910223,-4650.7885172885753,-4629.7086065777548,3736.1580671981042,7755.0718749871066,2272.8795871999696,2443.9244910542488,-2443.9244910542488,-2272.8795871999696,14233.534598906977,0.0
683523.2936376977,3667751.2368613081,-32500.0,6018.3188506245315,3190.9479353166962,-663.57759017739147,-3956.1914440535438,-2854.1880474153213,2660.3503760939407,6360.2338883285856,3002.3015101406486,899.06384670681337,-899.06384670681337,-3002.3015101406486,11637.270356788575,0.0
688523.2936376977,3667751.2368613081,-32500.0,5604.3745456075685,2129.1686350398531,-1733.8984012566225,-3178.4904727426924,-1488.815505600435,1788.8044788613124,5262.0012181206675,3350.6056818160614,-373.00512276951031,373.00512276951031,-3350.6056818160614,9537.6793452951315,0.0
693523.2936376977,3667751.2368613081,-32500.0,4971.3665673922414,1147.0454135319903,-2387.3357215065244,-2414.2352199075635,-494.58802825738644,1112.8843119364208,4439.5103709224177,3392.7834483843444,-1330.1328063615986,1330.1328063615986,-3392.7834483843444,7925.3737497824422,0.0
698523.2936376977,3667751.2368613081,-32500.0,4222.5875185533214,312.94490648089311,-2715.6302173889162,-1721.7862377135893,190.3992492050908,609.28140063210378,3836.0132027325476,3216.4577752499208,-1986.7380342541637,1986.7380342541637,-3216.4577752499208,6739.5210936171943,0.0
703523.2936376977,3667751.2368613081,-32500.0,3440.7683713182937,-348.85790203934368,-2809.1961732670634,-1129.8791966700528,632.84009939536156,248.60629421144549,3389.7122088219471,2902.8052664261127,-2386.3648403116645,2386.3648403116645,-2902.8052664261127,5890.4585569769324,0.0
708523.2936376977,3667751.2368613081,-32500.0,2684.9064261387007,-842.14089677016432,-2745.5629771195108,-646.62688618233278,894.16832199383259,1.0154451773353086,3049.472029431985,2517.8142039931554,-2582.7862379368553,2582.7862379368553,-2517.8142039931554,5281.9574693128616,0.0
713523.2936376977,3667751.2368613081,-32500.0,1992.2204458904041,-1185.9803483049168,-2585.5117598678203,-267.29765952639264,1026.0632664987606,-160.56062232688222,2778.0433982006339,2110.1400202510531,-2628.6559196277885,2628.6559196277885,-2110.1400202510531,4829.8709096643051,0.0
718523.2936376977,3667751.2368613081,-32500.0,1382.4069907155181,-1405.8187451016518,-2373.5484909635557,19.743922895019764,1069.3796101500534,-258.94723034185893,2550.5724852580242,1712.5695139285831,-2569.7762052723597,2569.7762052723597,-1712.5695139285831,4471.8294496666394,0.0
723523.2936376977,3667751.2368613081,-32500.0,862.39879215508893,-1527.8838710068089,-2140.3760664314591,228.93232366819063,1054.9253856796961,-312.40394502564556,2351.6642968270835,1345.0283480423,-2443.0441766742356,2443.0441766742356,-1345.0283480423,4167.5256812651805,0.0
728523.2936376977,3667751.2368613081,-32500.0,430.65024765253906,-1576.1365004727795,-1905.9418133553752,374.93369145252427,1005.0457988591189,-334.95600811215212,2172.3796322834532,1017.8829309742246,-2276.5209088513334,2276.5209088513334,-1017.8829309742246,3893.7901453587542,0.0
733523.2936376977,3667751.2368613081,-32500.0,80.552195244960458,-1570.9231144982671,-1682.3121882253838,471.22225840549254,935.3929667945157,-337.0249847657023,2007.8060774109149,734.89671842998212,-2090.5357692727216,2090.5357692727216,-734.89671842998212,3638.7304311001417,0.0
738523.2936376977,3667751.2368613081,-32500.0,-197.07668521048728,-1528.667738306586,-1476.064783604601,529.43159597350848,856.56208253668262,-326.13689254640786,1855.3551305080719,495.59737201568066,-1899.1524233470504,1899.1524233470504,-495.59737201568066,3397.0376851566539,0.0
548523.2936376977,3672751.2368613081,-32500.0,-2038.8629081987783,1616.5676009179083,-1038.6492929640913,-1115.2559598910757,770.79659847138566,-422.24844393541775,1979.1966236186338,-1318.8617812350658,1096.7260422879845,-1096.7260422879845,1318.8617812350658,3917.9780482157016,0.0
553523.2936376977,3672751.2368613081,-32500.0,-2053.451874032432,1795.7702257349433,-1229.9346037251019,-1205.6091025414264,895.5906363487727,-479.39746043905063,2166.0964054045999,-1279.8875185003185,1129.8593194281739,-1129.8593194281739,1279.8875185003185,4277.9278624699891,0.0
558523.2936376977,3672751.2368613081,-32500.0,-2030.9431730411993,1985.8826922951578,-1459.6948198700481,-1293.5491452347981,1039.4163741526647,-541.90870234522197,2370.6145493148288,-1199.8220586455766,1141.1167411155473,-1141.1167411155473,1199.8220586455766,4667.450848094375,0.0
563523.2936376977,3672751.2368613081,-32500.0,-1958.5406106743935,2182.224626738966,-1734.8676624432378,-1373.8650853384174,1203.6065385735581,-608.69712555868659,2593.0638343563564,-1065.7966592276164,1119.9060619196136,-1119.9060619196136,1065.7966592276164,5085.76625809506,0.0
568523.2936376977,3672751.2368613081,-32500.0,-1820.6366611667688,2376.8691958167083,-2062.7507893713714,-1439.0916132814473,1388.4776019848682,-677.59796290626184,2833.261925405729,-862.29804708321637,1052.2106369790222,-1052.2106369790222,862.29804708321637,5530.5504450000153,0.0
573523.2936376977,3672751.2368613081,-32500.0,-1598.7798646514539,2557.2714581661266,-2450.2722451729096,-1478.8551475980353,1592.4857066156746,-744.8468728675532,3090.36233002573,-571.27696710896157,919.912563902388,-919.912563902388,571.27696710896157,5997.4444571695367,0.0
578523.2936376977,3672751.2368613081,-32500.0,-1272.1084209844366,2704.5106413489639,-2902.6063694337872,-1479.1635113980426,1810.9314357034598,-804.39269288436867,3362.7166459325863,-172.8258878955977,700.29232831503703,-700.29232831503703,172.8258878955977,6479.6000339260818,0.0
583523.2936376977,3672751.2368613081,-32500.0,-818.64045010069424,2791.1878509734015,-3420.7363293863773,-1421.746739504403,2034.0331241203892,-847.03244082820845,3647.8772108582157,353.12302677463953,366.05293354644715,-366.05293354644715,-353.12302677463953,6967.4947341387979,0.0
588523.2936376977,3672751.2368613081,-32500.0,-218.02041724139116,2779.2133131477631,-3997.3963737664867,-1283.6693404306766,2244.1583123000669,-859.38602296578722,3942.9488968002515,1023.3967816404949,-113.49456919692659,113.49456919692659,-1023.3967816404949,7449.5175112193829,0.0
593523.2936376977,3672751.2368613081,-32500.0,543.41067529952556,2618.1275657579063,-4610.6743233493207,-1037.6310474128577,2412.0148376338366,-822.77376727535363,4245.6769705263632,1845.5133774869882,-768.99216819623541,768.99216819623541,-1845.5133774869882,7914.3463733826384,0.0
598523.2936376977,3672751.2368613081,-32500.0,1464.1213941339176,2245.417722082238,-5214.6085924702884,-653.72845604125803,2491.7746720216046,-712.13428419461991,4556.9599758544191,2807.7747098062382,-1623.6147512543475,1623.6147512543475,-2807.7747098062382,8357.123124920161,0.0
603523.2936376977,3672751.2368613081,-32500.0,2514.5213482317695,1591.6464822781402,-5726.7520886045932,-104.00404676080866,2415.6102457265729,-495.24111053614649,4885.7332909595543,3864.5829823732879,-2679.3096194600298,2679.3096194600298,-3864.5829823732879,8792.6655340080306,0.0
608523.2936376977,3672751.2368613081,-32500.0,3620.1316710655137,595.1179026146757,-6014.8790216939151,628.12159527029701,2089.4689955629647,-132.79176238724571,5256.9317471936256,4917.6432768919422,-3894.4129911761411,3894.4129911761411,-4917.6432768919422,9279.1247516213189,0.0
613523.2936376977,3672751.2368613081,-32500.0,4645.3882276856421,-767.96355962276414,-5889.9369026894747,1531.0357572405458,1394.6240149673408,419.29197638153261,5720.7490327893447,5798.3213344459145,-5153.0236230996452,5153.0236230996452,-5798.3213344459145,9948.1712427056409,0.0
618523.2936376977,3672751.2368613081,-32500.0,5391.1342944953794,-2434.8855630219764,-5120.5680672900962,2540.0048326568062,203.73364383726118,1202.500844308239,6354.6936161429448,6265.6540699347688,-6235.0628820549728,6235.0628820549728,-6265.6540699347688,11012.550456161322,0.0
623523.2936376977,3672751.2368613081,-32500.0,5628.8816704103338,-4200.35599321267,-3491.4580232187818,3510.8675395001283,-1577.071772836307,2238.9738675650901,7242.4998511921021,6045.6445387234835,-6812.4144093781997,6812.4144093781997,-6045.6445387234835,12693.461723496725,0.0
628523.2936376977,3672751.2368613081,-32500.0,5192.3818240341698,-5691.9440947564208,-918.66376042001093,4213.9210205807867,-3935.8676159591405,3503.1469846767868,8422.572346152263,4935.8616839374936,-6512.4107248007913,6512.4107248007913,-4935.8616839374936,15060.366425796463,0.0
633523.2936376977,3672751.2368613081,-32500.0,4108.424151251721,-6439.0838648058862,2410.0224799048783,4381.0515851090222,-6676.3397392408842,4890.985331053962,9828.7345898895219,2959.0246182032342,-5075.0982920052556,5075.0982920052556,-2959.0246182032342,17902.872742175899,0.0
638523.2936376977,3672751.2368613081,-32500.0,2678.0023563660261,-6064.6625909947898,5970.8972422370425,3818.6702035664389,-9396.3042956116115,6213.5952963817772,11263.754510432937,470.23834664160267,-2553.1696522260627,2553.1696522260627,-470.23834664160267,20752.34841896276,0.0
643523.2936376977,3672751.2368613081,-32500.0,1396.1991558331038,-4513.4432866393136,9028.102104786627,2533.7343256105737,-11586.005401587789,7242.5432923544849,12442.110685457215,-1912.9351451270772,595.17835672447018,-595.17835672447018,1912.9351451270772,23040.973387187743,0.0
648523.2936376977,3672751.2368613081,-32500.0,714.34113017884113,-2137.2582811728007,10927.978194151232,770.65358574355037,-12823.839294530721,7796.0975577740483,13104.22813015226,-3573.954837170626,3649.1131064162955,-3649.1131064162955,3573.954837170626,24310.019924554945,0.0
653523.2936376977,3672751.2368613081,-32500.0,814.42549459760619,458.37282998306443,11374.067986811993,-1088.5302719309066,-12944.757426372827,7810.0290761657598,13123.844225156394,-4179.2369844378418,5939.3115855303649,-5939.3115855303649,4179.2369844378418,24361.007616489242,0.0
658523.2936376977,3672751.2368613081,-32500.0,1565.0325979239835,2691.9610819653176,10494.660440315745,-2688.073984457762,-12068.949000020819,7345.1062459896357,12534.392537069656,-3774.6917683908136,7108.4237702183127,-7108.4237702183127,3774.6917683908136,23279.37663975032,0.0
663523.2936376977,3672751.2368613081,-32500.0,2651.1859757593879,4208.8385533675082,8701.011010813676,-3812.3248823999443,-10499.75764908312,6539.6540229343427,11482.98107961439,-2672.748329969208,7164.5648140530666,-7164.5648140530666,2672.748329969208,21346.549519047268,0.0
668523.2936376977,3672751.2368613081,-32500.0,3744.3416176583764,4921.3765330270571,6478.3239135330286,-4404.6929983324426,-8585.1689232668505,5550.4095713510087,10160.839805650023,-1263.1601326281093,6364.7384923430982,-6364.7384923430982,1263.1601326281093,18915.019464124638,0.0
673523.2936376977,3672751.2368613081,-32500.0,4609.0980048108386,4935.2868197090047,4233.7266661073381,-4523.7200666043063,-6619.6546953109964,4512.6013575212464,8748.5587718485931,127.40896085589247,5054.3440181122141,-5054.3440181122141,-127.40896085589247,16310.633823552625,0.0
678523.2936376977,3672751.2368613081,-32500.0,5130.5988092730022,4447.2609166392167,2235.0078059529719,-4284.7776084896414,-4804.5979003340681,3523.8830276958151,7388.3153098948187,1291.4198423007981,3550.0128589924816,-3550.0128589924816,-1291.4198423007981,13783.265958965465,0.0
683523.2936376977,3672751.2368613081,-32500.0,5293.6353964322125,3665.4071960482361,614.8961331478082,-3814.7526165595168,-3250.0016962352029,2643.8516496573739,6176.3977962356203,2135.985415583109,2085.2118375101372,-2085.2118375101372,-2135.985415583109,11496.281274176779,0.0
688523.2936376977,3672751.2368613081,-32500.0,5146.0745334303065,2764.943354125006,-595.15880041942592,-3225.7025074137541,-1994.9532987836535,1900.668009118986,5162.941593461469,2652.1410874682774,801.86815765337224,-801.86815765337224,-2652.1410874682774,9536.8500475277378,0.0
693523.2936376977,3672751.2368613081,-32500.0,4765.1604532631391,1872.1550330804091,-1426.3862127380849,-2603.7347435283436,-1031.8065053375119,1299.710584718282,4354.1638926296609,2880.5753236123946,-234.49742247958625,234.49742247958625,-2880.5753236123946,7933.1689487801959,0.0
698523.2936376977,3672751.2368613081,-32500.0,4233.3594445215113,1065.4354510360074,-1940.8474127162926,-2007.5222863173612,-326.94456546783005,831.79914174445241,3725.504883403195,2883.966061616381,-1012.2323745317254,1012.2323745317254,-2883.966061616381,6671.287686833738,0.0
703523.2936376977,3672751.2368613081,-32500.0,3624.1096792152416,384.30113270211911,-2209.4983944220612,-1471.8761114689032,164.08980562717821,479.9182252416644,3241.2268314333191,2728.4123083002787,-1552.2571302747094,1552.2571302747094,-2728.4123083002787,5709.4692172166269,0.0
708523.2936376977,3672751.2368613081,-32500.0,2995.3801420703585,-159.44224421033806,-2299.2670457795111,-1013.2697094705841,486.90500664115905,224.11481387624559,2866.4272978784602,2472.9513885284155,-1891.4952707367643,1891.4952707367643,-2472.9513885284155,4990.7884790815879,0.0
713523.2936376977,3672751.2368613081,-32500.0,2388.4350884094119,-571.48463829144237,-2266.853272393188,-635.46610167302185,682.88551110986941,44.672315687359806,2571.3631483223044,2165.0116673566909,-2071.6148808648104,2071.6148808648104,-2165.0116673566909,4454.6914078388972,0.0
718523.2936376977,3672751.2368613081,-32500.0,1829.5332748415406,-867.00915737518085,-2156.8842819542256,-334.31820120767907,786.82915718138747,-76.113809120172334,2332.6761634890186,1839.6354758321929,-2132.3189749332132,2132.3189749332132,-1839.6354758321929,4046.4838732961075,0.0
723523.2936376977,3672751.2368613081,-32500.0,1332.900728424961,-1065.0934657513837,-2002.520949299683,-101.41852492444077,826.46244083770057,-153.16567087421583,2133.2661158580568,1520.7432548539368,-2107.9921200615759,2107.9921200615759,-1520.7432548539368,3722.9051761896203,0.0
728523.2936376977,3672751.2368613081,-32500.0,903.92557166262964,-1185.180669572673,-1827.1908806105273,73.37375355925721,822.98007633266741,-198.49518367192647,1961.3606524206975,1223.2450653977937,-2026.5461257816539,2026.5461257816539,-1223.2450653977937,3453.3300646317889,0.0
733523.2936376977,3672751.2368613081,-32500.0,542.01542151532749,-1245.1115577849525,-1646.6392162298719,200.33556178739221,792.03723987858632,-221.43469373527333,1809.2514191290077,955.28179342709893,-1909.5471106231666,1909.5471106231666,-955.28179342709893,3217.9833623516274,0.0
548523.2936376977,3677751.2368613081,-32500.0,-1633.752957598555,1553.3535068134388,-1146.7124335113388,-940.3193856327407,757.34393395146981,-366.4449193139987,1815.9158909259311,-941.92174119145329,880.10729538446708,-880.10729538446708,941.92174119145329,3583.0266898414311,0.0
553523.2936376977,3677751.2368613081,-32500.0,-1594.5785490210969,1699.2733490454038,-1342.8798045371927,-997.80316818147469,869.41797531451243,-410.39899541646355,1975.6120816697867,-854.73276257868099,870.84312779306572,-870.84312779306572,854.73276257868099,3883.8979190101181,0.0
558523.2936376977,3677751.2368613081,-32500.0,-1514.1280943052143,1846.2523386468995,-1573.6513030815229,-1047.149191047157,995.41575384778571,-456.63088368420551,2147.8660586541519,-723.64795046001529,833.19133075510365,-833.19133075510365,723.64795046001529,4203.9093636681855,0.0
563523.2936376977,3677751.2368613081,-32500.0,-1381.0703010120747,1987.4141524212444,-1843.468168652651,-1082.6181885853291,1134.977449162453,-503.46153866879979,2332.3999793429143,-537.68858945426882,756.63955769594349,-756.63955769594349,537.68858945426882,4540.9212991299983,0.0
568523.2936376977,3677751.2368613081,-32500.0,-1182.4252259510461,2112.508210806388,-2156.0450278691728,-1096.4960056839595,1286.2876568987733,-548.1185948754179,2528.5285317227153,-284.53728827316945,628.05848580462725,-628.05848580462725,284.53728827316945,4891.4665510359055,0.0
573523.2936376977,3677751.2368613081,-32500.0,-904.03735230248867,2206.8257500373711,-2513.2957268049895,-1078.6973758469564,1445.2060739759825,-586.2955451893389,2735.1314857369625,48.809316947935713,431.56791141006101,-431.56791141006101,-48.809316947935713,5250.60630629958,0.0
578523.2936376977,3677751.2368613081,-32500.0,-531.63840045286906,2249.9974893005792,-2913.5933962517979,-1016.4530593716454,1604.0345638726544,-611.60493278895842,2950.7626928808468,474.70005465175461,148.82205117873093,-148.82205117873093,-474.70005465175461,5612.0766909139593,0.0
583523.2936376977,3677751.2368613081,-32500.0,-52.828278279448327,2214.8647427603387,-3349.0801536689282,-894.23542790522822,1749.8347746858608,-614.94382443411916,3174.034865502138,1002.4287721121755,-239.90173896169449,239.90173896169449,-1002.4287721121755,5969.0861607008337,0.0
588523.2936376977,3677751.2368613081,-32500.0,539.60391919008055,2066.8477123984717,-3801.7132892056547,-694.18766996243698,1862.2500911276363,-583.83165071039718,3404.5147414825897,1634.3040571259035,-753.21269884500259,753.21269884500259,-1634.3040571259035,6316.4188096845173,0.0
593523.2936376977,3677751.2368613081,-32500.0,1242.5740363800678,1764.620864308715,-4237.8260779191414,-397.47677520879239,1910.9060352548124,-501.84524237042723,3644.4712315534121,2359.7087508907148,-1403.8708400618711,1403.8708400618711,-2359.7087508907148,6654.9213210757862,0.0
598523.2936376977,3677751.2368613081,-32500.0,2035.5510271310038,1263.4840169160082,-4601.3612223268583,12.810904471709019,1852.7395364757479,-348.37246351771364,3901.8470698114252,3146.9035605907075,-2190.7806634372437,2190.7806634372437,-3146.9035605907075,6999.8145482792315,0.0
603523.2936376977,3677751.2368613081,-32500.0,2871.7891927266455,523.5171359859014,-4806.9314012325376,546.41980949737228,1630.1729619562241,-99.0514163643643,4194.4947513333,3933.1469776543481,-3086.876375213461,3086.876375213461,-3933.1469776543481,7393.6942711776464,0.0
608523.2936376977,3677751.2368613081,-32500.0,3670.0434247610638,-474.99889424346253,-4735.8638379855192,1197.5194566011544,1172.0324417692352,272.52255249643332,4554.4306225429973,4615.6096389116992,-4023.2502488418777,4023.2502488418777,-4615.6096389116992,7921.0599127236974,0.0
613523.2936376977,3677751.2368613081,-32500.0,4311.9108101488582,-1707.4504053165549,-4241.5427008422394,1933.0348810387895,400.49591442851528,790.93538638073176,5028.1966500416129,5048.9758896970407,-4873.0720212166007,4873.0720212166007,-5048.9758896970407,8710.8873511904021,0.0
618523.2936376977,3677751.2368613081,-32500.0,4653.7708920914374,-3075.1089975955056,-3173.5437626425678,2679.8572623597788,-751.5439120555327,1471.7999434071826,5667.1034645135223,5059.9069181211617,-5444.8214205529657,5444.8214205529657,-5059.9069181211617,9904.2289766189842,0.0
623523.2936376977,3677751.2368613081,-32500.0,4563.4077444012801,-4382.461015117733,-1429.090863167339,3317.5840736990717,-2309.6420207909714,2310.5879602564332,6504.4174082189038,4489.9086170343735,-5501.3623612263282,5501.3623612263282,-4489.9086170343735,11581.2582140211,0.0
628523.2936376977,3677751.2368613081,-32500.0,3982.5774161208083,-5346.3093030180298,971.82668950417928,3688.6308777383611,-4217.6052254413944,3269.0495979799916,7527.3286277449224,3268.7306287940992,-4821.775264814516,4821.775264814516,-3268.7306287940992,13687.846132551034,0.0
633523.2936376977,3677751.2368613081,-32500.0,2992.9270643584082,-5662.067334968212,3817.9477046422071,3636.9143467570175,-6306.024355880274,4265.6607221274389,8658.4003992547059,1494.1082425135828,-3303.7677934479607,3303.7677934479607,-1494.1082425135828,16012.706374258481,0.0
638523.2936376977,3677751.2368613081,-32500.0,1836.4071814650756,-5123.9085203697714,6700.226338970755,3071.1283862118007,-8299.1939747640135,5180.7834411439653,9756.1037943045285,-537.03307901576773,-1063.4058922267968,1063.4058922267968,537.03307901576773,18228.105063415369,0.0
643523.2936376977,3677751.2368613081,-32500.0,848.18112200227881,-3742.0337414252763,9109.3139710860323,2022.2136230005808,-9879.8340708284795,5883.3942584145134,10642.014093301295,-2397.2127287788026,1542.7983658834808,-1542.7983658834808,2397.2127287788026,19977.812187882562,0.0
648523.2936376977,3677751.2368613081,-32500.0,320.03547919883226,-1773.0453917754269,10610.337059173777,652.92310318974739,-10792.184408793299,6271.413126561084,11157.214955460036,-3684.4721030602564,4018.9173726844915,-4018.9173726844915,3684.4721030602564,20980.740221946569,0.0
653523.2936376977,3677751.2368613081,-32500.0,377.80995972520077,371.59144170292234,10997.521210534407,-795.52714904109996,-10927.464553410771,6303.9261581079263,11217.960869377235,-4176.2589951303162,5909.6054552257483,-5909.6054552257483,4176.2589951303162,21106.983512882689,0.0
658523.2936376977,3677751.2368613081,-32500.0,950.52933573097425,2282.842146303567,10338.808802229196,-2088.3165879851704,-10343.733469877589,6007.4999488741669,10834.182729095866,-3887.4124827816167,6950.997455150592,-6950.997455150592,3887.4124827816167,20394.417357467897,0.0
663523.2936376977,3677751.2368613081,-32500.0,1834.0115923302005,3681.3054492711867,8903.8472306912081,-3063.8565283338603,-9219.8698601014912,5457.5650208974703,10089.845196138016,-3016.2201520259819,7115.4020534474039,-7115.4020534474039,3016.2201520259819,19008.694559571886,0.0
668523.2936376977,3677751.2368613081,-32500.0,2790.1522899936067,4460.8772289194376,7040.3888663936777,-3656.4422886165789,-7781.8650306123172,4749.8786664901982,9106.4466776207228,-1836.5558023984509,6556.9037188097809,-6556.9037188097809,1836.5558023984509,17177.164939227048,0.0
673523.2936376977,3677751.2368613081,-32500.0,3624.0309210084542,4660.2436518513605,5068.5932867773818,-3881.5518206629458,-6240.3060329311738,3976.3245870080455,8009.5186731574322,-602.85370221227458,5516.4547201904652,-5516.4547201904652,602.85370221227458,15128.752940389606,0.0
678523.2936376977,3677751.2368613081,-32500.0,4217.6075334209909,4403.3555896885819,3224.2298386271477,-3804.9050737962361,-4755.913223272878,3210.820541047286,6907.3792429527339,501.20124888636929,4238.980718722949,-4238.980718722949,-501.20124888636929,13055.916686404131,0.0
683523.2936376977,3677751.2368613081,-32500.0,4528.2966912631291,3842.899211041441,1646.5656168074991,-3512.3816093026803,-3430.691863137713,2504.4469342426987,5881.4932239556374,1373.4646251833208,2924.2326790156321,-2924.2326790156321,-1373.4646251833208,11099.152571967355,0.0
688523.2936376977,3677751.2368613081,-32500.0,4569.7508413047226,3121.797859590773,392.79928264240215,-3088.5046416704381,-2314.7622134636108,1886.5785917632018,4982.5243411652737,1980.2719149284289,1709.2853059577888,-1709.2853059577888,-1980.2719149284289,9347.0143811899761,0.0
693523.2936376977,3677751.2368613081,-32500.0,4388.6865889775427,2353.7870754297674,-537.69695919986464,-2604.4333488746756,-1419.6364160593378,1369.0262136351664,4229.3375835975639,2334.8418158221411,671.52799761604103,-671.52799761604103,-2334.8418158221411,7843.9697289684764,0.0
698523.2936376977,3677751.2368613081,-32500.0,4045.2024831104504,1618.1030741280319,-1179.6678990108669,-2113.4149556276898,-732.03289914698757,951.09637114648717,3615.9250740166881,2476.4486837096847,-158.70550598008754,158.70550598008754,-2476.4486837096847,6600.6376399815399,0.0
703523.2936376977,3677751.2368613081,-32500.0,3599.1298240049409,962.44816462421079,-1583.372144963673,-1651.0180837288012,-225.36658799297868,624.33074571937721,3124.1619619848607,2454.3751221743719,-783.23367473171618,783.23367473171618,-2454.3751221743719,5603.545839747022,0.0
708523.2936376977,3677751.2368613081,-32500.0,3102.2337993540973,409.63010569458856,-1802.0486939771754,-1237.8616045689464,131.95553412817574,376.3237608333958,2732.7201365837473,2317.4090004170948,-1222.7800689397163,1222.7800689397163,-2317.4090004170948,4823.533015106641,0.0
713523.2936376977,3677751.2368613081,-32500.0,2594.9366984284256,-35.082053558533921,-1884.6517696268534,-883.2235921371813,371.24549604303905,193.44982771359727,2420.8400382149334,2108.0833224783582,-1506.9008244181591,1506.9008244181591,-2108.0833224783582,4222.9838726515109,0.0
718523.2936376977,3677751.2368613081,-32500.0,2106.0192964696262,-377.45077102117199,-1872.4599309687976,-588.5602912682989,520.62069905675196,62.591895574378633,2169.9950308358475,1860.3481559053967,-1667.2053247373133,1667.2053247373133,-1860.3481559053967,3762.1687466824546,0.0
723523.2936376977,3677751.2368613081,-32500.0,1653.9725917908313,-629.22190958720614,-1798.1891629042957,-350.45766103060953,603.75354660567939,-27.919135350206233,1964.7615010917884,1599.4020628387029,-1733.3326932861887,1733.3326932861887,-1599.4020628387029,3404.3788938052148,0.0
728523.2936376977,3677751.2368613081,-32500.0,1249.0410004959206,-804.58247410597414,-1686.5199017078903,-162.8666178121195,639.6635309166254,-87.919912651074284,1793.0851472403424,1342.6810369733753,-1730.9492267926848,1730.9492267926848,-1342.6810369733753,3119.1979556103515,0.0
553523.2936376977,3682751.2368613081,-32500.0,-1180.9208878375509,1562.2135337674561,-1415.7001784370307,-806.14637587346215,823.99394673417737,-345.77482532855629,1792.8255644887513,-484.60067403371568,618.6920211416741,-618.6920211416741,484.60067403371568,3500.9588182590142,0.0
558523.2936376977,3682751.2368613081,-32500.0,-1058.3246295492013,1664.5077258329886,-1637.1999349100656,-823.9500112529214,929.90464534854709,-377.99956694818701,1936.3406054183404,-319.80837321828346,541.39081870058885,-541.39081870058885,319.80837321828346,3759.5703089374615,0.0
563523.2936376977,3682751.2368613081,-32500.0,-884.54812943526201,1750.9887178722172,-1889.4261622430649,-824.12927685975637,1043.0108280685354,-408.11859543017596,2088.0850171213533,-103.5323397572715,422.59210678124066,-422.59210678124066,103.5323397572715,4026.7337833880597,0.0
568523.2936376977,3682751.2368613081,-32500.0,-649.85679810650424,1810.3565782287101,-2172.5981802377596,-799.46498948213832,1159.920926882244,-433.12263044200932,2247.3630066056812,172.78752068663857,251.15542905704524,-251.15542905704524,-172.78752068663857,4299.0231915403429,0.0
573523.2936376977,3682751.2368613081,-32500.0,-344.77021130637456,1827.4991011409218,-2484.1154936400021,-741.02890776447407,1274.7819955976811,-448.64950551306958,2413.3990081032371,516.85434981058643,14.62141306233562,-14.62141306233562,-516.85434981058643,4572.4384409366612,0.0
578523.2936376977,3682751.2368613081,-32500.0,38.562644059964576,1782.9046835669465,-2816.7745280753102,-638.20326527694215,1378.2446320157912,-448.59379623586403,2585.6689313042907,933.87048367522175,-299.92701407241384,299.92701407241384,-933.87048367522175,4843.1506505376983,0.0
583523.2936376977,3682751.2368613081,-32500.0,504.19942618864962,1652.4519442250873,-3156.2836379918995,-479.02892126440963,1456.1772586190948,-424.70417917416881,2764.5648729435707,1424.0038907087933,-704.13861493272304,704.13861493272304,-1424.0038907087933,5109.1405624843719,0.0
588523.2936376977,3682751.2368613081,-32500.0,1049.2579440410968,1408.033902954684,-3478.0105440768471,-251.11416876441965,1488.1989090239001,-366.24551465035819,2952.5644600307105,1978.7564584336237,-1205.3717493574395,1205.3717493574395,-1978.7564584336237,5373.3143564330321,0.0
593523.2936376977,3682751.2368613081,-32500.0,1659.7230213172061,1019.7421982326434,-3743.1209963643823,56.580862597141042,1446.2506235835003,-259.86356620052146,3156.0518662934105,2576.1855399905839,-1801.8987776891449,1801.8987776891449,-2576.1855399905839,5648.7572499476746,0.0
598523.2936376977,3682751.2368613081,-32500.0,2305.5085417215646,460.6113648595915,-3894.7446488287296,450.72015997232279,1293.6826173264335,-89.865212405554118,3387.6926103736664,3175.3565403327261,-2476.0043705845978,2476.0043705845978,-3175.3565403327261,5966.2224151091323,0.0
603523.2936376977,3682751.2368613081,-32500.0,2935.8231659429985,-284.94567901057763,-3855.6927237211203,929.01818215529204,985.74637869101207,160.78227480047929,3668.6015911473851,3711.268309129659,-3185.2140512601122,3185.2140512601122,-3711.268309129659,6381.747406314681,0.0
608523.2936376977,3682751.2368613081,-32500.0,3477.1349952981764,-1208.3164268623318,-3530.5672492170261,1474.1359533679972,472.8997348910915,508.35040447919124,4028.3755567427938,4092.9139738280346,-3853.232911767318,3853.232911767318,-4092.9139738280346,6977.6380617653167,0.0
613523.2936376977,3682751.2368613081,-32500.0,3837.583974288767,-2260.4569957808826,-2816.5031498730036,2046.9082003737085,-291.24460571488834,964.7504204281895,4500.2033124808759,4208.9011386858056,-4364.5528255930585,4364.5528255930585,-4208.9011386858056,7846.4597504982366,0.0
618523.2936376977,3682751.2368613081,-32500.0,3922.5515621132586,-3336.8175712179254,-1627.0083221575205,2581.3329291477589,-1335.7805722411749,1532.2360530024066,5109.6386957493905,3946.0444646711376,-4569.690949158,4569.690949158,-3946.0444646711376,9054.9349460775302,0.0
623523.2936376977,3682751.2368613081,-32500.0,3664.0413401271253,-4273.1068170349336,69.983339174908082,2985.7724956522984,-2652.6563846200365,2196.8735705468907,5859.9526762916094,3224.0963027181442,-4309.5410789605066,4309.5410789605066,-3224.0963027181442,10603.270419953149,0.0
628523.2936376977,3682751.2368613081,-32500.0,3059.0216359592546,-4864.8983845762978,2207.8996658782175,3155.7797232782614,-4176.1588522000329,2922.6115532054378,6720.6286957330358,2041.4365892768067,-3463.0979835088665,3463.0979835088665,-2041.4365892768067,12402.675874141321,0.0
633523.2936376977,3682751.2368613081,-32500.0,2199.8086937359785,-4918.9506196640841,4592.2759221503547,3001.0346489686704,-5772.6447383419609,3649.4915928659339,7624.0526218160912,512.82486969539548,-2009.1358062940435,2009.1358062940435,-512.82486969539548,14280.556551956917,0.0
638523.2936376977,3682751.2368613081,-32500.0,1271.8669277956762,-4325.8733774497814,6914.1544268025673,2480.3135286233642,-7253.4768120931794,4300.0189014950283,8471.1383566749246,-1129.2116508890308,-73.450770180689801,73.450770180689801,1129.2116508890308,16011.045974442002,0.0
643523.2936376977,3682751.2368613081,-32500.0,504.73995861687683,-3120.4884583481798,8819.732338664684,1628.228133831481,-8415.9502793380088,4794.8625455205856,9147.3760480941837,-2587.7075962391809,2074.2217229609614,-2074.2217229609614,2587.7075962391809,17364.397369550767,0.0
648523.2936376977,3682751.2368613081,-32500.0,91.793304275401042,-1490.4621538547369,10015.074232252848,555.89705813115324,-9099.5587897317782,5073.2004397205083,9551.9032360276815,-3594.7057858227331,4088.2957323584019,-4088.2957323584019,3594.7057858227331,18161.812311007481,0.0
653523.2936376977,3682751.2368613081,-32500.0,120.98047366364729,279.514457041208,10355.373537612413,-579.07290029760054,-9231.466074052878,5108.6466456697726,9627.9000904508721,-3998.3935875327998,5653.261033899259,-5653.261033899259,3998.3935875327998,18315.953102433275,0.0
658523.2936376977,3682751.2368613081,-32500.0,554.06718091447203,1899.4747093322617,9874.3497341663679,-1618.8125553723573,-8839.5285011247761,4913.4972271597553,9375.2932226866542,-3798.7911632797786,6573.6362007743501,-6573.6362007743501,3798.7911632797786,17842.047095204063,0.0
663523.2936376977,3682751.2368613081,-32500.0,1258.3690013435044,3154.147490031603,8747.7480912612173,-2444.8962642098486,-8031.0327837554269,4530.9138062984639,8842.6035383930557,-3121.9144390937022,6807.8609307799197,-6807.8609307799197,3121.9144390937022,16839.298534559253,0.0
668523.2936376977,3682751.2368613081,-32500.0,2064.6111110528809,3939.7277901738798,7220.8472199137132,-2996.9171557873992,-6953.0255349429281,4020.5739419635702,8107.5531653092503,-2158.1049822543278,6444.439361702498,-6444.439361702498,2158.1049822543278,15455.411673474173,0.0
673523.2936376977,3682751.2368613081,-32500.0,2819.460392268224,4256.6872496663409,5537.8241365473132,-3269.6705943069674,-5753.6533089737732,3444.3749458422244,7256.8381153117525,-1099.7698534665547,5647.1019810004072,-5647.1019810004072,1099.7698534665547,13850.099284467582,0.0
678523.2936376977,3682751.2368613081,-32500.0,3415.7361886390177,4177.2672929421688,3895.6775924725821,-3297.6430109116823,-4556.1876332212996,2856.2139860648504,6371.1256066720316,-100.36366603987881,4598.9659888852857,-4598.9659888852857,100.36366603987881,12168.01209554462,0.0
683523.2936376977,3682751.2368613081,-32500.0,3799.6689844460011,3807.9632012083016,2426.2862596780801,-3136.3543419448738,-3447.8196525075077,2296.7872648308635,5516.2866452684302,741.50203495297728,3463.0115399310512,-3463.0115399310512,-741.50203495297728,10524.024408437373,0.0
688523.2936376977,3682751.2368613081,-32500.0,3963.0339425207476,3259.4528879273748,1199.0693327827901,-2846.6455751307499,-2479.6729937577816,1792.5171729329386,4738.3502354860539,1379.5078860885726,2362.4651456723077,-2362.4651456723077,-1379.5078860885726,8998.8898659760343,0.0
693523.2936376977,3682751.2368613081,-32500.0,3928.9137221955816,2627.9963003847397,234.26593047712799,-2484.19752902237,-1673.058007612284,1357.1169298717539,4060.7967804941609,1807.682926198177,1376.8550538330701,-1376.8550538330701,-1807.682926198177,7641.5216253679664,0.0
698523.2936376977,3682751.2368613081,-32500.0,3737.2569100731921,1987.1649151125027,-480.94779604749226,-2094.1150337207378,-1027.8982932786525,994.41699674652466,3487.6765776868779,2046.1028469162234,547.39111807020709,-547.39111807020709,-2046.1028469162234,6474.4662119165996,0.0
703523.2936376977,3682751.2368613081,-32500.0,3433.3588644928609,1386.7968882719042,-978.00013199433124,-1709.3358525998567,-530.79972297327413,701.45378161146334,3011.8981262843427,2128.2565460528367,-113.72503806044301,113.72503806044301,-2128.2565460528367,5500.2116822428734,0.0
708523.2936376977,3682751.2368613081,-32500.0,3060.166688787001,856.02212175569446,-1295.9711234036574,-1351.4312302207995,-161.55635632166849,471.22176911634239,2621.8195972012095,2091.6897200645508,-613.59754458505176,613.59754458505176,-2091.6897200645508,4707.0684799869787,0.0
713523.2936376977,3682751.2368613081,-32500.0,2654.0590519041807,407.94823488551293,-1474.3426315965714,-1032.5960617144965,102.21877509317724,294.82008216300096,2304.3062409454278,1972.0429131015012,-970.37622364136598,970.37622364136598,-1972.0429131015012,4074.2113400270869,0.0
718523.2936376977,3682751.2368613081,-32500.0,2243.2436589987456,44.481384876886601,-1548.8539243947848,-757.99074290820261,282.16554601190234,162.94957644060858,2046.2035271202994,1799.8896239183869,-1207.085445589129,1207.085445589129,-1799.8896239183869,3575.945644799815,0.0
723523.2936376977,3682751.2368613081,-32500.0,1847.8498747608244,-239.5127078794464,-1549.6171508500804,-527.93804516538194,397.57972894891611,66.84083962071503,1835.3174776871288,1599.5674186173521,-1347.4971062570646,1347.4971062570646,-1599.5674186173521,3185.3288020360069,0.0
553523.2936376977,3687751.2368613081,-32500.0,-819.19315384329946,1398.4353089704841,-1449.0841835887848,-634.10885692700788,764.6856226625323,-286.75335504580312,1620.04650419928,-173.84737176045627,384.66736657506982,-384.66736657506982,173.84737176045627,3137.3575304363526,0.0
558523.2936376977,3687751.2368613081,-32500.0,-669.12801487529578,1457.9739777765944,-1653.0841229976963,-627.38013576816991,849.94407803935894,-307.35136634697005,1738.8619701062264,9.1778523953095998,277.99690639574169,-277.99690639574169,-9.1778523953095998,3343.6687904905248,0.0
563523.2936376977,3687751.2368613081,-32500.0,-472.26889010198329,1494.2905939101765,-1878.6365459769834,-601.36416302868724,936.89123534681539,-324.01688130058596,1863.2703968099991,237.40024592695704,130.49782500413306,-130.49782500413306,-237.40024592695704,3553.2056989684229,0.0
568523.2936376977,3687751.2368613081,-32500.0,-222.18920998236746,1496.1512881016727,-2122.9538998055523,-549.79007098507657,1021.142676463527,-333.77838706285957,1992.9081875656314,515.68058794914032,-66.385453764958214,66.385453764958214,-515.68058794914032,3763.4643982865855,0.0
573523.2936376977,3687751.2368613081,-32500.0,86.242549551231477,1449.4191567913176,-2379.8797819642391,-465.32478030422362,1095.9691236509555,-332.54674848211431,2127.7119485027843,846.94370439361433,-321.25894484709892,321.25894484709892,-846.94370439361433,3972.3837024854538,0.0
578523.2936376977,3687751.2368613081,-32500.0,455.44987399493169,1337.0084135837544,-2638.2991766019509,-339.8195105930273,1151.5172001387436,-314.86693382640459,2268.392686602509,1230.5380982890983,-641.60162951077518,641.60162951077518,-1230.5380982890983,4179.5557490708861,0.0
583523.2936376977,3687751.2368613081,-32500.0,883.17109017539417,1139.3692894775429,-2880.1378707231274,-164.89325797886622,1173.9466589694478,-273.70606013585808,2417.2127264163942,1659.9746353170813,-1031.8231845900827,1031.8231845900827,-1659.9746353170813,4388.3575169962232,0.0
588523.2936376977,3687751.2368613081,-32500.0,1359.9104298897892,835.89397307783906,-3078.065021286699,66.981130263965795,1144.6111455634002,-200.35389067048766,2579.1171045542392,2120.0480113443605,-1490.3224913036131,1490.3224913036131,-2120.0480113443605,4609.3010039513847,0.0
593523.2936376977,3687751.2368613081,-32500.0,1866.002227341487,407.75921153397877,-3193.2616161107617,360.70447204083609,1039.5395261512178,-84.554230465925059,2763.1244694740426,2583.5693634858635,-2005.4018314385967,2005.4018314385967,-2583.5693634858635,4864.5138012627112,0.0
598523.2936376977,3687751.2368613081,-32500.0,2368.834961376911,-157.23717041915495,-3174.0341622018491,715.94881728891903,829.66060431066956,84.969318120623399,2983.527963552342,3008.3550093861791,-2550.1769819326969,2550.1769819326969,-3008.3550093861791,5192.032444661103,0.0
603523.2936376977,3687751.2368613081,-32500.0,2821.346438393869,-857.48766137050256,-2956.648095064289,1123.7408646268616,482.43742976969224,319.39605786232124,3259.907719863912,3335.7626020329153,-3077.2352640348518,3077.2352640348518,-3335.7626020329153,5646.343453532807,0.0
608523.2936376977,3687751.2368613081,-32500.0,3163.5960652993504,-1668.3668331178608,-2470.4035867885027,1562.6090734216516,-34.241171451992315,627.90921144103174,3614.5883828211431,3492.8594284157739,-3514.8313628542314,3514.8313628542314,-3492.8594284157739,6290.0479680320323,0.0
613523.2936376977,3687751.2368613081,-32500.0,3329.6990095975307,-2532.7894734832225,-1649.2306516527124,1995.3031732148609,-745.1316752188136,1014.9223950194421,4066.7549778919747,3400.8546484084764,-3767.7472410705086,3767.7472410705086,-3400.8546484084764,7174.7652820084004,0.0
618523.2936376977,3687751.2368613081,-32500.0,3261.9534709861973,-3355.5220892271018,-451.1445952747689,2367.9341020458346,-1657.5360312350597,1476.6003500252102,4624.3395217652542,2991.9287738942926,-3726.9637807105159,3726.9637807105159,-2991.9287738942926,8317.9077951404433,0.0
623523.2936376977,3687751.2368613081,-32500.0,2931.5468107420588,-4007.3131523210041,1116.2903105328801,2614.0147331900366,-2749.4791331272077,1997.3216332613122,5276.6600356236295,2233.8490991329927,-3291.5208998067692,3291.5208998067692,-2233.8490991329927,9686.3758034939947,0.0
628523.2936376977,3687751.2368613081,-32500.0,2360.4539152542434,-4344.7380030501199,2971.8792869183776,2665.4672298096839,-3960.0392926869581,2547.3854432287399,5990.8450432040281,1156.3498396130301,-2401.6864769192061,2401.6864769192061,-1156.3498396130301,11193.061015923373,0.0
633523.2936376977,3687751.2368613081,-32500.0,1633.7930766794154,-4246.525752936117,4951.0272900547288,2470.1915336022416,-5187.7859636517078,3083.7294848588012,6713.1277761321689,-132.9544169480921,-1074.4803768249187,1074.4803768249187,132.9544169480921,12705.921096748361,0.0
638523.2936376977,3687751.2368613081,-32500.0,890.88175802164403,-3656.9507081311781,6823.3271864093686,2011.4523877110389,-6302.7077845631111,3555.0949952802289,7374.1386041010164,-1456.9761452984726,575.28384441245271,-575.28384441245271,1456.9761452984726,14068.287213329244,0.0
643523.2936376977,3687751.2368613081,-32500.0,291.08669771490332,-2617.1316372371311,8340.4925753579046,1320.5488840929668,-7171.9242824112525,3911.4115371827497,7898.2728968272258,-2607.4414766291106,2345.2727623105807,-2345.2727623105807,2607.4414766291106,15127.70302154801,0.0
648523.2936376977,3687751.2368613081,-32500.0,-34.551242923820539,-1265.4307144008865,9300.2489952311989,474.94379204711447,-7691.5764430691215,4114.770564336699,8219.3059007667143,-3401.9072112965059,3990.9717852295762,-3990.9717852295762,3401.9072112965059,15766.546254213596,0.0
653523.2936376977,3687751.2368613081,-32500.0,-23.848361050117944,197.48261224971867,9599.3647716835112,-419.41989111803582,-7812.1208326392843,4147.868692162011,8297.8181702829079,-3734.859220009022,5289.8584928143309,-5289.8584928143309,3734.859220009022,15924.71553373708,0.0
658523.2936376977,3687751.2368613081,-32500.0,302.73706261045334,1563.8302286459648,9253.043051822282,-1254.4930292303359,-7546.7092467052998,4016.6903761129715,8129.9352196814389,-3600.1251077365987,6096.5328284040634,-6096.5328284040634,3600.1251077365987,15606.947892719687,0.0
663523.2936376977,3687751.2368613081,-32500.0,858.29788437898776,2669.5172145471979,8376.2624867267295,-1944.149443113032,-6961.0463852874627,3746.971272152347,7744.1516458729029,-3078.4166467479081,6367.2451703233655,-6367.2451703233655,3078.4166467479081,14873.933555334053,0.0
668523.2936376977,3687751.2368613081,-32500.0,1523.4649754381273,3422.2162717246501,7141.0785028226092,-2437.7676327627632,-6151.5956645140086,3376.6454550985527,7190.8053107679916,-2301.6755408546669,6150.4471063480851,-6150.4471063480851,2301.6755408546669,13822.829713428189,0.0
673523.2936376977,3687751.2368613081,-32500.0,2181.1841684213691,3803.096514377411,5730.3587475079967,-2721.6634321552501,-5221.893783139355,2947.4030401914092,6529.8409525986199,-1412.890920024844,5555.4910809496614,-5555.4910809496614,1412.890920024844,12565.102302192325,0.0
678523.2936376977,3687751.2368613081,-32500.0,2740.6107467188967,3850.1274159895997,4303.0195722531607,-2811.7554771765826,-4264.254657078016,2497.7944160111297,5820.6216731770273,-535.54137801700927,4716.1251118610944,-4716.1251118610944,535.54137801700927,11208.006637053883,0.0
683523.2936376977,3687751.2368613081,-32500.0,3146.9343827569469,3634.3676377918982,2976.0446863327079,-2742.4962248426737,-3349.6200125263999,2058.9606571599138,5114.9645602416704,242.15835368313697,3760.851386609982,-3760.851386609982,-242.15835368313697,9842.5896140658533,0.0
688523.2936376977,3687751.2368613081,-32500.0,3379.9498236119357,3238.0644788302297,1821.1072382497784,-2556.1371087103098,-2524.778961052175,1652.9516951580119,4452.33911631316,870.01332391690119,2794.9429558741631,-2794.9429558741631,-870.01332391690119,8538.1857782216393,0.0
693523.2936376977,3687751.2368613081,-32500.0,3446.2948439164938,2738.9133108671167,870.48853906703971,-2294.5300496120053,-1814.5721913291843,1292.9916964372248,3856.5492096693347,1330.3743218472446,1893.435121176954,-1893.435121176954,-1330.3743218472446,7341.836301171883,0.0
698523.2936376977,3687751.2368613081,-32500.0,3369.7237684154716,2201.1971008911373,127.08653480676507,-1994.0545927277794,-1226.5829795983709,984.89741673343997,3336.5694099087741,1629.1388554957562,1101.8855421121802,-1101.8855421121802,-1629.1388554957562,6280.6887231878763,0.0
703523.2936376977,3687751.2368613081,-32500.0,3182.2312744303035,1672.5523921376857,-425.16477696517825,-1683.2939640110467,-756.42990087894918,728.96226131698529,2891.8396241639284,1786.5410775722862,441.38944405402435,-441.38944405402435,-1786.5410775722862,5365.7442146831399,0.0
708523.2936376977,3687751.2368613081,-32500.0,2917.3255231722092,1184.4762990666316,-812.46804339709263,-1382.6897790960077,-392.53240591276625,521.82495044132361,2517.1201620639863,1829.5045410595758,-84.907582683063993,84.907582683063993,-1829.5045410595758,4595.8406056093236,0.0
713523.2936376977,3687751.2368613081,-32500.0,2605.6980876874641,754.8390536180151,-1064.6481743641098,-1105.3850515470442,-119.8491918569851,358.0560732989058,2204.9133769129562,1786.1657385000874,-485.53296097892348,485.53296097892348,-1786.1657385000874,3961.2848491086347,0.0
718523.2936376977,3687751.2368613081,-32500.0,2272.9591352353327,391.11836944397561,-1210.9036729215993,-858.61753610974301,77.499131500785808,231.35865668633642,1946.6555923874287,1682.4758523315954,-775.51087389552174,775.51087389552174,-1682.4758523315954,3446.9389183133944,0.0
723523.2936376977,3687751.2368613081,-32500.0,1938.8893474060183,93.558122432063982,-1277.407915093153,-645.22859017546602,214.58712131490034,135.38733973628541,1733.5537399561499,1540.4634127276004,-972.54574248317022,972.54574248317022,-1540.4634127276004,3034.790119219062,0.0
558523.2936376977,3692751.2368613081,-32500.0,-346.73024538525129,1241.479166611872,-1627.0126899398815,-458.56274196735512,761.83218773499061,-245.29388858831928,1557.5461316282126,266.15724196021472,50.299923129711829,-50.299923129711829,-266.15724196021472,2962.2787570255337,0.0
563523.2936376977,3692751.2368613081,-32500.0,-141.22560348767189,1234.642668092549,-1820.144707966386,-414.40738096709418,824.4392193994197,-251.54417055186215,1659.9295021683722,491.95615238493599,-113.3643143764447,113.3643143764447,-491.95615238493599,3126.1880399419006,0.0
568523.2936376977,3692751.2368613081,-32500.0,108.34082530933235,1189.499394768774,-2020.656799447589,-345.77087770074007,879.44984030107275,-250.0160004874129,1766.5948322013001,756.73487902637748,-320.56104048125553,320.56104048125553,-756.73487902637748,3289.6511463617899,0.0
573523.2936376977,3692751.2368613081,-32500.0,403.49268703425662,1093.7800374858,-2219.9696866295949,-247.02117155647252,919.94166205303145,-237.08186836169025,1878.3252031534012,1059.5908670673639,-576.19521765823788,576.19521765823788,-1059.5908670673639,3453.0230258404522,0.0
578523.2936376977,3692751.2368613081,-32500.0,742.57057657790028,933.63456727476057,-2404.7470068184921,-112.38079322218977,936.40013627916892,-208.10471898075423,1997.0419564212734,1395.6531642698887,-882.99147149832459,882.99147149832459,-1395.6531642698887,3619.4970512333625,0.0
583523.2936376977,3692751.2368613081,-32500.0,1119.1401492715966,694.53977381514778,-2555.4807691766187,63.41096166036963,916.22570188091254,-157.36286971432696,2126.5211730611727,1754.3016945777636,-1239.6508239063223,1239.6508239063223,-1754.3016945777636,3797.2703496749609,0.0
588523.2936376977,3692751.2368613081,-32500.0,1520.1799612177872,363.04124712915251,-2645.1346188834964,284.04423278189859,843.41268719580285,-78.09943257378076,2273.2384156335875,2117.1731890399333,-1638.3572872730608,1638.3572872730608,-2117.1731890399333,4002.3094848396472,0.0
593523.2936376977,3692751.2368613081,-32500.0,1924.3418477227228,-70.377656729433681,-2638.260233302392,550.11754043403357,698.62939419064026,37.215869298848588,2447.0774239389593,2456.2979902260272,-2061.7130278271393,2061.7130278271393,-2456.2979902260272,4260.9122675508061,0.0
598523.2936376977,3692751.2368613081,-32500.0,2300.8508077144629,-607.09954115804794,-2491.2936714815751,857.14998778041718,460.03669366459997,196.30477999119518,2661.3678010327972,2733.0262600493088,-2479.4762091547682,2479.4762091547682,-2733.0262600493088,4610.1196520436706,0.0
603523.2936376977,3692751.2368613081,-32500.0,2609.9466132239559,-1234.9594913124656,-2155.0503890453247,1193.2948839796936,105.26881435717024,406.07221275465213,2931.533682639677,2898.7835172891623,-2845.9593977517184,2845.9593977517184,-2898.7835172891623,5093.258420582838,0.0
608523.2936376977,3692751.2368613081,-32500.0,2806.0364181963096,-1922.3592191299201,-1580.6146826371942,1537.2029417809015,-385.00882080133181,671.10765128864762,3271.8904164641135,2898.9993087828675,-3099.5805227235064,3099.5805227235064,-2898.9993087828675,5749.3921440203121,0.0
613523.2936376977,3692751.2368613081,-32500.0,2844.6573176009542,-2613.6418217133091,-729.55321183483034,1856.862883173661,-1021.7765887153286,991.74427367664327,3690.9955671734851,2681.477289424507,-3166.6315337010001,3166.6315337010001,-2681.477289424507,6599.608969813451,0.0
618523.2936376977,3692751.2368613081,-32500.0,2693.525498375775,-3228.5622197292378,411.76576361850249,2110.5951414046981,-1800.9753342729673,1361.9246367131584,4186.9389701170339,2209.5471027643525,-2971.3247590810688,2971.3247590810688,-2209.5471027643525,7635.8633532667091,0.0
623523.2936376977,3692751.2368613081,-32500.0,2346.0805068302438,-3669.209839184316,1816.2352869119009,2251.417907399893,-2696.8584767130637,1767.4028717700237,4744.2448391550552,1478.2202185743572,-2452.882260319966,2452.882260319966,-1478.2202185743572,8816.1262143313215,0.0
628523.2936376977,3692751.2368613081,-32500.0,1833.2722424298108,-3836.5516313607218,3403.8975204695025,2235.3291360724088,-3657.9151668035634,2185.074175729862,5333.4388085209275,528.52126772355734,-1587.3109787508092,1587.3109787508092,-528.52126772355734,10066.110656931683,0.0
633523.2936376977,3692751.2368613081,-32500.0,1227.3293981182871,-3655.080910539074,5041.0312525658055,2032.4520847536403,-4608.4496834118336,2584.2790173829776,5913.2939365184284,-547.23210343102176,-407.25083635409624,407.25083635409624,547.23210343102176,11286.961154194378,0.0
638523.2936376977,3692751.2368613081,-32500.0,632.1205161466828,-3098.6889970517936,6556.258244305177,1637.8847305726856,-5457.9153050013365,2930.5400955520204,6434.8308793595543,-1615.6686253364162,989.64902872574407,-989.64902872574407,1615.6686253364162,12368.594275125759,0.0
643523.2936376977,3692751.2368613081,-32500.0,159.81098634806619,-2206.9961114724119,7773.132566273538,1077.7637226240277,-6117.1786636622974,3191.2885865068661,6846.7994453328383,-2529.0324719144219,2451.6105871665177,-2451.6105871665177,2529.0324719144219,13207.185617320054,0.0
648523.2936376977,3692751.2368613081,-32500.0,-99.023744523928244,-1082.9815257154853,8549.9636779445918,406.99458137296989,-6517.2390500858864,3342.0997844591043,7104.3624738964954,-3160.7153946606695,3802.9990916210691,-3802.9990916210691,3160.7153946606695,13723.074571145562,0.0
653523.2936376977,3692751.2368613081,-32500.0,-99.891870451622964,129.44342109069038,8812.2255892561625,-301.56204803406757,-6623.8691829094651,3371.4234711272152,7179.5658977393559,-3436.1829525628827,4884.3021449499056,-4884.3021449499056,3436.1829525628827,13874.044558584932,0.0
658523.2936376977,3692751.2368613081,-32500.0,146.47673287317176,1279.6354147451154,8565.4132119428559,-972.74224340575688,-6442.9909072545352,3282.2539002165672,7067.4377810448232,-3347.3041661860639,5586.7919591610025,-5586.7919591610025,3347.3041661860639,13660.130284542776,0.0
663523.2936376977,3692751.2368613081,-32500.0,582.5748928206375,2242.9423753535216,7885.3958320251477,-1543.9240977897691,-6015.6868207435809,3090.4220085424759,6784.9674648522405,-2946.3256368670318,5869.90947134407,-5869.90947134407,2946.3256368670318,13119.263414132005,0.0
668523.2936376977,3692751.2368613081,-32500.0,1124.3444227095231,2941.2293129215113,6892.9724489405398,-1974.522705769195,-5405.9281434121376,2820.4489237910884,6365.2309552858951,-2324.9352515480041,5758.3418008301824,-5758.3418008301824,2324.9352515480041,12316.270964006038,0.0
673523.2936376977,3692751.2368613081,-32500.0,1683.9282048921343,3347.6396455851277,5723.7924805495031,-2248.5496681318782,-4686.0354957426862,2500.5126738375993,5849.9055087373708,-1588.4343553254425,5324.2656823436373,-5324.2656823436373,1588.4343553254425,11329.307549838839,0.0
678523.2936376977,3692751.2368613081,-32500.0,2187.4268006428115,3478.6686079141928,4503.1704493621037,-2371.4285634402381,-3924.2115929558508,2157.9295021081175,5282.4682303768186,-833.83308683886207,4663.880720851912,-4663.880720851912,833.83308683886207,10237.410949227917,0.0
683523.2936376977,3692751.2368613081,-32500.0,2584.3820096338245,3379.7173588059431,3330.5307151703164,-2363.6341032856444,-3176.4358057260315,1815.9818268351198,4703.0255271051019,-136.35127962674596,3876.1063484661518,-3876.1063484661518,136.35127962674596,9111.3949325013182,0.0
688523.2936376977,3692751.2368613081,-32500.0,2849.4904693736926,3109.8862286959757,2273.6220764371442,-2253.6629597860378,-2482.9640681931974,1492.2933445912422,4144.2940948121222,455.4303529140202,3047.6869196962293,-3047.6869196962293,-455.4303529140202,8008.6540992480941,0.0
693523.2936376977,3692751.2368613081,-32500.0,2979.0352229972286,2729.6293800544918,1370.0141281779336,-2072.0280449235806,-1868.439889083905,1198.528099883004,3628.3167479285185,917.98683136819898,2245.5090965481363,-2245.5090965481363,-917.98683136819898,6971.3710380416805,0.0
698523.2936376977,3692751.2368613081,-32500.0,2984.8307214615515,2292.6371994473284,632.69138437276581,-1847.030837458374,-1344.2094394084388,940.99339259863632,3165.9919159601768,1247.7074379123112,1514.8217597576606,-1514.8217597576606,-1247.7074379123112,6027.1271836194774,0.0
703523.2936376977,3692751.2368613081,-32500.0,2887.8520222952825,1841.748956800006,57.062636941319781,-1602.3624332336906,-911.57639841099922,721.71694526049566,2760.3600076820039,1454.6176486626759,881.29686673434696,-881.29686673434696,-1454.6176486626759,5190.8925904161824,0.0
708523.2936376977,3692751.2368613081,-32500.0,2712.8273628781621,1407.9369148364894,-372.37906892995392,-1356.195563762753,-565.10035811731257,539.65450722097978,2410.1819769193885,1556.5378991174323,354.99296069375373,-354.99296069375373,-1556.5378991174323,4467.5682031672604,0.0
713523.2936376977,3692751.2368613081,-32500.0,2484.3127528572031,1011.2409505250033,-676.63669211488707,-1121.3024225844545,-295.43479511435368,391.80611977566906,2111.8347337558798,1574.4534611455829,-65.203354196880127,65.203354196880127,-1574.4534611455829,3854.5434263931056,0.0
718523.2936376977,3692751.2368613081,-32500.0,2224.2525044736799,662.68394096776956,-878.2920178920773,-905.75703276386184,-91.500998351276863,274.12647479082858,1860.2389270204553,1529.2922029281276,-387.52258973134713,387.52258973134713,-1529.2922029281276,3343.9760668617409,0.0
563523.2936376977,3697751.2368613081,-32500.0,115.69881467170755,984.9562468869766,-1724.3944071171147,-261.31201124610885,711.83681058349509,-190.37379345123901,1478.7626779561981,670.63245546761823,-307.82333114715107,307.82333114715107,-670.63245546761823,2748.0583392549447,0.0
568523.2936376977,3697751.2368613081,-32500.0,353.5097407362594,903.90850426842667,-1879.9660101291449,-183.46609461283055,741.90573331940811,-180.91064097779429,1568.2422499959969,911.80542572507898,-513.28459659600071,513.28459659600071,-911.80542572507898,2878.1604607889794,0.0
573523.2936376977,3697751.2368613081,-32500.0,624.78770686464793,773.66424771388222,-2023.1707656656106,-79.294664089329814,754.38848862889529,-160.38404222972429,1663.5764964362925,1177.4470712373529,-756.7456699415211,756.7456699415211,-1177.4470712373529,3011.7959050329746,0.0
578523.2936376977,3697751.2368613081,-32500.0,925.14932505959064,583.80257587289066,-2139.901491245188,54.936451254257435,740.64154635885586,-125.00209654078522,1767.637030762098,1460.0581828740628,-1037.2002734771072,1037.2002734771072,-1460.0581828740628,3155.2760778092379,0.0
583523.2936376977,3697751.2368613081,-32500.0,1245.8621352776536,324.53726619291757,-2211.000555573673,222.01745911432315,689.79180144961549,-70.27881033516158,1885.1199919560777,1747.0324073218194,-1349.3512982585771,1349.3512982585771,-1747.0324073218194,3320.1950059097007,0.0
588523.2936376977,3697751.2368613081,-32500.0,1572.721772359956,-11.534489520237756,-2211.6766746521198,422.8869957861009,588.74844115541202,8.8396120453983826,2022.9855026377595,2019.4692109464263,-1681.7107170339073,1681.7107170339073,-2019.4692109464263,3525.027566720928,0.0
593523.2936376977,3697751.2368613081,-32500.0,1885.2561233756783,-426.90577284549903,-2111.5721399984272,655.44690872086221,422.61371949938791,117.67481082987769,2190.5106628695903,2251.3996689603214,-2014.5525147324727,2014.5525147324727,-2251.3996689603214,3795.4769858900763,0.0
598523.2936376977,3697751.2368613081,-32500.0,2156.7278007343648,-915.88476513414469,-1876.018177388964,913.17259295191968,175.71535753643337,261.28106591797933,2398.5607010764716,2409.9665043565078,-2318.148154566999,2318.148154566999,-2409.9665043565078,4162.0569644360667,0.0
603523.2936376977,3697751.2368613081,-32500.0,2355.558400366313,-1460.8930771444925,-1469.1295400707386,1183.7252437945197,-166.50835813023335,443.62927120734196,2657.7975864128766,2457.2726182458759,-2552.0316329259554,2552.0316329259554,-2457.2726182458759,4654.0945156177859,0.0
608523.2936376977,3697751.2368613081,-32500.0,2448.8172038896637,-2029.1265527533144,-859.31775056181925,1447.9540236019018,-614.62398359606232,666.5124176057393,2975.9561356212362,2354.6329293503477,-2666.3531464647294,2666.3531464647294,-2354.6329293503477,5291.4389964712982,0.0
613523.2936376977,3697751.2368613081,-32500.0,2408.1390971499695,-2570.9355953593063,-27.378333975829168,1679.864981896515,-1171.4052163567408,928.26422144646688,3354.8429552877651,2069.6502300824945,-2606.5032954319954,2606.5032954319954,-2069.6502300824945,6076.9279139036616,0.0
618523.2936376977,3697751.2368613081,-32500.0,2217.6914866931361,-3021.7158530454858,1023.6368554434559,1848.2293258390484,-1827.6306700485447,1222.5128635693991,3787.9588273096483,1585.6904568020409,-2321.8167520217717,2321.8167520217717,-1585.6904568020409,6992.045903817394,0.0
623523.2936376977,3697751.2368613081,-32500.0,1882.5880400939016,-3308.9593358013103,2258.9674487581706,1920.3451436698354,-2558.5421262589557,1537.3334915563253,4259.4645221893725,911.93878252405693,-1777.9948943285176,1777.9948943285176,-911.93878252405693,7996.251269895386,0.0
628523.2936376977,3697751.2368613081,-32500.0,1434.8255447687643,-3364.91983139077,3606.7230596476006,1867.9077054654429,-3322.4989596964288,1855.2507558897487,4744.8073090033913,90.687359189158428,-970.92079281955318,970.92079281955318,-90.687359189158428,9029.5663083605868,0.0
633523.2936376977,3697751.2368613081,-32500.0,933.25228643480273,-3142.9987184085599,4960.5206780701637,1674.0028270595667,-4063.3718259119814,2154.4833702387446,5212.8190842618424,-802.21368168861579,62.55843754699697,-62.55843754699697,802.21368168861579,10018.344260866548,0.0
638523.2936376977,3697751.2368613081,-32500.0,455.22584176646785,-2633.2256383667018,6192.5816522654368,1339.2428304971013,-4717.3951974178426,2411.5328801550008,5628.5338689415084,-1666.6131173102697,1242.1696716253466,-1242.1696716253466,1666.6131173102697,10884.124107227366,0.0
643523.2936376977,3697751.2368613081,-32500.0,80.721749620821612,-1870.789917506446,7175.8816582574982,884.66118386549817,-5223.5814975578605,2604.7432763454376,5956.394911710534,-2396.4519006976616,2453.6078741352467,-2453.6078741352467,2396.4519006976616,11554.587591665699,0.0
648523.2936376977,3697751.2368613081,-32500.0,-126.55516235434234,-933.06112757243295,7809.5119307738905,349.70476083641915,-5535.0528624236285,2717.9847428734474,6165.2105615854643,-2902.3711612424763,3568.9296980929698,-3568.9296980929698,2902.3711612424763,11974.440641390525,0.0
653523.2936376977,3697751.2368613081,-32500.0,-134.38942868245007,75.143495829871298,8039.005450823237,-214.58011319282213,-5627.8046331790874,2743.4146250452418,6234.7280949460383,-3130.9543411252052,4472.0986454109316,-4472.0986454109316,3130.9543411252052,12113.477600943055,0.0
658523.2936376977,3697751.2368613081,-32500.0,51.849691856381156,1043.3196849790477,7864.9381722741173,-755.14242520184075,-5504.1805280821836,2682.5239974040883,6159.9948043102913,-3074.0453795670792,5081.2897539859177,-5081.2897539859177,3074.0453795670792,11969.769663267121,0.0
663523.2936376977,3697751.2368613081,-32500.0,393.69491821962407,1876.6923394719888,7337.8897853365715,-1226.2844195944617,-5190.3506932690798,2545.2693893368787,5951.2482007343306,-2765.8498382870512,5361.1170753018332,-5361.1170753018332,2765.8498382870512,11567.4814225215,0.0
668523.2936376977,3697751.2368613081,-32500.0,831.80416522305018,2510.9306251477424,6543.0538063275126,-1596.1902219381559,-4729.2327206361897,2347.7193027638291,5630.5376336676245,-2270.4281404087315,5322.5082059400547,-5322.5082059400547,2270.4281404087315,10950.493835739639,0.0
673523.2936376977,3697751.2368613081,-32500.0,1300.8088919951422,2917.371215457033,5580.6665476862163,-1849.442798959793,-4171.490342150073,2109.0115712439933,5227.0594719027877,-1665.0512232095316,5012.6627180534797,-5012.6627180534797,1665.0512232095316,10173.979366489186,0.0
678523.2936376977,3697751.2368613081,-32500.0,1742.0851648736862,3099.7493577855489,4548.1650670122754,-1985.8683771824994,-3567.1708601820883,1848.427799274059,4772.6433933251619,-1024.8192249852355,4500.0980238017801,-4500.0980238017801,1024.8192249852355,9296.0996637782864,0.0
683523.2936376977,3697751.2368613081,-32500.0,2111.7964067596049,3085.663111852602,3527.6917784119669,-2016.9779591515119,-2959.6136979527801,1583.1408900427709,4298.0511714918548,-411.90878409529319,3859.7256434184055,-3859.7256434184055,411.90878409529319,8371.3348854362121,0.0
688523.2936376977,3697751.2368613081,-32500.0,2383.8168320240384,2916.3634948151971,2579.8962518272715,-1961.4946253166288,-2382.1557181257008,1326.8683917167309,3829.8538319868831,129.63368162697816,3161.2221431165672,-3161.2221431165672,-129.63368162697816,7446.122626883267,0.0
693523.2936376977,3697751.2368613081,-32500.0,2548.6344165550831,2637.5463620947353,1743.0672502400125,-1841.1357792658632,-1857.3058967840752,1089.3836088647861,3387.5047870602402,574.40032870144307,2461.9121548229714,-2461.9121548229714,-574.40032870144307,6556.7429211048502,0.0
698523.2936376977,3697751.2368613081,-32500.0,2609.8904457823628,2292.5433102466191,1035.8010472226515,-1677.3245203744223,-1397.6607337352691,876.6829988818331,2982.1654930076647,913.05537953881731,1803.8657970845475,-1803.8657970845475,-913.05537953881731,5728.9986672081113,0.0
703523.2936376977,3697751.2368613081,-32500.0,2580.0752555017825,1918.2136842301104,461.39900117542601,-1489.0445155681352,-1007.7686396682274,691.55615570023713,2618.6372659056033,1148.3247143122171,1214.1264672604389,-1214.1264672604389,-1148.3247143122171,4979.0880394706946,0.0
708523.2936376977,3697751.2368613081,-32500.0,2476.4488732883124,1543.1687387564994,12.613512404931305,-1291.7459678038508,-686.30055594393411,534.33119941437792,2298.0270051958855,1290.7794124397801,706.81736799469002,-706.81736799469002,-1290.7794124397801,4315.1135684858882,0.0
713523.2936376977,3697751.2368613081,-32500.0,2317.7609994201175,1187.678759196069,-324.10603561733922,-1097.0599089296979,-428.09954734820059,403.62863587942843,2019.2332779548015,1355.1584757926794,286.06259678303991,-286.06259678303991,-1355.1584757926794,3738.8036118300247,0.0
563523.2936376977,3702751.2368613081,-32500.0,307.85190190824494,753.97045543846173,-1601.8720099718064,-138.87133339213486,603.6181468458991,-139.70057475547495,1319.3742700324028,785.54855722799527,-455.33498068164124,455.33498068164124,-785.54855722799527,2418.4667991953156,0.0
568523.2936376977,3702751.2368613081,-32500.0,526.74097126136678,647.54012358057503,-1714.2610746585256,-57.741627319279537,613.30865727083835,-125.02228295009216,1396.4115708131139,997.50879830010649,-650.25583457917105,650.25583457917105,-997.50879830010649,2526.3911359844728,0.0
573523.2936376977,3702751.2368613081,-32500.0,768.43345113112105,495.58630333606493,-1805.9546715702018,45.572813445073031,603.99226890581076,-100.09007630539863,1480.47295790271,1222.4030849552464,-872.99745150924275,872.99745150924275,-1222.4030849552464,2642.6045200767298,0.0
578523.2936376977,3702751.2368613081,-32500.0,1026.9962531865394,290.89293246467889,-1863.1687441600729,173.1797950113945,568.16780163776366,-61.898919896477828,1575.0001885297374,1451.4383127877156,-1119.9133895121452,1119.9133895121452,-1451.4383127877156,2775.5960559769419,0.0
583523.2936376977,3702751.2368613081,-32500.0,1292.8352365362425,27.709736523536701,-1868.2688291075144,326.06208416622684,496.83213697086717,-7.0375418172044704,1684.973973890907,1671.6167600558954,-1383.2724813760472,1383.2724813760472,-1671.6167600558954,2938.5361122384174,0.0
588523.2936376977,3702751.2368613081,-32500.0,1552.124290375029,-296.68821616270986,-1799.743771919472,503.35694346181049,379.68498522523208,68.157387340817422,1816.9690679896657,1865.1831693175752,-1649.9453473713077,1649.9453473713077,-1865.1831693175752,3149.567335839627,0.0
593523.2936376977,3702751.2368613081,-32500.0,1786.6585676588245,-679.97142817337863,-1632.8454993428113,701.49803220351998,205.67666752541663,167.31626488594364,1978.7579045943219,2009.5852891524496,-1900.2081983405892,1900.2081983405892,-2009.5852891524496,3430.4840094710521,0.0
598523.2936376977,3702751.2368613081,-32500.0,1974.4740139763201,-1112.4005974044865,-1341.256981346593,913.31619775674369,-35.970379638114146,293.59051815518973,2178.2866792451437,2078.3375660295687,-2107.0510117141803,2107.0510117141803,-2078.3375660295687,3803.2499466185618,0.0
603523.2936376977,3702751.2368613081,-32500.0,2091.6088959990525,-1574.5156392822441,-900.14313931659558,1127.2859788213134,-354.16478484107415,449.03463605325055,2422.051256251867,2043.2148447078375,-2236.5498795860408,2236.5498795860408,-2043.2148447078375,4284.900601944104,0.0
608523.2936376977,3702751.2368613081,-32500.0,2115.2943695191593,-2035.5366020095528,-290.77817080220439,1327.2080441224939,-753.76853797147646,633.8458333084742,2713.1861862603391,1878.1010586757679,-2249.9736121180163,2249.9736121180163,-1878.1010586757679,4882.4762743788733,0.0
613523.2936376977,3702751.2368613081,-32500.0,2028.5580760872949,-2453.4203117992183,493.46003467135722,1492.6918242889863,-1233.0172918429639,845.55215489046168,3049.7524979435225,1564.4733548241218,-2108.2057440391491,2108.2057440391491,-1564.4733548241218,5589.5611800595616,0.0
618523.2936376977,3702751.2368613081,-32500.0,1825.6744398771148,-2777.6046851783631,1440.5989761677813,1600.7874911329823,-1780.9842693293092,1078.3152794623122,3423.6725052174252,1097.8762770678736,-1778.6348929325204,1778.6348929325204,-1097.8762770678736,6384.9494274916524,0.0
623523.2936376977,3702751.2368613081,-32500.0,1517.1768234887641,-2955.1364649856009,2514.7587442649733,1628.9326367855576,-2375.8188491672995,1322.5803443346529,3820.5909085298945,493.91670339989815,-1243.8069640364949,1243.8069640364949,-493.91670339989815,7233.2197675449934,0.0
628523.2936376977,3702751.2368613081,-32500.0,1132.5536800017912,-2939.9499917896796,3654.2785695465418,1558.9886480323946,-2984.6488446838648,1565.3189435391575,4220.7489238858143,-208.38391612317812,-509.98592330983865,509.98592330983865,208.38391612317812,8087.070428186822,0.0
633523.2936376977,3702751.2368613081,-32500.0,718.74303253445248,-2703.6588899403796,4775.4060359052837,1381.6155106945391,-3565.8934846025322,1791.0395335219873,4600.6807365966606,-948.09396011712965,387.19308659979419,-387.19308659979419,948.09396011712965,8891.5171052512815,0.0
638523.2936376977,3702751.2368613081,-32500.0,333.49900051092027,-2244.8731095323969,5782.4025668053591,1099.7770004238278,-4074.1586778366559,1983.5501299256207,4935.1443632891642,-1649.9081085185808,1382.870788145749,-1382.870788145749,1649.9081085185808,9589.8618500522061,0.0
643523.2936376977,3702751.2368613081,-32500.0,34.543634545915289,-1593.6195218329028,6582.6807748744432,730.09032594367682,-4466.996259611883,2128.2064440642057,5198.9708705745497,-2236.8287342991584,2390.469623074639,-2390.469623074639,2236.8287342991584,10130.748477262116,0.0
648523.2936376977,3702751.2368613081,-32500.0,-132.61910165939733,-808.54901178790442,7103.2793304557108,301.22316332503232,-4711.943737354708,2214.1498442050638,5369.9298729655229,-2644.830336390487,3315.5847838603013,-3315.5847838603013,2644.830336390487,10474.983098649453,0.0
653523.2936376977,3702751.2368613081,-32500.0,-144.39088952122432,32.937322589656318,7303.9203111059642,-150.50288532926007,-4791.9264948369182,2235.9719846979506,5433.0454543820115,-2835.1265582172514,4072.6803345661488,-4072.6803345661488,2835.1265582172514,10600.597636437355,0.0
658523.2936376977,3702751.2368613081,-32500.0,-3.1839235045823044,848.8649981062282,7182.8233773816837,-587.15463443632291,-4707.5272865500674,2194.3780210124542,5383.8005353397448,-2800.3255143228726,4599.7422909262059,-4599.7422909262059,2800.3255143228726,10504.984043825149,0.0
663523.2936376977,3702751.2368613081,-32500.0,264.99564454313855,1566.9274448118583,6774.059747072366,-975.19816342699698,-4475.6857283146828,2095.7298494629495,5228.3887337158085,-2563.0675735803834,4866.8798284593067,-4866.8798284593067,2563.0675735803834,10203.785786024189,0.0
668523.2936376977,3702751.2368613081,-32500.0,618.05184412595497,2134.9602599586879,6138.0947537994152,-1289.9683563255087,-4125.5218727243218,1950.6748257527643,4981.7048290091943,-2168.4237925966122,4877.269534801575,-4877.269534801575,2168.4237925966122,9727.1082484750586,0.0
673523.2936376977,3702751.2368613081,-32500.0,1007.5211954082599,2525.6459524992447,5348.9852065119157,-1517.7862776152269,-3692.7025129121689,1772.2826207509879,4664.3747451772488,-1673.0993083509536,4661.5013679679205,-4661.5013679679205,1673.0993083509536,9114.210285289495,0.0
678523.2936376977,3702751.2368613081,-32500.0,1387.5994320468035,2735.5962993433441,4481.8757676446585,-1655.7423289305211,-3213.8583897161302,1574.1534198635798,4299.7463865924656,-1134.739442877797,4268.074833824493,-4268.074833824493,1134.739442877797,8407.9525098221438,0.0
683523.2936376977,3702751.2368613081,-32500.0,1721.5358613686831,2780.4673400046036,3603.3766374800884,-1709.766146263556,-2722.1577424968168,1368.8576207808183,3911.3028411413516,-603.70741497789618,3753.1067922771144,-3753.1067922771144,603.70741497789618,7650.014116218018,0.0
688523.2936376977,3702751.2368613081,-32500.0,1984.7507586827917,2688.2692697471748,2765.8875665616652,-1691.8371910179551,-2244.5379910147672,1166.89431676396,3520.3542007203559,-118.32628214990473,3171.57174485724,-3171.57174485724,118.32628214990473,6877.4332613713068,0.0
693523.2936376977,3702751.2368613081,-32500.0,2165.0581443037654,2492.7325467482547,2005.6637409338725,-1617.1059165202694,-1800.5724791675757,976.19290605119522,3143.6058422812648,296.59060002507135,2571.2550094550206,-2571.2550094550206,-296.59060002507135,6120.5991298244826,0.0
698523.2936376977,3702751.2368613081,-32500.0,2260.9066419600854,2227.9076752202936,1343.6887110516464,-1501.4466093928647,-1402.6227515271009,802.06869260586711,2791.6428447855519,628.76697598147121,1989.5810895576697,-1989.5810895576697,-628.76697598147121,5402.5197741064685,0.0
703523.2936376977,3702751.2368613081,-32500.0,2278.6353270201903,1924.4734239419176,788.21367168978679,-1359.6863841898078,-1056.8098041948385,647.49140777346406,2469.9233568947138,876.08193720518261,1452.8311271482969,-1452.8311271482969,-876.08193720518261,4739.0369201900312,0.0
708523.2936376977,3702751.2368613081,-32500.0,2229.5505663730764,1607.7135115609078,337.96450784142252,-1204.5378103583357,-764.3728556555285,513.52353053675915,2180.8016072288233,1043.676148585846,977.00234284824921,-977.00234284824921,-1043.676148585846,4139.6368911300851,0.0
568523.2936376977,3707751.2368613081,-32500.0,641.44976842982783,424.29003732255865,-1535.1108232537117,36.942404067699343,496.54161362995313,-80.665869850380048,1248.8168016842433,1029.5701167322857,-739.1805085999863,739.1805085999863,-1029.5701167322857,2229.5648940021188,0.0
573523.2936376977,3707751.2368613081,-32500.0,851.48070729228641,261.21961084680271,-1581.6863912830649,135.2600881540958,471.06560992628573,-53.69204978654323,1325.2748293981019,1213.9231184919092,-936.36519705167541,936.36519705167541,-1213.9231184919092,2337.2001700490337,0.0
578523.2936376977,3707751.2368613081,-32500.0,1068.8900406945843,53.176043558355062,-1589.1874070956212,252.60377076351486,420.12208241536194,-15.200973151321055,1413.5361862162426,1392.9351465235279,-1146.8774730062698,1146.8774730062698,-1392.9351465235279,2467.4780509120988,0.0
583523.2936376977,3707751.2368613081,-32500.0,1284.2066893477336,-202.4083536155625,-1542.1435643486875,388.72998240388893,336.50191549193073,37.333772472632255,1518.3342392407412,1554.2683353028167,-1361.8135234905465,1361.8135234905465,-1554.2683353028167,2633.3988080725244,0.0
588523.2936376977,3707751.2368613081,-32500.0,1484.8857149315716,-504.91915565255294,-1422.6751183400013,541.71819277213967,212.36127302808941,106.49253220792896,1645.3029051083151,1682.2245925999732,-1567.8497935687933,1567.8497935687933,-1682.2245925999732,2850.7215801687862,0.0
593523.2936376977,3707751.2368613081,-32500.0,1655.5530127240979,-849.04198199439816,-1211.4096591614777,707.38775073093359,39.785448005021962,194.6642160601526,1800.3800146507979,1758.137317219964,-1746.6796781994201,1746.6796781994201,-1758.137317219964,3135.9073945559139,0.0
598523.2936376977,3707751.2368613081,-32500.0,1778.8949218877656,-1223.1888067895709,-889.20777402883982,878.76114116420945,-188.31132727016458,303.69685136224706,1988.8247937924461,1761.5162154001903,-1875.006882889287,1875.006882889287,-1761.5162154001903,3502.944598908306,0.0
603523.2936376977,3707751.2368613081,-32500.0,1837.3880236024445,-1608.2036521372436,-439.85051345487619,1045.7210312105642,-476.92404036328213,434.45019835780414,2213.9962970421539,1672.1639939453191,-1925.4739242201074,1925.4739242201074,-1672.1639939453191,3959.9431589151532,0.0
608523.2936376977,3707751.2368613081,-32500.0,1815.9452360410792,-1976.8483444149597,146.32943065677671,1195.0586060283499,-827.38891003242725,586.28591697855836,2476.1594517742469,1473.3474168199734,-1868.9041149564925,1868.9041149564925,-1473.3474168199734,4506.5087279967829,0.0
613523.2936376977,3707751.2368613081,-32500.0,1705.3043469515769,-2294.673840771844,868.2033741582984,1311.1273723703894,-1235.6937353413173,756.56982020662485,2771.5913944919221,1155.8208460085293,-1678.0816861095532,1678.0816861095532,-1155.8208460085293,5132.3693100378532,0.0
618523.2936376977,3707751.2368613081,-32500.0,1505.6179148172766,-2522.8197740447536,1709.7446446304536,1377.2633486213413,-1691.0059021727104,940.30065377233291,3092.182215084682,722.08180557546962,-1332.9277020908742,1332.9277020908742,-722.08180557546962,5817.179076331855,0.0
623523.2936376977,3707751.2368613081,-32500.0,1229.3143162785743,-2622.9501182358094,2637.241814431899,1377.9819388992169,-2174.8916454625955,1130.0069407089306,3425.6421585937042,189.79062380325325,-826.36195353198514,826.36195353198514,-189.79062380325325,6531.3478722464924,0.0
628523.2936376977,3707751.2368613081,-32500.0,902.07254913634438,-2563.8886974420898,3599.1936235598323,1301.7102003915593,-2661.7275877071679,1316.0437092775696,3756.3379790052618,-406.98548745734399,-169.50662041281313,169.50662041281313,406.98548745734399,7237.928517249672,0.0
633523.2936376977,3707751.2368613081,-32500.0,560.92180036396587,-2328.7046737255782,4529.9620434598482,1143.5265538968174,-3120.6474216017164,1487.3585938888946,4066.594289793301,-1019.8727529101928,605.51222728202936,-605.51222728202936,1019.8727529101928,7895.6555755725467,0.0
638523.2936376977,3707751.2368613081,-32500.0,249.17160029791054,-1920.3537536094202,5357.3759739074994,907.17957226471276,-3519.0011169650611,1632.6859119523081,4337.9985449532414,-1592.0412133008933,1446.735806143138,-1446.735806143138,1592.0412133008933,8463.0311617637799,0.0
643523.2936376977,3707751.2368613081,-32500.0,8.9597593072571637,-1363.9134576616786,6013.1557913531024,605.6791461730769,-3826.7990029114071,1741.9843522808842,4552.4175667565787,-2066.9851564535838,2288.1596008008273,-2288.1596008008273,2066.9851564535838,8902.9668154422798,0.0
648523.2936376977,3707751.2368613081,-32500.0,-126.7551599263163,-704.2227332272214,6443.8199916651593,260.07363723694664,-4021.1878363922265,1807.8284712079555,4693.6586717851269,-2398.205759373021,3059.3079051621003,-3059.3079051621003,2398.205759373021,9187.1814624586041,0.0
653523.2936376977,3707751.2368613081,-32500.0,-140.49405139899764,0.85521694307611984,6619.2456012452922,-103.44414056388779,-4089.8597190225228,1826.4355747385489,4750.4284665480045,-2557.1975000530824,3696.3637636556346,-3696.3637636556346,2557.1975000530824,9299.4581544643988,0.0
658523.2936376977,3707751.2368613081,-32500.0,-33.053384257112711,689.8623353300253,6536.6532134786885,-457.42841136050487,-4032.5583975995551,1798.094234208005,4718.7648176820667,-2537.5790264321977,4151.9805333784079,-4151.9805333784079,2537.5790264321977,9237.1033262770088,0.0
663523.2936376977,3707751.2368613081,-32500.0,177.80696456410712,1307.3635629578523,6219.2181667286086,-777.10871112174596,-3860.3987248466933,1726.9179880567074,4602.399852167563,-2354.4871947631632,4401.3559146471716,-4401.3559146471716,2354.4871947631632,9010.3776188552529,0.0
668523.2936376977,3707751.2368613081,-32500.0,462.04209044700173,1811.4005935502091,5710.1639709771434,-1043.4566793121774,-3593.3508285565035,1620.0294653387539,4411.5149589249459,-2039.8785716104885,4443.4724450863559,-4443.4724450863559,2039.8785716104885,8640.1904805837294,0.0
673523.2936376977,3707751.2368613081,-32500.0,783.72797110677539,2177.3951641098301,5064.3239098394761,-1244.8519651669931,-3256.6730188032466,1486.405898631057,4160.8043583994577,-1635.4662986730052,4297.9398439576871,-4297.9398439576871,1635.4662986730052,8154.7074367838231,0.0
678523.2936376977,3707751.2368613081,-32500.0,1107.3915657379453,2398.3444667755562,4339.4138350159737,-1377.2655115335133,-2877.1836590360158,1335.6531772848061,3867.4517193670681,-1185.3097368326551,3998.9548239739806,-3998.9548239739806,1185.3097368326551,7585.6200495321236,0.0
683523.2936376977,3707751.2368613081,-32500.0,1402.912813137807,2482.1305420059557,3588.7979745750781,-1443.2538998210512,-2480.098564496383,1176.9367668527605,3549.3407037104553,-729.67274454299741,3588.2603779685764,-3588.2603779685764,729.67274454299741,6964.7429965846113,0.0
688523.2936376977,3707751.2368613081,-32500.0,1648.3721872610902,2447.2223856016831,2856.6822954663608,-1450.2489263992213,-2086.8399494982705,1018.2072240782859,3223.4218526568634,-301.00618016157364,3108.6971556957178,-3108.6971556957178,301.00618016157364,6321.3619479560657,0.0
693523.2936376977,3707751.2368613081,-32500.0,1830.8857033128977,2318.0125457883769,2175.8564895849117,-1408.6308824249161,-1713.9011357084646,865.76293597745655,2903.8113161342694,77.834015695171729,2599.319603298607,-2599.319603298607,-77.834015695171729,5680.4970420127747,0.0
698523.2936376977,3707751.2368613081,-32500.0,1945.8925719349027,2120.6942658925732,1567.5545529912822,-1329.9617975427559,-1372.624044325818,724.11852676339629,2600.164309150643,393.52726263938905,2092.4084474718588,-2092.4084474718588,-393.52726263938905,5062.0495711034364,0.0
703523.2936376977,3707751.2368613081,-32500.0,1995.5123850413484,1880.1572950981147,1042.7503829342156,-1225.5946846566915,-1069.6275545402164,596.10349039103676,2317.977727129391,641.00645720817442,1612.224255660735,-1612.224255660735,-641.00645720817442,4480.6615292002662,0.0
573523.2936376977,3712751.2368613081,-32500.0,888.81400121101888,68.982048210194804,-1360.4877366095611,196.8429706823473,356.19242100634472,-18.767396581500424,1193.9838667224378,1168.3110531828431,-958.11039833875361,958.11039833875361,-1168.3110531828431,2086.3302813091263,0.0
578523.2936376977,3712751.2368613081,-32500.0,1067.9913509528872,-134.11251692418901,-1328.1659596013099,302.15732260492842,295.78982495701541,18.373107647824,1277.8152080652737,1302.8681418803574,-1132.424767487684,1132.424767487684,-1302.8681418803574,2217.7800595770336,0.0
583523.2936376977,3712751.2368613081,-32500.0,1238.804829100807,-374.58925021579881,-1241.8411467145017,420.93467191946269,206.16806704807442,67.141281088785462,1378.3289814879845,1414.4829690345764,-1302.2299912265566,1302.2299912265566,-1414.4829690345764,2387.4552541352164,0.0
588523.2936376977,3712751.2368613081,-32500.0,1390.4089985588218,-649.64111094154453,-1087.1693442034723,550.73267064453171,81.526851594721464,129.30386020171056,1499.9816829767331,1489.87275631581,-1454.9322376252971,1454.9322376252971,-1489.87275631581,2607.7296372496803,0.0
593523.2936376977,3712751.2368613081,-32500.0,1510.3054515255053,-952.36386010211197,-849.52342603283364,687.30116219396302,-83.608442123857969,206.3689558368539,1646.9499435360265,1514.1496210275629,-1574.362876995064,1574.362876995064,-1514.1496210275629,2889.8246075925067,0.0
598523.2936376977,3712751.2368613081,-32500.0,1585.2849965356463,-1270.7844003534499,-515.57842535478346,824.2939413134867,-293.64733850506229,299.32363157395775,1822.3454541776809,1471.9978264515687,-1641.1578386264198,1641.1578386264198,-1471.9978264515687,3241.518365802624,0.0
603523.2936376977,3712751.2368613081,-32500.0,1602.9489056483474,-1587.253001934921,-75.522359085618987,953.1714405620578,-550.98237292633542,408.32039911009946,2027.395035650773,1349.5158533015356,-1633.8869164687244,1633.8869164687244,-1349.5158533015356,3665.2041992916638,0.0
608523.2936376977,3712751.2368613081,-32500.0,1553.776550964905,-1878.5462331010888,474.22144808866318,1063.4198189346023,-854.8981924032571,532.34463544571827,2260.7507095939559,1136.681558895405,-1531.1179957028789,1531.1179957028789,-1136.681558895405,4156.6833032208006,0.0
613523.2936376977,3712751.2368613081,-32500.0,1433.5257095902148,-2117.0432000325259,1128.0936343297305,1143.2036774359563,-1200.4977506535649,668.91857435256918,2518.0613417937329,830.19230134524548,-1314.4494236998787,1314.4494236998787,-830.19230134524548,4704.7126909593089,0.0
618523.2936376977,3712751.2368613081,-32500.0,1245.5245976848239,-2273.2287842433698,1868.9053890157454,1180.5135185197882,-1577.8867583088099,813.91727528904823,2791.889496827167,436.17316981718108,-972.27102327040052,972.27102327040052,-436.17316981718108,5291.1877580393848,0.0
623523.2936376977,3712751.2368613081,-32500.0,1002.2185105319491,-2319.5052560020135,2666.5365750512537,1164.7581867199317,-1971.9107201946638,961.57966967140703,3072.0242775608185,-27.980163631554603,-503.65863268574964,503.65863268574964,27.980163631554603,5891.9297819941112,0.0
628523.2936376977,3712751.2368613081,-32500.0,725.27807512724212,-2234.8746396741808,3478.6282700974025,1088.6004107447518,-2362.7217855817316,1104.7838941533994,3346.1963402421884,-533.42883936619887,78.52366689365823,-78.52366689365823,533.42883936619887,6478.160138356714,0.0
633523.2936376977,3712751.2368613081,-32500.0,443.76773147954083,-2009.5933173430521,4253.7905672552388,949.67840451739971,-2727.3208945648958,1235.6103627886905,3601.058108952589,-1041.9859909989927,746.37813518078462,-746.37813518078462,1041.9859909989927,7018.7072285003333,0.0
638523.2936376977,3712751.2368613081,-32500.0,190.34557952574102,-1648.6032865070556,4937.2534944402114,751.77426748207824,-3041.9926406545837,1346.1492383959976,3823.0514186133,-1510.5517212508225,1458.4304791397849,-1458.4304791397849,1510.5517212508225,7482.8372311668854,0.0
643523.2936376977,3712751.2368613081,-32500.0,-3.8957056019627654,-1172.6055826139821,5478.1135107177033,505.03627849747835,-3285.2665049794491,1429.4318190995289,3998.9049614569867,-1897.2331661278515,2164.0160183867329,-2164.0160183867329,1897.2331661278515,7843.3706180194204,0.0
648523.2936376977,3712751.2368613081,-32500.0,-114.77999676607524,-616.15539552947416,5836.6720829528367,225.064926717822,-3440.8159047798636,1480.3100507083459,4116.5774155459649,-2167.8406997270476,2809.9548084131447,-2809.9548084131447,2167.8406997270476,8079.5754520986966,0.0
653523.2936376977,3712751.2368613081,-32500.0,-129.2238966140041,-22.994446476765063,5990.1655902802213,-69.023602860397801,-3499.6623928177964,1496.1058015620608,4167.3967209818729,-2301.1903553994962,3348.1082989760498,-3348.1082989760498,2301.1903553994962,8179.3268947023007,0.0
658523.2936376977,3712751.2368613081,-32500.0,-47.163550227769434,560.34008753321962,5935.5196877267144,-357.15383951069623,-3461.1823128917249,1476.8889820180684,4147.9523874495026,-2291.9121004491408,3742.057006799937,-3742.057006799937,2291.9121004491408,8140.1031906151311,0.0
663523.2936376977,3712751.2368613081,-32500.0,119.15782101042787,1091.1048477668128,5688.6337598144346,-620.89845494185658,-3332.7512584715614,1425.3440435169964,4060.4604525686468,-2150.2159750966061,3971.418126919561,-3971.418126919561,2150.2159750966061,7968.699946413768,0.0
668523.2936376977,3712751.2368613081,-32500.0,348.14972177761206,1535.6739565967061,5280.6389072193579,-845.594225550945,-3128.2028065081295,1346.2770858680753,3911.955827369758,-1898.9431267164207,4033.0597690165569,-4033.0597690165569,1898.9431267164207,7679.8037769252724,0.0
673523.2936376977,3712751.2368613081,-32500.0,613.12930328634093,1872.6483623747722,4752.2822868577214,-1021.6109848522766,-2865.5409858461112,1245.8918219738189,3712.9938112939894,-1568.8988851605143,3939.3625510122038,-3939.3625510122038,1568.8988851605143,7293.788663271318,0.0
678523.2936376977,3712751.2368613081,-32500.0,886.74995833426283,2093.5162333135077,4147.8349020155565,-1144.6745387098172,-2564.4414095296329,1130.9915395044193,3476.2719483325445,-1193.7138831321686,3714.3745329943326,-3714.3745329943326,1193.7138831321686,6834.192395725082,0.0
683523.2936376977,3712751.2368613081,-32500.0,1144.6811286653679,2201.2533420099912,3509.7276959277187,-1215.376140897172,-2244.0120401097624,1008.2502251540067,3215.3950685626714,-805.31747506948955,3389.012827220824,-3389.012827220824,805.31747506948955,6325.3031962080613,0.0
688523.2936376977,3712751.2368613081,-32500.0,1368.0203653634633,2207.610302971927,2874.6561040635042,-1238.139969514318,-1921.1150358588741,883.64924212512642,2943.7600846388741,-430.69267002616175,2996.3826699776791,-2996.3826699776791,430.69267002616175,5790.1630308584436,0.0
693523.2936376977,3712751.2368613081,-32500.0,1544.3381947358384,2129.8933012515149,2271.3860614139849,-1219.9524028513854,-1609.3606513456336,762.12092405503915,2673.1696239822263,-90.121615055849588,2567.9571980026785,-2567.9571980026785,90.121615055849588,5249.1413578827905,0.0
698523.2936376977,3712751.2368613081,-32500.0,1667.5665998529817,1987.899335837001,1720.1060995887492,-1169.1128961114471,-1318.7323963646668,647.3941021690564,2412.2634859521063,203.22667888472256,2130.9731170654004,-2130.9731170654004,-203.22667888472256,4719.1083136781872,0.0
583523.2936376977,3717751.2368613081,-32500.0,1170.7440229683161,-498.24103574696511,-972.20890657083737,431.37257691476623,102.31418503562104,85.960902562806311,1259.2307002980006,1266.0820455716193,-1218.3298250536222,1218.3298250536222,-1266.0820455716193,2186.0343953325473,0.0
588523.2936376977,3717751.2368613081,-32500.0,1282.347078292755,-743.5973530196203,-795.23630303039795,540.0821712674873,-18.452523495689569,140.92167600372366,1374.8492821761556,1300.700053648427,-1325.7852912269032,1325.7852912269032,-1300.700053648427,2404.723897001792,0.0
593523.2936376977,3717751.2368613081,-32500.0,1362.8358813518091,-1005.7888257877719,-544.99649116851094,651.4389524809402,-172.60245007996946,207.45745424766565,1512.4986974677142,1287.4307999700413,-1397.3577019650543,1397.3577019650543,-1287.4307999700413,2677.2713227652366,0.0
598523.2936376977,3717751.2368613081,-32500.0,1402.4101567651689,-1273.3489127478924,-212.6735268549975,759.91168947987728,-362.66960874717643,286.0070557376946,1673.7302122758413,1215.1827063275064,-1417.3913551003143,1417.3913551003143,-1215.1827063275064,3007.158821846147,0.0
603523.2936376977,3717751.2368613081,-32500.0,1392.5840915935776,-1530.6804926142891,206.96382566176121,858.47868009727097,-589.38587390344185,376.3322077372315,1858.4372459889378,1074.7944808503114,-1369.4822866488828,1369.4822866488828,-1074.7944808503114,3393.4653153765294,0.0
608523.2936376977,3717751.2368613081,-32500.0,1327.7386622737185,-1758.4699503489865,713.58946729858246,938.9058963490188,-850.94247072936832,477.30591176115814,2064.480593389776,860.87689214111026,-1238.2377224211466,1238.2377224211466,-860.87689214111026,3830.3673869011773,0.0
613523.2936376977,3717751.2368613081,-32500.0,1206.7731437023097,-1934.8926579395513,1299.3961937128815,992.32419050688441,-1142.3269710698921,586.74201461601501,2287.5082780145281,573.75891493703705,-1011.6134172182254,1011.6134172182254,-573.75891493703705,4307.055864700209,0.0
618523.2936376977,3717751.2368613081,-32500.0,1034.5252077166228,-2037.7052276505674,1947.6489357853561,1010.1180793742285,-1454.9003582042869,701.31489661963622,2521.0116994728469,221.15692662288416,-683.58516368545588,683.58516368545588,-221.15692662288416,4808.0177661705429,0.0
623523.2936376977,3717751.2368613081,-32500.0,822.53819676258627,-2047.117223928065,2632.2221015373857,985.0620535438195,-1776.3930097899261,816.61686353079881,2756.6462746137886,-180.91847828982679,-256.69734864124325,256.69734864124325,180.91847828982679,5313.7116545808985,0.0
628523.2936376977,3717751.2368613081,-32500.0,588.76962587835669,-1949.072133219461,3318.5815338262692,912.54957033171831,-2091.4677031605747,927.38803462647957,2984.8155505322634,-608.49116161577649,256.1317859618797,-256.1317859618797,608.49116161577649,5801.7039800022067,0.0
633523.2936376977,3717751.2368613081,-32500.0,355.99887243834831,-1738.3121250284673,3966.4443297580642,791.6798158309125,-2382.9045362147699,1027.9234409512292,3195.4064628602669,-1031.4750755082534,831.19164309408632,-831.19164309408632,1031.4750755082534,6248.2807259746969,0.0
638523.2936376977,3717751.2368613081,-32500.0,149.00533231341851,-1420.4712659526749,4533.9573689952249,625.93483231961113,-2633.3154713080366,1112.6203051721502,3378.3519933944522,-1416.9967841970101,1435.3972275683659,-1435.3972275683659,1416.9967841970101,6630.4300728926164,0.0
643523.2936376977,3717751.2368613081,-32500.0,-9.0349894266600614,-1012.5343705553074,4982.7828336686671,423.22707744907541,-2827.1421430467822,1176.5881975618317,3523.793961213938,-1733.6948864857482,2029.5883453262445,-2029.5883453262445,1733.6948864857482,6927.9702429435856,0.0
648523.2936376977,3717751.2368613081,-32500.0,-100.18060781029935,-541.33658472773936,5283.1167010035915,195.22306580697412,-2952.5687688872595,1216.2147409725255,3622.5996462430967,-1956.1450559555565,2573.2378473476315,-2573.2378473476315,1956.1450559555565,7125.4963424403531,0.0
653523.2936376977,3717751.2368613081,-32500.0,-114.54058943253369,-40.282458889801937,5417.5839542831136,-43.97237508150652,-3002.9704843588884,1229.5816884299284,3667.9919506766628,-2068.4385507262582,3029.6621722079349,-3029.6621722079349,2068.4385507262582,7213.8324592753625,0.0
658523.2936376977,3717751.2368613081,-32500.0,-51.617920976224859,455.05707864254407,5383.1680734514748,-279.52411483206805,-2977.5967607904763,1216.6487674011628,3657.0643888395689,-2066.1180702738011,3370.6371489125158,-3370.6371489125158,2066.1180702738011,7190.7246226843145,0.0
663523.2936376977,3717751.2368613081,-32500.0,80.073111272204315,911.52211299430894,5190.8609542211216,-497.62289881979416,-2881.390510955071,1179.1821985447534,3591.098735411334,-1956.1243148954436,3579.4937453156272,-3579.4937453156272,1956.1243148954436,7060.7093811911236,0.0
668523.2936376977,3717751.2368613081,-32500.0,264.90584907047588,1302.1871202083789,4863.2526119204886,-686.95589657127516,-2724.0249952056379,1120.4514684125224,3475.0045967639994,-1754.9154934826545,3652.181468726174,-3652.181468726174,1754.9154934826545,6834.2074487202754,0.0
673523.2936376977,3717751.2368613081,-32500.0,482.99269585888464,1608.7857009064719,4430.7598097935088,-839.65724003203366,-2518.4205781470928,1044.7707104316644,3316.4258835161359,-1485.3527688039924,3596.3389934125316,-3596.3389934125316,1485.3527688039924,6526.075751483535,0.0
678523.2936376977,3717751.2368613081,-32500.0,713.28682545647587,1822.5092240496983,3927.3607147646803,-951.65108167818812,-2279.0606131210047,956.97631544298963,3124.7872516722609,-1173.1246310656272,3428.8402724215875,-3428.8402724215875,1173.1246310656272,6153.8857887072563,0.0
683523.2936376977,3717751.2368613081,-32500.0,936.31233046949467,1943.351012791547,3386.6470827129733,-1022.4418731172858,-2020.4114813362723,861.93056237165308,2910.4357459452249,-843.43368546972852,3172.5279231262025,-3172.5279231262025,843.43368546972852,5736.2115169327371,0.0
688523.2936376977,3717751.2368613081,-32500.0,1136.1218203338485,1978.4241658944673,2838.7496086701403,-1054.5015415229061,-1755.6620750982918,764.11701712412503,2683.8965193490626,-518.44464310156104,2852.8430851681405,-2852.8430851681405,518.44464310156104,5291.1406789263328,0.0
693523.2936376977,3717751.2368613081,-32500.0,1301.3403308404909,1939.7706445731676,2308.3836707383971,-1052.4409982598197,-1495.8866967379713,667.36196244105747,2454.9462607499618,-215.71246485745678,2494.899135937248,-2494.899135937248,215.71246485745678,4835.1386957457435,0.0
588523.2936376977,3722751.2368613081,-32500.0,1169.9358834722238,-798.07041850212977,-545.81276890625088,516.90830314125481,-92.996010454875972,144.68520743859011,1265.3425252630539,1122.3367358643889,-1190.8358275862854,1190.8358275862854,-1122.3367358643889,2230.2772148785284,0.0
593523.2936376977,3722751.2368613081,-32500.0,1220.4606361553876,-1022.4265179664932,-293.12274339352234,606.93078184951958,-234.37071838433749,201.63072696005406,1392.8933614315902,1082.8321374348347,-1224.8838872541755,1224.8838872541755,-1082.8321374348347,2488.5370783399903,0.0
598523.2936376977,3722751.2368613081,-32500.0,1234.7340184190864,-1244.9901026298869,28.577923229851756,692.15076474942066,-404.23661893642355,267.61003019662581,1539.6338932634624,992.09748157253921,-1210.435171629699,1210.435171629699,-992.09748157253921,2793.0412965073433,0.0
603523.2936376977,3722751.2368613081,-32500.0,1207.1661707376504,-1452.3592996167918,421.3636123484078,766.89769182221346,-602.3171693893197,342.19230036998135,1704.6930194780887,844.42796710141249,-1135.17679568008,1135.17679568008,-844.42796710141249,3141.1404790705365,0.0
608523.2936376977,3722751.2368613081,-32500.0,1134.793279901485,-1628.7448343465746,882.55210934596175,824.79350064951143,-826.30971516743125,424.28000048219627,1885.639733092409,637.52707525946857,-988.29773055278838,988.29773055278838,-637.52707525946857,3526.5960111092427,0.0
613523.2936376977,3722751.2368613081,-32500.0,1018.3872127686409,-1757.0730499268993,1403.4662055279546,859.23195874314331,-1071.4896435068097,512.01516263756355,2078.4305441118026,373.80702660787495,-762.24312671562927,762.24312671562927,-373.80702660787495,3939.634205911314,0.0
618523.2936376977,3722751.2368613081,-32500.0,863.30555567843601,-1820.6667402414164,1968.6477798188689,864.04967488620287,-1330.5151261045412,602.75388236978802,2277.5190195635732,61.379831132353189,-454.58098978003579,454.58098978003579,-61.379831132353189,4367.2309916543099,0.0
623523.2936376977,3722751.2368613081,-32500.0,679.81104384675984,-1805.3770158439968,2555.8466131342161,834.32955296668786,-1593.5403128967641,693.13672089282579,2476.1478334569979,-285.57426171447241,-69.647058767077368,69.647058767077368,285.57426171447241,4793.6703777098237,0.0
628523.2936376977,3722751.2368613081,-32500.0,482.62680540973111,-1701.8751633005172,3137.0391032123898,767.22378199778791,-1848.7128035546168,779.27092034158875,2666.818187614575,-647.33277284489463,380.44037666307736,-380.44037666307736,647.33277284489463,5201.4169117991842,0.0
633523.2936376977,3722751.2368613081,-32500.0,289.62116470242796,-1507.6767001406042,3680.5659851867554,662.64249838019987,-2083.0681146194979,857.02203848730312,2841.8418650930425,-1000.1825489473981,875.782548871166,-875.782548871166,1000.1825489473981,5572.297203299082,0.0
638523.2936376977,3722751.2368613081,-32500.0,119.718771639275,-1228.4193088448696,4154.2213746725329,523.64567678517813,-2283.7428337809615,922.38706691538766,2993.6906577065461,-1318.897252282047,1389.9537924021499,-1389.9537924021499,1318.897252282047,5888.9065785996017,0.0
643523.2936376977,3722751.2368613081,-32500.0,-9.6388303507555317,-878.00231209550736,4528.8553068484316,356.41230580416368,-2439.3369472928316,971.89806944740064,3114.9338790776292,-1579.7826532455779,1892.4771418718933,-1892.4771418718933,1579.7826532455779,6136.0811481337987,0.0
648523.2936376977,3722751.2368613081,-32500.0,-84.992603996019881,-477.41927256165286,4781.8557507919113,169.74187076023685,-2541.1971124823112,1002.9916074131555,3198.5040345769789,-1763.7331244156089,2352.181761027789,-2352.181761027789,1763.7331244156089,6302.2330225419637,0.0
653523.2936376977,3722751.2368613081,-32500.0,-98.794554673393279,-52.421475833399668,4899.83522604878,-25.852099278264681,-2584.3827234210594,1014.2788287427085,3239.0178369118698,-1858.6831893864598,2740.8470625584969,-2740.8470625584969,1858.6831893864598,6380.3402330101317,0.0
658523.2936376977,3722751.2368613081,-32500.0,-50.355299847327274,369.56050274976468,4880.0036632332358,-219.30058571253372,-2568.1389697140908,1005.6699254608972,3234.0174197342558,-1860.9610842735424,3036.4410304961934,-3036.4410304961934,1860.9610842735424,6368.442649975781,0.0
663523.2936376977,3722751.2368613081,-32500.0,54.356286793278898,762.63826761481039,4730.006817985327,-400.17834461076734,-2495.8046375740819,978.33476188677423,3184.209942242348,-1775.3148653696478,3225.354879630595,-3225.354879630595,1775.3148653696478,6269.5809696803844,0.0
668523.2936376977,3722751.2368613081,-32500.0,203.94721219322628,1105.2300305982926,4466.3576154036282,-559.73378387993091,-2374.2041733893898,934.51508219967559,3093.055600807324,-1613.6983383268339,3303.2912116832063,-3303.2912116832063,1613.6983383268339,6091.2177869119569,0.0
673523.2936376977,3722751.2368613081,-32500.0,383.52911672612021,1381.9304790295669,4111.8773178299907,-691.59576570226284,-2212.6743497587117,877.23083545704401,2966.1355067094009,-1393.1707074122173,3274.7924190241097,-3274.7924190241097,1393.1707074122173,5844.2726468830106,0.0
678523.2936376977,3722751.2368613081,-32500.0,576.89814090923926,1584.2937006615232,3692.6941062834753,-792.08674774855683,-2021.9207693356934,809.93559984844956,2810.4800068944969,-1133.3954987433608,3151.6704103127413,-3151.6704103127413,1133.3954987433608,5541.9354390794279,0.0
683523.2936376977,3722751.2368613081,-32500.0,768.5481117670796,1710.5935928319579,3235.3486434959814,-860.16092638761063,-1812.9043905771643,736.17850963066917,2633.9640412780623,-854.222916267963,2950.7818907133078,-2950.7818907133078,854.222916267963,5198.4508049734895,0.0
688523.2936376977,3722751.2368613081,-32500.0,945.21883262877759,1764.8021396900074,2764.4043520877399,-897.04819950174249,-1595.9042638249136,659.31527562667293,2444.8078008791595,-573.71476587688085,2691.6110986964213,-2691.6110986964213,573.71476587688085,4828.0105489021589,0.0
598523.2936376977,3727751.2368613081,-32500.0,1083.9957883382758,-1196.3608742438425,217.38299999304917,625.11706463923667,-425.46271761229968,246.75599367525962,1417.8211069138788,801.25203889439479,-1023.5073801425059,1023.5073801425059,-801.25203889439479,2595.309830392604,0.0
603523.2936376977,3727751.2368613081,-32500.0,1045.6624650225235,-1362.1490074433818,580.17265192275272,681.31961968286191,-597.53734904363864,308.22281706407091,1564.4884142651654,653.46314538914453,-930.96062260952317,930.96062260952317,-653.46314538914453,2906.4271941711991,0.0
608523.2936376977,3727751.2368613081,-32500.0,971.11583732730708,-1497.3560268499966,996.37557631543962,722.32284999940441,-788.78637298885849,374.95138404347432,1722.8552631763596,458.316698475377,-777.51134594232531,777.51134594232531,-458.316698475377,3244.863172342014,0.0
613523.2936376977,3727751.2368613081,-32500.0,862.1666064210807,-1588.7154696785751,1457.2749635647342,743.22470558835835,-994.95783755019204,445.39901503739316,1889.3147053537525,219.30176949301347,-558.71590613331261,558.71590613331261,-219.30176949301347,3602.0679857375612,0.0
618523.2936376977,3727751.2368613081,-32500.0,724.13172738371532,-1623.7665591308071,1949.0392148293733,739.62360651923927,-1209.9168237352148,517.48165616541723,2059.2141828183089,-55.738393153575856,-274.38153119524191,274.38153119524191,55.738393153575856,3967.2293529540302,0.0
623523.2936376977,3727751.2368613081,-32500.0,565.90636669914204,-1592.4225604920196,2452.9336807220411,708.18385420065488,-1425.8005210113224,588.64159133325177,2227.1082326264191,-354.53469996483147,70.387063011072911,-70.387063011072911,354.53469996483147,4327.7257663956079,0.0
628523.2936376977,3727751.2368613081,-32500.0,399.49054747383826,-1488.5711279626576,2946.2627261759681,647.18768664264542,-1633.4338708324308,655.98818863850772,2387.1356695627292,-660.96105778531239,464.64900511072449,-464.64900511072449,660.96105778531239,4669.7970897137302,0.0
633523.2936376977,3727751.2368613081,-32500.0,238.93269100038685,-1311.4151739974045,3404.0569423942302,556.97339759792044,-1822.9984772504449,716.50578695746708,2533.4364017077942,-956.29141173055768,891.82617914222851,-891.82617914222851,956.29141173055768,4979.4143348144898,0.0
638523.2936376977,3727751.2368613081,-32500.0,98.783313813567005,-1066.2509677064311,3801.3619448279364,440.16035894385169,-1984.8953929475879,767.30973906461679,2660.3461709221447,-1221.0454253967753,1330.7598130056415,-1330.7598130056415,1221.0454253967753,5243.2881295705401,0.0
643523.2936376977,3727751.2368613081,-32500.0,-7.7117203554691933,-764.44825601624882,4115.8150371474121,301.58796706660894,-2110.6852933266669,805.91634817633656,2762.1763694957508,-1437.1646566263537,1757.5697958324142,-1757.5697958324142,1437.1646566263537,5449.9021072779024,0.0
648523.2936376977,3727751.2368613081,-32500.0,-70.353835088975615,-422.54696039204566,4330.0914847920412,147.94805231270774,-2193.9604498077369,830.4868967510364,2833.341278976055,-1590.1499917571641,2148.0728383457931,-2148.0728383457931,1590.1499917571641,5590.4403852238638,0.0
653523.2936376977,3727751.2368613081,-32500.0,-83.331715651688341,-60.573469127148563,4433.7866909178119,-12.84748238590914,-2231.0007123961195,840.00621459799095,2869.5041384135639,-1670.7661821606646,2480.366655054796,-2480.366655054796,1670.7661821606646,5659.4770091613018,0.0
658523.2936376977,3727751.2368613081,-32500.0,-45.897089742801107,300.14122894872003,4424.4006323781368,-172.46360569625679,-2221.1029437640323,834.36700567448145,2868.5992643366671,-1675.9985032567984,2737.1297560650346,-2737.1297560650346,1675.9985032567984,5655.3306039238105,0.0
663523.2936376977,3727751.2368613081,-32500.0,37.734746962445072,639.25634149170537,4307.2789907354409,-322.97152207753265,-2166.5381208192975,814.34917044676502,2830.9874654567775,-1609.1116591899017,2907.2498762854702,-2907.2498762854702,1609.1116591899017,5580.0437704736132,0.0
668523.2936376977,3727751.2368613081,-32500.0,159.19661953337746,939.43501339684099,4094.5781186440081,-457.57617437478933,-2072.1613508344362,781.50162171028421,2759.131916413286,-1478.855550687111,2986.5448524859385,-2986.5448524859385,1478.855550687111,5439.0057692409,0.0
673523.2936376977,3727751.2368613081,-32500.0,307.28674074353279,1187.7786081231811,3803.513016808588,-571.14019136086711,-1944.766843938791,737.95270688122002,2657.1414762710883,-1298.0345150684614,2977.5482702292256,-2977.5482702292256,1298.0345150684614,5240.303171857403,0.0
678523.2936376977,3727751.2368613081,-32500.0,469.50807192390863,1376.5293432035307,3454.2334778880972,-660.45068390563836,-1792.3056957322904,686.18120651197682,2530.2906077186503,-1081.7473208397635,2888.5034400126096,-2888.5034400126096,1081.7473208397635,4993.8949451549279,0.0
608523.2936376977,3732751.2368613081,-32500.0,832.76178500002936,-1369.3599127313512,1067.5929027661377,631.54145073400377,-743.88709185687446,330.09553572781613,1574.8944295891861,315.64229085485442,-601.3553935238773,601.3553935238773,-315.64229085485442,2984.6169317476683,0.0
613523.2936376977,3732751.2368613081,-32500.0,732.64129459938499,-1432.496751228294,1474.0893857435663,642.88790019913915,-917.32331946359011,386.79477455336246,1718.6116885313604,100.99108105554373,-393.82256191218767,393.82256191218767,-100.99108105554373,3293.369692307198,0.0
618523.2936376977,3732751.2368613081,-32500.0,610.70173669554947,-1447.0020772856947,1901.6260109251032,634.01912811263492,-1096.086119917831,444.2640089009484,1863.839777108494,-140.14289050793286,-133.69764959861214,133.69764959861214,140.14289050793286,3605.6408096566179,0.0
623523.2936376977,3732751.2368613081,-32500.0,474.53162397521004,-1405.7086544761748,2334.5390433616803,602.68232831598993,-1273.9099338710703,500.5545442922899,2006.2011415223042,-397.29913089917488,173.75044222307363,-173.75044222307363,397.29913089917488,3911.2875062998955,0.0
628523.2936376977,3732751.2368613081,-32500.0,333.88364918367938,-1304.6884974318207,2754.4498554715483,547.88269625281089,-1443.6717854576245,553.51058086225032,2141.1116197953834,-657.33144381916679,518.87037575996658,-518.87037575996658,657.33144381916679,4199.46216368968,0.0
633523.2936376977,3732751.2368613081,-32500.0,199.8392921366507,-1144.1440419473774,3141.5849510440221,470.16325017869224,-1597.8904470635116,600.91774776325667,2264.0990759763172,-905.408873253352,887.90472842171846,-887.90472842171846,905.408873253352,4459.2577294460834,0.0
638523.2936376977,3732751.2368613081,-32500.0,83.661322986768639,-928.8780450229043,3476.4764729954672,371.73179519159731,-1729.3429807093084,640.67954813870313,2370.8790755223094,-1126.3924038658974,1263.8567050285283,-1263.8567050285283,1126.3924038658974,4680.4361289504859,0.0
643523.2936376977,3732751.2368613081,-32500.0,-4.5031559109622581,-668.20090825367754,3741.8233637836406,256.3929475955685,-1831.7211099043598,671.00010907059152,2457.0170693414384,-1306.4036732817212,1627.8906194717915,-1627.8906194717915,1306.4036732817212,4854.1639159528067,0.0
648523.2936376977,3732751.2368613081,-32500.0,-56.853069741635842,-375.2324436170893,3924.2306699164951,129.2761808726878,-1900.2314337530329,690.54724075440129,2518.001344527554,-1434.3378383814802,1961.0910818850689,-1961.0910818850689,1434.3378383814802,4973.6651879363271,0.0
653523.2936376977,3732751.2368613081,-32500.0,-68.876556969970437,-65.675792802988724,4015.5451322146891,-3.6102519798196062,-1932.0468744006077,698.57197284425627,2550.2980529719994,-1503.0639604286864,2246.3174475685464,-2246.3174475685464,1503.0639604286864,5034.7084092499772,0.0
658523.2936376977,3732751.2368613081,-32500.0,-39.838066962955722,243.749314216941,4013.5689791674658,-135.93502263853074,-1926.5391102668943,694.96654274864602,2552.1844850222915,-1510.1090934735657,2469.8576388978668,-2469.8576388978668,1510.1090934735657,5035.8633142079843,0.0
663523.2936376977,3732751.2368613081,-32500.0,27.26546026666767,536.95900695132173,3922.0536740310949,-261.6237849960753,-1885.2612845354463,680.25375762594172,2523.8187075477995,-1457.7261336014485,2622.6241895916673,-2622.6241895916673,1457.7261336014485,4978.5001853224512,0.0
668523.2936376977,3732751.2368613081,-32500.0,126.24483700131478,799.98445163923577,3750.010163685045,-375.37790996109391,-1811.695474543742,655.51212751310925,2466.973152233003,-1352.3683160368516,2700.7318903857204,-2700.7318903857204,1352.3683160368516,4866.5420088269166,0.0
628523.2936376977,3737751.2368613081,-32500.0,281.71273358604043,-1146.160198248806,2566.9317818811023,465.54016687419022,-1277.048677729875,468.32545607658784,1924.5472986487644,-642.16656423920722,550.81617904007794,-550.81617904007794,642.16656423920722,3783.4365298945049,0.0
633523.2936376977,3737751.2368613081,-32500.0,169.38093889299725,-1001.2928358335761,2895.6364633247845,398.59212189017984,-1403.2178227123713,505.69955563791416,2028.5200753805786,-851.33297331776373,870.30319936477088,-870.30319936477088,851.33297331776373,4002.5165523331184,0.0
638523.2936376977,3737751.2368613081,-32500.0,72.604619170646174,-812.12336608790679,3179.2602346392709,315.39871842539219,-1510.6095299223339,537.03133056228853,2118.9554217726268,-1036.6549446660608,1193.4133589689111,-1193.4133589689111,1036.6549446660608,4188.9226572146008,0.0
643523.2936376977,3737751.2368613081,-32500.0,-0.7786254647954286,-586.29126636441924,3404.3103666768729,218.96404036186473,-1594.4649817268767,561.01009312898964,2192.3172168097799,-1187.3814052765865,1505.1933704338371,-1505.1933704338371,1187.3814052765865,4335.8160547895441,0.0
648523.2936376977,3737751.2368613081,-32500.0,-44.748528167437506,-334.27170899761768,3560.3419840982706,113.25014564017071,-1651.1642240679712,576.66140665551211,2244.881214057938,-1294.9333189959882,1790.7341078020256,-1790.7341078020256,1294.9333189959882,4437.9396397161718,0.0
633523.2936376977,3517751.2368613081,-37500.0,61.550474278364923,631.39183667573332,3461.1939133794294,339.48940756526804,1878.0217417803281,753.67876284165254,2373.1326354413022,-768.58000937857094,2644.1813255623706,-2644.1813255623706,768.58000937857094,4669.7163512605584,0.0
638523.2936376977,3517751.2368613081,-37500.0,-19.860552072326687,369.2295622266555,3588.4578957268627,212.81725060483987,1934.1945297523541,771.92844059036224,2413.6712046046155,-928.59454467025569,2586.153855731503,-2586.153855731503,928.59454467025569,4749.532123561612,0.0
643523.2936376977,3517751.2368613081,-37500.0,-67.422007538406319,83.905029167914577,3637.042052487931,76.180228260621888,1954.4091020289206,777.38596003618466,2425.850180702676,-1047.7768824196646,2456.2535084985025,-2456.2535084985025,1047.7768824196646,4775.4443749428574,0.0
648523.2936376977,3517751.2368613081,-37500.0,-76.375953767538945,-210.3631343372106,3600.3663369200194,-64.305569302947177,1935.9307903505505,769.18416047542212,2408.5099647570451,-1117.5779437659758,2257.9065226327748,-2257.9065226327748,1117.5779437659758,4744.802080830118,0.0
653523.2936376977,3517751.2368613081,-37500.0,-45.306330524900233,-497.86254558280831,3477.0650179960671,-201.92182927088038,1878.2243719683588,747.19464437814167,2362.155421865767,-1132.9506623498605,1999.4782897259743,-1999.4782897259743,1132.9506623498605,4657.5502119772118,0.0
658523.2936376977,3517751.2368613081,-37500.0,23.512595399144065,-762.87888768975051,3271.4097491318344,-329.94779380796763,1783.1233353370626,712.07927333475925,2289.2650006383192,-1093.0489434023505,1693.7041831945533,-1693.7041831945533,1093.0489434023505,4516.3815114094541,0.0
663523.2936376977,3517751.2368613081,-37500.0,124.27027745130846,-991.26719055216483,2993.0699184776995,-442.29151111853997,1654.7347077846807,665.25648847022774,2194.3239657802228,-1001.4018083000351,1356.5462735332335,-1356.5462735332335,1001.4018083000351,4326.6424099934948,0.0
668523.2936376977,3517751.2368613081,-37500.0,248.27312534945386,-1171.8513814082789,2656.2170725363512,-534.05593425100483,1499.0811104288912,608.7833870965577,2082.7949945252717,-865.51256569415943,1005.6347974898,-1005.6347974898,865.51256569415943,4095.9931553814949,0.0
673523.2936376977,3517751.2368613081,-37500.0,384.98946916592746,-1297.4253689591262,2278.106814416928,-601.9521390968431,1323.5308613035361,545.16948195387806,1959.4634147984989,-695.94733687739995,658.54004431187263,-658.54004431187263,695.94733687739995,3833.8609884332209,0.0
678523.2936376977,3517751.2368613081,-37500.0,523.29942518166058,-1365.2102142364122,1877.3703916409697,-644.50202685906402,1136.1058835946767,477.15068109249029,1828.400791203999,-505.07842148861948,331.14948487753509,-331.14948487753509,505.07842148861948,3550.7579014284679,0.0
683523.2936376977,3517751.2368613081,-37500.0,652.7303458546138,-1376.7324735938932,1472.2870453490002,-662.01398493220847,944.77266584847689,407.45656590475045,1693.7236438684452,-305.70535191583139,36.38841185519118,-36.38841185519118,305.70535191583139,3257.5449054571604,0.0
618523.2936376977,3522751.2368613081,-37500.0,522.09230904562787,1345.8762947850114,2883.7009478254345,731.80419755535934,1722.8248036148123,745.18457726741769,2327.7738375593017,-72.149690639347682,2606.2238546644712,-2606.2238546644712,72.149690639347682,4587.5097776620669,0.0
623523.2936376977,3522751.2368613081,-37500.0,365.07671904285047,1202.0797995390096,3225.1324970514524,652.15915370511073,1886.2314394814928,804.47191557051951,2457.4989762662381,-319.50863422964676,2775.5130481221277,-2775.5130481221277,319.50863422964676,4837.4395882452536,0.0
628523.2936376977,3522751.2368613081,-37500.0,215.04809276124192,1000.4833617557827,3524.7244578061454,546.14936788140687,2027.9523843727789,855.14577582154845,2566.7041975386778,-564.19474254282477,2881.1814701457947,-2881.1814701457947,564.19474254282477,5047.8388840832949,0.0
633523.2936376977,3522751.2368613081,-37500.0,83.978277401233868,745.47631128916726,3763.2359278317031,416.0366432775873,2139.4242265815419,894.22372995665751,2649.8606611385803,-791.17265535802881,2910.9972561188574,-2910.9972561188574,791.17265535802881,5208.6663449656535,0.0
638523.2936376977,3522751.2368613081,-37500.0,-16.535537608512815,446.32857132333777,3922.8842385574326,266.1597686478076,2212.818121722064,919.01440650768689,2702.2806189344119,-984.94877671957727,2856.7165648149653,-2856.7165648149653,984.94877671957727,5311.1769587243198,0.0
643523.2936376977,3522751.2368613081,-37500.0,-76.727746983572743,116.96457727850088,3989.3353821186502,102.81782163555104,2241.8807473868396,927.40068621953446,2720.5449595432697,-1131.2200978087503,2715.5219319121879,-2715.5219319121879,1131.2200978087503,5348.7510867438896,0.0
648523.2936376977,3522751.2368613081,-37500.0,-90.083125672057079,-224.95600451590499,3953.5782908200918,-66.127320845434113,2222.7184752799039,918.10039949643567,2702.9517728805013,-1218.6191130775953,2490.9546929979424,-2490.9546929979424,1218.6191130775953,5317.6353006598056,0.0
653523.2936376977,3522751.2368613081,-37500.0,-54.443492843035607,-559.60884240128962,3813.3439533049532,-231.91029547201364,2154.388312812267,890.85979176468106,2649.952783418717,-1240.2557240413776,2193.0945587991905,-2193.0945587991905,1240.2557240413776,5217.4846605933672,0.0
658523.2936376977,3522751.2368613081,-37500.0,27.451115051507333,-867.03626205465264,3573.7644442738133,-385.70615691900628,2039.172190198303,846.54045876358305,2564.53311821643,-1194.748677492938,1837.8562869264697,-1837.8562869264697,1194.748677492938,5051.6067885392295,0.0
663523.2936376977,3522751.2368613081,-37500.0,148.1420826184374,-1129.3196223163329,3247.0874154296557,-519.53211325786617,1882.46054235527,787.07581642802302,2452.2199043594856,-1086.5141982448424,1445.4495113731621,-1445.4495113731621,1086.5141982448424,4826.8499187695479,0.0
668523.2936376977,3522751.2368613081,-37500.0,296.35793361004608,-1332.5149046880292,2851.4475404286463,-627.05685172625078,1692.2447443263375,715.29787234247613,2319.8772989020217,-925.22482960516982,1038.2323465328902,-1038.2323465328902,925.22482960516982,4553.134097678123,0.0
673523.2936376977,3522751.2368613081,-37500.0,458.4850413286922,-1468.0092285660724,2408.8912356860055,-704.18078689276285,1478.2953698781973,634.65925125290016,2173.7670363571187,-724.53145534991825,638.32561673898556,-638.32561673898556,724.53145534991825,4242.6815852794989,0.0
678523.2936376977,3522751.2368613081,-37500.0,620.31807301762512,-1533.083374946066,1943.006227367636,-749.29870808682892,1251.166422786333,548.89644784371387,2019.3130423916746,-500.30014712756343,265.40080465751652,-265.40080465751652,500.30014712756343,3909.0542792005272,0.0
683523.2936376977,3522751.2368613081,-37500.0,768.75646553101183,-1530.6421028548293,1476.5668538824686,-763.22474548736375,1021.1918159860579,461.6884071992813,1861.8484109308879,-268.70473779322822,-65.00548171131382,65.00548171131382,268.70473779322822,3566.1270662306738,0.0
688523.2936376977,3522751.2368613081,-37500.0,893.15749833467953,-1468.2477854890121,1029.561309585556,-748.82773982240997,797.6245944938388,376.36034318250961,1706.6200005684559,-44.510329758877248,-342.44124016038006,342.44124016038006,44.510329758877248,3227.1158970031852,0.0
693523.2936376977,3522751.2368613081,-37500.0,986.1646050720326,-1356.7123938886509,617.84644824490033,-710.47409807015947,588.02499210233054,295.6685911688956,1558.3539695898303,160.20039580180503,-561.71495219751478,561.71495219751478,-160.20039580180503,2903.7504810188575,0.0
698523.2936376977,3522751.2368613081,-37500.0,1043.9659358281056,-1208.5422947782804,252.5136099052539,-653.39354136943632,397.93895381668364,221.68168581769444,1420.8592076166035,336.73838496958945,-722.41434902126673,722.41434902126673,-336.73838496958945,2605.630138218256,0.0
613523.2936376977,3527751.2368613081,-37500.0,814.49808545243241,1610.4588111160817,2604.0069166535509,923.22128547345301,1702.776790526985,787.00148485207455,2395.361840381021,313.63459180326822,2523.4128374492939,-2523.4128374492939,-313.63459180326822,4721.0586839631505,0.0
618523.2936376977,3527751.2368613081,-37500.0,639.19953031578461,1532.2343848426578,3029.0700904949931,869.9633932100113,1918.3452758872268,869.59353417391117,2568.4485011906118,45.396834988081537,2791.8569475934692,-2791.8569475934692,-45.396834988081537,5056.4643955809815,0.0
623523.2936376977,3527751.2368613081,-37500.0,455.04810733946351,1384.8780017932609,3433.4967336796453,783.4029758224633,2120.6463792315544,946.03098262541153,2726.3195001873332,-240.81038557050533,3006.9200112445856,-3006.9200112445856,240.81038557050533,5360.606144597702,0.0
628523.2936376977,3527751.2368613081,-37500.0,275.61761230260811,1166.6846735960889,3793.9577742499414,663.24822934194026,2298.6847971190041,1012.2673089392483,2861.1761706260118,-529.11857006944365,3149.6515670279073,-3149.6515670279073,529.11857006944365,5620.0173906554091,0.0
633523.2936376977,3527751.2368613081,-37500.0,116.07236653798311,881.67098317146827,4086.0501546888499,511.77960350402986,2441.1350320908209,1064.1971105664918,2965.7298520705026,-800.85525353912408,3203.5560541424852,-3203.5560541424852,800.85525353912408,5821.5837179028867,0.0
638523.2936376977,3527751.2368613081,-37500.0,-8.4796090133353257,540.28402492031273,4286.667696758459,334.11891412285416,2537.4011957402627,1098.0337692291023,3033.6828372696632,-1036.2167036984711,3156.8879526779792,-3156.8879526779792,1036.2167036984711,5953.6430521705142,0.0
643523.2936376977,3527751.2368613081,-37500.0,-84.982896673142221,159.29669538438048,4376.7241978918082,138.15087910818625,2578.8142807319728,1110.7284652529981,3060.3177153406991,-1216.4754471243261,3004.7486318550436,-3004.7486318550436,1216.4754471243261,6007.1519527451974,0.0
648523.2936376977,3527751.2368613081,-37500.0,-104.45614894797082,-239.28794539180439,4343.8111585237266,-65.971547489124816,2559.7886638448467,1100.3690597812838,3043.1243964387586,-1326.4154639839808,2750.5428417265753,-2750.5428417265753,1326.4154639839808,5976.7623462383408,0.0
653523.2936376977,3527751.2368613081,-37500.0,-63.626553085518573,-630.30611974587407,4184.2815899404441,-266.72741590241776,2478.724083295956,1066.4865628073574,2982.3970931097842,-1356.5565254525782,2406.3955340801899,-2406.3955340801899,1356.5565254525782,5861.6354150561929,0.0
658523.2936376977,3527751.2368613081,-37500.0,34.221756148200321,-988.22046032505648,3904.2818380856752,-452.42601864701999,2338.4529722571706,1010.2024526721185,2881.7194458381782,-1304.6932871127026,1992.297731572268,-1992.297731572268,1304.6932871127026,5665.8356202303667,0.0
663523.2936376977,3527751.2368613081,-37500.0,179.44568746084218,-1290.156142656175,3519.4258157444301,-612.51060659070765,2146.105283636939,934.1748882968119,2747.9704575658047,-1176.3736091082385,1534.0184291899748,-1534.0184291899748,1176.3736091082385,5398.2055262020349,0.0
668523.2936376977,3527751.2368613081,-37500.0,357.31111254590871,-1518.6096839225909,3053.0924583687301,-738.73113614145132,1912.3803762571856,842.34102492844579,2589.9269901185453,-984.16378611520361,1060.1161904957098,-1060.1161904957098,984.16378611520361,5071.7107362043862,0.0
673523.2936376977,3527751.2368613081,-37500.0,550.08747860716585,-1663.3053615096683,2533.6447571366862,-825.96849085739257,1650.3475673956432,739.49688068336195,2415.9014950073633,-745.83631622869439,598.60969293031758,-598.60969293031758,745.83631622869439,4702.3439156304175,0.0
678523.2936376977,3527751.2368613081,-37500.0,739.5257918218241,-1721.8773536858562,1991.1067741543873,-872.57310920574116,1373.9963707758509,630.78912222150507,2233.1519721675909,-481.86863164068154,173.93521137015213,-173.93521137015213,481.86863164068154,4307.7495056302232,0.0
683523.2936376977,3527751.2368613081,-37500.0,909.20650321297012,-1699.3415787798074,1453.9286906602331,-880.19429823839619,1096.8009074763067,521.20820748173605,2048.596374421008,-212.78001106660716,-195.2810300600415,195.2810300600415,212.78001106660716,3905.7706439767339,0.0
688523.2936376977,3527751.2368613081,-37500.0,1046.3268987181091,-1606.5949735395573,946.3806150648611,-853.18888088710492,830.53094806972399,415.1627394624042,1868.8092930719815,43.18797936121004,-497.34781208257414,497.34781208257414,-43.18797936121004,3513.0977693444556,0.0
693523.2936376977,3527751.2368613081,-37500.0,1142.6841401749464,-1458.3532039699303,486.90655886026548,-797.7715017666369,584.45946408982297,316.18772801924803,1699.4897890240222,271.69233367061076,-727.51959170754697,727.51959170754697,-271.69233367061076,3144.140843299806,0.0
698523.2936376977,3527751.2368613081,-37500.0,1194.8297465022297,-1270.9780114559724,87.514736198080783,-721.09082015263414,365.01267153747665,226.80535272042036,1544.975148486059,463.07096919073297,-887.1124525644093,887.1124525644093,-463.07096919073297,2810.175047592953,0.0
703523.2936376977,3527751.2368613081,-37500.0,1203.5470664499037,-1060.5649779866776,-245.93686019084276,-630.38913755619888,175.81575886240989,148.52487603514118,1407.9677267071093,612.34738758197875,-982.06974903451407,982.06974903451407,-612.34738758197875,2518.7570195708076,0.0
708523.2936376977,3527751.2368613081,-37500.0,1172.9008862713818,-841.51976669676719,-512.82693378314127,-532.34867011553501,18.030368797443561,81.948455663753805,1289.4876654995321,718.65312828026549,-1021.3353250336133,1021.3353250336133,-718.65312828026549,2273.4189631621985,0.0
603523.2936376977,3532751.2368613081,-37500.0,1291.6675429002673,1727.1091962264438,1716.0950310265553,1080.3641259829467,1350.4617235860887,697.79823900490805,2202.5699253794783,975.23771642385225,1909.6083416631495,-1909.6083416631495,-975.23771642385225,4325.0887807685331,0.0
608523.2936376977,3532751.2368613081,-37500.0,1156.7230970406745,1796.2447878195812,2175.2156616596017,1099.1678555974702,1604.1386756276822,802.46344947932448,2413.3479389552563,764.90685991977307,2282.144669552993,-2282.144669552993,-764.90685991977307,4748.4119901959803,0.0
613523.2936376977,3532751.2368613081,-37500.0,985.45778189380121,1805.1746889192179,2661.4804756022536,1085.9917114540297,1867.5577285511229,909.45239528987065,2626.8981387457452,505.04270048703552,2643.6373321039873,-2643.6373321039873,-505.04270048703552,5169.1036180761803,0.0
618523.2936376977,3532751.2368613081,-37500.0,785.9467231439238,1741.1069103286834,3156.0532901979659,1035.2331714689788,2130.8726525325951,1014.7970827011409,2834.8952909882041,203.53027884640414,2972.4224404765996,-2972.4224404765996,-203.53027884640414,5573.0346892558327,0.0
623523.2936376977,3532751.2368613081,-37500.0,570.7149403825066,1594.5096016781974,3634.6164466128412,942.96474553817222,2381.7878087109116,1113.6720828238629,3027.5034951186344,-126.21788730416392,3244.3438911174467,-3244.3438911174467,126.21788730416392,5944.1061003780278,0.0
628523.2936376977,3532751.2368613081,-37500.0,356.25822347096266,1361.1798217556741,4068.4823501008882,807.83919244249648,2606.1373143972301,1200.6315217602289,3194.6323279535059,-465.41751269778615,3434.8261492922238,-3434.8261492922238,465.41751269778615,6265.0754514123255,0.0
633523.2936376977,3532751.2368613081,-37500.0,161.74531974489028,1044.1283917789017,4426.7184425749738,631.89222803939163,2788.912643650719,1270.0041616573269,3326.640345704559,-790.97945336222847,3521.6559575206252,-3521.6559575206252,790.97945336222847,6518.7511139876669,0.0
638523.2936376977,3532751.2368613081,-37500.0,6.8967780424713521,654.83280981285634,4679.2290225030592,421.05167382184823,2915.7038077992152,1316.4295550393697,3415.0148605187001,-1077.5797751989064,3488.1646828013036,-3488.1646828013036,1077.5797751989064,6689.4880315660939,0.0
643523.2936376977,3532751.2368613081,-37500.0,-90.747041333204166,213.39978954717466,4800.4804367249008,185.16107453066084,2974.4079705930899,1335.4805328695372,3453.1952583469988,-1300.6013345707859,3326.2874830129776,-3326.2874830129776,1300.6013345707859,6764.8361726139265,0.0
648523.2936376977,3532751.2368613081,-37500.0,-118.72066888670017,-252.68999147303521,4773.288900906613,-62.615375258910362,2956.9475309433133,1324.2789115086114,3437.4622179165267,-1439.5428644566935,3038.8358383474697,-3038.8358383474697,1439.5428644566935,6737.119007168596,0.0
653523.2936376977,3532751.2368613081,-37500.0,-72.069800785970386,-711.30317321957489,4591.9076730849283,-307.02142329313239,2860.6626843961158,1281.9870110363215,3367.7750356508568,-1481.2540708943684,2640.3376370792344,-2640.3376370792344,1481.2540708943684,6604.6711738894001,0.0
658523.2936376977,3532751.2368613081,-37500.0,45.306585416025541,-1129.5068608852841,4263.6534151124424,-532.42531162102443,2689.0474350075274,1210.0600546311598,3248.4195099922244,-1422.2578480639347,2156.0306669794745,-2156.0306669794745,1422.2578480639347,6372.4784991637016,0.0
663523.2936376977,3532751.2368613081,-37500.0,220.84897774593546,-1477.8598561600561,3808.5626414190174,-724.7291275122534,2451.6075283519535,1112.1845332852577,3088.0446595579206,-1269.5460077354685,1619.0145876488107,-1619.0145876488107,1269.5460077354685,6052.0538878059615,0.0
668523.2936376977,3532751.2368613081,-37500.0,435.12994751738592,-1734.2522891593383,3257.01087429073,-873.09262614803629,2162.805577991182,993.89112701546242,2898.0504288697011,-1039.577779805586,1066.0440986940175,-1066.0440986940175,1039.577779805586,5660.5139006091149,0.0
673523.2936376977,3532751.2368613081,-37500.0,664.87583418287352,-1886.4733139386262,2645.7482190590081,-971.11964690072352,1840.2848000804024,861.90989689015055,2689.6182611474937,-755.6777363548365,532.82582398751424,-532.82582398751424,755.6777363548365,5218.9929802552342,0.0
678523.2936376977,3532751.2368613081,-37500.0,886.51478478460331,-1933.0167262971986,2013.1924481924671,-1017.2891404586015,1502.731539437106,723.39285565234616,2472.5265506994274,-444.44585466913901,49.79574889737188,-49.79574889737188,444.44585466913901,4750.6521628222372,0.0
683523.2936376977,3532751.2368613081,-37500.0,1079.4506808212404,-1882.1071001219043,1394.9513855520543,-1014.6086038834505,1167.800802363505,585.15296079930238,2255.7725539647204,-132.00515193886901,-360.82912061747481,360.82912061747481,132.00515193886901,4278.5945844320941,0.0
688523.2936376977,3532751.2368613081,-37500.0,1228.4166184325554,-1749.3635555589256,820.3836549629882,-969.65197431906415,850.46837536909379,453.04882131617842,2047.57416358044,159.14149365209585,-686.32927425777734,686.32927425777734,-159.14149365209585,3823.9630326418296,0.0
693523.2936376977,3532751.2368613081,-37500.0,1324.5888709085907,-1554.7718186559543,310.63712093335562,-891.25786241286448,562.02124609319219,331.59366211162086,1854.7231465015579,412.14678175796735,-923.15099900437417,923.15099900437417,-412.14678175796735,3404.3883453087096,0.0
698523.2936376977,3532751.2368613081,-37500.0,1365.4956827925887,-1319.6545231567507,-121.80460407928915,-789.18263063298184,309.72285691231008,223.80633702949598,1681.9954539579053,616.60281448194007,-1075.3675483884581,1075.3675483884581,-616.60281448194007,3032.8465858513973,0.0
703523.2936376977,3532751.2368613081,-37500.0,1354.0182922355016,-1064.1638281385606,-472.35985401049629,-672.94215227647771,97.045434543928081,131.27127506096005,1531.8718808719702,768.23932581592589,-1152.4946613849311,1152.4946613849311,-768.23932581592589,2716.9302162410518,0.0
708523.2936376977,3532751.2368613081,-37500.0,1296.893666153989,-805.5676118950812,-742.82203912996067,-550.97504696396777,-75.717046204774391,54.344125824440233,1404.5971647001693,867.88137802713629,-1167.1932085557589,1167.1932085557589,-867.88137802713629,2458.5888145323215,0.0
713523.2936376977,3532751.2368613081,-37500.0,1203.1078149073523,-557.36510184759311,-939.52364364591165,-430.16062812905187,-210.65362919690079,-7.5666401458716237,1298.5450418893327,920.05218767992494,-1133.2485242284658,1133.2485242284658,-920.05218767992494,2254.5021518215485,0.0
598523.2936376977,3537751.2368613081,-37500.0,1604.7645579667137,1706.1545338480487,1158.7930599733083,1169.0357760790673,1146.685953106766,663.24756355548186,2146.5214012685697,1391.625442561603,1460.9157723887529,-1460.9157723887529,-1391.625442561603,4176.4751796137916,0.0
603523.2936376977,3537751.2368613081,-37500.0,1517.3003272904045,1862.7629863390848,1615.5888264028513,1236.1593742515497,1421.1695117773272,784.41775931691768,2379.7101152549803,1241.4555844000693,1875.7564947601172,-1875.7564947601172,-1241.4555844000693,4655.3096120687669,0.0
608523.2936376977,3537751.2368613081,-37500.0,1379.6516645354125,1971.3820353853507,2127.0636214903525,1274.7829435467743,1720.5335465235128,914.08619455899941,2625.5313259288387,1026.6441610280353,2308.0519885094159,-2308.0519885094159,-1026.6441610280353,5151.5345423641702,0.0
613523.2936376977,3537751.2368613081,-37500.0,1194.4378806633042,2013.7256108051347,2679.814756716688,1276.1628840150997,2036.7866341222427,1048.6776431882442,2878.2601805184686,748.09530733368558,2737.4771255890823,-2737.4771255890823,-748.09530733368558,5651.6056481502828,0.0
618523.2936376977,3537751.2368613081,-37500.0,969.71360908723614,1972.3202737566369,3252.9657702597415,1232.2179032385372,2358.3079454956678,1183.2397989555993,3128.4372287363826,412.91220070048826,3138.2172604944117,-3138.2172604944117,-412.91220070048826,6138.515577738468,0.0
623523.2936376977,3537751.2368613081,-37500.0,719.548850499384,1832.9861025695222,3818.0437341680554,1136.6983949314999,2669.8933100288486,1311.5020699168369,3363.9566022959566,35.461408743021593,3480.2712830590717,-3480.2712830590717,-35.461408743021593,6592.243159724344,0.0
628523.2936376977,3537751.2368613081,-37500.0,463.75356380895374,1587.7145677266401,4340.0135470269706,986.50602046312247,2953.3542396749572,1426.1443184631764,3571.8099470663074,-362.39983100206314,3731.9185475921149,-3731.9185475921149,362.39983100206314,6990.7159488580519,0.0
633523.2936376977,3537751.2368613081,-37500.0,226.45238246904114,1237.4914991149726,4779.7543171761017,782.95526278912507,3188.7869072689282,1519.3126021875871,3739.2160007809171,-752.33116188918461,3863.3194803671431,-3863.3194803671431,752.33116188918461,7311.3310278108602,0.0
638523.2936376977,3537751.2368613081,-37500.0,33.403575734184521,794.41721760654912,5098.0128510499926,532.68778731820646,3356.5124588129402,1583.3750758725009,3854.6033227638823,-1101.9916910540057,3850.9011451822134,-3850.9011451822134,1101.9916910540057,7532.9789172971186,0.0
643523.2936376977,3537751.2368613081,-37500.0,-91.724282622655537,282.3942887705611,5260.4876036003761,247.92066953142341,3439.5168530788292,1611.8486963869359,3908.7773121419045,-1378.9242231848671,3681.8188458648024,-3681.8188458648024,1378.9242231848671,7638.3840927586598,0.0
648523.2936376977,3537751.2368613081,-37500.0,-131.51232550479813,-264.21136798021723,5243.2479404535497,-54.22623897954773,3426.0191908606994,1600.3572275547522,3896.2003705622328,-1555.3331564701098,3357.4986898548837,-3357.4986898548837,1555.3331564701098,7616.4363904690244,0.0
653523.2936376977,3537751.2368613081,-37500.0,-78.455347112352882,-804.12706469704369,5037.3447924482971,-353.39944405449904,3311.6454009512458,1547.4292809512758,3816.197706558642,-1612.8243785875352,2895.219808706735,-2895.219808706735,1612.8243785875352,7464.0961528626149,0.0
658523.2936376977,3537751.2368613081,-37500.0,62.893070812793589,-1294.5365183446602,4651.3986273322053,-628.49156651293094,3100.6553196196619,1454.9379977978083,3673.8659044793185,-1545.9508129339838,2326.9964120901132,-2326.9964120901132,1545.9508129339838,7187.4498962659427,0.0
663523.2936376977,3537751.2368613081,-37500.0,276.05123959068789,-1697.2181631204608,4111.2935136418882,-860.47619805537772,2805.8251160666646,1328.0411189384581,3480.1888277532553,-1363.5435789145336,1695.669288075906,-1695.669288075906,1363.5435789145336,6801.6174574552451,0.0
668523.2936376977,3537751.2368613081,-37500.0,535.1702924664587,-1984.0629037593701,3456.817370427932,-1034.9824140977771,2446.9039879828042,1174.5939815367594,3250.1835301021133,-1087.34409583858,1048.9149862130425,-1048.9149862130425,1087.34409583858,6329.4402548305288,0.0
673523.2936376977,3537751.2368613081,-37500.0,809.45173343716931,-2140.6653027642001,2735.9373841228735,-1144.0264401394631,2047.9439826588018,1004.1437934197227,2999.0827869123364,-748.21958124663172,432.51803369365155,-432.51803369365155,748.21958124663172,5799.1497197067329,0.0
678523.2936376977,3537751.2368613081,-37500.0,1068.2913895996096,-2167.2311813374527,1998.0560432594559,-1186.5486846736626,1634.1032573475179,826.72208775456147,2740.1788649907653,-380.94444143541273,-115.54698632512017,115.54698632512017,380.94444143541273,5241.4375249030345,0.0
683523.2936376977,3537751.2368613081,-37500.0,1285.8756271687828,-2076.8371074546794,1287.7727250110145,-1167.7455712651936,1228.6179733162824,651.68815787073913,2485.2142740073568,-18.865760606746107,-569.01087534541853,569.01087534541853,18.865760606746107,4686.4222072144194,0.0
688523.2936376977,3537751.2368613081,-37500.0,1444.2570004427594,-1891.7814066050596,640.36333257823082,-1097.4967468277446,850.51531139132851,486.83592810659491,2244.4101972770304,310.36077433020301,-914.65506665182807,914.65506665182807,-310.36077433020301,4160.9340640306318,0.0
693523.2936376977,3537751.2368613081,-37500.0,1534.5085619693714,-1639.1300072113322,79.548261444077255,-988.36200818469183,513.36326307829222,337.88019994849776,2025.7006353510337,587.26813531776827,-1151.3234227255198,1151.3234227255198,-587.26813531776827,3686.3569537688722,0.0
698523.2936376977,3537751.2368613081,-37500.0,1556.1335586841401,-1346.5126467323105,-382.55407502964761,-853.61965930689621,225.05053446461221,208.32883272200633,1834.0429579569648,801.20969436526821,-1287.3345503615201,1287.3345503615201,-801.20969436526821,3277.0942443636086,0.0
703523.2936376977,3537751.2368613081,-37500.0,1515.2869372730224,-1038.8917876475921,-743.85355870463536,-705.68839562841526,-11.63058554432933,99.665864777219568,1671.1965071945897,949.49433844816463,-1337.1997630800518,1337.1997630800518,-949.49433844816463,2939.7099339364627,0.0
708523.2936376977,3537751.2368613081,-37500.0,1422.4751254025946,-736.59466833037629,-1009.839261796168,-555.09161400348853,-197.92458225359437,11.729447804521225,1536.0200983463681,1035.6201774230528,-1318.4292167741448,1318.4292167741448,-1035.6201774230528,2672.9379479451936,0.0
713523.2936376977,3537751.2368613081,-37500.0,1290.2992225195665,-454.54040713382386,-1190.9278674997843,-409.96307488684363,-337.88869944903439,-56.831036146018285,1425.2029383273684,1067.1958375493768,-1248.9278668458542,1248.9278668458542,-1067.1958375493768,2468.8556352250998,0.0
718523.2936376977,3537751.2368613081,-37500.0,1131.6019929948525,-202.38266491449849,-1300.0818935385576,-275.99011511460316,-437.23754319759348,-108.10895235385577,1334.2340097843432,1053.9920011100967,-1145.1876819811978,1145.1876819811978,-1053.9920011100967,2315.232707509349,0.0
593523.2936376977,3542751.2368613081,-37500.0,1864.8309156956643,1545.9212069372938,551.86140706678157,1193.0252669511356,882.21990423948978,596.49158670449549,2050.2890367222526,1747.8575796401251,903.40744120457657,-903.40744120457657,-1747.8575796401251,3929.6009458634085,0.0
598523.2936376977,3542751.2368613081,-37500.0,1849.9427433464919,1779.3316896644719,966.00760641811405,1309.9566772641085,1158.5314440781999,728.33338135582107,2296.2645414023891,1686.6549850112624,1321.9346313687552,-1321.9346313687552,-1686.6549850112624,4440.7800618183337,0.0
603523.2936376977,3542751.2368613081,-37500.0,1777.8504381965681,1985.6706715857417,1457.2857056880175,1406.8828264349875,1474.5080298063888,875.549142952701,2563.7358830903072,1554.6183033888431,1787.0023882545527,-1787.0023882545527,-1554.6183033888431,4991.6737775625952,0.0
608523.2936376977,3542751.2368613081,-37500.0,1643.9580487974426,2144.0512073422574,2020.8918738878913,1472.9150537902774,1825.9307220883627,1035.7806061808731,2849.793876401835,1344.1711019696386,2283.8539248696588,-2283.8539248696588,-1344.1711019696386,5571.5862706904163,0.0
613523.2936376977,3542751.2368613081,-37500.0,1448.7086205088683,2231.2296798964808,2644.0499655805611,1496.3194446504394,2204.3432617764051,1204.9250139040489,3148.5884548630888,1052.9719043083901,2790.0686694997803,-2790.0686694997803,-1052.9719043083901,6165.1550624618885,0.0
618523.2936376977,3542751.2368613081,-37500.0,1199.3168200667862,2223.7535104985632,3304.3906882722904,1465.6326493314909,2596.3564364445756,1376.910021728256,3449.5872143000979,686.1569160515437,3275.4471525955037,-3275.4471525955037,-686.1569160515437,6752.1629851340595,0.0
623523.2936376977,3542751.2368613081,-37500.0,910.98941855167118,2101.1046419071367,3969.1972099004561,1371.223070864517,2983.4155346640505,1543.6635831240005,3738.1101884644172,258.22520783881987,3703.1644190131947,-3703.1644190131947,-258.22520783881987,7307.8757153137458,0.0
628523.2936376977,3542751.2368613081,-37500.0,607.09741811674155,1849.6292869464266,4596.1222503851168,1207.1833978565171,3342.3115948311706,1695.3820734228943,3997.4824881646255,-206.03585693928858,4032.5663863709588,-4032.5663863709588,206.03585693928858,7804.0943898209844,0.0
633523.2936376977,3542751.2368613081,-37500.0,317.7724916697768,1466.6981553380504,5135.9122290060377,973.28410908109186,3646.6757217752292,1821.1779686484028,4210.7471047859908,-672.2458535062608,4223.7273562800792,-4223.7273562800792,672.2458535062608,8211.0455274397518,0.0
638523.2936376977,3542751.2368613081,-37500.0,76.618335649711071,964.18399545040052,5537.3768168671559,676.56079018299215,3869.5490906423188,1910.1314395894315,4362.0985784291379,-1099.2577745960284,4243.4345725164385,-4243.4345725164385,1099.2577745960284,8500.0980932048315,0.0
643523.2936376977,3542751.2368613081,-37500.0,-84.318652173649639,370.11451074987775,5754.2828217731721,332.01192005367506,3986.8544766540122,1952.6677051097981,4438.5531015952056,-1444.2056445581104,4071.6743474478417,-4071.6743474478417,1444.2056445581104,8647.0864975269269,0.0
648523.2936376977,3542751.2368613081,-37500.0,-140.53753306970299,-272.54818037582282,5753.125149479456,-38.06486986293487,3981.2569772725305,1942.0587333237509,4431.8217751325701,-1669.1883080666107,3707.1528117902194,-3707.1528117902194,1669.1883080666107,8635.7838566330793,0.0
653523.2936376977,3542751.2368613081,-37500.0,-80.639436216669637,-910.50194769295388,5520.0654539518919,-406.31754331944842,3845.5946168159921,1875.7365712492904,4340.0940748065786,-1748.2592519776754,3170.1652244236084,-3170.1652244236084,1748.2592519776754,8460.8708048439858,0.0
658523.2936376977,3542751.2368613081,-37500.0,90.206676396786037,-1487.6123739547363,5065.0864999963078,-743.94823197936819,3584.9498429482906,1756.0710442399791,4169.3710424570354,-1672.9027722759486,2501.4963544073398,-2501.4963544073398,1672.9027722759486,8129.698831399669,0.0
663523.2936376977,3542751.2368613081,-37500.0,350.20576407615283,-1953.8020879291673,4421.8547196508362,-1024.983800781964,3216.6378154911263,1590.3424625038499,3933.7392984848598,-1454.2814002163923,1757.0348211787027,-1757.0348211787027,1454.2814002163923,7662.306613248038,0.0
668523.2936376977,3542751.2368613081,-37500.0,664.63453487619574,-2273.0989260772417,3642.9289868680162,-1230.1886985978815,2767.9218735884892,1389.8410709472189,3653.2369670257467,-1121.3672173630266,999.13254491367297,-999.13254491367297,1121.3672173630266,7089.5336334867643,0.0
673523.2936376977,3542751.2368613081,-37500.0,992.39443954661829,-2428.7191495968127,2791.3857264687495,-1349.63246024113,2271.9356569415731,1168.2717185444185,3348.8752796954191,-715.3627909945335,286.85294974987869,-286.85294974987869,715.3627909945335,6449.5371244079834,0.0
678523.2936376977,3542751.2368613081,-37500.0,1293.5664267822876,-2423.9955494248975,1931.0366823646616,-1383.3315410902499,1762.8260526084521,939.84444778071918,3038.9201064565141,-282.01180366100624,-332.40698758694515,332.40698758694515,282.01180366100624,5783.400695907736,0.0
683523.2936376977,3542751.2368613081,-37500.0,1535.9039100284599,-2279.3178471849878,1117.6872479326678,-1339.9939234196206,1271.2879217593029,717.49422227657442,2738.759109103647,136.05287869069554,-828.0339675826624,828.0339675826624,-136.05287869069554,5130.6497303507331,0.0
688523.2936376977,3542751.2368613081,-37500.0,1698.7916124031567,-2026.4109028741027,393.2544378770433,-1234.432261370019,821.39703844828432,511.58210078547324,2460.9891990481742,505.0813609056413,-1187.3844401206129,1187.3844401206129,-505.0813609056413,4525.3198049515222,0.0
693523.2936376977,3542751.2368613081,-37500.0,1774.2136375710472,-1701.7786220973201,-216.56404823369076,-1084.4688016056166,429.13900874332165,329.24397582527041,2214.5633766319579,803.15002349758174,-1413.5957949368074,1413.5957949368074,-803.15002349758174,3992.9149509751892,0.0
698523.2936376977,3542751.2368613081,-37500.0,1765.2204365184521,-1340.9246263865421,-701.472602791447,-908.09125212820766,102.51006878589358,174.35755546470324,2004.0554564963213,1020.3332162981801,-1521.3394147106351,1521.3394147106351,-1020.3332162981801,3548.3657550251532,0.0
703523.2936376977,3542751.2368613081,-37500.0,1682.9060029331411,-974.30394221025017,-1063.6715966452891,-721.34379903865192,-157.26930813485373,47.96485507455106,1829.6527592663972,1156.8574426788746,-1531.9639086769716,1531.9639086769716,-1156.8574426788746,3195.1908213168149,0.0
708523.2936376977,3542751.2368613081,-37500.0,1542.958720035625,-625.23872358285462,-1314.0602133517555,-537.11444009050365,-353.98776072593711,-51.05920309142298,1687.9404582375282,1220.2383240725947,-1469.1453957038277,1469.1453957038277,-1220.2383240725947,2926.3422719064265,0.0
713523.2936376977,3542751.2368613081,-37500.0,1362.5773335969491,-309.50604942699272,-1468.5117361586081,-364.72914905816361,-494.60243450289249,-125.27987515947534,1573.2445248700014,1222.2753082076661,-1355.6449933677286,1355.6449933677286,-1222.2753082076661,2727.0656131697428,0.0
718523.2936376977,3542751.2368613081,-37500.0,1158.1698353156239,-36.065046574096421,-1544.8001575174085,-210.13271833495475,-587.63687969164664,-178.04697381598979,1479.1146614230231,1176.4761409278826,-1211.3105863359083,1211.3105863359083,-1176.4761409278826,2579.1643708726097,0.0
723523.2936376977,3542751.2368613081,-37500.0,943.92838413543632,191.6218840169351,-1560.3986135085822,-76.411265794055609,-641.96253497808891,-212.97734832449675,1399.5254396283672,1096.1664725132434,-1052.1594452585875,1052.1594452585875,-1096.1664725132434,2465.1237085121397,0.0
588523.2936376977,3547751.2368613081,-37500.0,2025.039852063431,1248.8270925344964,-48.222885246142582,1139.4837006580058,576.07320126972172,499.39758602426485,1924.3879919432115,1989.7602799667839,286.12545487690784,-286.12545487690784,-1989.7602799667839,3610.0558270200859,0.0
593523.2936376977,3547751.2368613081,-37500.0,2099.6698899229937,1534.4626020193991,286.25489124953458,1300.3628593475955,832.75178482483716,633.7677528986635,2170.6482427737897,2035.5714239431577,664.93326767508006,-664.93326767508006,-2035.5714239431577,4122.6251157686193,0.0
598523.2936376977,3547751.2368613081,-37500.0,2120.0270060379139,1819.2687821131071,710.30648930629116,1454.0161038959598,1140.7423126485992,790.03736217605331,2446.6326780008053,2016.2757201845457,1113.9410166660518,-1113.9410166660518,-2016.2757201845457,4696.4726090505565,0.0
603523.2936376977,3547751.2368613081,-37500.0,2074.3613174326806,2083.8374615310368,1229.0935556069617,1589.2301824196777,1500.9860732812899,967.83463416106076,2751.6149268782269,1916.5206868222517,1627.3576931209759,-1627.3576931209759,-1916.5206868222517,5326.0246478906793,0.0
608523.2936376977,3547751.2368613081,-37500.0,1954.0036407037915,2303.4720045452532,1841.2283150218782,1692.3282295550066,1910.5013434140762,1165.0028732342973,3083.1732050977653,1723.5706446812112,2191.2879466892609,-2191.2879466892609,-1723.5706446812112,6000.515073976062,0.0
613523.2936376977,3547751.2368613081,-37500.0,1755.8402375362414,2449.2166116442168,2535.9530060965744,1747.8305856561765,2360.9811585767543,1377.0625596522782,3435.6179642259835,1430.1399750399194,2781.9991004895828,-2781.9991004895828,-1430.1399750399194,6703.0556582865865,0.0
618523.2936376977,3547751.2368613081,-37500.0,1484.9336066918117,2490.188256603587,3290.4842484104115,1739.7562312249606,2837.5411976226724,1596.7628307087803,3797.5303358078208,1037.6220652108802,3365.0494948474015,-3365.0494948474015,-1037.6220652108802,7410.0535493897187,0.0
623523.2936376977,3547751.2368613081,-37500.0,1156.7328996505432,2397.4169251444059,4068.224648328423,1653.6408991676517,3317.9743477062934,1813.8652029240659,4151.4144001252262,559.17444230396995,3895.9718279239241,-3895.9718279239241,-559.17444230396995,8091.269462394137,0.0
628523.2936376977,3547751.2368613081,-37500.0,798.08634267985553,2149.0831353931394,4818.7525968177633,1479.1933960293607,3772.9624424225235,2015.3329528934125,4476.0648354174664,21.819705596674339,4323.1965174410107,-4323.1965174410107,-21.819705596674339,8710.8412407440555,0.0
633523.2936376977,3547751.2368613081,-37500.0,446.17237898882053,1736.5328286734502,5480.528636218959,1213.2683301297416,4167.6943291735961,2186.0915797380426,4749.004581453939,-533.48176480202574,4593.6309748616823,-4593.6309748616823,533.48176480202574,9229.5403794895356,0.0
638523.2936376977,3547751.2368613081,-37500.0,144.66155851406543,1169.8359607634327,5986.9411674253879,862.55003279634161,4465.1748674230666,2310.4556186586292,4948.5591089074242,-1054.7585627855055,4660.6973942154127,-4660.6973942154127,1054.7585627855055,9608.3612784642501,0.0
643523.2936376977,3547751.2368613081,-37500.0,-62.970873200889336,481.14058810413746,6275.5504026818344,445.10669440735791,4631.1261227030245,2374.1642848829706,5056.260399672954,-1485.415290901115,4493.7053452708933,-4493.7053452708933,1485.415290901115,9813.2299927087934,0.0
648523.2936376977,3547751.2368613081,-37500.0,-142.05276448545274,-275.99049786083003,6299.2247765316633,-10.044900976421596,4639.8081239072862,2366.747468720429,5059.6248889492854,-1773.5244581740158,4086.4390581249859,-4086.4390581249859,1773.5244581740158,9820.2102634496168,0.0
653523.2936376977,3547751.2368613081,-37500.0,-75.203123956298427,-1032.3843979224073,6036.6527494994534,-465.89343481448543,4479.4931788284339,2283.7185823242021,4954.8627530729364,-1882.1817362575048,3462.24570350862,-3462.24570350862,1882.1817362575048,9620.1925385745799,0.0
658523.2936376977,3547751.2368613081,-37500.0,132.00342964173123,-1713.8107898632179,5499.0689108437646,-882.71491256667309,4156.0098338155813,2127.9742360044097,4748.9175084209674,-1798.0609127652356,2673.270009054188,-2673.270009054188,1798.0609127652356,9221.8782067602388,0.0
663523.2936376977,3547751.2368613081,-37500.0,450.52298041949865,-2254.0207129468499,4730.5628431384157,-1224.6063291628632,3693.0243477231743,1909.8817954550523,4460.0310438531633,-1535.2482781736239,1793.0173619399989,-1793.0173619399989,1535.2482781736239,8652.0779054056438,0.0
668523.2936376977,3547751.2368613081,-37500.0,833.2368994390506,-2606.6738840130029,3801.1753909599347,-1465.5491030174787,3128.6193792830609,1645.8817030257001,4115.269981786797,-1132.7034721070763,903.7265506850805,-903.7265506850805,1132.7034721070763,7952.9678150912441,0.0
673523.2936376977,3547751.2368613081,-37500.0,1224.8288110871199,-2752.6263265760635,2794.4676022444264,-1593.2838606506241,2508.9531920076552,1355.9063793227765,3743.9681408139195,-645.9127437646539,82.029238611066432,-82.029238611066432,645.9127437646539,7176.785955426808,0.0
678523.2936376977,3547751.2368613081,-37500.0,1573.0319970164685,-2700.6681193883664,1793.1606540548787,-1610.01365088331,1880.7574237148515,1060.3016232649247,3371.539522805946,-135.39926802973849,-613.0225518873865,613.0225518873865,135.39926802973849,6379.1236006463423,0.0
683523.2936376977,3547751.2368613081,-37500.0,1837.8468075849007,-2482.1857205767587,866.82890961237649,-1530.0715381345915,1284.6811304317553,777.04612316863495,3018.2340614034929,344.34864355258719,-1146.5976285229892,1146.5976285229892,-344.34864355258719,5612.1679242417285,0.0
688523.2936376977,3547751.2368613081,-37500.0,1996.4922553058177,-2142.1527944174918,64.391213192068591,-1375.6336943647975,750.94066584874668,519.8654855226755,2699.3215549164438,752.63671111765825,-1508.6102261347664,1508.6102261347664,-752.63671111765825,4918.9170100185138,0.0
693523.2936376977,3547751.2368613081,-37500.0,2043.6960704080989,-1729.4995529598311,-587.8816126413883,-1171.9250754614163,297.76106436708272,297.46519606784511,2424.2803026702309,1065.7809254331269,-1709.3973710573678,1709.3973710573678,-1065.7809254331269,4328.8448092957797,0.0
698523.2936376977,3547751.2368613081,-37500.0,1988.4591565699441,-1289.2905160444054,-1083.8923045717104,-943.13238160352012,-67.799071086904007,113.75137288231257,2196.1971238799006,1276.2403354248588,-1772.8892501738808,1772.8892501738808,-1276.2403354248588,3855.2831142039613,0.0
703523.2936376977,3547751.2368613081,-37500.0,1849.0982180710885,-857.88205509474062,-1432.6917499288663,-709.67639072228701,-347.53548400708524,-31.297233256396499,2012.3223017336672,1389.1303479416308,-1729.5541681700045,1729.5541681700045,-1389.1303479416308,3495.1564853862606,0.0
708523.2936376977,3547751.2368613081,-37500.0,1648.2122255470356,-461.04978294775293,-1652.7809974368542,-486.93081965141522,-549.24119809068679,-140.48035484301536,1865.7766592081155,1417.7526161961759,-1610.6434312131119,1610.6434312131119,-1417.7526161961759,3231.952749801093,0.0
713523.2936376977,3547751.2368613081,-37500.0,1408.6201217086632,-114.36086641839238,-1767.0512646271411,-285.10478990989742,-684.01109615213568,-218.24544411564446,1747.8221715740392,1379.3901275169105,-1444.3557110378165,1444.3557110378165,-1379.3901275169105,3041.6924371842529,0.0
718523.2936376977,3547751.2368613081,-37500.0,1150.6687825720169,175.14476705687517,-1798.9915341555345,-109.86636945352885,-764.09405027059654,-269.74970809284667,1649.9080599876663,1292.0414378740138,-1253.8516160770018,1253.8516160770018,-1292.0414378740138,2899.670791022565,0.0
723523.2936376977,3547751.2368613081,-37500.0,890.84669255803237,406.77416529359692,-1770.2630794133668,36.687138398676943,-801.40705206477901,-300.18053339992565,1564.9587148803982,1172.2785997481162,-1056.6931378485303,1056.6931378485303,-1172.2785997481162,2785.2809865602626,0.0
728523.2936376977,3547751.2368613081,-37500.0,641.40196747161986,584.0518654277821,-1699.4345205984628,155.00059929157084,-806.65421326078683,-314.32598667217275,1487.8326708345448,1034.106348732123,-865.19395815095788,865.19395815095788,-1034.106348732123,2683.882799167875,0.0
583523.2936376977,3552751.2368613081,-37500.0,2045.9700554752251,839.19898648544029,-583.18549785350501,1004.6972510837836,254.24731065990716,377.71532675860152,1787.0810575931546,2073.3549547561861,-328.33226263298866,328.33226263298866,-2073.3549547561861,3262.5712528320887,0.0
588523.2936376977,3552751.2368613081,-37500.0,2213.3923043006948,1142.1892240324544,-354.53795215088803,1196.2282661705722,470.99949426101062,505.1925317945263,2019.6575305444301,2227.7060747477508,-28.98287126936134,28.98287126936134,-2227.7060747477508,3741.3728523810119,0.0
593523.2936376977,3552751.2368613081,-37500.0,2340.1474604036725,1470.5991084303384,-36.71549815991682,1395.5802530142573,745.13122453935841,659.55480041649639,2288.1485378907005,2334.6594198795792,353.46285768083339,-353.46285768083339,-2334.6594198795792,4298.3613548590783,0.0
598523.2936376977,3552751.2368613081,-37500.0,2409.5569038105077,1810.5282559828331,384.28701979432452,1593.4240322549169,1083.0561181312682,842.87821793169223,2594.4837757481596,2374.1550276928356,823.44710326100608,-823.44710326100608,-2374.1550276928356,4934.9085958458709,0.0
603523.2936376977,3552751.2368613081,-37500.0,2404.9859758124467,2141.1274340928921,918.97896320996426,1776.7666625908448,1488.5622547999528,1055.8377080052537,2939.2524353284634,2325.1892607411587,1378.9457900084676,-1378.9457900084676,-2325.1892607411587,5647.566400604117,0.0
608523.2936376977,3552751.2368613081,-37500.0,2312.2470355264059,2434.082489893764,1571.1738638167819,1928.8573564982196,1961.0306884284005,1296.9460884600519,3321.1241395640113,2168.2911494312812,2008.5650433810404,-2008.5650433810404,-2168.2911494312812,6426.5295499754293,0.0
613523.2936376977,3552751.2368613081,-37500.0,2122.8301878556817,2654.2049294625053,2334.1227707449325,2029.6998371096404,2493.3683129330543,1561.7084725519146,3735.1306093127778,1889.0721134096511,2688.695334690291,-2688.695334690291,-1889.0721134096511,7254.1143727104936,0.0
618523.2936376977,3552751.2368613081,-37500.0,1837.6776083056122,2761.7085871742597,3186.4519172325681,2057.4443102646419,3069.9260897368677,1841.8141845499813,4169.4069243964504,1482.6675246109526,3381.4360345769974,-3381.4360345769974,-1482.6675246109526,8103.5364354211133,0.0
623523.2936376977,3552751.2368613081,-37500.0,1470.8401799136309,2716.6612712904816,4088.789837178932,1990.8769868382474,3664.882660260962,2124.56960777422,4603.5666335268415,958.48354984034086,4034.2946120425449,-4034.2946120425449,-958.48354984034086,8938.4117996775185,0.0
628523.2936376977,3552751.2368613081,-37500.0,1051.9297626961916,2485.7412884695736,4982.3847289807409,1813.0369784692346,4241.7747120243557,2392.8484901088009,5010.9393799140944,344.15377148153493,4582.8060213600811,-4582.8060213600811,-344.15377148153493,9713.5016982640918,0.0
633523.2936376977,3552751.2368613081,-37500.0,625.96498995387014,2050.730564114263,5791.2486999424364,1515.6434505217842,4754.9647864100707,2625.8700285735808,5361.8193015353518,-312.85636828611223,4957.0167316164661,-4957.0167316164661,312.85636828611223,10377.224202924819,0.0
638523.2936376977,3552751.2368613081,-37500.0,249.27089884910205,1417.181072721771,6429.1415006453153,1103.5258616798844,5153.7071468668664,2801.0537884049904,5626.4033964032533,-947.71060344037915,5092.0250601845528,-5092.0250601845528,947.71060344037915,10876.273035230115,0.0
643523.2936376977,3552751.2368613081,-37500.0,-19.180257310223251,620.66694777108091,6811.7328300959816,597.75134307458518,5388.9598226131793,2896.9859544171659,5778.244505581094,-1485.9279371917769,4941.3794268059391,-4941.3794268059391,1485.9279371917769,11162.2393512773,0.0
648523.2936376977,3552751.2368613081,-37500.0,-130.06957958961686,-272.44610136230847,6872.4926896913848,35.911321378887834,5422.1589829844434,2897.1563211748885,5798.4129557659799,-1856.1353422313859,4490.3806745812108,-4490.3806745812108,1856.1353422313859,11199.446893925729,0.0
653523.2936376977,3552751.2368613081,-37500.0,-56.767417069582059,-1172.0422678594191,6578.6871489390523,-531.60289105338381,5234.0391843186708,2793.6710654513604,5679.7121043504403,-2005.4330157611989,3764.9676302287858,-3764.9676302287858,2005.4330157611989,10972.449793890906,0.0
658523.2936376977,3552751.2368613081,-37500.0,195.30092622164054,-1979.1094265555053,5942.3594910914808,-1049.3550622860107,4830.7871963526995,2589.8262585960338,5429.9262962139128,-1912.9023867720807,2831.9786443167395,-2831.9786443167395,1912.9023867720807,10491.164459278112,0.0
663523.2936376977,3552751.2368613081,-37500.0,587.13375244553674,-2605.1104394314525,5021.6448555018233,-1467.0237427060199,4245.0279322923079,2300.5124165596467,5072.911498988844,-1596.2244821339932,1788.8909605623157,-1788.8909605623157,1596.2244821339932,9791.814034576877,0.0
668523.2936376977,3552751.2368613081,-37500.0,1054.1040082552663,-2989.9638616497982,3910.7233309353214,-1749.0047543062346,3530.6455372443893,1950.02536503175,4645.6770614812685,-1108.2771638427912,745.11509326742623,-745.11509326742623,1108.2771638427912,8932.9010447632172,0.0
673523.2936376977,3552751.2368613081,-37500.0,1521.1045417292169,-3112.6314273185226,2721.0826964767057,-1880.3778232786135,2752.7230525302944,1567.7905912456836,4189.6583988217153,-524.45271737155315,-199.41792434213866,199.41792434213866,524.45271737155315,7986.954551840231,0.0
678523.2936376977,3552751.2368613081,-37500.0,1919.5377464090957,-2991.1816075716156,1560.1811938016299,-1867.5208663869957,1975.7408534217318,1183.2844197404859,3740.6851585339318,74.768246189484159,-971.51839961222868,971.51839961222868,-74.768246189484159,7030.0561294239133,0.0
683523.2936376977,3552751.2368613081,-37500.0,2200.4277608879256,-2673.4949151990463,514.09383886648482,-1733.7836682576717,1253.56041182933,821.62371006824333,3325.5066117563183,619.95599658570063,-1533.1430578735349,1533.1430578735349,-619.95599658570063,6131.4502682850552,0.0
688523.2936376977,3552751.2368613081,-37500.0,2340.2856014509371,-2223.0289225834454,-361.73903226142363,-1512.3243461674681,623.55355501317831,500.84944992423789,2962.0843509299129,1063.009385867826,-1880.2201281034195,1880.2201281034195,-1063.009385867826,5344.872809247604,0.0
693523.2936376977,3552751.2368613081,-37500.0,2339.7207507971907,-1704.7571461542195,-1043.2186079482058,-1238.6824740133654,105.35174877136016,231.16517699835907,2659.1864800719086,1380.1276867778133,-2034.621223094211,2034.621223094211,-1380.1276867778133,4702.3462485575847,0.0
698523.2936376977,3552751.2368613081,-37500.0,2217.2413270018178,-1174.857084366613,-1532.1206620334474,-945.00512756947421,-296.84339874709877,15.744708337083196,2416.4151431494379,1568.8654654110178,-2033.3955154413989,2033.3955154413989,-1568.8654654110178,4211.2248260333654,0.0
703523.2936376977,3552751.2368613081,-37500.0,2001.3820251300513,-675.37204885973051,-1847.8210155764405,-656.71324445722109,-590.09217257278806,-147.575667238899,2226.0417115069977,1642.003140035308,-1918.7737928899912,1918.7737928899912,-1642.003140035308,3856.0905220487475,0.0
708523.2936376977,3552751.2368613081,-37500.0,1723.6065843421566,-233.20475175669799,-2019.0471646150613,-391.43597805877346,-788.2332343014516,-264.37334796536641,2076.3145471364628,1620.823452728644,-1730.8712571684291,1730.8712571684291,-1620.823452728644,3606.3770445965097,0.0
713523.2936376977,3552751.2368613081,-37500.0,1413.2285087999176,138.06020493932024,-2077.2983828417046,-159.54236639066721,-908.06574286770706,-341.92688691272213,1954.9248174688237,1529.4628789635169,-1503.5089491201613,1503.5089491201613,-1529.4628789635169,3427.1306770127053,0.0
718523.2936376977,3552751.2368613081,-37500.0,1094.5530725191281,435.03144453854003,-2052.4566889203093,34.481043175145146,-966.60031837969609,-387.92243117930144,1851.4243539238555,1391.0055442498669,-1262.6364083198609,1262.6364083198609,-1391.0055442498669,3287.9038311863087,0.0
723523.2936376977,3552751.2368613081,-37500.0,785.84013653772683,661.20199644953198,-1970.3920143756955,190.40147478847345,-979.37474133453941,-409.61020547156767,1758.2178629535779,1225.2833592600555,-1026.4981080769439,1026.4981080769439,-1225.2833592600555,3166.8321047217205,0.0
728523.2936376977,3552751.2368613081,-37500.0,499.48593159962451,824.08629605292776,-1852.056630799616,310.72865183985522,-959.62635480745064,-413.34378757606498,1670.4814441559438,1048.004189426573,-806.73532941396684,806.73532941396684,-1048.004189426573,3050.5921326675934,0.0
733523.2936376977,3552751.2368613081,-37500.0,242.86432834211334,933.04483650749717,-1713.5287611379758,399.49391953522201,-918.05819668886829,-404.39985388695118,1585.5681194754663,870.75114240190305,-609.82773251865456,609.82773251865456,-870.75114240190305,2932.425344751472,0.0
578523.2936376977,3557751.2368613081,-37500.0,1905.1118462796471,360.44434094482398,-1004.0785673991579,795.8527169950878,-54.435776651984007,240.45356402636153,1661.6789750585995,1975.2205367762713,-875.02126562297144,875.02126562297144,-1975.2205367762713,2947.9591100411794,0.0
583523.2936376977,3557751.2368613081,-37500.0,2152.3898243971007,642.41556922477082,-891.24547426901825,999.07654275634502,107.00737099925982,351.79137313315908,1868.5257562218826,2221.0977351446468,-682.84281783890935,682.84281783890935,-2221.0977351446468,3360.4184928278833,0.0
588523.2936376977,3557751.2368613081,-37500.0,2380.9710212636473,970.38468185317424,-702.09597854452818,1224.5722944592987,325.01788835532579,492.45808376631953,2113.4546764953361,2445.924656332219,-408.22574238201469,408.22574238201469,-2445.924656332219,3858.7501101707562,0.0
593523.2936376977,3557751.2368613081,-37500.0,2573.0949084670592,1338.553325473925,-417.15871756539212,1466.8143562554094,610.50166975947923,666.93927930897098,2401.4212946730145,2629.5365448541088,-37.950753814544441,37.950753814544441,-2629.5365448541088,4452.3142518918539,0.0
598523.2936376977,3557751.2368613081,-37500.0,2707.9494669189394,1734.3861077151782,-16.740986410027212,1716.2739013402772,973.70503851489468,879.08194654678914,2736.5409909689688,2747.5292963913889,437.96947516355704,-437.96947516355704,-2747.5292963913889,5146.9384037145983,0.0
603523.2936376977,3557751.2368613081,-37500.0,2763.1517838332479,2136.7351599331259,516.48890766041916,1958.5404675774628,1422.5670363009779,1131.3042813950431,3121.5859251847796,2772.5118014952336,1023.1639312808483,-1023.1639312808483,-2772.5118014952336,5943.0508819875622,0.0
608523.2936376977,3557751.2368613081,-37500.0,2717.4118644549767,2514.4300805639687,1193.6770996229645,2173.7676447734766,1960.4167738216368,1423.5467893601274,3557.2709016333097,2676.6795253462296,1710.9959407296012,-1710.9959407296012,-2676.6795253462296,6833.5146346484398,0.0
613523.2936376977,3557751.2368613081,-37500.0,2554.526796049613,2826.0244537979383,2014.7357203185688,2336.8043180995378,2583.0644172533289,1752.0043119384602,4040.3343766133198,2435.9956216016935,2480.2700119033561,-2480.2700119033561,-2435.9956216016935,7801.2879399907242,0.0
618523.2936376977,3557751.2368613081,-37500.0,2268.544390467217,3021.5892796247044,2962.4848043077741,2418.4614698719679,3275.5505955065769,2107.7708387177618,4559.3622098760952,2035.9905248397799,3291.3878415100035,-3291.3878415100035,-2035.9905248397799,8817.229540910459,0.0
623523.2936376977,3557751.2368613081,-37500.0,1869.4102700553692,3047.4755849547291,3996.9991145176409,2388.3668366577772,4009.1406784755654,2475.6590741806667,5091.3695192137102,1478.6635028062274,4084.305177525378,-4084.305177525378,-1478.6635028062274,9838.6056640362494,0.0
628523.2936376977,3557751.2368613081,-37500.0,1387.7093406330935,2854.6479461027939,5051.9053341917097,2219.6836350429057,4739.5371898492995,2833.6105267990106,5603.3371967187413,789.18993222051768,4780.0682946442776,-4780.0682946442776,-789.18993222051768,10809.096470817005,0.0
633523.2936376977,3557751.2368613081,-37500.0,876.41136735231748,2410.3162550668499,6034.9996222180107,1895.5133515895614,5407.6131001471722,3153.2377438773201,6056.2365548300186,20.244019360422044,5287.7368208957323,-5287.7368208957323,-20.244019360422044,11661.234308464049,0.0
638523.2936376977,3557751.2368613081,-37500.0,407.23260431974029,1711.0877615193087,6835.6304342518815,1416.0255510467473,5944.005653823594,3402.0481194624645,6409.0531272658263,-748.8807873716155,5517.71460526398,-5517.71460526398,748.8807873716155,12322.086340210457,0.0
643523.2936376977,3557751.2368613081,-37500.0,59.910084246935376,793.99039583708543,7340.227793864663,804.38288378153027,6278.3276280365562,3547.6490648925624,6623.690308546833,-1420.904012135868,5400.5723437394336,-5400.5723437394336,1420.904012135868,12722.423213164933,0.0
648523.2936376977,3557751.2368613081,-37500.0,-95.151216587785072,-259.67505021466093,7454.7541260645576,108.78810359277874,6352.3235951039269,3563.6344596800091,6671.2371755379272,-1897.6535928201179,4907.4932520151178,-4907.4932520151178,1897.6535928201179,12808.518294607804,0.0
653523.2936376977,3557751.2368613081,-37500.0,-16.948005507730947,-1332.243199261399,7129.0720254294056,-601.81660962662932,6134.1879470820477,3435.9535347432411,6538.662042591146,-2102.7967206633125,4065.59300629573,-4065.59300629573,2102.7967206633125,12554.265354409132,0.0
658523.2936376977,3557751.2368613081,-37500.0,290.46691521836948,-2290.5293611357747,6374.9896796651956,-1249.1126297985593,5629.4086886128625,3167.7554979627403,6234.1786843220953,-2003.3567810901363,2960.6333154914814,-2960.6333154914814,2003.3567810901363,11970.147320588978,0.0
663523.2936376977,3557751.2368613081,-37500.0,774.32427436204352,-3014.9684860632119,5269.6822782589925,-1761.4727046491382,4883.3524969792206,2780.605187895746,5789.3088575665251,-1621.2776942048258,1722.9477251125477,-1722.9477251125477,1621.2776942048258,11105.598306137525,0.0
668523.2936376977,3557751.2368613081,-37500.0,1344.9724880257329,-3427.2132164307736,3940.9227135795759,-2089.5440245801692,3973.3410436114905,2311.026359724834,5255.3158977368539,-1028.9943965418679,499.34160342058408,-499.34160342058408,1028.9943965418679,10043.040427161277,0.0
673523.2936376977,3557751.2368613081,-37500.0,1899.5393491803786,-3505.719022080903,2538.3961093842968,-2215.6449458747416,2992.3331626028912,1803.2214713731062,4691.3949933362619,-329.84924758235968,-579.38257452169398,579.38257452169398,329.84924758235968,8884.7378606759576,0.0
678523.2936376977,3557751.2368613081,-37500.0,2347.9817075373403,-3284.0778912429309,1201.6280923854717,-2153.8827828520584,2029.9893162411224,1300.4610456826333,4148.716769168439,368.7468122149595,-1423.4940409350238,1423.4940409350238,-368.7468122149595,7736.0392214964631,0.0
683523.2936376977,3557751.2368613081,-37500.0,2631.6958124657249,-2834.8083399617135,35.60016740661235,-1942.0873130272887,1157.4840640171046,837.97338349310689,3662.680055824902,978.96965387358387,-1994.4516864135699,1994.4516864135699,-978.96965387358387,6689.0440428187067,0.0
688523.2936376977,3557751.2368613081,-37500.0,2729.7020317633151,-2246.8277453559576,-899.8925360320203,-1629.7403159529715,419.8698058518271,439.11283156359815,3253.2361091050871,1445.8087954490807,-2299.9714615428588,2299.9714615428588,-1445.8087954490807,5809.3530361284693,0.0
693523.2936376977,3557751.2368613081,-37500.0,2653.6381916534701,-1605.1816368373477,-1587.7715846070344,-1266.5209232740503,-163.90215344334516,114.98121337841712,2925.8004553122623,1748.5775446052021,-2379.7044403443961,2379.7044403443961,-1748.5775446052021,5127.3280930692808,0.0
698523.2936376977,3557751.2368613081,-37500.0,2436.5724530356424,-978.05088415152989,-2043.0709072997095,-894.39723458636661,-595.79496475478231,-133.50291080884918,2673.1155034007816,1894.1045207654588,-2288.6621688640344,2288.6621688640344,-1894.1045207654588,4636.1595883001055,0.0
703523.2936376977,3557751.2368613081,-37500.0,2120.932693758562,-411.77530807261877,-2299.9086843082669,-543.97049207694351,-891.48757009567737,-312.45217401874612,2479.7131223049228,1906.5275321735237,-2083.5511305130053,2083.5511305130053,-1906.5275321735237,4299.7942459140168,0.0
708523.2936376977,3557751.2368613081,-37500.0,1748.9577067503342,68.121611899516012,-2400.0673540395524,-234.23312696163634,-1073.5782901152024,-431.8777112167254,2327.6538980415926,1817.6017839345545,-1814.1139145762577,1814.1139145762577,-1817.6017839345545,4069.1939549572535,0.0
713523.2936376977,3557751.2368613081,-37500.0,1356.8414317204274,452.70073937070191,-2384.9475510808752,25.648556797991418,-1166.4159973201802,-503.1860869710124,2201.0996365514284,1659.5211214088756,-1519.2216387080623,1519.2216387080623,-1659.5211214088756,3898.6180814548729,0.0
718523.2936376977,3557751.2368613081,-37500.0,972.21482473360925,744.46826908895207,-2290.9721727395254,233.76888145889794,-1192.8148838243947,-537.48815827080841,2088.4644129949029,1460.6409678155767,-1226.3631683878177,1226.3631683878177,-1460.6409678155767,3754.4925163408302,0.0
723523.2936376977,3557751.2368613081,-37500.0,613.96570468331765,952.71921110418782,-2147.6792573899411,392.9550189445971,-1172.3659134166496,-544.64210183138891,1982.5146479766013,1243.5981240661476,-953.04231578264989,953.04231578264989,-1243.5981240661476,3616.4871996410147,0.0
728523.2936376977,3557751.2368613081,-37500.0,293.36589130881566,1089.9506437035852,-1977.553455496359,508.68386274261945,-1120.8746950039881,-532.84659744048474,1879.4426659647347,1025.0429402940104,-708.93276590794972,708.93276590794972,-1025.0429402940104,3474.5899197547324,0.0
733523.2936376977,3557751.2368613081,-37500.0,15.718989666295922,1169.4193959958809,-1796.7913077081932,587.56112548495048,-1050.4810672817141,-508.59140291164425,1777.7304061552795,816.26762276167915,-498.07837322408312,498.07837322408312,-816.26762276167915,3325.4500143853215,0.0
738523.2936376977,3557751.2368613081,-37500.0,-217.96170106347984,1203.6662465749191,-1616.4395493794123,636.31979510706128,-970.12150443285771,-476.80711128591861,1677.1954844449581,624.21070533630598,-320.78645672969856,320.78645672969856,-624.21070533630598,3169.4328847200713,0.0
578523.2936376977,3562751.2368613081,-37500.0,1902.7291401594398,94.246205539688091,-1276.0127450250511,723.97191358504904,-224.97436602139766,186.14713262362139,1745.5256140081865,2003.2398719263431,-1224.2709328585013,1224.2709328585013,-2003.2398719263431,3057.0207829469905,0.0
583523.2936376977,3562751.2368613081,-37500.0,2209.1846887279298,378.08881251401334,-1216.9610392739303,950.80300092602135,-77.401304502553387,302.50227046261898,1955.7141591759223,2315.9366954865177,-1080.3485236237789,1080.3485236237789,-2315.9366954865177,3464.1371144344339,0.0
588523.2936376977,3562751.2368613081,-37500.0,2507.8064138583072,721.25899862329663,-1082.9448442948046,1210.1456996387617,132.72202541394736,453.89732947161201,2208.2238252888815,2621.0202686376497,-849.12658793418177,849.12658793418177,-2621.0202686376497,3967.8466926531419,0.0
593523.2936376977,3562751.2368613081,-37500.0,2778.8322876796342,1121.5379015957578,-850.15182316635583,1497.9253544265396,420.16524844829598,646.96795656712152,2510.6555862099549,2896.6959846893442,-511.85180519700657,511.85180519700657,-2896.6959846893442,4583.9250455712909,0.0
598523.2936376977,3562751.2368613081,-37500.0,2997.4852386996276,1569.3899000104821,-492.644697323907,1805.3357611478734,800.05210199631642,888.06776717646835,2870.2251478577614,3114.7229911078348,-51.64869270339932,51.64869270339932,-3114.7229911078348,5324.9810965382594,0.0
603523.2936376977,3562751.2368613081,-37500.0,3135.1025511931944,2045.1424086340817,15.077276648973903,2117.3701160674909,1286.0366533852134,1182.3192108607482,3293.0830465097879,3241.1073646625664,542.87873260486481,-542.87873260486481,-3241.1073646625664,6197.9390907064526,0.0
608523.2936376977,3562751.2368613081,-37500.0,3161.7897030784975,2516.3344666942835,693.79894029882678,2411.5501593136601,1887.4924547394567,1532.2435144078609,3783.4176971320148,3238.4082651576737,1272.7004786377756,-1272.7004786377756,-3238.4082651576737,7201.0497500425572,0.0
613523.2936376977,3562751.2368613081,-37500.0,3051.0213069306978,2936.0833281998353,1553.3549419899646,2657.3239997524711,2605.6248671209696,1935.9566325864844,4341.2858380545631,3070.2573269166892,2122.3326561037879,-2122.3326561037879,-3070.2573269166892,8320.462138908164,0.0
618523.2936376977,3562751.2368613081,-37500.0,2786.3056406494761,3243.7225291010104,2584.6459786884434,2816.8058218187848,3428.6743045216485,2385.0314067905138,4957.3727408685827,2708.4637813451127,3053.583012566296,-3053.583012566296,-2708.4637813451127,9526.6248962587852,0.0
623523.2936376977,3562751.2368613081,-37500.0,2369.3760897244833,3369.2436899492868,3750.9176834408991,2847.6659370930797,4326.8336938963648,2862.3192767207188,5607.1000189701408,2142.4744669544439,4000.7487605299734,-4000.7487605299734,-2142.4744669544439,10771.170367380715,0.0
628523.2936376977,3562751.2368613081,-37500.0,1828.3204767539819,3242.9376527995464,4980.4646586988529,2708.9028913002708,5248.1561018440798,3340.2967228283005,6250.5332928287853,1389.8745250784625,4869.826722443252,-4869.826722443252,-1389.8745250784625,11985.405453152163,0.0
633523.2936376977,3562751.2368613081,-37500.0,1222.7609844611552,2810.693276304939,6164.1783122264897,2369.733881319471,6117.455446528701,3780.8121174531148,6836.911162292974,505.11912959514711,5544.8216739150212,-5544.8216739150212,-505.11912959514711,13081.954063452202,0.0
638523.2936376977,3562751.2368613081,-37500.0,642.15439304554525,2053.330517995993,7162.1046238509634,1820.7214816006849,6840.6703436347307,4137.3207555423114,7309.8971538611795,-417.80502738654786,5903.7094021002304,-5903.7094021002304,417.80502738654786,13961.214818982737,0.0
643523.2936376977,3562751.2368613081,-37500.0,193.49062185054441,1005.1823935159708,7822.3681647035846,1084.5073112476268,7316.7472508034216,4360.5421612725468,7614.3846341856524,-1253.6009744164362,5844.1856934773004,-5844.1856934773004,1253.6009744164362,14523.710939033768,0.0
648523.2936376977,3562751.2368613081,-37500.0,-22.61742121451195,-236.02726406002756,8012.3341510726905,221.69291487469997,7457.1012527631647,4407.6211898240826,7705.9177269266911,-1867.6593357991155,5314.6662662595463,-5314.6662662595463,1867.6593357991155,14687.762095088132,0.0
653523.2936376977,3562751.2368613081,-37500.0,57.236202892089949,-1516.6867800223711,7655.5879795903629,-673.15083140779279,7208.9490616731182,4253.1741012639286,7561.4875790941342,-2149.3424229440107,4340.3463507641363,-4340.3463507641363,2149.3424229440107,14409.22914653625,0.0
658523.2936376977,3562751.2368613081,-37500.0,432.84552351772578,-2656.2614931458406,6761.6716055211655,-1487.9541603807788,6574.6635558184389,3898.6296258371522,7188.6834656999208,-2046.4438180863663,3031.1601222455374,-3031.1601222455374,2046.4438180863663,13697.414169305754,0.0
663523.2936376977,3562751.2368613081,-37500.0,1032.2951574410993,-3491.6206847405538,5433.7153988706577,-2118.9978470967367,5617.8877513168982,3375.4647031922741,6629.6226811703309,-1585.6280546110556,1562.7340576791271,-1562.7340576791271,1585.6280546110556,12620.473794574684,0.0
668523.2936376977,3562751.2368613081,-37500.0,1729.7276362119553,-3920.1714553242959,3846.5101745919414,-2496.8923817660916,4451.286277946896,2739.7148392187605,5956.3478800314242,-867.00140768089568,133.59183624432245,-133.59183624432245,867.00140768089568,11296.522260864798,0.0
673523.2936376977,3562751.2368613081,-37500.0,2383.0629315776282,-3923.0765596655842,2201.9168164776588,-2601.751382605355,3209.4312997571678,2059.1613282164294,5254.3579782619881,-33.371347703702781,-1084.8561388283883,1084.8561388283883,33.371347703702781,9872.1487174674567,0.0
678523.2936376977,3562751.2368613081,-37500.0,2874.5406178955004,-3559.6107498302003,680.21323654882349,-2461.7876851834139,2017.7938981733364,1398.2622615143632,4597.5422030789741,771.72468550242843,-1984.846457268435,1984.846457268435,-771.72468550242843,8494.8920511298729,0.0
683523.2936376977,3562751.2368613081,-37500.0,3136.8548591448812,-2938.8051589376605,-593.749926722689,-2138.1218491244072,969.6397118132877,806.50207595302618,4032.5912410300593,1438.7537837873706,-2533.1920401934995,2533.1920401934995,-1438.7537837873706,7286.9305500062364,0.0
688523.2936376977,3562751.2368613081,-37500.0,3157.8438429418811,-2183.8844090347329,-1561.0686484891403,-1704.3055057266854,116.85215283736021,313.25163847524999,3579.0961779829722,1908.2833389841007,-2758.6502743618194,2758.6502743618194,-1908.2833389841007,6324.5115707305904,0.0
693523.2936376977,3562751.2368613081,-37500.0,2968.2511936524274,-1403.7331747484873,-2219.6083571166637,-1228.8706878167886,-526.63883861499596,-71.234671760024384,3233.9636277110649,2168.4692877636935,-2727.2060974794849,2727.2060974794849,-2168.4692877636935,5626.5220738079461,0.0
698523.2936376977,3562751.2368613081,-37500.0,2622.4778911778362,-677.80736957201486,-2605.0290494481151,-765.09840795515834,-974.35374791075924,-351.15420579966991,2977.8370757649914,2241.4710542513753,-2517.3487758656488,2517.3487758656488,-2241.4710542513753,5158.2094884908947,0.0
703523.2936376977,3562751.2368613081,-37500.0,2180.8710376118051,-53.394178228918641,-2771.260899672563,-347.93520185679796,-1255.3320670211635,-539.48408165274657,2784.361281615772,2167.3023843739006,-2202.3821157808784,2202.3821157808784,-2167.3023843739006,4853.0084026993172,0.0
708523.2936376977,3562751.2368613081,-37500.0,1697.7452635111229,449.46397071901231,-2775.6222207129686,4.2706679323646464,-1404.2845467388283,-653.05636558390086,2628.833223168961,1990.6014555342863,-1841.2518345873141,1841.2518345873141,-1990.6014555342863,4641.4910257567217,0.0
713523.2936376977,3562751.2368613081,-37500.0,1215.5329495566502,830.10423825039527,-2669.8592359747181,285.81993716301128,-1455.0409038464204,-709.08367841731354,2492.9042033718761,1752.2201756798522,-1476.0780805674221,1476.0780805674221,-1752.2201756798522,4470.5996843500025,0.0
718523.2936376977,3562751.2368613081,-37500.0,763.52505174257226,1099.5658287996603,-2496.138691556976,499.37606780308704,-1437.0391496106593,-723.12743940905682,2365.2741656260337,1485.2072837472572,-1133.6711583165645,1133.6711583165645,-1485.2072837472572,4308.1393993175643,0.0
723523.2936376977,3562751.2368613081,-37500.0,359.27164042389438,1274.5444663057051,-2286.3174124299921,652.32719615092208,-1374.0207388885349,-708.18069281612827,2240.2366021522084,1213.8552704790975,-828.74697929139347,828.74697929139347,-1213.8552704790975,4138.6396059611179,0.0
728523.2936376977,3562751.2368613081,-37500.0,11.096582835763344,1373.2785011095668,-2062.9737766793723,754.12045393707683,-1284.0633477278889,-674.47845088507518,2115.7417026118874,954.4722187238151,-567.39586932358043,567.39586932358043,-954.4722187238151,3957.2819802636081,0.0
733523.2936376977,3562751.2368613081,-37500.0,-279.24426798291233,1413.0995869603335,-1841.1442960498975,814.52489445780134,-1180.283946454088,-629.71360709969792,1991.7846750664526,716.8891641483084,-350.08978944538273,350.08978944538273,-716.8891641483084,3764.9803062674932,0.0
738523.2936376977,3562751.2368613081,-37500.0,-514.24883479027073,1409.201080512931,-1630.1459359094456,842.62931149080441,-1071.7783868300642,-579.43264258600163,1869.3075805483891,506.09948774805798,-173.99038412940919,173.99038412940919,-506.09948774805798,3565.1758868337433,0.0
743523.2936376977,3562751.2368613081,-37500.0,-698.86904535826875,1374.1996375295239,-1435.1859950164583,846.35703863223,-964.55532569432739,-527.4738043808278,1749.5422277695284,323.72546904772719,-34.574625756031281,34.574625756031281,-323.72546904772719,3362.004724991883,0.0
573523.2936376977,3567751.2368613081,-37500.0,1479.9036600177287,-436.08589582216791,-1487.2128336956575,397.11185813881571,-496.49144252602446,22.119065325514981,1671.9863454084061,1594.91499636044,-1600.1627971606576,1600.1627971606576,-1594.91499636044,2895.9656357299164,0.0
578523.2936376977,3567751.2368613081,-37500.0,1825.4878157526628,-230.11392620475741,-1539.8136800779469,599.9795228569634,-423.29489080326772,106.52153816157892,1846.2579365557069,1950.1285579310941,-1587.1009965919018,1587.1009965919018,-1950.1285579310941,3204.9303690500028,0.0
583523.2936376977,3567751.2368613081,-37500.0,2192.7244110700476,41.17635473591119,-1545.8772909612119,845.36835546042005,-299.692571509039,223.30193055268401,2055.6960647234305,2330.6296546933904,-1508.4456203858651,1508.4456203858651,-2330.6296546933904,3593.2377758200232,0.0
588523.2936376977,3567751.2368613081,-37500.0,2567.6754218582287,384.80133644489888,-1483.0632247085246,1135.1711584857874,-109.33883055784226,380.85194696387282,2309.7714127520103,2722.2240464745737,-1342.0814808980749,1342.0814808980749,-2722.2240464745737,4083.9138032689907,0.0
593523.2936376977,3567751.2368613081,-37500.0,2929.7591759471952,803.54798118310339,-1323.7660376337428,1467.9095654221403,166.84671137852806,588.51662454487996,2619.1859390601139,3103.0755147162604,-1063.4773853177735,1063.4773853177735,-3103.0755147162604,4701.0867073289073,0.0
598523.2936376977,3567751.2368613081,-37500.0,3251.0895903579108,1292.8709850107427,-1035.8137062293611,1836.8725833452822,549.84837868963677,856.02471065206987,2995.2451750196437,3442.4723279851482,-647.84732388224438,647.84732388224438,-3442.4723279851482,5467.2033670394358,0.0
603523.2936376977,3567751.2368613081,-37500.0,3496.8645600798909,1837.0233542952508,-584.6521567841728,2227.9107761337423,1060.7438816235169,1192.448111492849,3449.0128228588342,3700.5295832903512,-73.965630535602259,73.965630535602259,-3700.5295832903512,6399.5199866987741,0.0
608523.2936376977,3567751.2368613081,-37500.0,3627.5480780101148,2404.8312820029309,62.278618009069241,2617.1525391389446,1717.5221749048633,1604.5365719431209,3990.1876053805522,3829.6673530292733,669.99062083602394,-669.99062083602394,-3829.6673530292733,7505.9237089260305,0.0
613523.2936376977,3567751.2368613081,-37500.0,3603.6605749389259,2946.0463205221313,928.33993087174792,2969.1885312809491,2530.1942535293206,2094.306451363725,4624.6404543481312,3778.8783287363503,1578.5393876599492,-1578.5393876599492,-3778.8783287363503,8780.030832836077,0.0
618523.2936376977,3567751.2368613081,-37500.0,3393.7884353574277,3389.892551793856,2017.4424351959844,3236.6358322811329,3494.1146382860547,2655.8754560447878,5347.9773962115851,3501.7306369088624,2619.6187441964598,-2619.6187441964598,-3501.7306369088624,10195.650086514826,0.0
623523.2936376977,3567751.2368613081,-37500.0,2985.716151711837,3648.1064591224399,3301.5072188457107,3362.3646100978849,4582.0057147450925,3271.7770920805956,6136.302415801425,2968.4822273398663,3725.809456163664,-3725.809456163664,-2968.4822273398663,11701.199853216789,0.0
628523.2936376977,3567751.2368613081,-37500.0,2399.1886591341176,3625.0583364050117,4708.0391620302526,3285.861799124013,5736.1564520542233,3909.4090221147144,6943.0231573329766,2181.3644657826289,4789.4441445926259,-4789.4441445926259,-2181.3644657826289,13215.481935522042,0.0
633523.2936376977,3567751.2368613081,-37500.0,1696.6969339243165,3236.8179594381713,6112.3930602556165,2954.8681715822449,6863.6295676405725,4518.8890733961107,7703.1804929454865,1189.8648811809844,5666.4102785155928,-5666.4102785155928,-1189.8648811809844,14627.17127887168,0.0
638523.2936376977,3567751.2368613081,-37500.0,986.34004407535178,2438.4710565542796,7341.2735588282439,2342.0541601447603,7838.6542243612957,5034.2697657464651,8339.8485828203593,100.01076322029166,6193.7069094437693,-6193.7069094437693,-100.01076322029166,15801.081205104616,0.0
643523.2936376977,3567751.2368613081,-37500.0,409.67462754041514,1254.1197599198051,8194.1766386996587,1463.6763031067492,8516.736905984113,5380.388358630842,8773.2130845467454,-930.55685268640718,6223.3235941608737,-6223.3235941608737,930.55685268640718,16594.030618760808,0.0
648523.2936376977,3567751.2368613081,-37500.0,110.06690910876652,-202.28390136972283,8485.4409521913876,393.22862530004875,8762.7173168258687,5486.7279322827681,8934.5676199949958,-1718.9417369844209,5668.2294925828337,-5668.2294925828337,1718.9417369844209,16880.939365362367,0.0
653523.2936376977,3567751.2368613081,-37500.0,185.78193490827891,-1730.9483778079932,8099.7388880011322,-739.698987584321,8488.6981368040178,5306.684160740906,8783.878400319958,-2104.683440821329,4545.9131411754515,-4545.9131411754515,2104.683440821329,16587.095987413115,0.0
658523.2936376977,3567751.2368613081,-37500.0,645.19497234827077,-3085.6697149100173,7040.9073169979338,-1772.6656132399135,7688.9087364988745,4835.9945648280718,8325.7921665751765,-2004.9232003496984,2996.8061438805016,-2996.8061438805016,2004.9232003496984,15716.674091693556,0.0
663523.2936376977,3567751.2368613081,-37500.0,1389.6303242417325,-4041.8472872713205,5447.6359188441411,-2552.6405341424888,6453.4378614633624,4120.9398486346945,7617.2620669555254,-1450.8443898097159,1259.1363247341162,-1259.1363247341162,1450.8443898097159,14364.605182847961,0.0
668523.2936376977,3567751.2368613081,-37500.0,2240.2228378548702,-4465.0472202004967,3560.5986144638441,-2980.5801171120252,4949.1275094562079,3249.6226229901622,6761.2191133932747,-581.86635013623413,-397.05532365693506,397.05532365693506,581.86635013623413,12703.251392713581,0.0
673523.2936376977,3567751.2368613081,-37500.0,2999.3326756714073,-4345.8747675841523,1652.2083937084783,-3036.581924275888,3373.3614305921797,2328.5220884711111,5882.4819146857171,403.37940884043064,-1747.9659063011477,1747.9659063011477,-403.37940884043064,10946.329946774427,0.0
678523.2936376977,3567751.2368613081,-37500.0,3514.5122256139693,-3785.6366724016666,-47.507017629068791,-2774.4537637394878,1902.2936913321253,1455.1672938453912,5088.491618154736,1313.6072445824798,-2669.0671050717106,2669.0671050717106,-1313.6072445824798,9302.4478678317591,0.0
683523.2936376977,3567751.2368613081,-37500.0,3714.2576157018034,-2946.6524394822341,-1396.5555223166527,-2292.7449355640997,655.89574526631714,698.80153436464377,4439.9102952873172,2015.6380200669641,-3143.834502089157,3143.834502089157,-2015.6380200669641,7931.6373627744397,0.0
688523.2936376977,3567751.2368613081,-37500.0,3606.6888498500216,-1996.6609106205992,-2347.3271439195091,-1699.9127659349367,-311.0945163969875,94.312992464627087,3950.1112525290746,2451.8078505057119,-3236.1551688867321,3236.1551688867321,-2451.8078505057119,6913.3033053937361,0.0
693523.2936376977,3567751.2368613081,-37500.0,3253.6547433249525,-1070.3650699941711,-2924.5663421122213,-1088.4433097122096,-997.90101399828086,-352.96987191812798,3598.2199270820374,2628.4613016472808,-3049.1379906493353,3049.1379906493353,-2628.4613016472808,6234.9196158768045,0.0
698523.2936376977,3567751.2368613081,-37500.0,2739.1629043493581,-254.61783845948284,-3193.6514890968451,-523.04028300482412,-1437.8582934700287,-657.46971039928576,3345.6401896131574,2591.1776035206722,-2689.9140460549143,2689.9140460549143,-2591.1776035206722,5813.8904737577732,0.0
703523.2936376977,3567751.2368613081,-37500.0,2144.9557206241566,408.58177039321089,-3233.1175186587643,-40.218729244928667,-1679.5680367450141,-843.52936122494009,3152.6789480935308,2400.6509380836828,-2248.6879841492041,2248.6879841492041,-2400.6509380836828,5545.352955839915,0.0
708523.2936376977,3567751.2368613081,-37500.0,1537.126193910776,910.62203140333008,-3116.9246565444555,346.01302235032853,-1773.5195942372686,-938.05010927045817,2988.9915454982142,2115.9629965216577,-1791.0642854429143,1791.0642854429143,-2115.9629965216577,5343.2273404914858,0.0
713523.2936376977,3567751.2368613081,-37500.0,961.94354757497729,1263.5156785206254,-2905.9698236356126,636.81067508389469,-1764.6081212745105,-966.04689693565513,2836.0364271969952,1785.9599254112595,-1358.8886918789135,1358.8886918789135,-1785.9599254112595,5154.4277629756007,0.0
718523.2936376977,3567751.2368613081,-37500.0,447.266914747768,1489.4712571325697,-2645.9578063318272,841.97176963130971,-1689.1223589187919,-948.55482398871288,2684.8007165790959,1446.6189984842649,-974.97368782616161,974.97368782616161,-1446.6189984842649,4953.8362390359543,0.0
723523.2936376977,3567751.2368613081,-37500.0,6.4009644141610078,1613.7792580831483,-2368.7145140075372,975.12736120004058,-1574.4608497260813,-902.07700143539728,2532.3670630757042,1121.8492775018333,-648.65650096450906,648.65650096450906,-1121.8492775018333,4734.0275840852155,0.0
728523.2936376977,3567751.2368613081,-37500.0,-357.60653582848624,1660.6409183906517,-2094.8702149076616,1050.646036448097,-1440.2005342908781,-838.88226007636467,2379.0749562349479,825.7706636164047,-380.67607863033379,380.67607863033379,-825.7706636164047,4496.765212479655,0.0
733523.2936376977,3567751.2368613081,-37500.0,-648.21185956991997,1651.130525148986,-1836.7247033065455,1081.8884492345012,-1299.6375681019263,-767.67476245823366,2226.655026946512,565.29127707482314,-166.86947719178352,166.86947719178352,-565.29127707482314,4247.6073592934245,0.0
738523.2936376977,3567751.2368613081,-37500.0,-872.49940934674657,1602.5113891296292,-1600.7490760391013,1080.3933443856783,-1161.3265743802599,-694.35347477487812,2077.1696531606945,342.40743783548737,-0.71147752113861884,0.71147752113861884,-342.40743783548737,3992.9605680811655,0.0
743523.2936376977,3567751.2368613081,-37500.0,-1039.1711987023107,1528.3102592704186,-1389.550139730032,1055.640258509367,-1030.4059551314822,-622.71547705595015,1932.488054961291,156.02191006184478,125.07854416869515,-125.07854416869515,-156.02191006184478,3738.6699766340926,0.0
568523.2936376977,3572751.2368613081,-37500.0,925.94537560650372,-888.93982356870595,-1531.4038459236194,50.787434639051654,-689.62307671046358,-127.50539205595855,1652.0810366617879,1045.5215865682817,-1786.1623617470723,1786.1623617470723,-1045.5215865682817,2892.1872997323694,0.0
573523.2936376977,3572751.2368613081,-37500.0,1265.7326105497557,-778.15586884280378,-1663.4813795376685,208.71491611713986,-684.51652163361393,-78.615716492289323,1800.4771323277355,1392.8306119547265,-1883.28065814927,1883.28065814927,-1392.8306119547265,3130.9163386241175,0.0
578523.2936376977,3572751.2368613081,-37500.0,1650.6550361632101,-608.8383749299021,-1777.9648633733573,411.71531323836524,-645.37638856151079,-3.3044937159128094,1973.412154224789,1790.1831051469933,-1943.4159517480518,1943.4159517480518,-1790.1831051469933,3419.1126087581911,0.0
583523.2936376977,3572751.2368613081,-37500.0,2075.2565856764618,-368.22700623890375,-1858.2149167993289,666.5789222826927,-557.27382719297634,107.19781217538741,2179.1779592890039,2233.2793823487877,-1946.6222316470626,1946.6222316470626,-2233.2793823487877,3778.3023191201064,0.0
588523.2936376977,3572751.2368613081,-37500.0,2528.0150249956482,-44.229681790114988,-1881.3170357519402,978.75917615283186,-401.12630393409376,263.58615228319195,2428.720159908306,2711.4110761804495,-1867.8435104857401,1867.8435104857401,-2711.4110761804495,4236.4741021118261,0.0
593523.2936376977,3572751.2368613081,-37500.0,2989.4248929589953,372.26294101745668,-1817.1471581252399,1350.7500194356476,-153.43925011926376,478.42545636318511,2735.7302535474851,3205.0725732330466,-1677.2509324897064,1677.2509324897064,-3205.0725732330466,4826.8934199784744,0.0
598523.2936376977,3572751.2368613081,-37500.0,3430.2973652412766,883.8484340024404,-1628.1866702111802,1779.7789320082611,213.32816685543116,765.74181461129456,3116.2958449036578,3683.5630489834766,-1341.840405705216,1341.840405705216,-3683.5630489834766,5585.0188297382838,0.0
603523.2936376977,3572751.2368613081,-37500.0,3810.9284085892723,1481.7318219178944,-1270.8555125514108,2254.7829032596946,729.28551627243462,1140.0440710359244,3588.0753203523304,4103.2139097859272,-829.01420683140896,829.01420683140896,-4103.2139097859272,6543.6680367688205,0.0
608523.2936376977,3572751.2368613081,-37500.0,4082.133912548521,2139.7000659830032,-699.40974218058716,2752.8311279916634,1423.8817863806896,1614.5019338372895,4168.9759362832074,4407.2921776481608,-112.91873439976644,112.91873439976644,-4407.2921776481608,7726.8869587957452,0.0
613523.2936376977,3572751.2368613081,-37500.0,4189.4622061039508,2807.8166435103949,126.41100660150977,3235.5225261931714,2320.2121251913454,2197.980880277757,4874.3657708296123,4529.0686647334596,815.92401982466617,-815.92401982466617,-4529.0686647334596,9142.7767232988299,0.0
618523.2936376977,3572751.2368613081,-37500.0,4081.9356839040411,3407.7189282473114,1229.0683576368456,3646.446282836544,3426.3041592492386,2890.688037721508,5709.3411622109761,4399.7771589488639,1937.9204646424771,-1937.9204646424771,-4399.7771589488639,10775.225676812523,0.0
623523.2936376977,3572751.2368613081,-37500.0,3726.102937482935,3832.6599847760353,2596.3554899655333,3911.5249304714212,4723.4292858043673,3678.4105982622737,6655.090050202406,3962.877030068591,3190.3986600103599,-3190.3986600103599,-3962.877030068591,12574.776567863275,0.0
628523.2936376977,3572751.2368613081,-37500.0,3124.5577349873988,3956.4992198182972,4162.2400744821662,3944.7728711834052,6152.8024630731343,4525.8734899837145,7660.3237411062173,3194.6669076063899,4456.3892507729852,-4456.3892507729852,-3194.6669076063899,14450.004898463647,0.0
633523.2936376977,3572751.2368613081,-37500.0,2335.0426363071642,3655.7956647174137,5791.0474591572183,3662.2212619885918,7604.2504016962139,5370.7701629186131,8643.9622225183339,2128.3830680576248,5563.0467389102978,-5563.0467389102978,-2128.3830680576248,16262.598624925728,0.0
638523.2936376977,3572751.2368613081,-37500.0,1481.9947448088253,2846.5602036546702,7274.4791081197973,3005.5634428436165,8913.3115844292515,6121.5948438037831,9502.1692395449481,874.35458112899778,6298.4178736937674,-6298.4178736937674,-874.35458112899778,17831.272337151921,0.0
643523.2936376977,3572751.2368613081,-37500.0,748.4548295228584,1530.4724318698009,8353.2336775330023,1973.1264970050263,9875.5095671743802,6664.0569413642879,10119.717814714719,-376.39642959643834,6453.6556218968271,-6453.6556218968271,376.39642959643834,18950.566049781679,0.0
648523.2936376977,3572751.2368613081,-37500.0,336.90979887739695,-165.71764092020629,8771.4881310741803,648.32688466638797,10285.068706916543,6880.8823172789735,10390.275014348761,-1379.8171919828947,5889.0709369117494,-5889.0709369117494,1379.8171919828947,19428.363912821362,0.0
653523.2936376977,3572751.2368613081,-37500.0,399.34788176160487,-1984.3952040752999,8358.4068052933217,-792.49409180604982,9995.8331314457882,6685.2734587093119,10244.953508672104,-1904.5179099188897,4604.9898188108764,-4604.9898188108764,1904.5179099188897,19138.366723964587,0.0
658523.2936376977,3572751.2368613081,-37500.0,961.33272228693795,-3588.8289144666574,7107.2324122949603,-2111.0666430610522,8984.1846113625052,6057.9254284278531,9680.7697530384357,-1819.2287154911924,2779.7472551949045,-2779.7472551949045,1819.2287154911924,18071.518976515519,0.0
663523.2936376977,3572751.2368613081,-37500.0,1886.6284335761372,-4667.9321901220428,5205.5772041573673,-3077.1806201625582,7378.8501898263876,5067.3482538033459,8775.7153641821769,-1157.9362390328502,737.80150931424316,-737.80150931424316,1157.9362390328502,16361.355024977916,0.0
668523.2936376977,3572751.2368613081,-37500.0,2917.9950766823131,-5046.6818988015193,2985.6788102270307,-3547.4162068943087,5430.8601147206173,3856.1218659607403,7679.5673001607056,-115.84275908112897,-1152.9320802907182,1152.9320802907182,115.84275908112897,14264.058734868684,0.0
673523.2936376977,3572751.2368613081,-37500.0,3779.2965307617837,-4738.4672122946577,812.81060348496783,-3507.8793072906656,3432.8445283799642,2596.0929492612149,6576.404001285131,1029.8849957456023,-2603.9111757797109,2603.9111757797109,-1029.8849957456023,12096.205340353452,0.0
678523.2936376977,3572751.2368613081,-37500.0,4277.4351861313944,-3912.3067174353523,-1027.0528382067769,-3058.6810410569997,1631.2966184624713,1436.9729794067862,5622.4726485517676,2026.775500552536,-3481.5942822554289,3481.5942822554289,-2026.775500552536,10154.163069789522,0.0
683523.2936376977,3572751.2368613081,-37500.0,4348.5029920491916,-2806.0746909648324,-2385.2201282907004,-2358.0655438003191,174.91913747882165,474.18229587641514,4893.3890041431578,2720.0319382377156,-3806.2300826142755,3806.2300826142755,-2720.0319382377156,8640.6110909545514,0.0
688523.2936376977,3572751.2368613081,-37500.0,4040.3593119272796,-1641.541348561381,-3243.4752486769539,-1563.4962007591491,-888.93965105000689,-255.7343185754514,4383.4689857120211,3066.1914322124417,-3696.68419655563,3696.68419655563,-3066.1914322124417,7616.2200167112378,0.0
693523.2936376977,3572751.2368613081,-37500.0,3462.3984741462496,-576.53734914190329,-3669.5312957740398,-795.31000961218524,-1586.5886361167707,-760.92482742710263,4039.058512196586,3103.7088741189364,-3304.8417294812461,3304.8417294812461,-3103.7088741189364,7001.925967189175,0.0
698523.2936376977,3572751.2368613081,-37500.0,2736.7319393560588,303.77127729221894,-3767.7780395207838,-126.47447076218918,-1982.7631001305683,-1074.6780772494169,3794.7135808810108,2911.0819914784679,-2769.0317997239472,2769.0317997239472,-2911.0819914784679,6645.5254697497448,0.0
703523.2936376977,3572751.2368613081,-37500.0,1967.6089708645791,972.51480946417655,-3643.9144831465323,410.93643310723974,-2152.7513125960058,-1239.2228287423277,3597.7549974899157,2573.4352948045166,-2192.9564000739542,2192.9564000739542,-2573.4352948045166,6405.0550248238833,0.0
708523.2936376977,3572751.2368613081,-37500.0,1229.5600442574573,1440.0333395564662,-3386.7175066892764,813.17743136087859,-2165.9421201885766,-1295.5651330544827,3415.9488914701533,2163.7440673042333,-1643.176779259627,1643.176779259627,-2163.7440673042333,6189.3758477621477,0.0
713523.2936376977,3572751.2368613081,-37500.0,567.74151051949889,1735.4754993289478,-3062.499911883242,1092.7801525571485,-2078.7772054197085,-1278.5718196195044,3234.1148363872198,1736.1000578462128,-1155.7297220584717,1155.7297220584717,-1736.1000578462128,5955.4208574434142,0.0
718523.2936376977,3572751.2368613081,-37500.0,3.8293419058382132,1894.1314756315946,-2716.5449368096251,1269.5762533208751,-1933.5211150232014,-1215.4991685833565,3047.7553241528331,1326.0895873728721,-745.16303045788277,745.16303045788277,-1326.0895873728721,5690.7252395625892,0.0
723523.2936376977,3572751.2368613081,-37500.0,-456.86905603229064,1950.1243968802578,-2377.2993105083192,1365.0040366722076,-1759.8726456932548,-1126.3745953936409,2857.8073586988316,954.25471970529429,-412.62514274631343,412.62514274631343,-954.25471970529429,5398.2098952994329,0.0
728523.2936376977,3572751.2368613081,-37500.0,-819.17888052493277,1932.9581809838423,-2060.9602210096191,1398.9925217902014,-1577.5496705385092,-1025.1665969537637,2667.3385122405753,630.22689016498987,-151.91118832480751,151.91118832480751,-630.22689016498987,5086.7643192588976,0.0
733523.2936376977,3572751.2368613081,-37500.0,-1093.3661959177243,1866.4321643566902,-1775.4187292623321,1388.5708790389153,-1398.8789220462731,-921.13768331403651,2479.7770265254439,356.39997870237835,46.505156921804968,-46.505156921804968,-356.39997870237835,4766.3411815088648,0.0
738523.2936376977,3572751.2368613081,-37500.0,-1291.9522261755094,1768.8208514549729,-1523.2717619584109,1347.5058639129202,-1230.9895863056954,-820.08714436080811,2298.10307518536,130.77394078767003,193.02179557546503,-193.02179557546503,-130.77394078767003,4445.764372185321,0.0
743523.2936376977,3572751.2368613081,-37500.0,-1427.7350194678979,1653.6180056154622,-1303.9585308481981,1286.4830728966665,-1077.5120558507767,-725.37358701119194,2124.5712674504466,-51.028354589763694,297.56020850641471,-297.56020850641471,51.028354589763694,4131.9809627627155,0.0
748523.2936376977,3572751.2368613081,-37500.0,-1512.6761471057087,1530.4455717547298,-1115.1942805816027,1213.5274943647005,-939.81885214309875,-638.7003837791674,1960.6955117342138,-194.42437799501914,368.92325781347591,-368.92325781347591,194.42437799501914,3830.0068223141252,0.0
563523.2936376977,3577751.2368613081,-37500.0,300.04993726178316,-1222.3597382815219,-1438.2473774909884,-282.74178586441059,-798.91421035705548,-252.94750805824032,1671.346355273311,421.60627394655717,-1788.3822799023962,1788.3822799023962,-421.60627394655717,3000.5533228073018,0.0
568523.2936376977,3577751.2368613081,-37500.0,592.6465423145404,-1206.0813676164571,-1612.6029500005045,-182.95905302448369,-847.85678902977008,-238.88854467766114,1809.6166847470572,716.33080495507772,-1961.0800227479394,1961.0800227479394,-716.33080495507772,3215.8569372906527,0.0
573523.2936376977,3577751.2368613081,-37500.0,943.27483706004148,-1147.0855528825625,-1792.885371518503,-42.751829937991616,-879.80370639384228,-206.43536084514227,1963.5279187461585,1073.2705043029475,-2125.0049114468929,2125.0049114468929,-1073.2705043029475,3455.094437263399,0.0
578523.2936376977,3577751.2368613081,-37500.0,1354.8418969648492,-1031.2214227066813,-1969.9256219443523,147.40558510755957,-883.40001358087113,-147.76581842896161,2137.9412825176123,1497.1786502305249,-2266.2009956774223,2266.2009956774223,-1497.1786502305249,3729.97486785706,0.0
583523.2936376977,3577751.2368613081,-37500.0,1826.4055288895415,-842.25776838899287,-2129.2144629677623,397.67880382639885,-842.92201907541335,-52.657183030744477,2340.2730997532599,1989.214272184847,-2365.0536285902322,2365.0536285902322,-1989.214272184847,4059.4507627368325,0.0
588523.2936376977,3577751.2368613081,-37500.0,2350.9579061529412,-562.88387389902459,-2249.136676628264,717.93280404586721,-737.23572340877126,91.920146792186657,2581.4644725432863,2544.5024194299235,-2395.221008032147,2395.221008032147,-2544.5024194299235,4472.1003169751684,0.0
593523.2936376977,3577751.2368613081,-37500.0,2912.7061687939072,-176.78432915964677,-2299.1641193678092,1116.0903163043731,-538.88754982111732,302.07190016887495,2876.9117927320171,3148.9777804775031,-2323.0657180079343,2323.0657180079343,-3148.9777804775031,5007.4590623239019,0.0
598523.2936376977,3577751.2368613081,-37500.0,3484.1160408973906,327.73330476080713,-2238.4840842677399,1595.533516447043,-213.68749524168598,596.93268255076487,3247.0382559453515,3775.6872013586117,-2108.2406955760325,2108.2406955760325,-3775.6872013586117,5714.733597442535,0.0
603523.2936376977,3577751.2368613081,-37500.0,4023.3571242183552,952.10289645180285,-2015.940930257013,2151.3222839479449,278.60463125533778,998.02023692630382,3717.1637642401433,4381.1054325761379,-1706.4109293273073,1706.4109293273073,-4381.1054325761379,6647.6911180532425,0.0
608523.2936376977,3577751.2368613081,-37500.0,4473.3362024808666,1679.6778256697146,-1572.6748249708178,2765.1614569696608,981.56961285185616,1527.5806808635334,4316.4128131152211,4902.6138114350379,-1075.3716377852018,1075.3716377852018,-4902.6138114350379,7855.8511777798531,0.0
613523.2936376977,3577751.2368613081,-37500.0,4764.1517722690141,2466.2649021766515,-849.3110374698872,3399.4424723658522,1936.1722092604914,2205.368863510655,5074.7179103694889,5259.0625292563254,-185.83665597469417,185.83665597469417,-5259.0625292563254,9373.2067905067997,0.0
618523.2936376977,3577751.2368613081,-37500.0,4821.3163257545802,3230.9158542377995,200.35570111461948,3991.4358252652432,3170.2290508321257,3043.2026842965151,6013.7379362266274,5357.087510537749,962.46560998902669,-962.46560998902669,-5357.087510537749,11205.380868602684,0.0
623523.2936376977,3577751.2368613081,-37500.0,4581.9542392107242,3850.9010829244789,1588.1290780402901,4449.9053821066636,4682.4205507703737,4036.6904475455631,7127.5623357814129,5106.0915549907941,2320.5396950332224,-2320.5396950332224,-5106.0915549907941,13315.267742803313,0.0
628523.2936376977,3577751.2368613081,-37500.0,4019.63565529681,4167.048266554998,3264.1657687116362,4657.9686086021657,6421.4973444175239,5154.0282486915521,8365.2994361793171,4443.7588916490367,3770.1542675678497,-3770.1542675678497,-4443.7588916490367,15607.829882017924,0.0
633523.2936376977,3577751.2368613081,-37500.0,3174.660087777479,4006.9289022639141,5090.0298613012528,4487.4452844406705,8264.5441190293823,6323.1696040352399,9629.4694836282124,3370.6721265196506,5113.1794289549543,-5113.1794289549543,-3370.6721265196506,17917.510856597568,0.0
638523.2936376977,3577751.2368613081,-37500.0,2179.929950672185,3231.5204661719208,6824.8631102539666,3829.8901365173238,10003.343603645179,7421.615216882512,10782.515027147059,1986.2277462983957,6083.6801006327241,-6083.6801006327241,-1986.2277462983957,20005.908864205248,0.0
643523.2936376977,3577751.2368613081,-37500.0,1263.999478931416,1802.7433142045686,8143.2445787345987,2645.2043318886604,11353.906998865994,8277.6370378415613,11659.686067326396,508.71305258159782,6396.9584724521665,-6396.9584724521665,-508.71305258159782,21581.037366209792,0.0
648523.2936376977,3577751.2368613081,-37500.0,707.92819664652393,-148.11128035795187,8702.2252340059604,1016.4338201589009,12006.329694395163,8695.4562738418008,12097.220591934252,-746.17401005668353,5840.3460607494071,-5840.3460607494071,746.17401005668353,22348.955233748846,0.0
653523.2936376977,3577751.2368613081,-37500.0,744.62307329026589,-2293.7047520871411,8257.0999831354766,-820.27539464436461,11720.193300436526,8512.1583151445084,11978.133500209846,-1449.9783268842752,4384.1017002903973,-4384.1017002903973,1449.9783268842752,22097.716545850973,0.0
658523.2936376977,3577751.2368613081,-37500.0,1431.4841179121568,-4174.7031228913584,6785.7816333442197,-2512.2789446290685,10436.955358971079,7672.5882830316514,11282.985909757857,-1396.8217980415357,2253.2161815571335,-2253.2161815571335,1396.8217980415357,20789.717194660538,0.0
663523.2936376977,3577751.2368613081,-37500.0,2579.35813717675,-5360.5199869840089,4543.3812146091868,-3707.0917752628943,8342.4587403556252,6278.8631974586087,10119.938675845622,-618.90549535560149,-110.79653759132361,110.79653759132361,618.90549535560149,18614.531324024912,0.0
668523.2936376977,3577751.2368613081,-37500.0,3814.6176596139112,-5627.9606171135756,1986.0883087465502,-4194.9448413216505,5819.2860475745611,4569.1604462709929,8710.9909922361931,610.26697484549163,-2210.090529967646,2210.090529967646,-610.26697484549163,15959.302526576557,0.0
673523.2936376977,3577751.2368613081,-37500.0,4751.9942654645165,-5038.3666941280026,-405.76131279005421,-3982.6475913296658,3303.1379133442538,2828.3319101077168,7329.8500283673375,1905.0905348599936,-3683.3610182819511,3683.3610182819511,-1905.0905348599936,13298.615032618882,0.0
678523.2936376977,3577751.2368613081,-37500.0,5157.3024287199241,-3866.7941635018578,-2294.0429534421787,-3253.4719153438141,1133.4845255751543,1288.1365460944367,6201.2721055435031,2939.3442584875238,-4408.9633531614945,4408.9633531614945,-2939.3442584875238,11051.171550059527,0.0
683523.2936376977,3577751.2368613081,-37500.0,4999.5374081614491,-2452.6383146268158,-3547.5924362339724,-2258.8521892320996,-518.40656614513796,74.953515840742128,5410.1415026496052,3547.3227934141278,-4476.4980488717847,4476.4980488717847,-3547.3227934141278,9453.7652277368124,0.0
688523.2936376977,3577751.2368613081,-37500.0,4396.7016638903315,-1075.4934690533694,-4205.046884134058,-1220.9292207976314,-1633.8825765787064,-784.86826642497385,4906.3147322308523,3721.4366306350757,-4084.1994941606836,4084.1994941606836,-3721.4366306350757,8498.1741166132306,0.0
693523.2936376977,3577751.2368613081,-37500.0,3525.3568389104585,95.516572442016681,-4395.0113393718257,-286.9116142934717,-2287.7552588380609,-1329.385689728007,4583.0979566457536,3550.5241430280103,-3441.2113074475456,3441.2113074475456,-3550.5241430280103,7989.0679246356549,0.0
698523.2936376977,3577751.2368613081,-37500.0,2551.1979188792347,993.13031593032042,-4266.5966361181654,471.35456017705894,-2590.2471035401309,-1624.2926375584759,4344.4957363778494,3154.6719875961453,-2713.1236747527764,2713.1236747527764,-3154.6719875961453,7694.3483291687171,0.0
703523.2936376977,3577751.2368613081,-37500.0,1596.8086123605447,1618.7495872824438,-3949.8273440244866,1036.831862699549,-2649.5965680749914,-1738.2179667491816,4130.6847199485755,2643.6924773443625,-2007.7802726395939,2007.7802726395939,-2643.6924773443625,7452.2876964737725,0.0
708523.2936376977,3577751.2368613081,-37500.0,737.13108814080385,2009.4211946659823,-3541.7407914170822,1424.2926874198681,-2555.0448491491766,-1730.522832469185,3914.1188864379092,2100.1578725410486,-1383.203740028531,1383.203740028531,-2100.1578725410486,7184.9285033824244,0.0
713523.2936376977,3577751.2368613081,-37500.0,8.2387679858809815,2214.5445019442268,-3107.1709527959629,1662.8079758943802,-2372.8971479389465,-1647.4231111689064,3687.0960893241427,1577.8624156879039,-862.39303111562845,862.39303111562845,-1577.8624156879039,6869.3714883706871,0.0
718523.2936376977,3577751.2368613081,-37500.0,-580.572692504614,2282.6418405657805,-2685.3435153287674,1784.864703437024,-2148.8835421291787,-1522.4184640698243,3451.4908055333017,1107.054397650345,-447.06935042424664,447.06935042424664,-1107.054397650345,6509.7198828342771,0.0
723523.2936376977,3577751.2368613081,-37500.0,-1036.1152685789825,2255.346034368612,-2297.3435921310565,1820.6413104649337,-1912.6016008020397,-1378.4374642288362,3212.6077088108423,701.21685947262711,-127.79348068572915,127.79348068572915,-701.21685947262711,6119.986202545153,0.0
728523.2936376977,3577751.2368613081,-37500.0,-1373.4697958265372,2165.6525420630715,-1952.4174648993176,1795.598839085653,-1681.975077845354,-1230.3379797228579,2976.1114907899564,363.05919603530049,109.52645033432108,-109.52645033432108,-363.05919603530049,5715.6217343958269,0.0
733523.2936376977,3577751.2368613081,-37500.0,-1610.8558457865631,2038.3203479526376,-1652.6236857887504,1729.9443359241409,-1466.9475835174237,-1087.1634622655181,2746.7499873593692,89.031065421555169,279.87188586972871,-279.87188586972871,-89.031065421555169,5309.9952110982013,0.0
738523.2936376977,3577751.2368613081,-37500.0,-1766.5879217673273,1891.1456009296687,-1395.9958343817107,1639.019952633915,-1272.2593800843149,-953.95538032953266,2527.9918155764317,-127.58911995291737,397.17683916984788,-397.17683916984788,127.58911995291737,4913.3431602736955,0.0
743523.2936376977,3577751.2368613081,-37500.0,-1857.4648716384941,1736.4330659489099,-1178.5688406512102,1534.0621734068488,-1099.4130354909105,-833.11269631467974,2322.0794416973972,-294.73171963637526,473.49990975187541,-473.49990975187541,294.73171963637526,4532.8286174129544,0.0
748523.2936376977,3577751.2368613081,-37500.0,-1898.0684863576635,1582.352530202493,-995.60887190869653,1423.034616721025,-948.00535481816087,-725.36389468430718,2130.2380485748436,-420.37747457354249,518.81823342238408,-518.81823342238408,420.37747457354249,4173.019828654612,0.0
558523.2936376977,3582751.2368613081,-37500.0,-334.00265372451827,-1417.5584279656211,-1250.8097259673884,-576.67381025090413,-830.32327999599318,-348.51641490950112,1706.1071417666676,-207.41714212047555,-1637.7508139605118,1637.7508139605118,207.41714212047555,3149.8926214025018,0.0
563523.2936376977,3582751.2368613081,-37500.0,-118.73366738216606,-1480.2629684348306,-1433.4821034024615,-539.19158133511155,-915.29886122799758,-365.07160854548312,1847.6832695998628,3.7840814154312739,-1846.7222783189823,1846.7222783189823,-3.7840814154312739,3380.0011058873561,0.0
568523.2936376977,3582751.2368613081,-37500.0,155.72945791830972,-1519.7258355753452,-1636.9789086489022,-471.24989519205315,-997.94314141715051,-371.87234403884912,2000.8875302738509,276.32164055480985,-2068.9792707139486,2068.9792707139486,-276.32164055480985,3623.3867530267412,0.0
573523.2936376977,3582751.2368613081,-37500.0,498.28298125337875,-1524.0237614653552,-1858.9596171578021,-363.02998789919707,-1071.3527503254654,-362.98716165854938,2167.4494546375445,620.86796281617137,-2297.8159796673617,2297.8159796673617,-620.86796281617137,3882.6362174416067,0.0
578523.2936376977,3582751.2368613081,-37500.0,916.71957640958999,-1477.889998414598,-2093.7465582780601,-202.73781291051642,-1125.019253340693,-330.1459440285368,2350.3513623939662,1047.5882897916745,-2522.0524496438024,2522.0524496438024,-1047.5882897916745,4163.7390547589121,0.0
583523.2936376977,3582751.2368613081,-37500.0,1416.0595874349744,-1362.5371991076963,-2330.6023568159153,23.234560579293603,-1143.5056069933187,-262.06188236559109,2554.7705694929523,1564.5033939037305,-2724.4079241633526,2724.4079241633526,-1564.5033939037305,4478.8582422442742,0.0
588523.2936376977,3582751.2368613081,-37500.0,1996.0840033364627,-1156.0544671160524,-2551.4888585373892,329.68593338246285,-1104.860774154381,-143.67858907730795,2789.490019544206,2174.9393137629804,-2879.6947229950101,2879.6947229950101,-2174.9393137629804,4850.3497623835283,0.0
593523.2936376977,3582751.2368613081,-37500.0,2647.9427403200866,-834.8704634191788,-2728.3917041032828,731.21817597379845,-978.89871458723735,44.57653407539879,3068.8011903063089,2873.8426439188133,-2953.1532445591956,2953.1532445591956,-2873.8426439188133,5315.6104513953178,0.0
598523.2936376977,3582751.2368613081,-37500.0,3349.8934547455428,-376.98240491922996,-2820.5751425247418,1239.6702460068673,-725.66862662514347,327.36570494730779,3414.6994346327747,3642.8826914408023,-2899.5946714003408,2899.5946714003408,-3642.8826914408023,5930.9715197474425,0.0
603523.2936376977,3582751.2368613081,-37500.0,4062.6281765466269,232.19599043804311,-2772.6298146694826,1859.8786280750005,-294.78120878880304,734.53568199362041,3858.8110991107997,4444.6303818501483,-2664.5187055986635,2664.5187055986635,-4444.6303818501483,6771.1490155280026,0.0
608523.2936376977,3582751.2368613081,-37500.0,4725.3691436197514,990.58835336648178,-2514.9454928171331,2583.2939314375053,373.22850154487583,1300.2063573974522,4443.1409555466535,5216.8232193195718,-2188.9806922766211,2188.9806922766211,-5216.8232193195718,7920.6411926458204,0.0
613523.2936376977,3582751.2368613081,-37500.0,5254.9973843847774,1866.6645014061844,-1969.1851353412326,3379.2887540719244,1341.6639301715047,2059.9974397044207,5218.0067382998204,5868.8792378289372,-1420.4436700528322,1420.4436700528322,-5868.8792378289372,9456.6298336737036,0.0
618523.2936376977,3582751.2368613081,-37500.0,5551.7203061210848,2784.5856668656015,-1062.0513001316801,4184.8383420531227,2666.1163090622531,3045.114654442526,6231.9654730585626,6284.2847173516766,-331.60848789887405,331.60848789887405,-6284.2847173516766,11426.802958027885,0.0
623523.2936376977,3582751.2368613081,-37500.0,5515.5520070669991,3611.7136089227256,249.75978522393763,4894.9526318692397,4374.1187135784066,4271.6207861150397,7505.2571718639547,6333.7030954024149,1052.604719897995,-1052.604719897995,-6333.7030954024149,13825.321052441408,0.0
628523.2936376977,3582751.2368613081,-37500.0,5076.9453356737768,4156.9232501119604,1943.3847457948164,5358.9790041066708,6434.980610493215,5723.257001506051,8997.9639528188873,5903.4854235813873,2624.0918619562958,-2624.0918619562958,-5903.4854235813873,16567.591994561808,0.0
633523.2936376977,3582751.2368613081,-37500.0,4240.6171557808148,4191.7101355959012,3888.8883864234649,5391.3731892993928,8723.0031361012516,7327.5849776253208,10599.323243605413,4941.0842905826466,4167.8074904379628,-4167.8074904379628,-4941.0842905826466,19465.95043074133,0.0
638523.2936376977,3582751.2368613081,-37500.0,3132.3381245556011,3505.9576213472415,5820.1552785853255,4808.2461195043752,10985.490619104545,8929.7552591275489,12131.952780755315,3511.004953424188,5364.467099162066,-5364.467099162066,-3511.004953424188,22215.488526136291,0.0
643523.2936376977,3582751.2368613081,-37500.0,2023.6334976872454,2001.2963835992839,7344.6201517406835,3498.5593029607762,12838.986100364344,10277.943589267867,13364.435322135476,1841.0572667906722,5843.4690248107381,-5843.4690248107381,-1841.0572667906722,24408.594095419227,0.0
648523.2936376977,3582751.2368613081,-37500.0,1293.6010134125158,-199.33566616657052,8021.9049967174151,1521.9908450785906,13827.384855719711,11047.829623954209,14048.099544096056,320.18097789252397,5301.5292286404037,-5301.5292286404037,-320.18097789252397,25601.639077011845,0.0
653523.2936376977,3582751.2368613081,-37500.0,1291.7282361115253,-2688.2137579506202,7521.1327034604774,-814.08220659234405,13565.439579816799,10935.15540911117,13988.345612134961,-599.42859937209687,3666.9044396270365,-3666.9044396270365,599.42859937209687,25445.225121234314,0.0
658523.2936376977,3582751.2368613081,-37500.0,2129.611078975694,-4845.9227375443406,5806.4897924322122,-2986.2975121811141,11933.918480193177,9805.7637729362395,13134.049182782233,-602.56767740878149,1223.0202702130337,-1223.0202702130337,602.56767740878149,23846.939546134956,0.0
663523.2936376977,3582751.2368613081,-37500.0,3543.1995957881559,-6084.3975774680703,3226.1647474957836,-4448.8905627435106,9204.4169393248794,7813.2558064430787,11637.027457361637,289.26966308760427,-1435.1761796119554,1435.1761796119554,-289.26966308760427,21078.16606583276,0.0
668523.2936376977,3582751.2368613081,-37500.0,4987.3806291454594,-6132.7064214190732,394.13829170220311,-4895.5598562644118,5962.6845684440377,5367.4582124206181,9831.4067894041455,1695.6162414101414,-3649.1047139834095,3649.1047139834095,-1695.6162414101414,17730.728339462861,0.0
673523.2936376977,3582751.2368613081,-37500.0,5931.4318263160467,-5144.6495932698463,-2084.5710903111808,-4387.118259127963,2851.5097066555868,2949.8867890335864,8125.3154702385227,3087.4081742426488,-4992.8594235362607,4992.8594235362607,-3087.4081742426488,14518.32775654889,0.0
678523.2936376977,3582751.2368613081,-37500.0,6115.1275625920443,-3552.7455806829284,-3846.9549301147881,-3253.034705897157,320.52268799873985,916.98530364915246,6832.4834560141735,4059.9817775203692,-5400.4851285858376,5400.4851285858376,-4059.9817775203692,12016.670121142362,0.0
683523.2936376977,3582751.2368613081,-37500.0,5587.8334595757278,-1819.7329688391781,-4823.6231554314572,-1883.5061864445822,-1461.2847018606647,-578.72900944219418,6022.8222542868207,4463.20127507693,-5076.7967208490118,5076.7967208490118,-4463.20127507693,10450.126973248094,0.0
688523.2936376977,3582751.2368613081,-37500.0,4579.624482643796,-271.69894631851668,-5144.0153063662674,-576.28800784219982,-2541.3965635325821,-1549.4588492106493,5558.0639835057755,4357.9608850526338,-4321.5864349155117,4321.5864349155117,-4357.9608850526338,9649.4408498680896,0.0
693523.2936376977,3582751.2368613081,-37500.0,3351.6751448448613,936.8890407986039,-5010.070958837382,507.10115332569382,-3070.9601614427361,-2091.6144161505676,5260.4949855768846,3902.7519404873829,-3398.5597316659514,3398.5597316659514,-3902.7519404873829,9259.0453488652238,0.0
698523.2936376977,3582751.2368613081,-37500.0,2109.7866889462075,1779.9701515845782,-4611.1768357498213,1315.0185127270513,-3218.4220469821025,-2322.018409106036,5011.4560001062655,3262.3987480533924,-2485.1927600472827,2485.1927600472827,-3262.3987480533924,8988.529936557341,0.0
703523.2936376977,3582751.2368613081,-37500.0,981.89459798433836,2301.0575371320219,-4089.7880991366451,1861.0851320404281,-3126.7282282295587,-2344.8580681664807,4756.7727341261916,2564.8398371938297,-1676.766033481626,1676.766033481626,-2564.8398371938297,8690.3287602256187,0.0
708523.2936376977,3582751.2368613081,-37500.0,29.645564771629484,2569.061993794066,-3538.8359792380184,2188.1329039432812,-2901.4468988008653,-2240.8424034449063,4481.6687114324195,1892.8015864765493,-1010.1890817255985,1010.1890817255985,-1892.8015864765493,8319.0251503880845,0.0
713523.2936376977,3582751.2368613081,-37500.0,-730.47685854821998,2653.3970555763635,-3011.9818050569961,2346.2568354912596,-2613.8354372010485,-2067.4364249473479,4189.3029126401743,1291.3815931919376,-487.88468934509217,487.88468934509217,-1291.3815931919376,7878.7793556682764,0.0
718523.2936376977,3582751.2368613081,-37500.0,-1308.214492770373,2613.1395499662199,-2535.9432568746729,2381.8873822969667,-2308.6626074625747,-1863.0879707569491,3888.6757492016136,779.45423808078272,-95.148735145643286,95.148735145643286,-779.45423808078272,7391.1700629424286,0.0
723523.2936376977,3582751.2368613081,-37500.0,-1726.0470239526248,2494.1570642790807,-2120.6776400875415,2333.5646963407107,-2012.0719339819036,-1652.0882012011937,3589.0840067078839,359.69628856886004,189.15928186109184,-189.15928186109184,-359.69628856886004,6880.0233290956712,0.0
728523.2936376977,3582751.2368613081,-37500.0,-2010.775292745868,2329.9637955696971,-1766.5818735187779,2231.2123444082031,-1737.9004321790007,-1448.800134611002,3298.0578702424641,25.875646300038596,386.80652480733318,-386.80652480733318,-25.875646300038596,6365.550176456707,0.0
733523.2936376977,3582751.2368613081,-37500.0,-2188.8099689038077,2143.9209235994444,-1469.1411028029092,2096.9855082203139,-1492.254818686197,-1260.9372611393144,3020.9122454718445,-232.38535721433777,517.44250832835576,-517.44250832835576,232.38535721433777,5862.8336762902763,0.0
738523.2936376977,3582751.2368613081,-37500.0,-2283.8641948630266,1951.6253657467557,-1221.7353824997901,1946.6621940218133,-1276.6280026919792,-1091.9458550307056,2760.9543042838932,-426.73949761465053,597.59671416164122,-597.59671416164122,426.73949761465053,5382.1147425071294,0.0
743523.2936376977,3582751.2368613081,-37500.0,-2316.0783394729415,1763.0106811384585,-1017.2296649442059,1791.0735570850554,-1089.9298367503084,-942.65805504118066,2519.89481810812,-568.52243082486848,640.57787521507066,-640.57787521507066,568.52243082486848,4929.6775385634583,0.0
748523.2936376977,3582751.2368613081,-37500.0,-2301.9352204694187,1584.0239297111912,-848.80654279165094,1637.3627393812633,-929.76229588882234,-812.39800044422384,2298.2709287140206,-667.96806220708061,656.78634588964962,-656.78634588964962,667.96806220708061,4508.8196087277283,0.0
558523.2936376977,3587751.2368613081,-37500.0,-796.80072719230407,-1595.5520002641586,-1180.6179698853625,-833.87657027045884,-900.83144317558231,-453.37996107747455,1886.531899752189,-668.12999848364529,-1589.4329514170693,1589.4329514170693,668.12999848364529,3543.2986237320556,0.0
563523.2936376977,3587751.2368613081,-37500.0,-623.3265232721543,-1707.8482908185197,-1373.3073989706054,-836.80764126292934,-1011.8259409126094,-492.2515957797209,2050.3381992729478,-504.03080578361278,-1825.4406310351724,1825.4406310351724,504.03080578361278,3821.0351061365295,0.0
568523.2936376977,3587751.2368613081,-37500.0,-387.72246247296948,-1807.2786687828852,-1595.240060029535,-813.73256194887983,-1128.194365090543,-525.69309412033442,2226.5264620894372,-276.97098464432725,-2087.3557892007657,2087.3557892007657,276.97098464432725,4112.693869138875,0.0
573523.2936376977,3587751.2368613081,-37500.0,-77.338672200567984,-1882.8809564394901,-1847.4967162182325,-754.07123279431698,-1244.8087192081948,-548.20394239871177,2415.541655966133,27.505320346658209,-2372.21307998362,2372.21307998362,-27.505320346658209,4417.2283460096278,0.0
578523.2936376977,3587751.2368613081,-37500.0,320.86733328122835,-1919.6692233422452,-2128.7495689100774,-644.38810392857249,-1353.0205929836261,-551.69120957400196,2618.2962020018394,425.07001097752095,-2673.1248854864261,2673.1248854864261,-425.07001097752095,4734.726947268543,0.0
583523.2936376977,3587751.2368613081,-37500.0,818.9231502067197,-1897.884059371127,-2433.534893371726,-468.12222855597457,-1439.0671850401104,-524.54207555640392,2836.900459375719,931.38724304889388,-2977.3656509275615,2977.3656509275615,-931.38724304889388,5068.5173294070164,0.0
588523.2936376977,3587751.2368613081,-37500.0,1425.4591612994063,-1792.5900502274048,-2749.7672516969378,-205.66418452371769,-1481.9743635672226,-450.47406145117731,3076.0218308156518,1559.8600274719602,-3263.9424638743294,3263.9424638743294,-1559.8600274719602,5429.0855300941648,0.0
593523.2936376977,3587751.2368613081,-37500.0,2142.000511251063,-1574.1432535808112,-3055.39556693328,164.87327125417602,-1450.9615755021393,-307.17943407400338,3345.2276394719447,2317.9038517071485,-3500.8210226822475,3500.8210226822475,-2317.9038517071485,5840.6548580928238,0.0
598523.2936376977,3587751.2368613081,-37500.0,2957.6482467656219,-1210.392664467762,-3314.3260397288454,665.64028630228972,-1302.5402762139427,-64.850125175728337,3662.6635018444485,3201.3056580375501,-3642.3398826447497,3642.3398826447497,-3201.3056580375501,6350.6174094622284,0.0
603523.2936376977,3587751.2368613081,-37500.0,3842.1818657036997,-671.89559960875226,-3472.2749916897519,1314.9808783392891,-977.89674434725862,315.17888750476408,4060.1202957331652,4186.4595000507588,-3628.0092795406231,3628.0092795406231,-4186.4595000507588,7039.4331700989651,0.0
608523.2936376977,3587751.2368613081,-37500.0,4738.4162288804873,58.276913829878445,-3454.215964886007,2120.2585491171799,-401.87762822231457,881.12737582901377,4588.6162596642553,5220.9731007580795,-3384.8795564401189,3384.8795564401189,-5220.9731007580795,8023.5743372648494,0.0
613523.2936376977,3587751.2368613081,-37500.0,5556.1725068004998,968.84326642236817,-3166.6160765259665,3066.5216888979216,513.9628129445083,1689.699934866275,5321.557813941271,6214.604168627232,-2836.8009776873196,2836.8009776873196,-6214.604168627232,9440.8335945565086,0.0
618523.2936376977,3587751.2368613081,-37500.0,6172.5051148384582,1999.060951937106,-2509.3750190872861,4100.6378895975913,1860.3506740304392,2801.1779934531501,6347.1583459772946,7034.8461146139553,-1924.4996966669632,1924.4996966669632,-7034.8461146139553,11414.40197836524,0.0
623523.2936376977,3587751.2368613081,-37500.0,6445.2103783073699,3016.2413069211761,-1403.0416905254515,5112.6442381951711,3706.3352906916366,4267.2821048304249,7733.6077307309397,7514.27778941622,-638.97359937136116,638.97359937136116,-7514.27778941622,14005.955664185376,0.0
628523.2936376977,3587751.2368613081,-37500.0,6247.2501629127164,3802.9177510229306,165.86410692277468,5920.3686077069133,6058.2512715380672,6107.2205509261294,9472.5777693281725,7478.3889248066471,934.71557850795125,-934.71557850795125,-7478.3889248066471,17169.663932303389,0.0
633523.2936376977,3587751.2368613081,-37500.0,5525.5175576239881,4071.8226136224375,2087.4801423996209,6270.0628465378986,8802.7306745067326,8267.8525876747699,11449.352406270733,6800.1959476127595,2576.7493183721053,-2576.7493183721053,-6800.1959476127595,20710.220607145955,0.0
638523.2936376977,3587751.2368613081,-37500.0,4375.1842696952499,3529.54571738298,4080.6731393159293,5873.3594716210482,11647.232756790721,10569.631374373959,13442.954626496699,5478.6907266444523,3921.8843497510061,-3921.8843497510061,-5478.6907266444523,24251.154021859693,0.0
643523.2936376977,3587751.2368613081,-37500.0,3098.5353024504957,1999.9068617760827,5692.9010267070844,4503.766430397548,14092.004709735329,12657.155617602248,15136.590039861432,3719.9680176400384,4514.691752185292,-4514.691752185292,-3719.9680176400384,27237.911221077298,0.0
648523.2936376977,3587751.2368613081,-37500.0,2186.1202335504559,-414.20253165876846,6392.4490958981451,2157.9860306648084,15490.62134676564,14005.756214524819,16162.241241904063,1970.7443742542723,3958.713466275572,-3958.713466275572,-1970.7443742542723,29017.980162576667,0.0
653523.2936376977,3587751.2368613081,-37500.0,2142.6860981503087,-3214.6841213322591,5773.0694405368022,-780.09747858919752,15255.463507285071,14061.248648095663,16206.911084079238,822.9116066949673,2142.9310216566837,-2142.9310216566837,-822.9116066949673,29034.093824632866,0.0
658523.2936376977,3587751.2368613081,-37500.0,3161.4226152648816,-5586.3882548251177,3808.4769315241406,-3539.9000471417462,13179.286566944791,12530.475985534689,15164.869561920652,737.44826954799021,-570.27159415133258,570.27159415133258,-737.44826954799021,27100.409875015161,0.0
663523.2936376977,3587751.2368613081,-37500.0,4871.4804387668228,-6754.6194280157115,973.820253143419,-5279.1843560359703,9665.1216117193926,9648.4210743770072,13251.727063257991,1716.2867128669545,-3398.9643474039144,3398.9643474039144,-1716.2867128669545,23608.421138192283,0.0
668523.2936376977,3587751.2368613081,-37500.0,6483.1185645879896,-6424.9236320142754,-1941.586155868782,-5562.31591294381,5598.8150164351991,6133.0509156843082,10974.087571783435,3240.5849502062429,-5515.3265631479171,5515.3265631479171,-3240.5849502062429,19463.971207184022,0.0
673523.2936376977,3587751.2368613081,-37500.0,7289.5410139872811,-4914.0891983072352,-4238.48202321808,-4573.7009491683939,1897.0732014543973,2799.4397249821327,8934.9661402269594,4607.404271113759,-6475.64408802445,6475.64408802445,-4607.404271113759,15725.521704919263,0.0
678523.2936376977,3587751.2368613081,-37500.0,7053.032647214698,-2866.269535817944,-5598.072408368158,-2887.3602981829404,-890.50156238456805,176.64129532054648,7543.1549419372568,5350.6175371428453,-6344.4381558544646,6344.4381558544646,-5350.6175371428453,13129.253538718647,0.0
683523.2936376977,3587751.2368613081,-37500.0,5980.1542378512031,-866.41999520758043,-6075.9543069314104,-1081.5182237430015,-2654.6035726138161,-1589.4744354408112,6788.2715455667003,5385.0683720207498,-5491.0625474470735,5491.0625474470735,-5385.0683720207498,11759.703345686514,0.0
688523.2936376977,3587751.2368613081,-37500.0,4459.0764221039944,751.72314113748928,-5919.1788662648905,478.7357758627914,-3561.8886549273952,-2606.0920360352875,6387.4635677501319,4879.8533252331672,-4320.6585248701413,4320.6585248701413,-4879.8533252331672,11168.914248971603,0.0
693523.2936376977,3587751.2368613081,-37500.0,2838.9620090813769,1889.6395029125802,-5396.2909478920883,1650.5977050529089,-3865.5852200154936,-3069.9353221645893,6096.9304241707168,4074.6427086077006,-3126.6976513127715,3126.6976513127715,-4074.6427086077006,10852.975292574733,0.0
698523.2936376977,3587751.2368613081,-37500.0,1345.542704917953,2587.6616742747183,-4714.9094879908998,2432.9342829459997,-3795.2700752426126,-3169.428316360903,5801.5800870672692,3169.8276622703916,-2068.7217549041598,2068.7217549041598,-3169.8276622703916,10526.584888163916,0.0
703523.2936376977,3587751.2368613081,-37500.0,88.146313387777369,2940.0641252593446,-4007.3046438267293,2888.3578875876083,-3520.6920045579118,-3050.2696643393924,5470.0450050928048,2295.3222715440497,-1207.1836757544761,1207.1836757544761,-2295.3222715440497,10095.282377785972,0.0
708523.2936376977,3587751.2368613081,-37500.0,-903.12757301802185,3046.222054254074,-3345.4521931086083,3095.6211252400176,-3153.6523267545726,-2813.6591078457841,5106.8550585907969,1519.5171663373494,-545.33053663573946,545.33053663573946,-1519.5171663373494,9558.897841760041,0.0
713523.2936376977,3587751.2368613081,-37500.0,-1642.3122469420487,2990.1188179957771,-2761.4457025497954,3127.4125352588376,-2761.8988073990831,-2525.2741565637925,4727.0623364706589,868.8219549324964,-59.754840449855692,59.754840449855692,-868.8219549324964,8949.4549226997915,0.0
718523.2936376977,3587751.2368613081,-37500.0,-2163.4233156178066,2835.4099733341191,-2264.038957993565,3042.7480547469281,-2383.2982967580542,-2225.3565610220617,4345.7866304827958,344.97372796283094,281.67880770453996,-281.67880770453996,-344.97372796283094,8303.1112493897217,0.0
723523.2936376977,3587751.2368613081,-37500.0,-2506.2971002522286,2627.1799614614256,-1849.7542190797747,2886.2105614862126,-2036.7979800516619,-1936.9720735889853,3974.8452475579411,-62.920184901549391,510.81736766118843,-510.81736766118843,62.920184901549391,7650.0907934166953,0.0
728523.2936376977,3587751.2368613081,-37500.0,-2709.2567613006267,2395.7620200933429,-1509.5971386236763,2689.8501921567336,-1729.9890166959724,-1672.0667762836163,3622.2792327226907,-370.97419671435637,655.42635908840612,-655.42635908840612,370.97419671435637,7012.4294265539183,0.0
733523.2936376977,3587751.2368613081,-37500.0,-2805.8733008215022,2160.610964779913,-1232.8071941621465,2475.7806674938402,-1464.0107355351568,-1435.6705175780021,3292.8906096117389,-596.35956728623262,738.12073676956231,-738.12073676956231,596.35956728623262,6404.6658266325549,0.0
738523.2936376977,3587751.2368613081,-37500.0,-2823.9797250413208,1933.5337232059369,-1008.7890811378711,2258.6534466672961,-1236.6003015725194,-1228.7109131364587,2989.0185375091928,-755.17894341255885,776.56454556041183,-776.56454556041183,755.17894341255885,5835.3943915015761,0.0
743523.2936376977,3587751.2368613081,-37500.0,-2785.8219866729137,1721.1508022562743,-827.99268239262608,2047.7249325367932,-1043.920083427965,-1049.8374503761895,2711.2626258627515,-861.54168734232724,784.16690328171296,-784.16690328171296,861.54168734232724,5308.8507579413354,0.0
748523.2936376977,3587751.2368613081,-37500.0,-2708.7115664764742,1526.6771457249054,-682.22003237382546,1848.4686540422451,-881.60901294901601,-896.56664167126041,2459.0668484485232,-927.304813134092,770.8934816011888,-770.8934816011888,927.304813134092,4826.2493293972539,0.0
753523.2936376977,3587751.2368613081,-37500.0,-2605.8376126731032,1351.166517571321,-564.63886177927805,1663.7794435901726,-745.35553523764838,-765.97434466866787,2231.1579014269396,-962.15657872726513,744.02456638793785,-744.02456638793785,962.15657872726513,4386.8173187655884,0.0
553523.2936376977,3592751.2368613081,-37500.0,-1385.5643474653853,-1570.300906946622,-904.51751749585299,-1053.0650452060288,-825.38636667364665,-504.9070508152376,1906.1273294121686,-1241.7901276454634,-1247.4310251297304,1247.4310251297304,1241.7901276454634,3653.9686194838123,0.0
558523.2936376977,3592751.2368613081,-37500.0,-1319.3983275773712,-1724.3844060986223,-1065.0776642793858,-1117.0332139876803,-944.69018546220082,-566.89553956345367,2083.5033597827378,-1189.7440432636288,-1461.8899692146053,1461.8899692146053,1189.7440432636288,3972.4898263603914,0.0
563523.2936376977,3592751.2368613081,-37500.0,-1206.0684419962347,-1883.4843632440022,-1256.2847185064536,-1170.3816350765769,-1078.267040341357,-632.06467702228338,2276.1056175664748,-1092.6899526315035,-1710.4767932409279,1710.4767932409279,1092.6899526315035,4312.8558188510951,0.0
568523.2936376977,3592751.2368613081,-37500.0,-1032.1880195425301,-2041.9651394041343,-1482.8982729474751,-1205.583655924934,-1225.2828457710966,-697.79236733136884,2484.0483367872239,-936.42835671298349,-1996.0553374238118,1996.0553374238118,936.42835671298349,4673.1991864498632,0.0
573523.2936376977,3592751.2368613081,-37500.0,-781.95837824772457,-2191.0503112558536,-1749.4230080910779,-1212.2889297584391,-1383.0128240632762,-759.6580075999824,2707.056737183173,-703.67371468295823,-2319.9960087691884,2319.9960087691884,703.67371468295823,5050.4723638429296,0.0
578523.2936376977,3592751.2368613081,-37500.0,-437.41562645266868,-2317.7051737487222,-2059.250320483558,-1176.574903887954,-1545.6733645565128,-810.61644915654301,2944.4982124379012,-374.02144132116996,-2680.8804111773561,2680.8804111773561,374.02144132116996,5440.5819879004757,0.0
583523.2936376977,3592751.2368613081,-37500.0,20.733617326092762,-2403.3480735019552,-2413.1890295144708,-1080.162280107756,-1702.7057312597312,-839.86686307996956,3195.6422986923371,75.558394825240157,-3072.5658821234151,3072.5658821234151,-75.558394825240157,5839.1862105647915,0.0
588523.2936376977,3592751.2368613081,-37500.0,611.27839217051871,-2422.5725498751758,-2807.0967734594997,-899.74321460446606,-1836.3257384606338,-831.32898175302546,3460.4174541801804,669.27259317245034,-3481.4388250943935,3481.4388250943935,-669.27259317245034,6243.9166454738261,0.0
593523.2936376977,3592751.2368613081,-37500.0,1349.090604509852,-2342.3251845583845,-3228.2939901774862,-606.73520199407494,-1918.164410548432,-761.63019298823906,3741.1735994059532,1429.4647656603188,-3882.7871516691034,3882.7871516691034,-1429.4647656603188,6659.4233905697583,0.0
598523.2936376977,3592751.2368613081,-37500.0,2239.4065539363937,-2122.4379251278956,-3650.5391171663996,-168.06281775732037,-1904.9370475693622,-597.51650688489212,4046.3299897253364,2371.1289039060584,-4236.5239636916631,4236.5239636916631,-2371.1289039060584,7107.431941006128,0.0
603523.2936376977,3592751.2368613081,-37500.0,3269.1350300230683,-1719.1277236043127,-4027.7935243597353,450.95260135315732,-1733.4549481584688,-292.69372556952294,4397.2543367291682,3493.0488589145648,-4483.2202342618966,4483.2202342618966,-3493.0488589145648,7644.0992777115134,0.0
608523.2936376977,3592751.2368613081,-37500.0,4395.1433177291556,-1093.9252374635767,-4288.0990657966813,1279.8416181395739,-1316.1638929173985,215.58647626373613,4839.7417281016442,4765.0320950284231,-4542.7324910378857,4542.7324910378857,-4765.0320950284231,8383.0872433153181,0.0
613523.2936376977,3592751.2368613081,-37500.0,5531.2732951738653,-231.00478761387924,-4331.023617583056,2329.9390750996408,-540.11122019533059,1009.0603331312894,5459.258941160524,6112.1930314923247,-4319.7386566498117,4319.7386566498117,-6112.1930314923247,9509.8371091376539,0.0
618523.2936376977,3592751.2368613081,-37500.0,6539.4057667777997,835.21634088694179,-4035.2343675737611,3572.5941883745027,725.03525861669277,2187.207738558734,6389.1792759240161,7400.5107870754082,-3722.5420483433109,3722.5420483433109,-7400.5107870754082,11256.188910879624,0.0
623523.2936376977,3592751.2368613081,-37500.0,7234.9723749935583,1985.1638973573145,-3285.429435259533,4908.3507320137751,2601.2395300679987,3856.3116307248038,7777.3757790991567,8433.0474798850119,-2701.4080361660226,2701.4080361660226,-8433.0474798850119,13818.358193564876,0.0
628523.2936376977,3592751.2368613081,-37500.0,7421.2592605982136,2985.1025099831459,-2026.2041038285174,6133.1790262946797,5149.1104351387703,6099.1238577025151,9688.4766786638284,8971.2541413163835,-1306.498782518122,1306.498782518122,-8971.2541413163835,17252.013244109723,0.0
633523.2936376977,3592751.2368613081,-37500.0,6963.8042678085112,3491.1185350671421,-338.5283843671636,6919.7490875185422,8284.6056749516665,8913.5621500019734,12026.306103368708,8795.5925216400428,250.51444975201048,-250.51444975201048,-8795.5925216400428,21388.781647345364,0.0
638523.2936376977,3592751.2368613081,-37500.0,5899.3922108333663,3121.1079349942956,1490.3597787957924,6847.2003077354821,11681.710219298324,12115.254597368712,14526.510999912594,7808.0155546051683,1570.0874551676438,-1570.0874551676438,-7808.0155546051683,25782.666898166466,0.0
643523.2936376977,3592751.2368613081,-37500.0,4540.8875626186373,1616.0477638381249,2960.7302917159336,5524.0753227124005,14710.896980198493,15225.579070119335,16768.16924073335,6153.7700326711456,2127.4386125746782,-2127.4386125746782,-6153.7700326711456,29701.103483005987,0.0
648523.2936376977,3592751.2368613081,-37500.0,3491.1180633353079,-936.43200176452262,3479.9152775631337,2834.0122429316311,16501.788527474917,17429.846815214591,18226.45736164043,4302.2246025966979,1461.9298425786562,-1461.9298425786562,-4302.2246025966979,32219.514304076212,0.0
653523.2936376977,3592751.2368613081,-37500.0,3435.7044111261944,-3930.6427261456456,2624.112590861183,-763.74916762749535,16227.87069592129,17769.907804488455,18423.174940427321,2973.5834131657039,-533.56685543702474,533.56685543702474,-2973.5834131657039,32494.503342790918,0.0
658523.2936376977,3592751.2368613081,-37500.0,4666.0778405940364,-6337.1388696940603,446.45655507884828,-4160.7762317083661,13595.687119906037,15672.997754859101,17171.779925416129,2792.2735786684325,-3376.4701150694364,3376.4701150694364,-2792.2735786684325,30205.046132226988,0.0
663523.2936376977,3592751.2368613081,-37500.0,6657.6875373582443,-7208.923944533909,-2412.1374401915518,-6094.8297236495273,9213.6512308090314,11511.205937660741,14783.044629292041,3792.3697766794767,-6089.0612447233279,6089.0612447233279,-3792.3697766794767,25920.255338355699,0.0
668523.2936376977,3592751.2368613081,-37500.0,8298.5579569920174,-6303.316749827055,-5024.6272570564988,-5990.2213584631991,4366.8214209637345,6533.1335986865606,12020.254113977438,5293.1050724840006,-7731.8273807591559,7731.8273807591559,-5293.1050724840006,21003.665432241178,0.0
673523.2936376977,3592751.2368613081,-37500.0,8712.2643818238703,-4190.3666506944128,-6709.8167889343849,-4283.0851229168802,267.51841930393198,2075.6943662048802,9744.1901245554218,6415.782439755525,-7956.9450006382031,7956.9450006382031,-6415.782439755525,16954.692523298236,0.0
678523.2936376977,3592751.2368613081,-37500.0,7788.4892411366354,-1748.5891637024813,-7312.7372124110789,-1917.92131788245,-2510.0873615490859,-1139.980190693534,8405.5120323410774,6690.941671840028,-7055.6637889503618,7055.6637889503618,-6690.941671840028,14561.7080881898,0.0
683523.2936376977,3592751.2368613081,-37500.0,5990.4843763796589,368.43390042358504,-7073.1417760643135,315.39623373471386,-4010.7869963839485,-3064.3978467936422,7786.6801120424243,6169.8952709302021,-5583.6594700772921,5583.6594700772921,-6169.8952709302021,13539.738404755273,0.0
688523.2936376977,3592751.2368613081,-37500.0,3891.7486919183361,1891.5424278215096,-6347.6429216819151,2034.1098569590149,-4570.6298752269713,-3989.3482357319936,7435.6990134908456,5161.7016323355365,-4013.1547952975161,4013.1547952975161,-5161.7016323355365,13117.841704372146,0.0
693523.2936376977,3592751.2368613081,-37500.0,1901.6592435867403,2824.4423721182834,-5430.8163234465355,3172.3733810159101,-4548.6683861935171,-4258.1086354007712,7097.106472059796,3977.3519642433603,-2614.3605660645881,2614.3605660645881,-3977.3519642433603,12756.842313109051,0.0
698523.2936376977,3592751.2368613081,-37500.0,224.22994264508023,3288.4263187469496,-4507.177201141938,3815.754718788517,-4217.2234347557478,-4142.4496701572052,6698.9531243839392,2825.9207787904952,-1489.478622622376,1489.478622622376,-2825.9207787904952,12258.453449184073,0.0
703523.2936376977,3592751.2368613081,-37500.0,-1081.9909320543338,3424.1055868341841,-3669.8413174087459,4090.0107137427103,-3751.5159006235981,-3825.7113954128458,6246.2157031138495,1814.3483608804336,-643.56630778883527,643.56630778883527,-1814.3483608804336,11606.218519503971,0.0
708523.2936376977,3592751.2368613081,-37500.0,-2036.5823308645722,3350.303239008836,-2953.6551232548704,4111.1789821528027,-3253.1248489894124,-3421.8494764708958,5763.9035232386323,980.1704033322975,-39.138850594224436,39.138850594224436,-980.1704033322975,10845.138720227249,0.0
713523.2936376977,3592751.2368613081,-37500.0,-2691.6531492046474,3154.7004833750093,-2361.899113751635,3970.7050024713758,-2775.7337851943421,-2997.805602494951,5276.3678086130467,322.39375690642589,373.0103880021278,-373.0103880021278,-322.39375690642589,10028.629829825742,0.0
718523.2936376977,3592751.2368613081,-37500.0,-3106.9901510866857,2897.1669310376237,-1883.2125672371765,3735.2268271174039,-2344.3086351601555,-2590.5255382083151,4801.8215242259548,-177.91123626480004,639.6283491281788,-639.6283491281788,177.91123626480004,9200.878513196556,0.0
723523.2936376977,3592751.2368613081,-37500.0,-3338.4640877211586,2616.3481124968816,-1501.0100141288704,3450.9380696570106,-1967.5532725156679,-2218.4324267321754,4352.119002665163,-545.87948089225301,799.90109046431394,-799.90109046431394,545.87948089225301,8393.4052872374505,0.0
728523.2936376977,3592751.2368613081,-37500.0,-3433.629446100088,2335.9013001361445,-1198.2110912257069,3148.5620784993662,-1645.4940597305572,-1888.8596073126519,3934.001677897053,-806.85187602759686,884.61249456972462,-884.61249456972462,806.85187602759686,7626.4532034692538,0.0
733523.2936376977,3592751.2368613081,-37500.0,-3430.8602268317582,2069.3902569896827,-959.3356733852961,2847.6595273538378,-1373.9204338753498,-1602.7794649513351,3550.5122562186325,-983.6631730361446,917.01766436572075,-917.01766436572075,983.6631730361446,6911.5671837720583,0.0
738523.2936376977,3592751.2368613081,-37500.0,-3360.053123658397,1823.8214707472703,-771.22386873776497,2560.0004769649522,-1146.8965045450416,-1357.7579961483536,3202.19115457001,-1095.6851747178314,914.22522628535694,-914.22522628535694,1095.6851747178314,6254.0801769542259,0.0
743523.2936376977,3592751.2368613081,-37500.0,-3243.9056711924427,1602.0837609267355,-623.08953795386185,2292.0722380335387,-958.12111311764818,-1149.7548749728574,2887.9864809569613,-1158.7503735765454,888.57356189524239,-888.57356189524239,1158.7503735765454,5655.1349529217377,0.0
748523.2936376977,3592751.2368613081,-37500.0,-3099.2888398655409,1404.5802068244373,-506.28666748022596,2046.8820297654222,-801.61633706638395,-974.1806271100512,2605.9063283390874,-1185.4747508424352,848.81216990326686,-848.81216990326686,1185.4747508424352,5113.2001749179444,0.0
753523.2936376977,3592751.2368613081,-37500.0,-2938.5046429643057,1230.2929687695491,-413.98025894398495,1825.219958953742,-672.03343571556741,-826.48529576163651,2353.4678454010927,-1185.7271320166403,801.04672613079504,-801.04672613079504,1185.7271320166403,4625.1527137809644,0.0
553523.2936376977,3597751.2368613081,-37500.0,-1882.809721293421,-1604.0943677129128,-763.49371347753845,-1304.6348977951827,-824.13421259000495,-600.33874054599835,2084.948239340782,-1731.636409714147,-1046.2998642458494,1046.2998642458494,1731.636409714147,4040.4547164652495,0.0
558523.2936376977,3597751.2368613081,-37500.0,-1886.5198209032365,-1786.9659041396967,-909.20323023972867,-1418.0053905354282,-954.43547435157132,-685.82748002148253,2292.1938248742458,-1755.1153377545852,-1250.2840603847994,1250.2840603847994,1755.1153377545852,4423.5905987500746,0.0
563523.2936376977,3597751.2368613081,-37500.0,-1850.7686352125199,-1984.8635455731128,-1086.633776381223,-1530.6113434475603,-1104.4140143605866,-780.58079094110258,2519.6507868427398,-1743.6403892065041,-1493.1112291578447,1493.1112291578447,1743.6403892065041,4839.2138153068363,0.0
568523.2936376977,3597751.2368613081,-37500.0,-1761.3972710168096,-2194.9254129132628,-1302.4040931651189,-1636.5211959892163,-1275.3357035370934,-883.502378231183,2767.9142913022292,-1682.8918134656324,-1780.705635318478,1780.705635318478,1682.8918134656324,5286.3567287033038,0.0
573523.2936376977,3597751.2368613081,-37500.0,-1600.6705450815291,-2411.6297012345008,-1563.9267660630346,-1726.9197163316408,-1467.270865650921,-991.99914158183549,3036.9254093432783,-1554.3930570948853,-2118.7546880980499,2118.7546880980499,1554.3930570948853,5762.1824027314387,0.0
578523.2936376977,3597751.2368613081,-37500.0,-1346.8876821825882,-2625.5383782664767,-1878.9827064603487,-1789.0790633521572,-1678.0751951281486,-1101.1469338283375,3325.7027714013643,-1334.7918307438624,-2511.76589491305,2511.76589491305,1334.7918307438624,6261.3774166123494,0.0
583523.2936376977,3597751.2368613081,-37500.0,-974.35583107766286,-2821.6383620399588,-2254.7767985154796,-1805.073345631811,-1901.7729001203652,-1202.478323105152,3632.0808606914898,-995.37507266524767,-2961.459857846482,2961.459857846482,995.37507266524767,6775.6508087357643,0.0
588523.2936376977,3597751.2368613081,-37500.0,-454.15543363834303,-2977.3018367927975,-2696.1160530194466,-1750.2626714158694,-2126.0494256540328,-1282.2276931471615,3952.5943190116191,-502.21347585921285,-3464.1848491564215,3464.1848491564215,502.21347585921285,7293.7700203625373,0.0
593523.2936376977,3597751.2368613081,-37500.0,243.56743293648407,-3060.1066242063662,-3202.2045730966806,-1591.7072491446404,-2328.4718830058841,-1318.7863664397087,4282.8677250438041,182.35400872805485,-4007.0101555488504,4007.0101555488504,-182.35400872805485,7803.1709331461971,0.0
598523.2936376977,3597751.2368613081,-37500.0,1144.6155334940015,-3026.2414875448799,-3761.4492515591305,-1286.9856340792801,-2471.0172151099059,-1279.0041724125974,4619.3543399848604,1095.7119100799878,-4562.2875170335046,4562.2875170335046,-1095.7119100799878,8295.4298131193555,0.0
603523.2936376977,3597751.2368613081,-37500.0,2261.4650206827387,-2821.1644757621825,-4343.8463550634051,-784.56011805614105,-2492.6833871749568,-1112.8727442580462,4964.3031775670179,2266.6870744698422,-5081.0465749800951,5081.0465749800951,-2266.6870744698422,8780.1858886146692,0.0
608523.2936376977,3597751.2368613081,-37500.0,3578.1051589048498,-2385.7165991356137,-4891.4488382413783,-28.0857461353555,-2300.7951678441782,-746.2597727144165,5337.7827417444969,3700.9067011701327,-5487.0708892450248,5487.0708892450248,-3700.9067011701327,9314.843390813714,0.0
613523.2936376977,3597751.2368613081,-37500.0,5028.9218475447833,-1672.6792466406469,-5309.8804319258861,1031.0769975850669,-1763.8172289879062,-72.286446755552049,5802.9656254941001,5358.5377496858418,-5676.3943142562948,5676.3943142562948,-5358.5377496858418,10054.295363562638,0.0
618523.2936376977,3597751.2368613081,-37500.0,6476.2839741663565,-679.21177762074012,-5468.5428411219655,2407.1637170858235,-712.92557203181104,1055.2395458433621,6506.5918563639343,7126.8086341667877,-5531.0998509731744,5531.0998509731744,-7126.8086341667877,11296.249798038778,0.0
623523.2936376977,3597751.2368613081,-37500.0,7700.6369176965736,504.09485407259604,-5223.0565697414713,4034.2060746094776,1033.8935809033926,2816.9410934219345,7693.6312634000515,8797.9154833612101,-4959.113863658873,4959.113863658873,-8797.9154833612101,13436.909948918114,0.0
628523.2936376977,3597751.2368613081,-37500.0,8427.693042152574,1641.7664926187829,-4475.0401484071108,5705.0562038622402,3606.6208156945327,5393.183057302871,9581.12124064405,10074.43766559265,-3966.2391847123295,3966.2391847123295,-10074.43766559265,16771.631810216317,0.0
633523.2936376977,3597751.2368613081,-37500.0,8418.739749142971,2339.3122122340296,-3269.9859958520024,7020.4015787867411,6965.3240211267794,8874.2902240150106,12153.837443866792,10630.586268973801,-2743.4758143983054,2743.4758143983054,-10630.586268973801,21259.847514968678,0.0
638523.2936376977,3597751.2368613081,-37500.0,7625.2667986690867,2126.0745198136033,-1893.908052648964,7403.3461010084329,10750.857561116696,13098.522155954804,15115.247802100799,10242.911083222678,-1711.8821036071568,1711.8821036071568,-10242.911083222678,26408.409319221602,0.0
643523.2936376977,3597751.2368613081,-37500.0,6352.0645734648842,672.96226370279237,-878.76694670724191,6256.4044178478098,14185.634435503884,17444.817494386014,17920.069004538345,8961.1388524198192,-1438.8682891295043,1438.8682891295043,-8961.1388524198192,31273.423472033817,0.0
648523.2936376977,3597751.2368613081,-37500.0,5302.9729368915523,-1907.3422653587188,-824.98203910632731,3316.492315909165,16162.795265181985,20712.721689136139,19850.275627577208,7236.2355344203224,-2380.4838071690033,2380.4838071690033,-7236.2355344203224,34598.576778374059,0.0
653523.2936376977,3597751.2368613081,-37500.0,5330.1936429216748,-4860.2551847807599,-2057.8084983436443,-870.31293057951859,15651.831661501643,21378.320177082394,20224.913606377268,5869.8077799820894,-4532.3448784983775,4532.3448784983775,-5869.8077799820894,35196.116438442106,0.0
658523.2936376977,3597751.2368613081,-37500.0,6790.4105694440577,-6962.3995642444634,-4315.1615088012022,-4774.6134687023914,12370.075042438342,18477.593127295077,18766.197137128471,5615.1986302292044,-7220.8124187306821,7220.8124187306821,-5615.1986302292044,32597.375809768026,0.0
663523.2936376977,3597751.2368613081,-37500.0,8939.4219121824644,-7208.7960995838348,-6768.2073670010805,-6632.3151947007345,7243.2702399408963,12633.295161342652,15934.235748360599,6522.6140350820415,-9328.9803967102489,9328.9803967102489,-6522.6140350820415,27634.294602963317,0.0
668523.2936376977,3597751.2368613081,-37500.0,10309.607644210802,-5559.9659447353179,-8498.1339832727517,-5798.1262084903183,1980.3543936500196,5915.0934903572215,12848.06180381911,7754.1954993158179,-9985.2922189895507,9985.2922189895507,-7754.1954993158179,22265.48652225106,0.0
673523.2936376977,3597751.2368613081,-37500.0,9955.1313883679195,-2905.5351245132238,-9059.0496883434316,-3147.8018293467421,-2028.4004791450673,346.53374636893705,10621.624177433529,8320.7594097018227,-9120.4565491291032,9120.4565491291032,-8320.7594097018227,18400.005784423254,0.0
678523.2936376977,3597751.2368613081,-37500.0,8059.3858706166484,-288.10975647790781,-8593.9007612686291,-92.735839747075971,-4353.6761333698187,-3240.1440293924711,9548.411517654049,7860.502596380793,-7317.3281576651752,7317.3281576651752,-7860.502596380793,16552.200170992226,0.0
683523.2936376977,3597751.2368613081,-37500.0,5423.4947941507826,1695.5983137563082,-7528.7698218297328,2421.5811047363891,-5291.04343076033,-5053.9273462007168,9081.8388207791832,6632.5453219079855,-5263.6691209574028,5263.6691209574028,-6632.5453219079855,15875.57675041155,0.0
688523.2936376977,3597751.2368613081,-37500.0,2777.3946098807664,2926.6546507048092,-6260.126528502451,4099.6881518168375,-5348.5082383535155,-5668.8479866766847,8696.5417985640524,5083.5260894202247,-3407.0728672714986,3407.0728672714986,-5083.5260894202247,15447.348594741077,0.0
693523.2936376977,3597751.2368613081,-37500.0,521.14154145465295,3535.6049986795847,-5035.7368777051333,5023.4779800123551,-4948.4179426863066,-5596.7295837749953,8219.9211546572769,3554.2678082417806,-1926.6453834316535,1926.6453834316535,-3554.2678082417806,14865.362438125196,0.0
698523.2936376977,3597751.2368613081,-37500.0,-1219.2119138431162,3713.12135105988,-3969.4226184877289,5390.9898373343649,-4360.9711823415646,-5179.2409708195773,7652.5650097193011,2220.9320561147797,-835.40569786820981,835.40569786820981,-2220.9320561147797,14069.78708048909,0.0
703523.2936376977,3597751.2368613081,-37500.0,-2465.8162084625542,3624.2340641799101,-3092.0972255198149,5390.7983998239542,-3735.3892517198515,-4617.4821766624482,7036.2921652318737,1140.8735450694808,-75.489534881322584,75.489534881322584,-1140.8735450694808,13119.492566567373,0.0
708523.2936376977,3597751.2368613081,-37500.0,-3298.3204307739406,3387.8233807670385,-2393.7901264367019,5166.7078265724476,-3144.979892652178,-4022.4375014342886,6410.2672031596994,308.19713843617063,427.72300483502232,-427.72300483502232,-308.19713843617063,12090.775537022266,0.0
713523.2936376977,3597751.2368613081,-37500.0,-3807.086241793445,3081.7956990425432,-1848.8012509978068,4818.6506749811106,-2620.4300488948784,-3452.0644082559966,5802.0149896317344,-309.35468364703047,742.48442345469584,-742.48442345469584,309.35468364703047,11046.095453928298,0.0
718523.2936376977,3597751.2368613081,-37500.0,-4073.8749352418376,2754.0638332694102,-1428.3612878365821,4412.6748684963322,-2170.090447999185,-2933.8875944863107,5228.3643842174915,-750.98541315192381,923.74958493354291,-923.74958493354291,750.98541315192381,10028.960088847165,0.0
723523.2936376977,3597751.2368613081,-37500.0,-4165.9878702435772,2432.3934436430786,-1106.0950467314799,3990.7626353214632,-1791.3861921277273,-2478.1868654352788,4698.2526835893223,-1054.0772403832093,1013.0651422599871,-1013.0651422599871,1054.0772403832093,9066.5590185906949,0.0
728523.2936376977,3597751.2368613081,-37500.0,-4136.0925245525632,2131.6541539479326,-859.84445145488758,3578.4303102431545,-1476.982193837156,-2085.7394115002171,4215.2690288017784,-1250.9059031368388,1040.7249258037982,-1040.7249258037982,1250.9059031368388,8173.8639481911714,0.0
733523.2936376977,3597751.2368613081,-37500.0,-4024.1000447554002,1858.7493033434328,-671.83393147562663,3190.1926471486545,-1218.0078091582398,-1752.4117033973555,3779.5706243536238,-1367.9169015045948,1028.29955305716,-1028.29955305716,1367.9169015045948,7357.3375301907281,0.0
738523.2936376977,3597751.2368613081,-37500.0,-3859.5417708397426,1615.833837221699,-528.17735431561459,2833.3794313655762,-1005.663394421333,-1471.8654524367914,3389.2338737010605,-1426.0970770833635,990.8746489565832,-990.8746489565832,1426.0970770833635,6617.8333097219938,0.0
743523.2936376977,3597751.2368613081,-37500.0,-3663.8275486940065,1402.3615213457297,-418.19790092811428,2510.7565264417208,-831.94984794688696,-1237.1084131465668,3041.1743396674437,-1441.741988494098,938.83383757508841,-938.83383757508841,1441.741988494098,5952.7150245509356,0.0
748523.2936376977,3597751.2368613081,-37500.0,-3452.1768275812256,1216.3592389277387,-333.76386208884799,2222.2992800870411,-689.93255034266474,-1041.3363083342629,2731.7564327377268,-1427.300298163872,879.20828496845706,-879.20828496845706,1427.300298163872,5357.341461668052,0.0
753523.2936376977,3597751.2368613081,-37500.0,-3235.1794052458631,1055.201352646478,-268.71544880812911,1966.3695523384383,-573.76813723014243,-878.34525408867933,2457.1828807092484,-1392.1565733970913,816.66858858655928,-816.66858858655928,1392.1565733970913,4826.066619833302,0.0
548523.2936376977,3602751.2368613081,-37500.0,-2291.1690667709754,-1391.3585713203499,-502.14652054571559,-1404.6871949153299,-676.35379836850768,-600.26234214100657,2050.8146135851603,-2110.5225424791424,-634.92164964985841,634.92164964985841,2110.5225424791424,4016.7318455074737,0.0
553523.2936376977,3602751.2368613081,-37500.0,-2392.3743003595478,-1568.7189783616589,-600.70100126752482,-1558.6689378404001,-789.89706196650741,-695.673239300359,2266.3769423385456,-2230.7703685137085,-779.3772151483771,779.3772151483771,2230.7703685137085,4426.2568940053025,0.0
558523.2936376977,3602751.2368613081,-37500.0,-2476.0226466456779,-1768.4007602448182,-722.99771584869256,-1725.6161185339015,-923.81001484637875,-805.90163368132494,2506.6930811689003,-2339.7731105025446,-956.25386152238934,956.25386152238934,2339.7731105025446,4879.5377214950604,0.0
563523.2936376977,3602751.2368613081,-37500.0,-2532.0348299205316,-1991.6008752647722,-875.16204772371202,-1903.9168935696919,-1081.281297186415,-932.34455237172131,2773.9052627553592,-2428.3576368886042,-1172.557342502558,1172.557342502558,2428.3576368886042,5379.1617936733574,0.0
568523.2936376977,3602751.2368613081,-37500.0,-2546.8702516760636,-2238.4813957787219,-1064.8023510822009,-2090.2764898392434,-1265.5306818330214,-1075.9226070572104,3069.8834922174419,-2483.7526538084567,-1436.4494414961587,1436.4494414961587,2483.7526538084567,5926.6378290971452,0.0
573523.2936376977,3602751.2368613081,-37500.0,-2502.5838049525264,-2507.3920581773932,-1301.2157078955238,-2278.8939490499515,-1479.415953076945,-1236.6271477440262,3395.9374402316371,-2488.4559035936063,-1757.1364455814664,1757.1364455814664,2488.4559035936063,6521.6703383617914,0.0
578523.2936376977,3602751.2368613081,-37500.0,-2375.7592768978043,-2793.6915805332619,-1595.4660276085554,-2460.2999956828053,-1724.7133754767956,-1412.8178889392498,3752.3892638905122,-2418.8665267165843,-2144.4624439991067,2144.4624439991067,2418.8665267165843,7161.1459863200744,0.0
583523.2936376977,3602751.2368613081,-37500.0,-2136.4412500836638,-3088.0086537836901,-1960.1489806996531,-2619.7261323420671,-2000.8535286788165,-1600.1399254257176,4137.9553968332102,-2243.7452258200169,-2607.9668759338897,2607.9668759338897,2243.7452258200169,7837.7729100882279,0.0
588523.2936376977,3602751.2368613081,-37500.0,-1747.3824930173746,-3373.776136832993,-2408.4990274918391,-2734.8501615455398,-2302.7582751374316,-1789.8396222024819,4548.8930267634123,-1922.7274334964554,-3155.0194869684524,3155.0194869684524,1922.7274334964554,8538.3961066299617,0.0
593523.2936376977,3602751.2368613081,-37500.0,-1164.3177054180949,-3623.9704146177655,-2952.2515170412485,-2772.7821767267496,-2617.2213183156387,-1966.0830326916478,4977.9379810461396,-1405.4560672939681,-3787.4711119523763,3787.4711119523763,1405.4560672939681,9242.2952561080074,0.0
598523.2936376977,3602751.2368613081,-37500.0,-338.68914072183378,-3797.3544519342363,-3597.3490939658909,-2686.361565025165,-2917.0168412546604,-2101.561835818075,5413.3320762238109,-632.56776116795345,-4496.1224419239734,4496.1224419239734,632.56776116795345,9920.5978553367677,0.0
603523.2936376977,3602751.2368613081,-37500.0,774.63256984957354,-3835.5115829554484,-4336.3446908630576,-2410.542051953641,-3151.7557924606713,-2150.1928876327852,5839.081434239848,459.08695436003063,-5252.5058482629247,5252.5058482629247,-459.08695436003063,10540.126000153308,0.0
608523.2936376977,3602751.2368613081,-37500.0,2200.9027656582716,-3664.0501089751342,-5136.7248520742742,-1861.4366727124686,-3234.9395884163932,-2035.2866538897013,6239.8912107169035,1923.0830442728011,-5998.6544650101832,5998.6544650101832,-1923.0830442728011,11080.055544124747,0.0
613523.2936376977,3602751.2368613081,-37500.0,3916.7232281344518,-3204.7989663700155,-5926.5535827843778,-944.17639070990913,-3028.9225322982056,-1632.1174772766058,6619.9445257845437,3777.0318941642572,-6638.8374174042574,6638.8374174042574,-3777.0318941642572,11578.8897586166,0.0
618523.2936376977,3602751.2368613081,-37500.0,5810.153657168139,-2409.2066548214912,-6584.6397529448723,419.17826508991038,-2335.7213825152508,-747.66692293229653,7056.0461637556873,5960.7178463730979,-7043.6797589132821,7043.6797589132821,-5960.7178463730979,12233.55335256826,0.0
623523.2936376977,3602751.2368613081,-37500.0,7645.0723071587327,-1320.850592183818,-6952.3764822791882,2227.7413250795335,-913.39742318762774,888.94663997050884,7800.9608988221144,8287.073695581943,-7084.714691680475,7084.714691680475,-8287.073695581943,13517.909024786011,0.0
628523.2936376977,3602751.2368613081,-37500.0,9068.4026421768558,-155.94471402786408,-6892.3306979636754,4302.2703511719419,1449.0917301192208,3592.5663515584929,9286.6084574926608,10416.214190611036,-6716.242068356717,6716.242068356717,-10416.214190611036,16100.701112064062,0.0
633523.2936376977,3602751.2368613081,-37500.0,9713.5291895612136,652.74826712627589,-6405.273687750976,6181.7752866433821,4769.8553535381243,7593.5020551828884,11749.050047063,11904.982216137643,-6091.709164938944,6091.709164938944,-11904.982216137643,20354.701177859464,0.0
638523.2936376977,3602751.2368613081,-37500.0,9419.1286330974544,549.09931966849967,-5758.2583115442949,7112.6935201295755,8650.8881100535509,12776.689841265123,14941.700022287188,12372.956886962018,-5633.3275704915231,5633.3275704915231,-12372.956886962018,25880.004833483163,0.0
643523.2936376977,3602751.2368613081,-37500.0,8473.0153116625061,-843.30457694611778,-5486.7798516540406,6266.8263373820801,12136.671581022498,18339.60580767256,18182.26436452585,11746.820374240995,-5914.2428669002347,5914.2428669002347,-11746.820374240995,31493.019660812912,0.0
648523.2936376977,3602751.2368613081,-37500.0,7667.5179241981732,-3313.3237620623127,-6128.2967991817632,3256.4466278622267,13891.728477940565,22599.794833133794,20515.614576946213,10436.253331316693,-7290.8145816276774,7290.8145816276774,-10436.253331316693,35538.54752930122,0.0
653523.2936376977,3602751.2368613081,-37500.0,7944.7228186064613,-5889.213180902957,-7768.2158296663119,-1216.2174238482644,12826.484441287554,23390.402558589954,21044.778705348333,9262.218895936734,-9495.285363178391,9495.285363178391,-9262.218895936734,36471.970624496062,0.0
658523.2936376977,3602751.2368613081,-37500.0,9595.0658424239573,-7234.7263845300622,-9803.5955511662833,-5164.7457359359269,8920.2573763529435,19403.976794901537,19446.192737130492,9001.2617141027222,-11595.313861217976,11595.313861217976,-9001.2617141027222,33742.6007926565,0.0
663523.2936376977,3602751.2368613081,-37500.0,11584.800973541567,-6537.3281574430894,-11273.744789259021,-6415.978100416909,3540.2140409736867,11730.25052227414,16435.91941031583,9657.4605703652196,-12504.287948092999,12504.287948092999,-9657.4605703652196,28551.054004436726,0.0
668523.2936376977,3602751.2368613081,-37500.0,12196.841505567778,-4157.5234956024024,-11534.263263573454,-4479.813364172167,-1358.0173947321252,3469.5928734673844,13521.56416242394,10296.214192075005,-11721.216755663065,11721.216755663065,-10296.214192075005,23448.172050968638,0.0
673523.2936376977,3602751.2368613081,-37500.0,10657.626232764414,-1254.0712346041514,-10620.464025808491,-838.58888965382459,-4539.96216855903,-2721.9197351974999,11770.224253666256,9979.189679217614,-9621.2994514333532,9621.2994514333532,-9979.189679217614,20389.696811712078,0.0
678523.2936376977,3602751.2368613081,-37500.0,7611.8555063937347,1173.095247214716,-9018.6074946800654,2684.5473822698486,-5933.2092046863218,-6143.85218954437,11057.078186574745,8590.2719046981565,-7021.366357846231,7021.366357846231,-8590.2719046981565,19193.378068362093,0.0
683523.2936376977,3602751.2368613081,-37500.0,4183.1354732295804,2744.6200810581813,-7240.1812686974154,5164.1735609000252,-6093.7008494291895,-7438.4055635005125,10621.874746386457,6620.5214159020943,-4592.3635608277036,4592.3635608277036,-6620.5214159020943,18622.574772551263,0.0
688523.2936376977,3602751.2368613081,-37500.0,1148.6245249137523,3536.0811405265567,-5605.0120019942124,6522.9849255772278,-5611.1261473181303,-7494.1363463284779,10064.58756739108,4597.9549110838088,-2646.651712699811,2646.651712699811,-4597.9549110838088,17931.889826232651,0.0
693523.2936376977,3602751.2368613081,-37500.0,-1195.5961470090381,3778.6692052078656,-4243.271451141808,7035.3981399705508,-4881.0350196243517,-6951.5431428681186,9357.2417829745045,2828.3164620875377,-1228.2249848178974,1228.2249848178974,-2828.3164620875377,16961.014282956174,0.0
698523.2936376977,3602751.2368613081,-37500.0,-2848.8372224867294,3690.2590455280433,-3170.7749510603799,7005.8475294376731,-4114.7317507140424,-6174.2628127632124,8569.5738767265611,1414.4638090540761,-258.59051436457469,258.59051436457469,-1414.4638090540761,15779.236538057274,0.0
703523.2936376977,3602751.2368613081,-37500.0,-3926.5222286975995,3426.9288671359827,-2352.9195115686407,6664.4129188266616,-3407.5287467625403,-5347.2587325233089,7766.0453884173676,347.72702438587476,370.05256032531099,-370.05256032531099,-347.72702438587476,14492.717897845912,0.0
708523.2936376977,3602751.2368613081,-37500.0,-4564.5681962052304,3087.1450228480603,-1740.8677044355099,6162.7407549467407,-2793.5145171384643,-4558.8722035108249,6988.4684921929747,-423.84070755152999,754.94535768123501,-754.94535768123501,423.84070755152999,13187.035952817534,0.0
713523.2936376977,3602751.2368613081,-37500.0,-4882.9125162289474,2728.3638809953181,-1287.7604368925145,5594.9669412703333,-2277.6534005409112,-3847.7374305488306,6260.1217218445563,-960.6491373397871,971.98539893587167,-971.98539893587167,960.6491373397871,11919.776958143128,0.0
718523.2936376977,3602751.2368613081,-37500.0,-4976.8048368302116,2381.851934897612,-954.30755874521344,5017.4224616427618,-1852.3811623090091,-3226.8521841865177,5592.0837513238594,-1317.6399325679072,1076.5797737000453,-1076.5797737000453,1317.6399325679072,10725.708702142218,0.0
723523.2936376977,3602751.2368613081,-37500.0,-4918.2552585636095,2063.045111345738,-709.61610693185389,4462.4007365124799,-1505.6852852818411,-2695.9769221377123,4987.9394338042503,-1540.2640938986883,1107.7781157421191,-1107.7781157421191,1540.2640938986883,9623.2628473744353,0.0
728523.2936376977,3602751.2368613081,-37500.0,-4760.2032181595669,1778.1611687963039,-530.22152060897702,3947.0633992277017,-1224.8688528151331,-2248.328635562596,4446.8299400121277,-1664.4300233420397,1092.5263478707404,-1092.5263478707404,1664.4300233420397,8619.8310046303031,0.0
733523.2936376977,3602751.2368613081,-37500.0,-4540.7931772732045,1528.2548074609583,-398.64857938303118,3479.1437181545753,-998.18610410103702,-1874.3307815449284,3965.3785858504684,-1717.7734724374684,1049.1360277143669,-1049.1360277143669,1717.7734724374684,7715.6755095900517,0.0
738523.2936376977,3602751.2368613081,-37500.0,-4287.0162922556938,1311.6500200260386,-302.0290744081737,3060.625674525716,-815.44124586400937,-1563.713708920292,3538.9076589776278,-1721.1977408533317,989.87961884687365,-989.87961884687365,1721.1977408533317,6906.7049496888412,0.0
743523.2936376977,3602751.2368613081,-37500.0,-4017.6065541289654,1125.372169183629,-230.94728706349497,2690.124949829566,-668.09342268451098,-1306.6380311475427,3162.2033756089754,-1690.3045795067337,922.85659578514048,-922.85659578514048,1690.3045795067337,6186.3862970305327,0.0
748523.2936376977,3602751.2368613081,-37500.0,-3745.2714195196727,965.97039665163618,-178.53546103170396,2364.420795102073,-549.14061357481717,-1094.2327472802228,2829.987623108168,-1636.6049449750315,853.30875878420443,-853.30875878420443,1636.6049449750315,5547.0240878013901,0.0
753523.2936376977,3602751.2368613081,-37500.0,-3478.3762097754829,829.97290091353068,-139.79025959858924,2079.4251406512376,-452.91953380593066,-918.79141792133339,2537.196846200402,-1568.4975321599975,784.53683304023366,-784.53683304023366,1568.4975321599975,4980.585983277223,0.0
548523.2936376977,3607751.2368613081,-37500.0,-2717.6899894953435,-1282.0747856832886,-355.31439149483583,-1606.2804894752092,-612.56387320319232,-672.50470283101583,2201.0598311771023,-2519.0301419618309,-350.00954379775044,350.00954379775044,2519.0301419618309,4327.7439047768084,0.0
553523.2936376977,3607751.2368613081,-37500.0,-2890.9110516824539,-1457.2247248213471,-428.51259317103575,-1804.2847616381823,-720.12549344718161,-787.02115398117337,2444.9443735744917,-2714.0733388208237,-455.62988600319454,455.62988600319454,2714.0733388208237,4796.0116771355315,0.0
558523.2936376977,3607751.2368613081,-37500.0,-3059.6200425009865,-1658.279100589443,-521.25259829380752,-2026.0588223034042,-848.73981261510539,-921.97763120290711,2719.9880671100245,-2912.8802456456488,-589.21901793555298,589.21901793555298,2912.8802456456488,5320.9202254313968,0.0
563523.2936376977,3607751.2368613081,-37500.0,-3215.8040775228769,-1888.3655420742443,-639.33507946873294,-2272.8191152074032,-1002.5008193423678,-1080.5609936167546,3029.9347611496064,-3109.1639768556015,-758.07802070579964,758.07802070579964,3109.1639768556015,5908.1287263813301,0.0
568523.2936376977,3607751.2368613081,-37500.0,-3347.9843349026401,-2150.3635758894552,-790.32796134261616,-2544.8255042334749,-1186.0718398561569,-1266.0872151968733,3378.6665074811044,-3293.3415301631608,-971.28831379694975,971.28831379694975,3293.3415301631608,6562.9280507534659,0.0
573523.2936376977,3607751.2368613081,-37500.0,-3439.9649948968799,-2446.3869675555447,-984.05026364862863,-2840.6952371206935,-1404.5675612279688,-1481.7675297395085,3769.9936205026215,-3451.1985564773831,-1240.0026771049734,1240.0026771049734,3451.1985564773831,7289.6086627594086,0.0
578523.2936376977,3607751.2368613081,-37500.0,-3469.1843379105308,-2776.8963442871359,-1233.1092274088653,-3156.3379312472352,-1663.2341212426977,-1730.3078281399944,4207.2749049106924,-3562.071126143549,-1577.64153828488,1577.64153828488,3562.071126143549,8090.4496468327843,0.0
583523.2936376977,3607751.2368613081,-37500.0,-3404.612532270402,-3139.2216413249771,-1553.3961197895769,-3483.2896205185039,-1966.7474702962193,-2013.2384293767388,4692.7488495732032,-3596.4202642714881,-1999.8197054958227,1999.8197054958227,3596.4202642714881,8964.1248118228923,0.0
588523.2936376977,3607751.2368613081,-37500.0,-3204.2568420580915,-3525.1711129198811,-1964.3051675753543,-3806.0824940496532,-2317.7932397518725,-2329.7617355396674,5226.3705081105136,-3512.7240566292176,-2523.6615297895769,2523.6615297895769,3512.7240566292176,9903.2152688947026,0.0
593523.2936376977,3607751.2368613081,-37500.0,-2812.6894252427587,-3917.3242070980064,-2488.1684493831058,-4098.1064973331222,-2714.3045144485409,-2674.6513725897648,5803.8401166781687,-3253.8382719550409,-3165.8833700007463,3165.8833700007463,3253.8382719550409,10890.4378487124,0.0
598523.2936376977,3607751.2368613081,-37500.0,-2159.8923104801952,-4283.7033243590604,-3147.923058287638,-4315.3113321362243,-3144.2459023968827,-3034.1716725060696,6413.4413487129923,-2743.6406674724931,-3938.6146840357251,3938.6146840357251,2743.6406674724931,11893.346011405099,0.0
603523.2936376977,3607751.2368613081,-37500.0,-1164.4995610292156,-4571.2286136748171,-3961.3657246829816,-4387.4807934749406,-3576.1607934682193,-3377.9080050296907,7031.5556812883679,-1886.3108519005082,-4841.5662118091486,4841.5662118091486,1886.3108519005082,12858.31110258978,0.0
608523.2936376977,3607751.2368613081,-37500.0,252.54740606356137,-4700.5629761407736,-4929.8501755148036,-4208.763455317805,-3943.2620985706471,-3642.8224367803969,7618.0922802259338,-573.5601951347403,-5849.4632458237629,5849.4632458237629,573.5601951347403,13708.343807101688,0.0
613523.2936376977,3607751.2368613081,-37500.0,2135.0461353063688,-4569.8764642811911,-6020.2912880954091,-3634.5760549304923,-4120.2687295213509,-3704.9323145071612,8117.7235471513713,1290.7834865504069,-6896.345168396987,6896.345168396987,-1290.7834865504069,14359.647181745457,0.0
618523.2936376977,3607751.2368613081,-37500.0,4432.6037122079097,-4082.5772226857089,-7144.8206957592447,-2502.4798034215241,-3899.3250256506099,-3337.8677590447569,8486.559896402443,3737.5650274545251,-7866.079165856142,7866.079165856142,-3737.5650274545251,14793.872702548919,0.0
623523.2936376977,3607751.2368613081,-37500.0,6926.9879660463776,-3217.7602805598367,-8155.7259437106386,-706.19405048962165,-2989.5276604040951,-2174.7262498035902,8800.8021845949152,6649.1028671763415,-8611.903072766032,8611.903072766032,-6649.1028671763415,15245.353706024647,0.0
628523.2936376977,3607751.2368613081,-37500.0,9197.2770207027916,-2142.9065199966008,-8890.2018719855751,1654.6539380030472,-1092.0966301457649,272.09773748330014,9502.4039937561756,9679.1754422014365,-9035.8666454165923,9035.8666454165923,-9679.1754422014365,16460.544802802589,0.0
633523.2936376977,3607751.2368613081,-37500.0,10722.329733080032,-1302.5349238099491,-9293.0951263904062,4086.988850744649,1889.447757544438,4433.661149003854,11231.156630875819,12262.88280938653,-9228.4607437643281,9228.4607437643281,-12262.88280938653,19498.832660490243,0.0
638523.2936376977,3607751.2368613081,-37500.0,11184.790225390696,-1325.7628274494323,-9569.9190047797001,5643.9834504064011,5527.058785045273,10269.377317482224,14027.426580693165,13815.64387004834,-9567.4777727270975,9567.4777727270975,-13815.64387004834,24598.344101200477,0.0
643523.2936376977,3607751.2368613081,-37500.0,10838.992034758599,-2617.0531883579179,-10186.010929354348,5246.9398628581912,8671.7123094154231,16726.49007930006,17281.680268696691,14094.456667934204,-10566.792262669705,10566.792262669705,-14094.456667934204,30483.30470569693,0.0
648523.2936376977,3607751.2368613081,-37500.0,10551.56079865249,-4807.2636263215581,-11515.106500020571,2461.0948048915557,9794.7952975335193,21537.318363041686,19799.014417559567,13455.280139350843,-12384.624228993389,12384.624228993389,-13455.280139350843,35005.115205177179,0.0
653523.2936376977,3607751.2368613081,-37500.0,11224.636490710898,-6671.4577796718741,-13308.891773853044,-1714.624469526166,7968.8949110689482,21985.636062250262,20441.938023900151,12694.587421074706,-14387.596335864819,14387.596335864819,-12694.587421074706,36256.766599814975,0.0
658523.2936376977,3607751.2368613081,-37500.0,12868.670720482574,-6916.3905634618468,-14642.529777389009,-4903.4924635151465,3755.2484307876289,16788.926946317362,18991.671424702268,12477.450739937834,-15430.352929195604,15430.352929195604,-12477.450739937834,33734.748841088716,0.0
663523.2936376977,3607751.2368613081,-37500.0,14162.68869930453,-5225.290538431148,-14639.160845865918,-4905.5764354003823,-1024.0937401918711,7792.2139184023481,16538.829652267406,12684.804599167051,-14739.612349371779,14739.612349371779,-12684.804599167051,29049.945922079114,0.0
668523.2936376977,3607751.2368613081,-37500.0,13466.836522416808,-2452.4021828249429,-13196.848614618051,-1727.2954727603883,-4596.8153073172907,-1035.1515840720695,14420.382506278884,12423.643437975797,-12456.159589643188,12456.159589643188,-12423.643437975797,24999.378605349841,0.0
673523.2936376977,3607751.2368613081,-37500.0,10497.21560958454,210.12141916048006,-10903.364255086963,2588.2272623949398,-6317.4580242994371,-6858.8922657069406,13262.946653913339,11027.60729070153,-9380.234426536892,9380.234426536892,-11027.60729070153,22972.778851981504,0.0
678523.2936376977,3607751.2368613081,-37500.0,6385.9326867072423,2074.420694898201,-8454.6086205982738,6104.9503529210106,-6557.8965272783662,-9421.0489637567625,12747.082171920911,8709.7392184464843,-6351.2847768526026,6351.2847768526026,-8709.7392184464843,22119.15712103519,0.0
683523.2936376977,3607751.2368613081,-37500.0,2412.6200574083491,3066.7569825918395,-6284.5933116148144,8151.8566522559368,-5988.1130904877346,-9825.4470186090548,12154.495444154558,6128.6471347034785,-3855.2063813961413,3855.2063813961413,-6128.6471347034785,21310.103625273685,0.0
688523.2936376977,3607751.2368613081,-37500.0,-752.41260535451227,3410.5133393724759,-4547.7204712488456,8940.1398670359467,-5118.7755914135087,-9169.0402093547818,11318.463327135207,3798.7482462068801,-2015.887163214896,2015.887163214896,-3798.7482462068801,20163.803856860297,0.0
693523.2936376977,3607751.2368613081,-37500.0,-2986.9448785019954,3362.1206563464989,-3235.7715483934553,8912.9958804160979,-4225.7962846573855,-8116.2691687371425,10338.985481658539,1933.5111147314756,-757.36635955403756,757.36635955403756,-1933.5111147314756,18732.423362683843,0.0
698523.2936376977,3607751.2368613081,-37500.0,-4425.5487618257184,3112.0155150372611,-2277.5596672422716,8436.5380088235379,-3425.0626189210825,-6988.2729299860766,9325.5090545428047,544.46368114580775,57.441607090312118,-57.441607090312118,-544.46368114580775,17159.799536393748,0.0
703523.2936376977,3607751.2368613081,-37500.0,-5262.9039239959402,2778.2632276954037,-1591.524464617894,7746.6833474669338,-2750.0173350506147,-5921.8083453832987,8345.9102765755451,-440.65652927202757,558.17963335989418,-558.17963335989418,440.65652927202757,15563.084678293561,0.0
708523.2936376977,3607751.2368613081,-37500.0,-5673.37130945226,2426.8044702116836,-1106.2982134171189,6980.6311339762906,-2198.3554912278669,-4968.5922682184291,7434.2397247788658,-1110.972306754134,846.0322516272247,-846.0322516272247,1110.972306754134,14017.495006487174,0.0
713523.2936376977,3607751.2368613081,-37500.0,-5791.9330166938789,2091.3787582098435,-765.76232735573637,6214.3589506893077,-1754.8806345842502,-4142.5861022787058,6604.4018498333071,-1546.1551802423485,993.57410881971532,-993.57410881971532,1546.1551802423485,12566.145904154395,0.0
718523.2936376977,3607751.2368613081,-37500.0,-5717.2011023450286,1787.2604431601112,-528.0550264402176,5488.155862127438,-1401.4864978017285,-3440.6898369945147,5859.4267764790548,-1809.946126937939,1050.7617988662391,-1050.7617988662391,1809.946126937939,11230.830255400853,0.0
723523.2936376977,3607751.2368613081,-37500.0,-5519.3788213375028,1519.6231657085448,-362.82993666858528,4821.6556366096538,-1121.1073483179766,-2852.1115269260536,5196.6760202950172,-1951.0000619840714,1051.2558662295476,-1051.2558662295476,1951.0000619840714,10019.67639290246,0.0
728523.2936376977,3607751.2368613081,-37500.0,-5247.6964052546064,1288.3726679270867,-248.44388852399953,4222.4644423929794,-899.03395018642561,-2363.0274921669093,4610.6574100354683,-2005.6406821420585,1017.4467861594023,-1017.4467861594023,2005.6406821420585,8932.2320036735964,0.0
733523.2936376977,3607751.2368613081,-37500.0,-4936.208163687199,1090.8659944525571,-169.604949643091,3691.2265585965724,-723.12872852459179,-1959.0724302508343,4094.5823536139287,-2000.6481249738235,964.07423558076459,-964.07423558076459,2000.6481249738235,7962.8632079217468,0.0
738523.2936376977,3607751.2368613081,-37500.0,-4608.0810982371786,923.41150597024011,-115.56635285368935,3224.6948020831778,-583.6144448217799,-1626.6667946775426,3641.2593605191337,-1955.5832145181237,900.72902561487285,-900.72902561487285,1955.5832145181237,7103.0504612141413,0.0
743523.2936376977,3607751.2368613081,-37500.0,-4278.7232942883766,782.07262223513692,-78.797164356928491,2817.6258456606602,-472.72560649990623,-1353.655559306683,3243.613776039243,-1884.6072424021895,833.5538967046831,-833.5538967046831,1884.6072424021895,6342.9251780246532,0.0
748523.2936376977,3607751.2368613081,-37500.0,-3958.056170644938,663.07763103075229,-54.027605250375352,2463.9459607846561,-384.34639415226093,-1129.5330754411762,2894.9807415647865,-1797.8723763629791,766.39231258236987,-766.39231258236987,1797.8723763629791,5672.2674793576807,0.0
753523.2936376977,3607751.2368613081,-37500.0,-3652.1604788976647,563.00792068799285,-37.57230666822452,2157.451481817875,-313.68348170657828,-945.43085485617587,2589.2562420842969,-1702.5726173470491,701.56265743009749,-701.56265743009749,1702.5726173470491,5081.1255105099199,0.0
543523.2936376977,3612751.2368613081,-37500.0,-2878.941488117423,-972.79814435176536,-179.28416880408122,-1580.7873550070121,-442.51382192012812,-627.20474511842122,2103.584534428267,-2641.9113367583559,7.869241911918607,-7.869241911918607,2641.9113367583559,4147.611426360214,0.0
548523.2936376977,3612751.2368613081,-37500.0,-3109.3315928798784,-1109.2666929444595,-215.25524309053361,-1789.9144238216836,-520.59091099013926,-737.88910972724864,2342.0563373036043,-2887.6520675421743,-33.517228811550922,33.517228811550922,2887.6520675421743,4610.0027305623753,0.0
553523.2936376977,3612751.2368613081,-37500.0,-3352.273034947033,-1268.0389129226055,-261.81052009959376,-2029.5304450681779,-614.65283001993794,-870.18190429750916,2613.4404290728498,-3153.8090227706239,-90.123386467942964,90.123386467942964,3153.8090227706239,5133.7188450096128,0.0
558523.2936376977,3612751.2368613081,-37500.0,-3604.6924757777338,-1452.889724879931,-322.50534171053818,-2303.7723792096212,-728.24744085741213,-1028.3762723618781,2922.6769597213238,-3439.3947447721944,-166.82206716369319,166.82206716369319,3439.3947447721944,5727.128936547314,0.0
563523.2936376977,3612751.2368613081,-37500.0,-3861.4076705517709,-1668.0876395461264,-402.17207447228731,-2617.0075285333824,-865.70400659587119,-1217.5205846030674,3275.405446982822,-3741.7674069919267,-270.02105096149421,270.02105096149421,3741.7674069919267,6399.4285781333974,0.0
568523.2936376977,3612751.2368613081,-37500.0,-4114.1688802774179,-1918.324860076337,-507.39190130261915,-2973.6281248777063,-1032.2706700175872,-1443.4978538742027,3678.0080824233369,-4055.7478740556844,-408.13173985097092,408.13173985097092,4055.7478740556844,7160.5070226188309,0.0
573523.2936376977,3612751.2368613081,-37500.0,-4350.271891586498,-2208.510969257035,-647.13086406600098,-3377.6688690551682,-1234.243068592697,-1713.0987286027523,4137.6014983990754,-4372.3108030723906,-592.15590814781308,592.15590814781308,4372.3108030723906,8020.641031288751,0.0
578523.2936376977,3612751.2368613081,-37500.0,-4550.5439849422828,-2543.3089026131779,-833.57815679009002,-3832.1066350961355,-1479.0431408676527,-2034.0874743966112,4661.909942685581,-4676.6361339644918,-836.38855693416463,836.38855693416463,4676.6361339644918,8989.8773978075042,0.0
583523.2936376977,3612751.2368613081,-37500.0,-4686.427158515824,-2926.1902160702471,-1083.1993498760555,-4337.5672713889917,-1775.1493915236408,-2415.2451072536305,5258.8743859518172,-4945.20004411011,-1159.1818694851588,1159.1818694851588,4945.20004411011,10076.836574807086,0.0
588523.2936376977,3612751.2368613081,-37500.0,-4715.8515497133039,-3357.6200795887448,-1417.9379220585768,-4889.9110244261237,-2131.6490740258118,-2866.2994437398474,5935.7040622824261,-5141.4685685261502,-1583.5903865701714,1583.5903865701714,5141.4685685261502,11286.439863579859,0.0
593523.2936376977,3612751.2368613081,-37500.0,-4577.7393097931235,-3831.7345617335695,-1866.2894077116321,-5475.7143127490181,-2556.8853537460786,-3397.3784398806806,6696.7989678510567,-5209.703359471996,-2137.4458046676509,2137.4458046676509,5209.703359471996,12615.649887558744,0.0
598523.2936376977,3612751.2368613081,-37500.0,-4185.7394921973428,-4330.6192867389618,-2463.5021954797526,-6064.0303941376378,-3055.0418972318153,-4016.8571524112481,7539.5575146580104,-5066.7246408236142,-2851.8681459144354,2851.8681459144354,5066.7246408236142,14045.774957302547,0.0
603523.2936376977,3612751.2368613081,-37500.0,-3423.9516289495859,-4815.426270459584,-3249.2730400089795,-6592.347946599908,-3618.3520046810395,-4724.6546967510058,8446.6642212598381,-4592.9091329939401,-3756.3658200251571,3756.3658200251571,4592.9091329939401,15529.62023333769,0.0
608523.2936376977,3612751.2368613081,-37500.0,-2152.1567687716829,-5215.1712426475169,-4259.9967772992668,-6945.8478849322819,-4211.0059305596033,-5494.6180386112674,9373.6895729854186,-3627.6717069277365,-4867.8018961095277,4867.8018961095277,3627.6717069277365,16973.385575196757,0.0
613523.2936376977,3612751.2368613081,-37500.0,-235.57213734984745,-5419.4427927633978,-5511.8366868215626,-6935.5033879814273,-4740.2812118687998,-6235.3648608881358,10233.605027533857,-1982.6469197083698,-6171.2581648700298,6171.2581648700298,1982.6469197083698,18221.017722922363,0.0
618523.2936376977,3612751.2368613081,-37500.0,2380.975518019261,-5292.7958652350026,-6973.9352193841751,-6297.8237447345364,-5016.3118632131363,-6719.8550298005148,10889.673551344378,504.07307582869817,-7597.3306973204226,7597.3306973204226,-504.07307582869817,19071.470427139033,0.0
623523.2936376977,3612751.2368613081,-37500.0,5550.6912044045466,-4741.8861192267923,-8544.4334041679631,-4766.9393162303695,-4725.2414319905211,-6496.9742776901994,11198.048360902407,3850.4557900991149,-9017.7284165686851,9017.7284165686851,-3850.4557900991149,19406.615833162039,0.0
628523.2936376977,3612751.2368613081,-37500.0,8815.5006365024819,-3854.7753322699809,-10067.06977657497,-2279.7906161509818,-3487.6201003206261,-4867.1093088956541,11246.01637011502,7770.6850099410376,-10301.950317753548,10301.950317753548,-7770.6850099410376,19546.435246199391,0.0
633523.2936376977,3612751.2368613081,-37500.0,11471.964308429147,-3045.1227546664591,-11433.31180186669,709.22865556433362,-1106.0976648290316,-1103.7549461100825,11924.938455517608,11596.129112531744,-11456.763803147885,11456.763803147885,-11596.129112531744,20682.063640026267,0.0
638523.2936376977,3612751.2368613081,-37500.0,12967.186299955218,-2980.1035652688488,-12731.443564087795,3064.478763681188,2002.9454848942476,4908.185845055662,13779.599019646714,14476.252204170956,-12741.59250497129,12741.59250497129,-14476.252204170956,24189.115514240162,0.0
643523.2936376977,3612751.2368613081,-37500.0,13448.767011061331,-4072.8742481299187,-14230.209497828662,3419.0964503192949,4550.3874095435112,11828.839647141605,15943.764727247972,15895.081698422602,-14494.364076155214,14494.364076155214,-15895.081698422602,29510.432495234825,0.0
648523.2936376977,3612751.2368613081,-37500.0,13804.131376836931,-5804.6819678847996,-15996.348924887565,1332.6621140372379,4923.8660322850083,16724.402153899046,17683.825348905455,16089.207119109846,-16576.880647227212,16576.880647227212,-16089.207119109846,34099.360883739064,0.0
653523.2936376977,3612751.2368613081,-37500.0,14772.53067078097,-6793.0833688195153,-17450.794991653867,-1815.4150879927081,2558.2757086674856,16550.572488684775,18833.055923020238,15797.861474248324,-18033.828641657539,18033.828641657539,-15797.861474248324,35591.54442547122,0.0
658523.2936376977,3612751.2368613081,-37500.0,15962.574989582425,-5997.8995140836414,-17617.227988217375,-3479.7797936577876,-1292.5332444112678,10590.094689689486,18560.744721558694,15517.996384472588,-17760.33091955386,17760.33091955386,-15517.996384472588,33545.83144255005,0.0
663523.2936376977,3612751.2368613081,-37500.0,15970.648359808543,-3728.2322335434978,-16044.266663583587,-1960.9877877955805,-4614.1888666582081,1553.1723879558599,17109.439420493542,15039.676664735489,-15576.31188788854,15576.31188788854,-15039.676664735489,29805.232963830902,0.0
668523.2936376977,3612751.2368613081,-37500.0,13680.009841684378,-1155.2491559483915,-13233.585521784111,2064.6249203052876,-6288.2389119803565,-6381.0064719843758,15492.179781762356,13717.188181298332,-12265.960568611083,12265.960568611083,-13717.188181298332,26875.445878046408,0.0
673523.2936376977,3612751.2368613081,-37500.0,9449.4740541920528,811.78650625936393,-10096.235949364858,6382.3472482461711,-6451.5749748122726,-10855.336531765606,14651.965922312902,11307.104531021696,-8792.0835066540985,8792.0835066540985,-11307.104531021696,25426.299243857229,0.0
678523.2936376977,3612751.2368613081,-37500.0,4676.3704765738739,1936.6036353881809,-7295.4301194393202,9359.1575576457035,-5765.9127154707476,-12149.24731576285,14116.469470091924,8292.033674289527,-5780.9278472204278,5780.9278472204278,-8292.033674289527,24469.62448231483,0.0
683523.2936376977,3612751.2368613081,-37500.0,542.64193304807725,2390.6392055371684,-5085.2442401005783,10699.780837488746,-4791.8635469516485,-11603.972136507469,13280.952990337659,5359.10519215572,-3467.4443413694235,3467.4443413694235,-5359.10519215572,23245.232648047589,0.0
688523.2936376977,3612751.2368613081,-37500.0,-2494.0787424684427,2431.1622123786669,-3458.4578771572842,10838.973150800846,-3833.1063990938628,-10314.338415229731,12177.447610969197,2925.0877957079088,-1829.4413176946377,1829.4413176946377,-2925.0877957079088,21651.895372205672,0.0
693523.2936376977,3612751.2368613081,-37500.0,-4482.6230318544622,2259.2458821152532,-2308.032394156699,10295.88517906294,-3007.3798606790101,-8859.8946195445751,10975.253697555099,1093.7381586405866,-734.72071166902163,734.72071166902163,-1093.7381586405866,19846.144623462122,0.0
698523.2936376977,3612751.2368613081,-37500.0,-5655.1982551005121,1999.7043218592,-1513.8975104117735,9436.0172584503471,-2338.3387624057032,-7479.5795082068962,9793.0781087496252,-200.74445584497835,-35.354356744648612,35.354356744648612,200.74445584497835,17987.474864192121,0.0
703523.2936376977,3612751.2368613081,-37500.0,-6250.2697130811039,1720.6419296334548,-974.46620894776174,8469.472819764871,-1812.1097007033134,-6252.6785160115705,8690.1490416852357,-1074.3253984437238,392.2380971814722,-392.2380971814722,1074.3253984437238,16179.48630129812,0.0
708523.2936376977,3612751.2368613081,-37500.0,-6456.3635076369501,1455.4669659504973,-612.58566439353876,7505.6644278978238,-1404.106505918508,-5195.2657678650803,7689.1891559869873,-1637.1912182307224,639.11419465807455,-639.11419465807455,1637.1912182307224,14479.130670728706,0.0
713523.2936376977,3612751.2368613081,-37500.0,-6409.0263088470674,1218.3073539671266,-372.60045121608539,6598.0179101664608,-1089.7719703148896,-4300.0638185149601,6794.5574380005828,-1977.42930250159,768.35391004943688,-768.35391004943688,1977.42930250159,12914.050972005816,0.0
718523.2936376977,3612751.2368613081,-37500.0,-6202.279481619933,1013.2430376029058,-215.45136964483066,5770.2609311569531,-848.08327919917667,-3551.3070697248827,6002.2098749483421,-2160.914156684571,822.34938382879693,-822.34938382879693,2160.914156684571,11494.533620699583,0.0
723523.2936376977,3612751.2368613081,-37500.0,-5900.4642958544546,839.45188815166296,-114.15856581376678,5030.3310527592766,-662.15845590248955,-2930.4880772039992,5304.5062115187529,-2235.6369936650817,829.18059492523491,-829.18059492523491,2235.6369936650817,10220.518270106741,0.0
728523.2936376977,3612751.2368613081,-37500.0,-5547.2493942704687,693.96451243864215,-50.26873307620459,4377.6749032959651,-518.84882870250101,-2418.9450931065994,4692.4635790207794,-2236.2065651040057,807.31133444143666,-807.31133444143666,2236.2065651040057,9085.7768614438173,0.0
733523.2936376977,3612751.2368613081,-37500.0,-5171.9437817832631,573.08845522156332,-11.241755871634325,3807.2446619760976,-408.06845051790077,-1999.1916366433031,4156.8518320698313,-2187.4519412392901,768.81611662156774,-768.81611662156774,2187.4519412392901,8080.5791632459586,0.0
738523.2936376977,3612751.2368613081,-37500.0,-4793.8584402883625,473.11320801173105,11.403813475010043,3311.8002496975182,-322.13901146320262,-1655.5850421728849,3688.7556532084118,-2107.0950183232681,721.53602253184215,-721.53602253184215,2107.0950183232681,7193.4671876225848,0.0
743523.2936376977,3612751.2368613081,-37500.0,-4425.3447024624711,390.63035949104471,23.38218242624259,2883.2761448576825,-255.23359088656707,-1374.5800039181765,3279.8690246789029,-2007.6959811098554,670.50639754023223,-670.50639754023223,2007.6959811098554,6412.4386922501899,0.0
748523.2936376977,3612751.2368613081,-37500.0,-4073.9320838107014,322.65438591792201,28.52802788326591,2513.5882995495563,-202.93325106298809,-1144.7201459961279,2922.6373991835931,-1898.0679854971108,618.90267348640418,-618.90267348640418,1898.0679854971108,5725.7076507107722,0.0
753523.2936376977,3612751.2368613081,-37500.0,-3743.8419792729869,266.64178927540087,29.403011365033588,2195.0898507254869,-161.88356121750545,-956.47940392542398,2610.3066822634901,-1784.3101195010931,568.66892473268047,-568.66892473268047,1784.3101195010931,5122.1613370838377,0.0
543523.2936376977,3617751.2368613081,-37500.0,-3163.688410193492,-768.13026007969665,-78.418016929855952,-1708.6350580427695,-342.19321915104626,-670.94804746544298,2207.8393905741259,-2899.1659649929388,292.72825980332368,-292.72825980332368,2899.1659649929388,4349.8887397348726,0.0
548523.2936376977,3617751.2368613081,-37500.0,-3445.0649869878712,-877.65269944435261,-94.414147021495808,-1946.4644359152537,-402.78990990906726,-793.3575767746479,2466.1577057425734,-3194.7324316467111,297.96957190245871,-297.96957190245871,3194.7324316467111,4851.5132584915491,0.0
553523.2936376977,3617751.2368613081,-37500.0,-3749.7452661610196,-1006.0341231584978,-116.49184341924024,-2222.3619009169702,-476.09838275138804,-940.97746038149262,2762.2160494715413,-3522.143671624262,296.72901487484341,-296.72901487484341,3522.143671624262,5423.8124980135717,0.0
558523.2936376977,3617751.2368613081,-37500.0,-4077.1665106554892,-1156.9002321509836,-147.12908873553607,-2542.7600867222236,-565.11640026385442,-1119.3485841021695,3102.3773719477226,-3883.3711119688501,285.82309081663834,-285.82309081663834,3883.3711119688501,6077.8085310931383,0.0
563523.2936376977,3617751.2368613081,-37500.0,-4425.2434987715051,-1334.580614676936,-189.84287600268831,-2915.1076396685239,-673.60758724638924,-1335.2563290987407,3494.1925114977585,-4279.5483433643876,260.78880021728014,-260.78880021728014,4279.5483433643876,6826.2303660128955,0.0
568523.2936376977,3617751.2368613081,-37500.0,-4789.5040610830101,-1544.2046218187263,-249.63895120750766,-3347.966136005442,-806.31081182720959,-1597.0361252560717,3946.6405301805089,-4710.3026931811019,215.38209642381707,-215.38209642381707,4710.3026931811019,7683.7230430538066,0.0
573523.2936376977,3617751.2368613081,-37500.0,-5161.741476112913,-1791.7584378767258,-333.65889802121586,-3851.0474555804199,-969.21143181468244,-1914.9996551654983,4470.3978070611392,-5172.6751854208778,140.8772193224213,-140.8772193224213,5172.6751854208778,8667.0169622926733,0.0
578523.2936376977,3617751.2368613081,-37500.0,-5527.8987022309248,-2084.029105219382,-452.10487568929898,-4435.093324866074,-1169.8887988100867,-2302.0717379247621,5078.1051542125624,-5659.3699352289914,25.09874262912399,-25.09874262912399,5659.3699352289914,9794.9793119765745,0.0
583523.2936376977,3617751.2368613081,-37500.0,-5864.7005099951657,-2428.2700894991904,-619.54006560584639,-5111.3358109948504,-1417.937158742868,-2774.7738779004262,5784.509241969341,-6155.8648263678751,-148.89224506461869,148.89224506461869,6155.8648263678751,11088.308224962097,0.0
588523.2936376977,3617751.2368613081,-37500.0,-6134.3180923615255,-2831.24437183294,-856.65773166798544,-5889.9385198464661,-1725.3869624120744,-3354.7115049338577,6606.1730004455221,-6635.6135739874708,-404.50382135225937,404.50382135225937,6635.6135739874708,12568.330599205401,0.0
593523.2936376977,3617751.2368613081,-37500.0,-6276.1596857670684,-3296.9704368619059,-1192.5274526100432,-6776.0987724222732,-2106.832498338526,-4070.5488918995711,7560.0510927728083,-7052.1463649605721,-773.61705106971249,773.61705106971249,7052.1463649605721,14253.713093933526,0.0
598523.2936376977,3617751.2368613081,-37500.0,-6195.1724764351038,-3821.9716213287793,-1667.0320385039308,-7761.1867850538983,-2578.3716884400624,-4959.6411245078316,8659.4919695565768,-7326.5598628706011,-1298.3771429675066,1298.3771429675066,7326.5598628706011,16152.721068652512,0.0
603523.2936376977,3617751.2368613081,-37500.0,-5747.9913006755405,-4386.3191568578241,-2332.4532157157578,-8804.4832492262376,-3153.0900109753079,-6066.0326171624356,9905.1434423588562,-7329.5301966721763,-2031.3085655255195,2031.3085655255195,7329.5301966721763,18247.066226244744,0.0
608523.2936376977,3617751.2368613081,-37500.0,-4734.2296398973658,-4939.2128079042486,-3251.6015641905642,-9800.1828315921994,-3828.231243508892,-7425.7747560744438,11267.263663628481,-6860.8046809254556,-3030.5566388267303,3030.5566388267303,6860.8046809254556,20462.586467113575,0.0
613523.2936376977,3617751.2368613081,-37500.0,-2912.9905188878211,-5382.1574570987996,-4487.6047702702781,-10529.603458150728,-4556.1350843894897,-9020.6355822194437,12656.956709509837,-5640.2281011985124,-4345.2696817203523,4345.2696817203523,5640.2281011985124,22626.558679116788,0.0
618523.2936376977,3617751.2368613081,-37500.0,-81.674783971110884,-5566.0772001629839,-6079.67560373794,-10621.669384614996,-5193.0664163396877,-10673.752416796291,13891.534829035285,-3345.7292306522727,-5988.0720107972229,5988.0720107972229,3345.7292306522727,24432.434922562861,0.0
623523.2936376977,3617751.2368613081,-37500.0,3749.0440842893822,-5341.9922455078577,-8007.2251494709353,-9596.5207613951552,-5443.7509833430886,-11883.775799386727,14681.993138612997,247.08326082102803,-7906.1645349064074,7906.1645349064074,-247.08326082102803,25487.346552898583,0.0
628523.2936376977,3617751.2368613081,-37500.0,8132.7374802398608,-4709.9474377116212,-10170.432972630944,-7116.9216776227013,-4885.6494033213266,-11703.250540769208,14727.658711783741,5004.7199312226585,-9992.8384754770304,9992.8384754770304,-5004.7199312226585,25603.168689004393,0.0
633523.2936376977,3617751.2368613081,-37500.0,12154.547582011006,-4014.7558793809476,-12438.191917644046,-3479.234144848805,-3228.0194142923729,-8969.1462720430936,14278.123862006269,10199.532791775162,-12182.33685221154,12182.33685221154,-10199.532791775162,25445.119589987051,0.0
638523.2936376977,3617751.2368613081,-37500.0,14901.199037560851,-3908.4668589143694,-14744.221938963972,26.385313515607354,-832.62792095381963,-3227.6882886256763,15357.815584811782,14646.113545414752,-14539.43850162884,14539.43850162884,-14646.113545414752,26795.135376042046,0.0
643523.2936376977,3617751.2368613081,-37500.0,16257.686405053933,-4773.8063024971061,-17032.199606937735,1666.0935643643895,994.85819916771391,3983.0710612883568,17437.469960695744,17392.249330121551,-17069.44111491229,17069.44111491229,-17392.249330121551,30494.698859639346,0.0
648523.2936376977,3617751.2368613081,-37500.0,17026.558777832779,-5998.4789718632173,-18934.384912678837,874.68178571162912,772.17998718795741,9074.9048654241014,18999.206708005928,18407.233704443363,-19238.627038794028,19238.627038794028,-18407.233704443363,34387.476395754442,0.0
653523.2936376977,3617751.2368613081,-37500.0,17785.715320370702,-6254.580773604669,-19649.349088835876,-749.56268642708255,-1584.3199356123921,8835.1920248669339,19794.689979405397,18350.785128124244,-19947.160211766201,19947.160211766201,-18350.785128124244,35679.231803949144,0.0
658523.2936376977,3617751.2368613081,-37500.0,17941.640232455633,-4916.8601329838875,-18533.594246737237,-799.1566295951452,-4387.5017707410807,3305.7499964023955,19315.443792206541,17680.532485924428,-18494.322214045991,18494.322214045991,-17680.532485924428,33808.245964035938,0.0
663523.2936376977,3617751.2368613081,-37500.0,16399.22269744697,-2740.4821233931139,-15793.123802601118,1705.7929224081056,-5903.2282378142272,-4281.4644380626305,17626.729622076862,16319.66846151658,-15388.704462093203,15388.704462093203,-16319.66846151658,30562.761223784852,0.0
668523.2936376977,3617751.2368613081,-37500.0,12791.915300734399,-855.73608267353745,-12318.108804138799,5696.9711994792024,-5835.5793454246077,-10281.524398935306,15924.201297143918,14034.415904819103,-11767.854666527994,11767.854666527994,-14034.415904819103,28022.268952450257,0.0
673523.2936376977,3617751.2368613081,-37500.0,7913.851182313997,263.05597189765268,-8980.8125036200581,9312.3168364812591,-4892.3608159242913,-13121.800023747723,15213.679784781296,10950.079474651106,-8448.4701563937706,8448.4701563937706,-10950.079474651106,26546.354611594827,0.0
678523.2936376977,3617751.2368613081,-37500.0,3062.8627049304364,741.2760855773812,-6241.2089249053861,11451.690373947256,-3763.3774063559845,-13358.268023270013,14616.56359711703,7624.524592671929,-5749.3047900569836,5749.3047900569836,-7624.524592671929,25317.919409444341,0.0
683523.2936376977,3617751.2368613081,-37500.0,-862.08025708974674,850.56691663826621,-4191.4292251130801,12101.259440624912,-2773.0216718479483,-12221.187153723267,13636.935124630352,4633.195830337022,-3710.3404042039665,3710.3404042039665,-4633.195830337022,23808.742578738715,0.0
688523.2936376977,3617751.2368613081,-37500.0,-3610.3895839292809,788.63746234394534,-2739.9183200707644,11749.776967072285,-1999.3343426542606,-10621.76890115222,12409.469909626503,2264.6057559126198,-2250.9277996234009,2250.9277996234009,-2264.6057559126198,22001.136363307571,0.0
693523.2936376977,3617751.2368613081,-37500.0,-5328.2197714521626,663.11216851629774,-1745.9280812796458,10880.258904594662,-1424.5100659807176,-9008.8967618480365,11119.475992814319,540.63397240785355,-1247.8019830692033,1247.8019830692033,-540.63397240785355,20052.740385777488,0.0
698523.2936376977,3617751.2368613081,-37500.0,-6278.8262950660446,525.71092494515324,-1080.183204722887,9808.7770922086438,-1007.6518149072358,-7547.9684512114873,9879.1585114610989,-644.40358211487217,-578.84228663775355,578.84228663775355,644.40358211487217,18103.755287176617,0.0
703523.2936376977,3617751.2368613081,-37500.0,-6702.7610849142466,399.05892024073921,-641.9050084943583,8706.1368486726096,-709.20049622281579,-6280.1742897232798,8738.7981818013886,-1421.966713643686,-143.59187768324091,143.59187768324091,1421.966713643686,16239.717202388158,0.0
708523.2936376977,3617751.2368613081,-37500.0,-6780.9209651191813,291.3862389948701,-358.0665625053951,7654.8254819663971,-496.99363338821365,-5202.2608899359811,7714.0579451058857,-1906.0987681155623,132.53136154677873,-132.53136154677873,1906.0987681155623,14504.844287679551,0.0
713523.2936376977,3617751.2368613081,-37500.0,-6639.4828546299705,204.03546346181074,-177.66762662356916,6690.7821452175504,-346.60699924110071,-4297.1057686176109,6804.4421870806327,-2183.955053900756,301.86281908947433,-301.86281908947433,2183.955053900756,12918.62130108891,0.0
718523.2936376977,3617751.2368613081,-37500.0,-6364.1205645565851,135.30263996068601,-65.811084262044815,5826.5826662602049,-240.13853452256876,-3543.8690815823593,6002.7393288518469,-2318.9031633057202,400.10696407703995,-400.10696407703995,2318.9031633057202,11486.288379867345,0.0
723523.2936376977,3617751.2368613081,-37500.0,-6012.5143485441522,82.38998975377126,1.0848686680478863,5063.0770263214836,-164.73777320384517,-2921.3966843718576,5299.2849400616524,-2356.2167657795662,451.3454182064786,-451.3454182064786,2356.2167657795662,10204.688532719867,0.0
728523.2936376977,3617751.2368613081,-37500.0,-5623.2770190613383,42.354627972270357,38.819211888078001,4395.1924940993931,-111.29203214137431,-2409.6324922409008,4683.8091088884776,-2328.0840407167561,471.77873206848653,-471.77873206848653,2328.0840407167561,9065.6809442933118,0.0
733523.2936376977,3617751.2368613081,-37500.0,-5221.9741987547104,12.524882343974324,57.905458556659099,3814.9811759136319,-73.379995598709883,-1990.3513492058407,4146.260654589275,-2257.3448487487112,472.31717825877433,-472.31717825877433,2257.3448487487112,8058.3375643492645,0.0
738523.2936376977,3617751.2368613081,-37500.0,-4825.1798591377128,-9.3572563535629278,65.296253071471568,3313.3278831152129,-46.486364203844012,-1647.5192687998415,3677.196581171564,-2160.1501970179265,460.3179585762756,-460.3179585762756,2160.1501970179265,7170.4379800480438,0.0
743523.2936376977,3617751.2368613081,-37500.0,-4443.2553520788724,-25.12453352017685,65.558769813196889,2880.9449878418218,-27.433813473333963,-1367.3857877298658,3267.9684432489162,-2047.8450481510706,440.74041043590955,-440.74041043590955,2047.8450481510706,6389.4865107971536,0.0
748523.2936376977,3617751.2368613081,-37500.0,-4082.2864016946487,-36.228496902440078,61.668991417632867,2508.9460989728204,-13.980534249829926,-1138.3899048009525,2910.7975608812858,-1928.3128642120673,416.91622700656796,-416.91622700656796,1928.3128642120673,5703.3737892663448,0.0
753523.2936376977,3617751.2368613081,-37500.0,-3745.4463310332908,-43.801263237215515,55.545227778208485,2189.1539688413654,-4.5386865013205435,-950.95532272166531,2598.7817748094499,-1806.9449559536843,391.06662853282114,-391.06662853282114,1806.9449559536843,5100.772768984556,0.0
543523.2936376977,3622751.2368613081,-37500.0,-3384.7761008261009,-523.95823833289683,-3.5631238075387746,-1807.6656084854244,-225.17174532092645,-704.73526395276519,2291.3940345318765,-3088.6893047951235,572.7999476122061,-572.7999476122061,3088.6893047951235,4509.1129653422886,0.0
548523.2936376977,3622751.2368613081,-37500.0,-3705.8153164424407,-597.03121499214603,-4.3335248805366859,-2067.7192526330796,-263.60547986322706,-836.18185405025395,2565.6053299239147,-3421.1334526125893,625.32951503531854,-625.32951503531854,3421.1334526125893,5041.6325468482055,0.0
553523.2936376977,3622751.2368613081,-37500.0,-4058.7563551760886,-682.84807979523032,-7.5565549599459798,-2371.8027705306017,-309.95887490749698,-995.63871477554096,2881.4581567229352,-3794.1300707984769,680.82928730795311,-680.82928730795311,3794.1300707984769,5652.3465115743602,0.0
558523.2936376977,3622751.2368613081,-37500.0,-4445.184370851226,-784.03710037523865,-14.740720528029634,-2728.2233923445915,-366.12085728993264,-1189.6396472923118,3246.5085891108897,-4212.0516481562072,738.21924109525503,-738.21924109525503,4212.0516481562072,6354.5085996698417,0.0
563523.2936376977,3622751.2368613081,-37500.0,-4865.7466015578302,-903.84687806142983,-28.157981527730279,-3146.9923521527526,-434.50077413985451,-1426.3713554784756,3669.939096994498,-4679.1819074631803,795.61961111717369,-795.61961111717369,4679.1819074631803,7163.8785645901189,0.0
568523.2936376977,3622751.2368613081,-37500.0,-5319.4368699381121,-1046.3036756108868,-51.218406490896051,-3640.2168900946908,-518.20469527372734,-1716.1830016456074,4162.9911979542385,-5199.2982286412189,849.93778921299372,-849.93778921299372,5199.2982286412189,8099.273741807885,0.0
573523.2936376977,3622751.2368613081,-37500.0,-5802.3998748507502,-1216.3988037377069,-89.031054127649199,-4222.5745675954358,-621.2937262040864,-2072.3458334840616,4739.5218030812357,-5774.9146754222256,896.24119370891958,-896.24119370891958,5774.9146754222256,9183.2464707284689,0.0
578523.2936376977,3622751.2368613081,-37500.0,-6305.9122231694937,-1420.2774713341942,-149.24268565982399,-4911.8364810149933,-749.16626688593146,-2512.2533064366662,5416.6970917884328,-6405.9179770982,926.80961419327014,-926.80961419327014,6405.9179770982,10442.885181021671,0.0
583523.2936376977,3622751.2368613081,-37500.0,-6812.9110572204545,-1665.3543034612628,-243.28839804245956,-5729.2599015774149,-909.12869957222836,-3059.387438502401,6215.7654658212441,-7087.068613310711,929.68936981331808,-929.68936981331808,7087.068613310711,11910.611425437681,0.0
588523.2936376977,3622751.2368613081,-37500.0,-7291.9975324832067,-1960.1346670923965,-388.23659551257623,-6699.2800033636813,-1111.2074378707248,-3746.5386350730842,7162.6487968643496,-7803.3683040075575,886.49907304472208,-886.49907304472208,7803.3683040075575,13624.499277707297,0.0
593523.2936376977,3622751.2368613081,-37500.0,-7687.2699093415695,-2313.2341952918969,-609.44483710435259,-7847.0239305898176,-1369.1552549179519,-4620.8108498113343,8287.6370878286307,-8521.5236752641085,769.16630373417365,-769.16630373417365,8521.5236752641085,15626.873886583735,0.0
598523.2936376977,3622751.2368613081,-37500.0,-7901.9572659503929,-2730.5274936179599,-944.18955856207947,-9190.2290065154775,-1701.1964302942104,-5750.3050763312294,9622.4948600729258,-9174.6554454310863,535.32463729899064,-535.32463729899064,9174.6554454310863,17958.28274453737,0.0
603523.2936376977,3622751.2368613081,-37500.0,-7774.9757249154245,-3208.5218850851761,-1446.0833280274601,-10718.759764445564,-2128.876274758813,-7229.5907936739459,11191.603857604816,-9636.7425162522632,122.59343013101261,-122.59343013101261,9636.7425162522632,20641.130164176961,0.0
608523.2936376977,3622751.2368613081,-37500.0,-7055.5875418622818,-3721.5165802471579,-2189.019602409041,-12350.899611514402,-2669.6593734921212,-9173.0778243464811,12991.546411454538,-9685.6426940237525,-556.46274466870636,556.46274466870636,9685.6426940237525,23643.955317380314,0.0
613523.2936376977,3622751.2368613081,-37500.0,-5398.4856776680881,-4202.3745403997009,-3266.9278175474496,-13856.937953465909,-3314.3753186425033,-11668.404556148484,14952.549549143827,-8965.5810585736162,-1613.4676204679367,1613.4676204679367,8965.5810585736162,26817.893493934222,0.0
618523.2936376977,3622751.2368613081,-37500.0,-2433.5136295699517,-4528.0685562498074,-4781.8342478939476,-14765.606742539663,-3978.2607832795952,-14639.753162151563,16881.00247028589,-6992.0880889089249,-3167.8578499232563,3167.8578499232563,6992.0880889089249,29814.460381537603,0.0
623523.2936376977,3622751.2368613081,-37500.0,2012.7566438100137,-4548.3527302191969,-6811.5126065450022,-14347.583933703583,-4432.0988927940789,-17581.803674623723,18405.839333256139,-3292.0399856163053,-5307.4263907871045,5307.4263907871045,3292.0399856163053,32054.007229195569,0.0
628523.2936376977,3622751.2368613081,-37500.0,7547.9744453544836,-4218.6490159435079,-9360.2596877293527,-11888.51798309655,-4292.639370040526,-19275.115293501247,19002.723598189787,2229.4151670291981,-8040.5228156656322,8040.5228156656322,-2229.4151670291981,32932.009952425549,0.0
633523.2936376977,3622751.2368613081,-37500.0,13004.724639032534,-3813.5936294435332,-12322.332690589978,-7405.0675070765037,-3259.6073244034433,-17959.334169613099,18239.240907822837,8821.5129207166392,-11280.945074645864,11280.945074645864,-8821.5129207166392,32496.383821457286,0.0
638523.2936376977,3622751.2368613081,-37500.0,16957.20129634265,-3912.2022547778502,-15464.748594359464,-2330.930468710344,-1661.6535209925705,-12603.377059068562,17203.071825533891,14874.411763677434,-14833.346444264504,14833.346444264504,-14874.411763677434,32204.006032022193,0.0
643523.2936376977,3622751.2368613081,-37500.0,18868.613859686549,-4785.5203822991471,-18331.317102587516,1077.0108924286285,-698.32497620416427,-4787.8004032708041,19244.216044704081,18829.201242627001,-18207.241117360623,18207.241117360623,-18829.201242627001,33720.769099684585,0.0
648523.2936376977,3622751.2368613081,-37500.0,19433.719900295255,-5738.8738485072554,-20120.637728634898,1863.9163639839342,-1464.3681374626742,1294.9775270034258,20734.701644398978,20292.825670169615,-20412.509507453171,20412.509507453171,-20292.825670169615,35940.987374567369,0.0
653523.2936376977,3622751.2368613081,-37500.0,19310.777825431851,-5656.3518299429143,-20025.781883064319,1543.752889566669,-3507.7975831288181,2202.3606240435975,20806.396624623208,19958.576416323562,-20435.455707108125,20435.455707108125,-19958.576416323562,36154.155954103233,0.0
658523.2936376977,3622751.2368613081,-37500.0,18156.777442379847,-4338.8606200625154,-17978.041521590221,2285.0926294934734,-5111.3319148687142,-1634.4433220395654,19430.390166730016,18548.856723570156,-18233.376498298829,18233.376498298829,-18548.856723570156,33656.865610979985,0.0
663523.2936376977,3622751.2368613081,-37500.0,15427.206242617485,-2682.2187634775,-14755.875323973711,4687.1709309041698,-5163.0386788566975,-7022.754725862238,17070.727760333153,16354.322706430963,-14862.204440829713,14862.204440829713,-16354.322706430963,30081.101524935042,0.0
668523.2936376977,3622751.2368613081,-37500.0,11278.18391524831,-1551.8291071042136,-11307.868244591855,7805.3655629598561,-4000.0878781733736,-11087.896014831464,15031.123539415861,13499.748292402368,-11474.043578842331,11474.043578842331,-13499.748292402368,27261.835232434678,0.0
673523.2936376977,3622751.2368613081,-37500.0,6522.8659075067817,-1089.7178324407398,-8237.0467403476414,10377.323980792393,-2535.7226104678193,-12808.003897964287,14477.262921802519,10241.270794935352,-8599.5860593973503,8599.5860593973503,-10241.270794935352,25536.919947681337,0.0
678523.2936376977,3622751.2368613081,-37500.0,2107.1006966721384,-1010.2748984401869,-5775.1801975286335,11748.673226533179,-1341.5503215308302,-12645.074501435995,13970.765432571408,7012.6002094067035,-6304.8485337252905,6304.8485337252905,-7012.6002094067035,24208.086296054782,0.0
683523.2936376977,3622751.2368613081,-37500.0,-1379.0184220687952,-1046.4657941177954,-3930.4400249201258,11979.260590424348,-541.34818479579201,-11488.314144242822,13067.077833755515,4208.764737628504,-4524.7311224854002,4524.7311224854002,-4208.764737628504,22750.539227123783,0.0
688523.2936376977,3622751.2368613081,-37500.0,-3806.1499399805134,-1076.137828244661,-2610.0086866301158,11451.690872598945,-58.629173854640776,-10000.298690684791,11926.265437705777,2012.9938965456256,-3181.051564863511,3181.051564863511,-2012.9938965456256,21074.048283014803,0.0
693523.2936376977,3622751.2368613081,-37500.0,-5323.7529249481931,-1069.8648204846902,-1694.1226288647476,10535.841070258131,211.18312654720907,-8517.458245673437,10720.691183388075,415.50953149216764,-2192.4632728490683,2192.4632728490683,-415.50953149216764,19275.513162172982,0.0
698523.2936376977,3622751.2368613081,-37500.0,-6162.3264397858275,-1031.8876280013508,-1072.8066419320257,9476.8037443661051,347.79263870023476,-7169.3930351511026,9553.9267658923072,-686.70333140067305,-1478.7213468829168,1478.7213468829168,686.70333140067305,17465.095570648278,0.0
703523.2936376977,3622751.2368613081,-37500.0,-6530.4837324075861,-972.94549352437957,-658.50122142752241,8409.155698889841,403.79162266017198,-5991.2051353765864,8474.2270800564111,-1413.6408694047623,-969.24935903030882,969.24935903030882,1413.6408694047623,15718.621951442639,0.0
708523.2936376977,3622751.2368613081,-37500.0,-6586.5314054557712,-902.37525955359717,-386.47719656605614,7398.6853746317793,412.6159041229692,-4982.2284939115889,7498.360834901363,-1868.7081105902071,-607.85959664772054,607.85959664772054,1868.7081105902071,14079.87676809161,0.0
713523.2936376977,3622751.2368613081,-37500.0,-6442.3116576783632,-826.9510350072452,-210.81209855532262,6474.145580033678,395.28601325170803,-4129.479092258528,6627.8182718472017,-2131.298043556777,-352.59634061504164,352.59634061504164,2131.298043556777,12571.091688210814,0.0
718523.2936376977,3622751.2368613081,-37500.0,-6174.759508155691,-751.27921568450836,-99.689534638157085,5645.3234217538547,364.82386757887036,-3415.8876837745156,5857.3339393061078,-2259.5692591734669,-173.17392046090504,173.17392046090504,2259.5692591734669,11200.85219511664,0.0
723523.2936376977,3622751.2368613081,-37500.0,-5836.3142686224828,-678.33480594042896,-31.380921962358997,4912.2825163344014,329.0843611870223,-2823.352494464576,5178.8850535050706,-2295.4126621260352,-48.020919648422023,48.020919648422023,2295.4126621260352,9969.0526116938709,0.0
728523.2936376977,3622751.2368613081,-37500.0,-5462.4871785107043,-609.90035658556098,8.8136375374374207,4270.057416685283,292.61260566265827,-2334.1950924857147,4583.5163994816676,-2268.8524133370775,38.204578977303527,-38.204578977303527,2268.8524133370775,8870.0896119094959,0.0
733523.2936376977,3622751.2368613081,-37500.0,-5077.0481988276179,-546.90789364452564,30.769957788710624,3711.1777476205566,257.87421598811648,-1932.0106087409442,4062.2108794692126,-2201.3590969687348,96.459520276005378,-96.459520276005378,2201.3590969687348,7895.070015379255,0.0
738523.2936376977,3622751.2368613081,-37500.0,-4695.5727569906485,-489.70481332130487,41.083258283434674,3227.1241728798341,226.06406930249236,-1602.1435034422707,3606.3343833084227,-2108.2287417544785,134.61500339086103,-134.61500339086103,2108.2287417544785,7033.3806278710199,0.0
743523.2936376977,3622751.2368613081,-37500.0,-4327.9077926292066,-438.25587719998214,44.131385696013702,2809.2036886366527,197.6272508041869,-1331.8789281812367,3207.8707728381701,-2000.2826581240765,158.35630604277094,-158.35630604277094,2000.2826581240765,6273.7875548896209,0.0
748523.2936376977,3622751.2368613081,-37500.0,-3979.91449518524,-392.29154192302087,42.799840987347622,2449.070234629899,172.58692268484026,-1110.4297510702347,2859.5358942498337,-1885.0928093038301,171.8070058691643,-171.8070058691643,1885.0928093038301,5605.1697254647133,0.0
753523.2936376977,3622751.2368613081,-37500.0,-3654.7113445854461,-351.41288983884658,38.973455692189127,2139.0141720898391,150.74529685201273,-928.7962024304652,2554.8153076120584,-1767.8740073352706,177.96567567088323,-177.96567567088323,1767.8740073352706,5016.9751658558716,0.0
543523.2936376977,3627751.2368613081,-37500.0,-3530.4862952782933,-251.86873372718617,38.234599054125177,-1873.024330701033,-96.371311770252689,-727.01339317185943,2349.6131563909662,-3199.3760867953533,832.44434429109174,-832.44434429109174,3199.3760867953533,4618.7934689188032,0.0
548523.2936376977,3627751.2368613081,-37500.0,-3876.4792480072151,-281.72772391327237,45.804346295284518,-2147.2014400162152,-109.32828613131345,-864.22373640666342,2634.4775199106352,-3552.3704592513159,928.71872379391311,-928.71872379391311,3552.3704592513159,5171.8916376928009,0.0
553523.2936376977,3627751.2368613081,-37500.0,-4259.6810335851651,-316.25501940415,52.92856377182175,-2469.1256759973639,-124.31481075488043,-1031.19205558877,2963.5483056646667,-3950.7073179936465,1036.8294501554351,-1036.8294501554351,3950.7073179936465,5808.1571181239296,0.0
558523.2936376977,3627751.2368613081,-37500.0,-4683.0279624534505,-356.41861142957998,58.664396987904013,-2848.2803085061978,-141.68871001729488,-1235.0691891633344,3345.1740793011445,-4400.1184567272649,1157.764629781713,-1157.764629781713,4400.1184567272649,6542.3495979461395,0.0
563523.2936376977,3627751.2368613081,-37500.0,-5148.9178192849022,-403.46681828569132,61.489036834915638,-3296.3032343681411,-161.8947273516323,-1484.9194166943712,3789.6350477503306,-4906.709189857349,1292.2490450600085,-1292.2490450600085,4906.709189857349,7392.3022577638058,0.0
568523.2936376977,3627751.2368613081,-37500.0,-5658.6151189914162,-459.03804365430665,58.992476541244976,-3827.5864891552565,-185.51107822308052,-1792.3683513855315,4309.7160624594499,-5476.7185101062096,1440.4761345812115,-1440.4761345812115,5476.7185101062096,8379.7293901853809,0.0
573523.2936376977,3627751.2368613081,-37500.0,-6211.2062822341095,-525.31713919019012,47.410877363094833,-4460.0757792599006,-213.33792818367826,-2172.5996197007998,4921.4843587584992,-6116.017152188303,1601.6620358011814,-1601.6620358011814,6116.017152188303,9531.3053115130497,0.0
578523.2936376977,3627751.2368613081,-37500.0,-6801.7258199428024,-605.24879989461033,20.917239697780353,-5216.2948744402411,-246.56376449886361,-2645.9734083617736,5645.3229301688261,-6829.0826553780153,1773.299168898533,-1773.299168898533,6829.0826553780153,10880.077073610888,0.0
583523.2936376977,3627751.2368613081,-37500.0,-7417.7431214762619,-702.79877983198776,-29.458879873410755,-6124.5050014391236,-287.07039038169086,-3240.7566662142531,6507.2238240452725,-7616.9163901450811,1949.8945342644583,-1949.8945342644583,7616.9163901450811,12467.192459299675,0.0
588523.2936376977,3627751.2368613081,-37500.0,-8033.1115984513972,-823.19733367346782,-117.47880019530122,-7219.5224437327706,-337.96153030080939,-3997.7664618106287,7540.1614244451475,-8472.8093834163956,2120.8066698857178,-2120.8066698857178,8472.8093834163956,14343.607326535244,0.0
593523.2936376977,3627751.2368613081,-37500.0,-8596.6763622956114,-972.94019552084615,-264.20059921389645,-8541.6889677885374,-404.38445918408604,-4978.0081556572786,8784.8742820665957,-9373.8246876947051,2266.5167676170599,-2266.5167676170599,9373.8246876947051,16570.582859924449,0.0
598523.2936376977,3627751.2368613081,-37500.0,-9012.7580789200729,-1158.9923329144231,-501.75110528201367,-10130.115048080443,-494.5415907508077,-6274.0625496551265,10288.293025398223,-10264.205138319776,2352.2634810333229,-2352.2634810333229,10264.205138319776,19215.874496346354,0.0
603523.2936376977,3627751.2368613081,-37500.0,-9110.4122951135141,-1386.0463018803284,-878.8265247266022,-12001.58682345023,-620.1327465994525,-8023.2079786476397,12095.736361957803,-11025.005480604115,2317.6065817449189,-2317.6065817449189,11025.005480604115,22338.821090325699,0.0
608523.2936376977,3627751.2368613081,-37500.0,-8603.8669543644355,-1650.0846280811945,-1468.0977273127271,-14099.398454747372,-793.7147849114873,-10410.706068833415,14229.761179217036,-11424.70029680633,2060.870141075864,-2060.870141075864,11424.70029680633,25952.157033175921,0.0
613523.2936376977,3627751.2368613081,-37500.0,-7066.2194194026933,-1927.3431465757956,-2374.2359896423004,-16192.518015265898,-1017.0223069506313,-13628.108829756529,16645.614838229088,-11056.656271503813,1420.5705581677475,-1420.5705581677475,11056.656271503813,29944.970437065957,0.0
618523.2936376977,3627751.2368613081,-37500.0,-3983.6044401785612,-2164.643673586083,-3736.9288990656419,-17728.10449636764,-1251.2429512534134,-17712.196115891078,19156.443594364682,-9308.5629674242919,165.41177388170672,-165.41177388170672,9308.5629674242919,33963.694242142075,0.0
623523.2936376977,3627751.2368613081,-37500.0,987.98979910551543,-2296.9004526108101,-5714.1420842533862,-17741.12150372129,-1370.6139091889647,-22177.661980925703,21345.593783860415,-5489.2176886032903,-1978.1202636011853,1978.1202636011853,5489.2176886032903,37309.675956018,0.0
628523.2936376977,3627751.2368613081,-37500.0,7500.6464860107008,-2339.631645799529,-8420.1999104477018,-15126.140291529528,-1156.9771869182609,-25533.340076027609,22547.998085376188,708.54713802613469,-5219.6137911975929,5219.6137911975929,-708.54713802613469,39059.267401578247,0.0
633523.2936376977,3627751.2368613081,-37500.0,14082.88874695778,-2540.8303747577397,-11797.86718899981,-9604.6967605551163,-491.71891997174703,-25340.896642653785,22061.431916251531,8476.1637709306688,-9508.3627031828237,9508.3627031828237,-8476.1637709306688,38737.248657822223,0.0
638523.2936376977,3627751.2368613081,-37500.0,18704.560509026138,-3315.9841308393061,-15445.427865471764,-2845.8014327575811,212.59352560913885,-19882.782644892162,19661.709219767836,15684.569977228526,-14308.174573737142,14308.174573737142,-15684.569977228526,37347.905365909086,0.0
643523.2936376977,3627751.2368613081,-37500.0,20431.500506906232,-4655.2264199972315,-18511.711338241381,2168.9547966027831,-23.776527422088162,-10798.974332367408,20096.466767887861,20129.86617073806,-18483.319171305055,18483.319171305055,-20129.86617073806,36808.008633657024,0.0
648523.2936376977,3627751.2368613081,-37500.0,20097.414918427574,-5701.6532296936712,-19933.264635822263,3947.502035088864,-1649.2923377244442,-2971.6424040117699,21194.446292069588,21247.535002545323,-20636.433602967467,20636.433602967467,-21247.535002545323,36926.982428568292,0.0
653523.2936376977,3627751.2368613081,-37500.0,18816.810209496882,-5588.5834557606122,-19169.257022644859,3904.8639445843719,-3640.626709119485,-230.85213144859028,20500.792107354995,20099.249502213828,-20093.964272317655,20093.964272317655,-20099.249502213828,35516.364299147906,0.0
658523.2936376977,3627751.2368613081,-37500.0,16744.02739012364,-4489.3947841198333,-16713.777291691622,4243.6989233153927,-4489.4765305550372,-2155.8415071366462,18379.756625141152,17906.78855962235,-17529.622588917082,17529.622588917082,-17906.78855962235,31925.518839592572,0.0
663523.2936376977,3627751.2368613081,-37500.0,13684.784238802988,-3299.8277065628963,-13600.49194085833,5688.3996157202564,-3747.9201809546394,-5808.9950150994991,15482.474633347934,15272.267062700843,-14297.282870122604,14297.282870122604,-15272.267062700843,27649.259508420688,0.0
668523.2936376977,3627751.2368613081,-37500.0,9847.1643578604617,-2643.6891841968718,-10597.694695998383,7658.1787678376459,-2116.5712149755518,-8789.89508100065,12713.917264530735,12400.318269783964,-11364.124998678561,11364.124998678561,-12400.318269783964,24385.450531135881,0.0
673523.2936376977,3627751.2368613081,-37500.0,5781.4194265810502,-2514.9155700538936,-8012.1759595898857,9334.9711753383872,-498.00797992480648,-10233.520343041764,12495.949037381071,9439.3358320663228,-8994.4490082491775,8994.4490082491775,-9439.3358320663228,22516.248966843214,0.0
678523.2936376977,3627751.2368613081,-37500.0,2070.3132708860321,-2610.2330584776769,-5905.1787422373072,10266.309718489192,647.08002192275137,-10338.365824862365,12296.922508777545,6616.1620395310865,-7097.2485843387612,7097.2485843387612,-6616.1620395310865,21365.998735419962,0.0
683523.2936376977,3627751.2368613081,-37500.0,-912.84147927924221,-2691.0303741944558,-4256.8462292971162,10434.076877119845,1283.8091732275982,-9643.9612038275136,11681.818029733713,4160.4823237023929,-5556.6453940581314,5556.6453940581314,-4160.4823237023929,20285.394396410356,0.0
688523.2936376977,3627751.2368613081,-37500.0,-3070.248899495909,-2671.4439322118933,-3013.575219447674,10048.485501941999,1550.1644877248525,-8602.7161073130719,10812.567456387598,2194.301802421598,-4309.4029623675506,4309.4029623675506,-2194.301802421598,19038.382313160851,0.0
693523.2936376977,3627751.2368613081,-37500.0,-4491.802927742312,-2557.0328081729103,-2103.6990482797046,9345.9028032598235,1591.5620037420238,-7479.7846806185999,9839.4591637018893,718.30647538133167,-3315.5004829141253,3315.5004829141253,-718.30647538133167,17635.726316652148,0.0
698523.2936376977,3627751.2368613081,-37500.0,-5337.5038442533069,-2380.8125119745273,-1452.6626940896861,8501.3939064570914,1511.4967301607976,-6402.1226294954713,8859.8431558172451,-337.05327533774607,-2536.0058382387692,2536.0058382387692,337.05327533774607,16156.764700634278,0.0
703523.2936376977,3627751.2368613081,-37500.0,-5764.4867606707994,-2173.8824556161908,-994.23311257283478,7622.370613395381,1373.8732138932073,-5422.5151451328666,7926.3431489259174,-1061.1747341831212,-1931.1444156312862,1931.1444156312862,1061.1747341831212,14675.914009913913,0.0
708523.2936376977,3627751.2368613081,-37500.0,-5900.1766511826654,-1958.2365244909358,-675.11530512629838,6768.4342092260513,1215.7344913115689,-4558.8620217284479,7063.4737301609257,-1536.4031949981122,-1464.3647542877229,1464.3647542877229,1536.4031949981122,13246.32577862588,0.0
713523.2936376977,3627751.2368613081,-37500.0,-5839.8362894022648,-1747.5982807122525,-454.93497429067838,5970.3879687841327,1057.5876195805824,-3812.7717711254249,6280.2346950431838,-1829.4137661638022,-1104.9550023356753,1104.9550023356753,1829.4137661638022,11901.469733162588,0.0
718523.2936376977,3627751.2368613081,-37500.0,-5652.2520826134769,-1549.7841310210688,-304.19217138376615,5242.516993721033,910.02915596865148,-3177.7922091643286,5577.501483288188,-1991.2486336432321,-828.43102294061111,828.43102294061111,1991.2486336432321,10659.880011945124,0.0
723523.2936376977,3627751.2368613081,-37500.0,-5386.3160201868541,-1368.7178663597372,-201.79419862725996,4589.5840011975943,777.79857667112299,-2643.4329041230135,4951.9585663867692,-2060.0569700888609,-615.76375294808543,615.76375294808543,2060.0569700888609,9529.4311750614997,0.0
728523.2936376977,3627751.2368613081,-37500.0,-5076.3993841462225,-1205.8515579903774,-132.85602051477122,4010.7880199537494,662.26397264938703,-2197.4959701532321,4398.1814501454874,-2064.0524733938773,-452.30444088602349,452.30444088602349,2064.0524733938773,8510.6990464690389,0.0
733523.2936376977,3627751.2368613081,-37500.0,-4746.3418779096,-1061.1225699701827,-86.958900459270751,3502.1237298317701,562.95178201744568,-1827.5495952704932,3909.7916997599382,-2023.9672194584027,-326.79740108942269,326.79740108942269,2023.9672194584027,7599.5214554989025,0.0
738523.2936376977,3627751.2368613081,-37500.0,-4412.3572448083178,-933.58956876129116,-56.848973009378533,3057.87224553858,478.47659173684826,-1521.8329144979052,3480.1357132874764,-1954.936732314296,-230.58443697020175,230.58443697020175,1954.936732314296,6788.9039310221369,0.0
743523.2936376977,3627751.2368613081,-37500.0,-4085.1575406154925,-821.85102904754513,-37.494864188904735,2671.5683825224396,407.08983908817078,-1269.7460055558474,3102.6933099459975,-1867.9190584582097,-156.9944180356174,156.9944180356174,1867.9190584582097,6070.3867821769491,0.0
748523.2936376977,3627751.2368613081,-37500.0,-3771.5175516680602,-724.31365981730448,-25.417014453114803,2336.6226573270619,346.98820400932982,-1062.049786567783,2771.3184985748576,-1770.7622210669797,-100.87986061962511,100.87986061962511,1770.7622210669797,5434.9844302805595,0.0
753523.2936376977,3627751.2368613081,-37500.0,-3475.427439208896,-639.35848980049389,-18.215831098360795,2046.7022520976291,296.47421054054666,-890.87914157924718,2480.3677891691573,-1669.0083184382529,-58.265136998507273,58.265136998507273,1669.0083184382529,4873.7942779684845,0.0
543523.2936376977,3632751.2368613081,-37500.0,-3593.5041566965574,34.111280520846691,42.705906378012408,-1901.6711889709529,38.32360463963267,-736.81353706337609,2379.645267909385,-3225.0255990006985,1057.1380254232668,-1057.1380254232668,3225.0255990006985,4674.6266704609361,0.0
548523.2936376977,3632751.2368613081,-37500.0,-3947.6311249962291,50.623252622300306,50.424481474856428,-2180.8567435230766,52.406157501538132,-876.15129320753545,2669.0939756304015,-3580.3450723053265,1189.6452246700785,-1189.6452246700785,3580.3450723053265,5236.6807800680936,0.0
553523.2936376977,3632751.2368613081,-37500.0,-4340.2562413717951,71.435134217771022,57.609901593082448,-2508.8628436147992,70.851790639712661,-1045.785712203515,3003.7061930270602,-3981.1847494151125,1340.9975978596358,-1340.9975978596358,3981.1847494151125,5883.8481836206347,0.0
558523.2936376977,3632751.2368613081,-37500.0,-4774.577242205135,97.548156583636271,63.281480135350861,-2895.4657934793404,95.028735405858498,-1253.0304705695112,3392.1094549434029,-4433.2948208247208,1513.7465940918155,-1513.7465940918155,4433.2948208247208,6631.4574348856231,0.0
563523.2936376977,3632751.2368613081,-37500.0,-5253.3306878634803,130.15262602309994,65.872869148711715,-3352.7092504986804,126.74400210539504,-1507.1790378876765,3844.9747722636766,-4942.8240523460463,1710.5759325841377,-1710.5759325841377,4942.8240523460463,7498.1347469499824,0.0
568523.2936376977,3632751.2368613081,-37500.0,-5778.2251080218957,170.63031175154617,62.930889755024189,-3895.5640825569017,168.38022596348105,-1820.1936877178437,4375.6453929009913,-5516.104546419313,1934.1457537535098,-1934.1457537535098,5516.104546419313,8506.7206090040891,0.0
573523.2936376977,3632751.2368613081,-37500.0,-6348.9312075025919,220.52612422725105,50.664162105988254,-4542.8281254620251,223.06746192988302,-2207.7796450714027,5001.0034567929069,-6159.192531783925,2186.7909256429284,-2186.7909256429284,6159.192531783925,9685.5199921605672,0.0
578523.2936376977,3632751.2368613081,-37500.0,-6961.245517075421,281.46492910571203,23.265795330033185,-5318.3219344666359,294.89272926781581,-2691.1578452295057,5742.6504239958149,-6876.9155807036595,2469.9550873291673,-2469.9550873291673,6876.9155807036595,11069.994066374244,0.0
583523.2936376977,3632751.2368613081,-37500.0,-7603.6765561940329,354.9684246123951,-28.105578239139238,-6252.3243084006526,389.14107728106757,-3300.1029371543641,6628.4312925554641,-7670.8841544419156,2783.1214015139708,-2783.1214015139708,7670.8841544419156,12704.919204008678,0.0
588523.2936376977,3632751.2368613081,-37500.0,-8251.062562537305,442.11182045148456,-116.86682227465074,-7382.8138508375523,512.55569473727292,-4078.2046131574671,7694.1672920810188,-8535.3439897026547,3121.7788399879951,-3121.7788399879951,8535.3439897026547,14646.753569455963,0.0
593523.2936376977,3632751.2368613081,-37500.0,-8852.7845990290934,542.9124162623973,-263.35575773486318,-8755.0114491471959,673.58256742975584,-5091.7308968184789,8984.9759214094101,-9448.6172302869763,3473.5076324387023,-3473.5076324387023,9448.6172302869763,16965.099120013176,0.0
598523.2936376977,3632751.2368613081,-37500.0,-9311.8410561630644,655.30217019391807,-498.42610404849387,-10415.093296033943,882.56774170044662,-6443.310491229593,10554.393796806864,-10355.939726222166,3810.4717070559477,-3810.4717070559477,10355.939726222166,19740.079683290522,0.0
603523.2936376977,3632751.2368613081,-37500.0,-9450.8016279759777,773.39544022157952,-868.9439986590645,-12388.557523915561,1151.8779628265609,-8288.9633100781466,12457.26890648597,-11137.10274045886,4075.4085447563225,-4075.4085447563225,11137.10274045886,23048.457220148455,0.0
608523.2936376977,3632751.2368613081,-37500.0,-8965.6664770176649,884.44572891811151,-1445.9348551852174,-14624.817301464322,1495.9465360957045,-10846.622331380557,14728.622993199142,-11551.83734126397,4157.1976484112502,-4157.1976484112502,11551.83734126397,26924.798717356793,0.0
613523.2936376977,3632751.2368613081,-37500.0,-7389.7713213005445,962.94389912691656,-2335.3454082494509,-16882.578278412559,1930.9900953006058,-14356.871290391491,17336.676453566684,-11166.662627601203,3854.0928732722723,-3854.0928732722723,11166.662627601203,31278.342235413435,0.0
618523.2936376977,3632751.2368613081,-37500.0,-4143.0216038100734,958.11498435407054,-3687.2766044705959,-18551.113048346571,2472.1466775104223,-18906.224853842803,20099.59310638838,-9310.2285298378574,2835.6278762093843,-2835.6278762093843,9310.2285298378574,35754.831789764386,0.0
623523.2936376977,3632751.2368613081,-37500.0,1181.7801755063185,768.44979291140078,-5686.608081280976,-18516.965123222486,3117.3940794132236,-23992.74960881918,22579.107677921773,-5203.3880152292859,651.59175976134156,-651.59175976134156,5203.3880152292859,39592.71697273045,0.0
628523.2936376977,3632751.2368613081,-37500.0,8185.2867187237316,205.72500231283612,-8481.6406031770512,-15448.477454228838,3786.5340159711086,-27904.500848020896,24038.925329345569,1499.6294311080501,-3104.3808525571676,3104.3808525571676,-1499.6294311080501,41687.650705958542,0.0
633523.2936376977,3632751.2368613081,-37500.0,15080.479669445842,-988.61761288314153,-11991.792510206569,-8977.0591734966292,4176.6229943181679,-27712.387122549768,23675.098722575582,9793.5815916466254,-8380.263463707337,8380.263463707337,-9793.5815916466254,41263.35710510036,0.0
638523.2936376977,3632751.2368613081,-37500.0,19382.891188800124,-2899.6459178073901,-15634.477360563211,-1161.8187806526701,3652.3026672348619,-21316.101128233793,21388.623615692457,17057.028474021936,-14187.747661211361,14187.747661211361,-17057.028474021936,39073.567977510298,0.0
643523.2936376977,3632751.2368613081,-37500.0,20111.453446953969,-4980.191752084238,-18304.558877575786,4326.3856296258073,1655.2525208989325,-10701.821275938984,20390.187004610732,20760.345846682882,-18706.070667964945,18706.070667964945,-20760.345846682882,37152.44421014894,0.0
648523.2936376977,3632751.2368613081,-37500.0,18626.273386102901,-6155.9581489016191,-19001.285814399616,5762.5590980197785,-1313.7270123137196,-1459.9747754867146,20569.004503527096,20681.621915941549,-20387.131472942914,20387.131472942914,-20681.621915941549,35804.754503226628,0.0
653523.2936376977,3632751.2368613081,-37500.0,16607.123718974744,-5905.6017210352211,-17666.841885791535,4836.2310053815463,-3661.6510150277177,2396.6564107606741,19181.454487623105,18542.522157710053,-19181.54672561909,19181.54672561909,-18542.522157710053,33235.701921088126,0.0
658523.2936376977,3632751.2368613081,-37500.0,14461.683447142446,-4809.1534699189351,-15169.913808341238,4056.6077249765876,-4199.6386611227135,1376.4266977509926,16661.383336239538,15931.501715698341,-16396.388989050472,16396.388989050472,-15931.501715698341,28864.881894316244,0.0
663523.2936376977,3632751.2368613081,-37500.0,11924.98258559201,-3790.2879510556622,-12475.813796356268,4396.034898769718,-3072.4847926384437,-1695.8604897587286,13779.504899897725,13422.316270326641,-13439.919447044422,13439.919447044422,-13422.316270326641,24040.830203569676,0.0
668523.2936376977,3632751.2368613081,-37500.0,8951.0756482099296,-3317.1056817065373,-10069.323572794039,5494.9291209306102,-1217.2127487976916,-4587.3204487136409,11064.433433729235,11019.927894657038,-11004.192321961506,11004.192321961506,-11019.927894657038,20386.151816821282,0.0
673523.2936376977,3632751.2368613081,-37500.0,5802.8588832967107,-3317.2202101594876,-8027.1608380485977,6689.962799847227,506.59125719036143,-6414.9207488045913,9992.6164772180182,8666.2175032269006,-9133.7538978392513,9133.7538978392513,-8666.2175032269006,18428.782163562879,0.0
678523.2936376977,3632751.2368613081,-37500.0,2833.4075862655582,-3500.8228361776428,-6303.2271199094703,7544.0810793054306,1697.1064427952747,-7171.4679936602561,10046.587385438916,6414.262502512318,-7639.3540174014834,7639.3540174014834,-6414.262502512318,17558.815623162296,0.0
683523.2936376977,3632751.2368613081,-37500.0,312.51466852554171,-3640.1605663324481,-4865.9034746401458,7923.0869983363818,2331.5085600880498,-7170.1049928603788,9798.5622778364377,4386.4966850337432,-6371.8032097328842,6371.8032097328842,-4386.4966850337432,16983.624587892176,0.0
688523.2936376977,3632751.2368613081,-37500.0,-1643.0926139938042,-3645.4793027252799,-3699.1799272966005,7885.7785891519652,2550.2826642289251,-6731.6876109170207,9288.213086810556,2680.3011825905933,-5271.0368248942095,5271.0368248942095,-2680.3011825905933,16297.10383413274,0.0
693523.2936376977,3632751.2368613081,-37500.0,-3046.2638759758383,-3520.1608577273205,-2780.1127640968148,7556.8851211653055,2510.1001402176375,-6083.6305223088875,8625.9661346056,1326.1031040263888,-4322.34733573617,4322.34733573617,-1326.1031040263888,15411.060145453133,0.0
698523.2936376977,3632751.2368613081,-37500.0,-3978.6280008995327,-3302.5532454894692,-2074.2219042087672,7053.8737879351684,2330.0641507591477,-5363.5289931909738,7899.4372305102515,299.88474337072694,-3519.0622457191539,3519.0622457191539,-299.88474337072694,14368.775317986912,0.0
703523.2936376977,3632751.2368613081,-37500.0,-4540.6674078805981,-3033.2136848204427,-1541.9723435157102,6464.0840467450325,2087.5046253140163,-4648.7086729189587,7165.794927926916,-448.53845511248596,-2849.9076941334642,2849.9076941334642,448.53845511248596,13242.173460494882,0.0
708523.2936376977,3632751.2368613081,-37500.0,-4825.6319005897876,-2743.614993980038,-1145.5842718501442,5846.0039749975631,1828.3923703870589,-3980.4683448577139,6458.8016254126724,-974.54033870786361,-2299.1585270849978,2299.1585270849978,974.54033870786361,12094.851092901807,0.0
713523.2936376977,3632751.2368613081,-37500.0,-4910.6261804622345,-2454.9731500513135,-852.67140920493898,5236.6806656487433,1578.1029487514397,-3378.8033961292131,5796.8276746557267,-1328.4331930889507,-1849.5900191377364,1849.5900191377364,1328.4331930889507,10973.503990371419,0.0
718523.2936376977,3632751.2368613081,-37500.0,-4855.977702494416,-2180.2445328660642,-637.20947365388179,4658.4284438772056,1349.2643868136308,-2850.8563303340179,5188.655840300099,-1552.171079840459,-1484.6691629514983,1484.6691629514983,1552.171079840459,9908.7932298514424,0.0
723523.2936376977,3632751.2368613081,-37500.0,-4707.4834732767495,-1926.4984576644208,-479.08597519192131,4123.6171097479701,1146.9196058541272,-2396.0463322672144,4637.1836371285481,-1679.2808817039872,-1189.6058044895867,1189.6058044895867,1679.2808817039872,8918.6057714796243,0.0
728523.2936376977,3632751.2368613081,-37500.0,-4499.1978084725724,-1696.868444464825,-363.12393480443774,3637.9467864868511,971.79891923320156,-2009.4071751054785,4141.7354966892754,-1735.929340805757,-951.6721655728644,951.6721655728644,1735.929340805757,8011.4570417951581,0.0
733523.2936376977,3632751.2368613081,-37500.0,-4255.978106488591,-1491.9850361412066,-278.03904272370164,3202.7243797269025,822.34876149613513,-1683.8049123117037,3699.5340109781741,-1742.2211968933648,-760.16209152838667,760.16209152838667,1742.2211968933648,7189.3870925333649,0.0
738523.2936376977,3632751.2368613081,-37500.0,-3995.611348978694,-1310.9760385223706,-215.51837710897649,2816.4757400325971,695.95684115054382,-1411.3702955004303,3306.6573468269953,-1713.4087116176268,-606.20150195634028,606.20150195634028,1713.4087116176268,6450.2234327300321,0.0
743523.2936376977,3632751.2368613081,-37500.0,-3730.5316481495629,-1152.1410912069975,-169.47261517674534,2476.0870610977736,589.66396333716841,-1184.3661985008437,2958.6664355513722,-1660.9267052540708,-482.51058274278239,482.51058274278239,1660.9267052540708,5789.2550395463813,0.0
748523.2936376977,3632751.2368613081,-37500.0,-3469.1788878162538,-1013.3919203676776,-135.45609062460019,2177.5951282038045,500.5543377046576,-995.66041748419514,2651.0077288599246,-1593.2451874413564,-383.16333567321101,383.16333567321101,1593.2451874413564,5200.4126290789391,0.0
753523.2936376977,3632751.2368613081,-37500.0,-3217.0579179509723,-892.52905463937554,-110.22860588263676,1916.7168392255278,425.95017830230108,-838.93968926258776,2379.2628789458468,-1516.5575826999993,-303.36416949811246,303.36416949811246,1516.5575826999993,4677.0677343950938,0.0
543523.2936376977,3637751.2368613081,-37500.0,-3571.6878613068584,318.79555383009279,8.9133653298797189,-1892.6819281785201,172.5673224392595,-733.84204265867447,2380.2958370219112,-3165.0444613375857,1234.9220154488758,-1234.9220154488758,3165.0444613375857,4674.809591508686,0.0
548523.2936376977,3637751.2368613081,-37500.0,-3916.6106409449499,380.8171156292002,8.3516574566779482,-2167.4936756622051,213.31919547454979,-871.57540270667141,2667.9366413462799,-3504.3523890038568,1392.9737139586389,-1392.9737139586389,3504.3523890038568,5233.6972500180518,0.0
553523.2936376977,3637751.2368613081,-37500.0,-4297.1386886052533,455.75664247921873,4.9936787203566491,-2489.4571752982952,264.64866500474631,-1038.8974246142145,2999.9919668765715,-3884.7058655001379,1574.0241638715047,-1574.0241638715047,3884.7058655001379,5876.4397401899296,0.0
558523.2936376977,3637751.2368613081,-37500.0,-4715.5754969488225,546.45227958995258,-2.8196302822609542,-2867.713590803623,329.57114367988112,-1242.8122259305148,3384.8177982730249,-4310.5086078760451,1781.3177480238364,-1781.3177480238364,4310.5086078760451,6617.9220704677537,0.0
563523.2936376977,3637751.2368613081,-37500.0,-5173.4814734216061,656.35201753507522,-17.550437679250798,-3313.4174369679099,412.03248502986003,-1492.1634073095011,3832.7097688638219,-4786.1281371757104,2018.3284202059926,-2018.3284202059926,4786.1281371757104,7476.1632562059449,0.0
568523.2936376977,3637751.2368613081,-37500.0,-5671.0177388352795,789.61085038846386,-42.8365453245342,-3840.286611314114,517.21574259964416,-1798.2552292517123,4356.4868334828871,-5315.5314215271901,2288.6031975087249,-2288.6031975087249,5315.5314215271901,8473.1635124491677,0.0
573523.2936376977,3637751.2368613081,-37500.0,-6205.8272778896353,951.17079888272042,-84.036590764600362,-4465.3437313315198,651.9565809645012,-2175.8244942870565,4972.2948657081679,-5901.6291067584325,2595.4495143007289,-2595.4495143007289,5901.6291067584325,9636.0580050259414,0.0
578523.2936376977,3637751.2368613081,-37500.0,-6771.0607941778981,1146.7803428393165,-149.02782533923269,-5209.8730759446717,825.30877282743586,-2644.651908598214,5700.689304394311,-6545.0564794847114,2941.3285762640162,-2941.3285762640162,6545.0564794847114,10998.654773480481,0.0
583523.2936376977,3637751.2368613081,-37500.0,-7351.8144238948344,1382.8614732879907,-249.374406335706,-6100.4994931901701,1049.3152938084959,-3232.3415906885084,6568.0160947172535,-7241.8435234070466,3326.6849872916564,-3326.6849872916564,7241.8435234070466,12603.364211366435,0.0
588523.2936376977,3637751.2368613081,-37500.0,-7918.6258194685161,1666.0253072602404,-402.04077925955238,-7169.8944314101236,1340.0516081997719,-3979.1526781439543,7607.9353553324563,-7978.8555773158414,3747.6642139872192,-3747.6642139872192,7978.8555773158414,14503.220635480733,0.0
593523.2936376977,3637751.2368613081,-37500.0,-8415.6984541457932,2001.7986620487854,-631.89966339614364,-8455.5107161238029,1718.9706588556739,-4946.1140639212417,8862.4357409003969,-8724.8124724068202,4191.6068352241109,-4191.6068352241109,8724.8124724068202,16762.820499973925,0.0
598523.2936376977,3637751.2368613081,-37500.0,-8740.4336466068889,2391.6513695067083,-975.38221971044243,-9992.1590946273081,2214.4025780031184,-6227.3823988094064,10380.576815478471,-9412.9696322175478,4628.1867983047086,-4628.1867983047086,9412.9696322175478,19455.023344320351,0.0
603523.2936376977,3637751.2368613081,-37500.0,-8710.9409693799262,2826.4731827931651,-1485.6525650017425,-11788.927233982517,2862.3869408382889,-7964.8796213403557,12210.968874674469,-9909.5582989542218,4992.4381866344738,-4992.4381866344738,9909.5582989542218,22646.278647833762,0.0
608523.2936376977,3637751.2368613081,-37500.0,-8024.0296480613133,3273.1836946348085,-2239.3810343674422,-13772.595191691638,3704.0824384485795,-10352.660855027863,14380.487154787248,-9962.740087135644,5154.4414970282915,-5154.4414970282915,9962.740087135644,26357.352024372907,0.0
613523.2936376977,3637751.2368613081,-37500.0,-6228.4682202134554,3649.8735773030608,-3343.5254986006939,-15674.128265438416,4772.2382712764293,-13591.12314018042,16848.057342611362,-9139.6109116895223,4872.7951881785357,-4872.7951881785357,9139.6109116895223,30481.05667606102,0.0
618523.2936376977,3637751.2368613081,-37500.0,-2792.4431334946421,3787.8751728148541,-4934.8863528126449,-16858.961238735232,6050.2709939748711,-17702.596930240623,19424.433705395939,-6804.8744299140744,3746.5384907653788,-3746.5384907653788,6804.8744299140744,34648.1405808942,0.0
623523.2936376977,3637751.2368613081,-37500.0,2582.502999902661,3398.4367579481318,-7150.9401146272212,-16222.507181231967,7379.5410507187626,-22096.392004839705,21673.646397847522,-2293.4402637504477,1233.7896447113135,-1233.7896447113135,2293.4402637504477,38093.403184110328,0.0
628523.2936376977,3637751.2368613081,-37500.0,9309.9447781520648,2114.9663694583751,-10028.522637815217,-12538.544658648167,8315.1407200809754,-24981.091174161404,22890.073478338389,4499.8637583596801,-3106.6840012951934,3106.6840012951934,-4499.8637583596801,39739.207812241541,0.0
633523.2936376977,3637751.2368613081,-37500.0,15402.151632774792,-258.17453489339971,-13297.445697292653,-5719.9001484391874,8061.2451262491686,-23477.993145602479,22383.844415161631,12228.684324358612,-9024.7349706774985,9024.7349706774985,-12228.684324358612,38894.611451634388,0.0
638523.2936376977,3637751.2368613081,-37500.0,18400.453269193935,-3291.0238716370395,-16192.858967645696,1778.5366759693611,5832.4090941499508,-15852.097698988991,20466.364545013435,18086.408915683536,-15018.790636651584,15018.790636651584,-18086.408915683536,36456.253082451614,0.0
643523.2936376977,3637751.2368613081,-37500.0,17795.887094923575,-5792.293282777423,-17684.44686544326,6168.1046269664403,1774.3006391143324,-4657.7447466380117,19621.984608928225,19916.17544878065,-18871.371945030125,18871.371945030125,-19916.17544878065,34504.931259407538,0.0
648523.2936376977,3637751.2368613081,-37500.0,15552.269799614955,-6644.6532729946039,-17262.596012987342,6152.3221530422616,-2530.8106922511051,4411.5937990500643,19141.343259735331,18312.382951265768,-19388.616423719126,19388.616423719126,-18312.382951265768,33174.881390713024,0.0
653523.2936376977,3637751.2368613081,-37500.0,13553.009045959698,-5878.2313535542398,-15419.167383156026,3905.9034883927434,-5144.0291363475435,7874.7490294295721,17317.076861157962,15515.697939122971,-17329.325177388051,17329.325177388051,-15515.697939122971,30592.977263291094,0.0
658523.2936376977,3637751.2368613081,-37500.0,12043.539238562209,-4499.6376828103485,-13118.371114000001,2078.4731673546194,-5347.9707212618978,6592.0588164928049,14584.334419948598,13041.242705154298,-14390.986871061985,14390.986871061985,-13041.242705154298,26175.818080283341,0.0
663523.2936376977,3637751.2368613081,-37500.0,10477.454552837911,-3448.2756391727098,-11022.782395305621,1653.5579239219921,-3808.4729622396144,3276.1726510006224,12003.287537336131,11128.304634891963,-11799.387896177701,11799.387896177701,-11128.304634891963,21134.742904112358,0.0
668523.2936376977,3637751.2368613081,-37500.0,8539.0921224096346,-3049.459925452757,-9297.1579089162351,2294.9537165036018,-1640.4018419727927,-18.899450310178569,9837.7221261814411,9487.2226646472445,-9917.5026041513811,9917.5026041513811,-9487.2226646472445,17044.041987881181,0.0
673523.2936376977,3637751.2368613081,-37500.0,6300.8598209322354,-3153.635674636254,-7845.2172968841815,3346.5766836706966,326.64979408888075,-2439.232898291245,8333.0363752578523,7880.5349547354635,-8592.8139813380585,8592.8139813380585,-7880.5349547354635,14717.940535579244,0.0
678523.2936376977,3637751.2368613081,-37500.0,4006.5825628475668,-3460.9819434517726,-6556.6596420222113,4332.000786433855,1727.21522120902,-3887.6773108503139,7914.2299002652944,6258.0109043928151,-7561.7667814333909,7561.7667814333909,-6258.0109043928151,13845.437642016954,0.0
683523.2936376977,3637751.2368613081,-37500.0,1892.2336411358492,-3736.6084627013693,-5392.6817282732636,5029.7079559248405,2533.4824469912696,-4563.3996613611789,7846.9814533501412,4689.3800200164715,-6649.0148038311436,6649.0148038311436,-4689.3800200164715,13592.375278627565,0.0
688523.2936376977,3637751.2368613081,-37500.0,106.07853919294242,-3870.674793105386,-4361.937741501627,5397.7064476988862,2871.9759428734328,-4713.7305750759078,7643.1076010137085,3267.8929958139679,-5789.2554196562405,5789.2554196562405,-3267.8929958139679,13369.94973767716,0.0
693523.2936376977,3637751.2368613081,-37500.0,-1298.8053662502803,-3847.9451191291332,-3479.6826489755936,5482.5054920295661,2897.9707697565314,-4542.2521424398183,7279.7172226864486,2054.7734615164045,-4979.5487552031991,4979.5487552031991,-2054.7734615164045,12961.132720458629,0.0
698523.2936376977,3637751.2368613081,-37500.0,-2336.4043717153691,-3698.8400002469498,-2748.649894660336,5357.2613573955832,2740.4640777976238,-4193.2211300533008,6811.1826218036185,1068.9870270709068,-4235.4905545387037,4235.4905545387037,-1068.9870270709068,12350.209728234933,0.0
703523.2936376977,3637751.2368613081,-37500.0,-3054.933271956163,-3465.4760923621907,-2158.2185052672562,5091.808323211354,2490.2899381016628,-3761.906007603442,6289.6155714270644,299.17376218273967,-3570.0884822332218,3570.0884822332218,-299.17376218273967,11590.97072216362,0.0
708523.2936376977,3637751.2368613081,-37500.0,-3513.5206207398373,-3185.6751674462544,-1690.0323838243264,4742.6454311520956,2205.4871622035671,-3308.4543119400741,5753.15008153693,-281.44748912256432,-2988.4200728577171,2988.4200728577171,281.44748912256432,10747.529124480609,0.0
713523.2936376977,3637751.2368613081,-37500.0,-3769.5717097164943,-2888.0729689836312,-1323.3768694812657,4351.9049948221846,1920.3786029329149,-2868.9371522631777,5227.0367087814629,-704.55788829548317,-2488.7599943565483,2488.7599943565483,704.55788829548317,9873.9846974408974,0.0
718523.2936376977,3637751.2368613081,-37500.0,-3873.3351497631106,-2592.2200551385572,-1038.5085195699894,3949.3207680318837,1653.527197691893,-2463.2199245183438,4726.8080891815807,-1000.9822772203086,-2065.1081397517519,2065.1081397517519,1000.9822772203086,9009.9894222627372,0.0
723523.2936376977,3637751.2368613081,-37500.0,-3866.341222014526,-2310.3300185237208,-818.19922123041749,3554.7919861478194,1413.5866163147989,-2100.5156532787937,4261.1436245660207,-1198.1118019110936,-1709.3422241710459,1709.3422241710459,1198.1118019110936,8181.9323180599486,0.0
728523.2936376977,3637751.2368613081,-37500.0,-3781.652164689076,-2049.2398968062844,-648.173069856138,3180.7742260019299,1203.2870693595937,-1783.31515708807,3834.0573256598909,-1319.0729184434849,-1412.6735489787684,1412.6735489787684,1319.0729184434849,7405.6816434546045,0.0
733523.2936376977,3637751.2368613081,-37500.0,-3644.8544945548647,-1812.0885256538043,-516.97460715639625,2834.2997584570412,1022.0307883896576,-1510.1302809194033,3446.4878841181285,-1382.7563481026439,-1166.521140370942,1166.521140370942,1382.7563481026439,6689.3885938355443,0.0
738523.2936376977,3637751.2368613081,-37500.0,-3475.2781465064136,-1599.6054852687689,-415.60033736253047,2518.6003077943551,867.52021271696469,-1277.3473051103203,3097.4299400067084,-1404.2287289897538,-962.98318586991786,962.98318586991786,1404.2287289897538,6035.8593152146786,0.0
743523.2936376977,3637751.2368613081,-37500.0,-3287.2005907126018,-1411.0419325520252,-337.06936677752736,2234.3593546088655,736.73986667876977,-1080.4238757220162,2784.72482143761,-1395.2828264356374,-795.04982302748908,795.04982302748908,1395.2828264356374,5444.393161172432,0.0
748523.2936376977,3637751.2368613081,-37500.0,-3090.927643018782,-1244.81403414586,-276.01662724023907,1980.6426330058637,626.52053018557547,-914.61866338920152,2505.6013436487756,-1365.0037470024045,-656.6587329509224,656.6587329509224,1365.0037470024045,4912.1313361069006,0.0
753523.2936376977,3637751.2368613081,-37500.0,-2893.7115250434776,-1098.9304600427511,-228.34166902400898,1755.5648534246329,533.84129681838976,-775.40380938776718,2257.0355836115168,-1320.2924940528399,-542.66056435761061,542.66056435761061,1320.2924940528399,4435.0060246674593,0.0
543523.2936376977,3642751.2368613081,-37500.0,-3468.2546065102606,587.29120221475955,-60.628918554991948,-1847.3240430643696,300.11871974583812,-718.50290782428021,2351.9121977515433,-3024.4985419475356,1357.5547315454382,-1357.5547315454382,3024.4985419475356,4620.1393568128824,0.0
548523.2936376977,3642751.2368613081,-37500.0,-3787.7828502475763,690.07343892061397,-77.019078016546857,-2108.8930613203834,365.28925994398224,-851.0828025205733,2631.5258913067232,-3331.1578848585314,1528.5160923496114,-1528.5160923496114,3331.1578848585314,5164.0853413228706,0.0
553523.2936376977,3642751.2368613081,-37500.0,-4136.2807782682594,812.85680157731963,-100.30515585876996,-2413.426540636568,446.41935838601273,-1011.3851081764835,2953.1862306372718,-3670.371690432642,1723.2458492085377,-1723.2458492085377,3670.371690432642,5787.5756321591589,0.0
558523.2936376977,3642751.2368613081,-37500.0,-4514.1815610301046,959.76784179551635,-133.32205289558735,-2768.6066167193403,547.83129991434475,-1205.677462136885,3324.4689264591843,-4044.093749329294,1944.6463121726749,-1944.6463121726749,4044.093749329294,6504.1068477866947,0.0
563523.2936376977,3642751.2368613081,-37500.0,-4920.6165899729531,1135.7474955704085,-180.07052688007857,-3183.5626736650252,675.11523086027989,-1441.7457805658369,3754.5921968176835,-4453.4684693661493,2195.590284538685,-2195.590284538685,4453.4684693661493,7329.7949836723428,0.0
568523.2936376977,3642751.2368613081,-37500.0,-5352.5936919311434,1346.650082879363,-246.20544335446613,-3669.1733823597838,835.52765072234752,-1729.3549851074758,4254.8678656429383,-4898.2058539630007,2478.6278536532072,-2478.6278536532072,4898.2058539630007,8283.997510229523,0.0
573523.2936376977,3642751.2368613081,-37500.0,-5803.6801414946149,1599.2946936451569,-339.73203772065136,-4238.4380824170657,1038.5269802568152,-2080.9639305227347,4839.3063004311944,-5375.5801506050702,2795.4692345885646,-2795.4692345885646,5375.5801506050702,9390.1296178124176,0.0
578523.2936376977,3642751.2368613081,-37500.0,-6261.8123212529927,1901.3872063294532,-471.99602511732024,-4906.8715709606768,1296.4956639089592,-2512.9074093610398,5525.3933528637717,-5878.7600767270633,3146.0666612823557,-3146.0666612823557,5878.7600767270633,10676.679203589532,0.0
583523.2936376977,3642751.2368613081,-37500.0,-6705.5736314398937,2261.1469971023998,-659.08613737265568,-5692.7360161669976,1625.7135695398142,-3047.433999802417,6335.0107205953,-6393.9363778679399,3526.9718084777119,-3526.9718084777119,6393.9363778679399,12178.342340137631,0.0
588523.2936376977,3642751.2368613081,-37500.0,-7097.7749977608682,2686.2738861256948,-923.79744877460496,-6616.4881342423105,2047.6339757200069,-3716.2102851373024,7295.2702835233795,-6895.2169075785914,3928.3318774668246,-3928.3318774668246,6895.2169075785914,13936.844572068107,0.0
593523.2936376977,3642751.2368613081,-37500.0,-7374.4987950171371,3181.4913625195773,-1298.3141020375303,-7697.7690774517723,2590.4007767516628,-4566.0230163971855,8438.5629540256668,-7335.4406935784655,4328.309349180231,-4328.309349180231,7335.4406935784655,16000.183618224673,0.0
598523.2936376977,3642751.2368613081,-37500.0,-7427.2672825972941,3743.1056736108649,-1827.6704933797384,-8945.9436240578834,3290.1006488065409,-5666.7793256020823,9800.0928227560489,-7629.9345012962995,4682.71284048096,-4682.71284048096,7629.9345012962995,18417.201426949898,0.0
603523.2936376977,3642751.2368613081,-37500.0,-7077.2220693606341,4347.6415176601286,-2573.6142544494783,-10335.895750618993,4189.8712235656112,-7118.6854482103927,11409.293007135599,-7629.6332306314071,4906.303127632229,-4906.303127632229,7629.6332306314071,21221.078746632138,0.0
608523.2936376977,3642751.2368613081,-37500.0,-6047.5261084542008,4929.8966710513359,-3617.1072187800919,-11755.151296982653,5331.4276450703064,-9045.5422074982907,13268.877863002723,-7083.2199242485794,4841.8416123529196,-4841.8416123529196,7083.2199242485794,24390.904519482741,0.0
613523.2936376977,3642751.2368613081,-37500.0,-3962.5762792272203,5345.9661788785043,-5054.0463505861362,-12908.569037706699,6725.9821790263468,-11538.328543419979,15313.517071206034,-5603.9477249616175,4218.3263064488183,-4218.3263064488183,5603.9477249616175,27778.81671704711,0.0
618523.2936376977,3642751.2368613081,-37500.0,-448.76045332398564,5327.2471385018889,-6971.0118301690773,-13198.349413924227,8280.6461832561708,-14479.74478460289,17345.411647530142,-2701.2760890521622,2623.6111596600658,-2623.6111596600658,2701.2760890521622,31005.321302497923,0.0
623523.2936376977,3642751.2368613081,-37500.0,4545.2610858921407,4470.3253792474225,-9377.2290739640684,-11711.299533181073,9658.646993039898,-17187.522501228152,18971.918836236051,1988.8261697150938,-423.84199942485259,423.84199942485259,-1988.8261697150938,33389.497922596849,0.0
628523.2936376977,3642751.2368613081,-37500.0,10204.535969391962,2383.1821615930212,-12074.039637371514,-7644.3101988911703,10125.545433762552,-18035.945256420233,19645.582019222562,8145.1570069746813,-5148.9020415575724,5148.9020415575724,-8145.1570069746813,34126.633772777437,0.0
633523.2936376977,3642751.2368613081,-37500.0,14613.475258802482,-884.65031771298754,-14518.703909271397,-1421.1550433189584,8650.4273253596493,-14815.967345323465,19034.101275476387,14153.405844945177,-10904.838244018312,10904.838244018312,-14153.405844945177,33020.12572007694,0.0
638523.2936376977,3642751.2368613081,-37500.0,15893.582358284255,-4369.4285227258297,-15906.819594510025,4422.9344101687238,4662.2309937475311,-6754.6615520572032,17960.249975990017,17566.333959118499,-15858.584655907443,15858.584655907443,-17566.333959118499,31387.214171706786,0.0
643523.2936376977,3642751.2368613081,-37500.0,14259.882216780721,-6525.7083016606721,-15680.345135053318,6785.1466669958854,-891.58253598748445,3315.7201843402563,17856.056720029555,17209.886242983321,-18010.570591304768,18010.570591304768,-17209.886242983321,30931.78313149283,0.0
648523.2936376977,3642751.2368613081,-37500.0,11903.200974595391,-6542.4934124697202,-14079.338999126865,5192.7291714027888,-5742.6468297503861,10623.114349528298,17592.111378690144,14470.188916457966,-16970.249511722879,16970.249511722879,-14470.188916457966,30849.814425391385,0.0
653523.2936376977,3642751.2368613081,-37500.0,10439.519485146531,-5048.7498655145519,-11977.519282224255,2002.8048689783509,-8067.4819611776275,12782.559763607918,16073.699933733986,11605.079261954097,-14152.567188746705,14152.567188746705,-11605.079261954097,29056.730594219745,0.0
658523.2936376977,3642751.2368613081,-37500.0,9796.9553464643759,-3315.6402908073383,-10145.864387973588,-403.94525222501795,-7690.9686741068745,10895.82899014075,13329.261374982192,9699.7554698789481,-11267.365479700749,11267.365479700749,-9699.7554698789481,25134.859171766991,0.0
663523.2936376977,3642751.2368613081,-37500.0,9221.6290602319423,-2201.8983609888323,-8832.9783571760163,-1229.3794630142563,-5626.5977694797639,7307.2829060520653,10380.134908687893,8604.8727010737912,-9184.6176173816948,9184.6176173816948,-8604.8727010737912,20226.858383524788,0.0
668523.2936376977,3642751.2368613081,-37500.0,8242.8828109441729,-1882.8634050828464,-7902.43658581403,-821.97252713522278,-3050.9065310770729,3732.3736346721939,8702.5236910187523,7808.5091441308341,-7946.2538040127238,7946.2538040127238,-7808.5091441308341,15772.728123455761,0.0
673523.2936376977,3642751.2368613081,-37500.0,6820.7205917779766,-2127.3085494708193,-7127.025643123754,184.90722404348969,-743.60190534914523,914.53767647557936,7327.8228298220001,6964.9497761452021,-7238.9100578050147,7238.9100578050147,-6964.9497761452021,12742.93567283682,0.0
678523.2936376977,3642751.2368613081,-37500.0,5136.6397569800711,-2611.510150172704,-6359.7637966384591,1304.1209093677962,965.19048244048042,-1018.5589658515062,6520.7940859588516,5970.7739257249541,-6744.3356397718035,6744.3356397718035,-5970.7739257249541,11298.143447005268,0.0
683523.2936376977,3642751.2368613081,-37500.0,3410.3273327507736,-3087.4158426123449,-5561.5958781174222,2268.0773325281934,2045.6239778867957,-2196.7021476531081,6275.95168973011,4871.3341973890056,-6269.708889382573,6269.708889382573,-4871.3341973890056,10872.488870903384,0.0
688523.2936376977,3642751.2368613081,-37500.0,1812.343865090857,-3424.603117613548,-4758.8912847276952,2974.0681188065341,2609.480766965542,-2811.9767835147732,6179.8899764854077,3761.3023727272366,-5744.1053524624049,5744.1053524624049,-3761.3023727272366,10785.41177471129,0.0
693523.2936376977,3642751.2368613081,-37500.0,441.59841853979077,-3586.5484150508864,-3995.4176491690332,3414.9903613866809,2804.6263392016099,-3040.3725579925108,6011.4408222907714,2724.9378732990172,-5169.3455151160824,5169.3455151160824,-2724.9378732990172,10655.323791869689,0.0
698523.2936376977,3642751.2368613081,-37500.0,-664.811261438884,-3590.1386062079496,-3305.3851112482721,3628.0889062259807,2763.4321599959394,-3020.0677174105722,5744.4424083271942,1814.6709521961425,-4575.1064436855977,4575.1064436855977,-1814.6709521961425,10361.789396670521,0.0
703523.2936376977,3642751.2368613081,-37500.0,-1511.3295984813456,-3473.2865613960398,-2706.1343698150126,3664.6110682483586,2586.3495132574794,-2851.7130599840871,5404.8130799276478,1052.1798848048018,-3993.1034234927929,3993.1034234927929,-1052.1798848048018,9908.0564482516511,0.0
708523.2936376977,3642751.2368613081,-37500.0,-2125.148177867376,-3276.1706869304167,-2200.7601398646984,3574.6646474340741,2342.4875201988357,-2605.1142460144024,5023.8848651862563,437.46948524490267,-3446.9875151072019,3446.9875151072019,-437.46948524490267,9337.8853013237367,0.0
713523.2936376977,3642751.2368613081,-37500.0,-2542.8779476962413,-3032.9499023443859,-1783.3463682855354,3400.9892113054925,2076.0226887089843,-2326.5688977766031,4627.3106584936259,-41.911185003571518,-2950.7423978840507,2950.7423978840507,41.911185003571518,8699.7432755005993,0.0
718523.2936376977,3642751.2368613081,-37500.0,-2802.4895323918449,-2769.4686144419861,-1443.5200765883937,3177.2833018482606,1813.2486383039188,-2045.2189771953972,4233.5366265603625,-404.09846267768603,-2510.392149201276,2510.392149201276,404.09846267768603,8034.3025679871544,0.0
723523.2936376977,3642751.2368613081,-37500.0,-2939.0471458437769,-2503.7360509861078,-1169.5122674211018,2928.6330718618497,1568.4463822784783,-1778.1409444635747,3854.7622903093329,-668.6685182110773,-2126.4157788700054,2126.4157788700054,668.6685182110773,7371.6702782013144,0.0
728523.2936376977,3642751.2368613081,-37500.0,-2982.8326264151538,-2247.3917185176638,-949.90762931359131,2672.7860420900092,1348.2365350857106,-1534.2522736568451,3498.376039509199,-854.26982391768411,-1795.8702886805756,1795.8702886805756,854.26982391768411,6732.2509925123732,0.0
733523.2936376977,3642751.2368613081,-37500.0,-2958.8530784810314,-2007.3087881143936,-774.49037554670804,2421.6457872052283,1154.6002498686009,-1317.1950916634917,3168.2817092802979,-977.47762231912986,-1513.971574634495,1513.971574634495,977.47762231912986,6128.685076413547,0.0
738523.2936376977,3642751.2368613081,-37500.0,-2887.0881892527063,-1786.9972527728248,-634.54444835784943,2182.6905887640423,986.88123879887712,-1127.3830383766167,2865.973876375313,-1052.3841246065306,-1275.1671894527883,1275.1671894527883,1052.3841246065306,5567.8540391076976,0.0
743523.2936376977,3642751.2368613081,-37500.0,-2783.0847300658061,-1587.7101750096872,-522.85579425823414,1960.1856624598458,843.05978339863498,-963.39535346039179,2591.3544089229381,-1090.6031621655877,-1073.8105407724759,1073.8105407724759,1090.6031621655877,5052.5927378908164,0.0
748523.2936376977,3642751.2368613081,-37500.0,-2658.6688301303006,-1409.2633226901339,-433.57206633930724,1756.1538576429259,720.53152420505182,-822.88757632247552,2343.3284720374636,-1101.485750541731,-904.55129756149586,904.55129756149586,1101.485750541731,4583.0287996575462,0.0
543523.2936376977,3647751.2368613081,-37500.0,-3291.3496737416062,826.40123779703242,-160.2969524888864,-1768.8944895704328,415.3895878020262,-691.84809939674153,2296.2437147743758,-2813.4992207459154,1421.1884906712839,-1421.1884906712839,2813.4992207459154,4513.8840029613775,0.0
548523.2936376977,3647751.2368613081,-37500.0,-3571.9215131806291,961.95737494012337,-198.21501280818006,-2009.568452902329,501.12602474509538,-816.16036823913555,2562.2367962955368,-3074.1218264343797,1591.9372968448524,-1591.9372968448524,3074.1218264343797,5032.2509578515619,0.0
553523.2936376977,3647751.2368613081,-37500.0,-3872.0339410667193,1122.1561436993443,-248.28046463216111,-2287.0030920000304,606.84888248758159,-965.36922640975831,2866.5438016931398,-3355.9731967165353,1783.8678960407626,-1783.8678960407626,3355.9731967165353,5623.2465726077198,0.0
558523.2936376977,3647751.2368613081,-37500.0,-4189.6571103833767,1311.5809912926843,-314.71761069081583,-2606.8302364352949,737.65543928704335,-1144.6795849039429,3215.567532335584,-3657.9384596695836,1998.5844187494995,-1998.5844187494995,3657.9384596695836,6298.2357008980089,0.0
563523.2936376977,3647751.2368613081,-37500.0,-4520.7939662032495,1535.5219374429073,-403.29339035992166,-2975.371250380329,900.01507256246316,-1360.3693941619822,3616.9212013630772,-3977.2031487697104,2237.1077706565547,-2237.1077706565547,3977.2031487697104,7070.4392337913905,0.0
568523.2936376977,3647751.2368613081,-37500.0,-4858.5032619226013,1799.9492503305185,-521.89771911817616,-3399.6262106358154,1102.1441301277891,-1620.0354449685897,4079.6959931660931,-4308.3728153774327,2499.3541748508351,-2499.3541748508351,4308.3728153774327,7955.2407900880207,0.0
573523.2936376977,3647751.2368613081,-37500.0,-5191.422762935832,2111.3549125395825,-681.34160077476804,-3887.1841916941485,1354.4806049550562,-1932.963455611944,4614.7903208933594,-4642.15614781358,2783.2954371685132,-2783.2954371685132,4642.15614781358,8970.5288503699758,0.0
578523.2936376977,3647751.2368613081,-37500.0,-5501.4734618721423,2476.3207500569565,-896.44091966749556,-4445.9379099276257,1670.2722696160863,-2310.7364526147753,5235.2723034054061,-4963.3410425756247,3083.5890027462742,-3083.5890027462742,4963.3410425756247,10136.996253722786,0.0
583523.2936376977,3647751.2368613081,-37500.0,-5760.2470496413498,2900.5569683869608,-1187.46226500016,-5083.3351574528506,2066.2792866805844,-2768.2883104102661,5956.6952089923761,-5247.6248047673871,3389.3263743685015,-3389.3263743685015,5247.6248047673871,11478.227467955847,0.0
588523.2936376977,3647751.2368613081,-37500.0,-5923.2656659860086,3386.8923473598361,-1581.9756249806805,-5804.4772900209791,2563.5075371138582,-3325.6728143983642,6797.0750941162132,-5456.524386726247,3680.2580419847691,-3680.2580419847691,5456.524386726247,13020.026332270128,0.0
593523.2936376977,3647751.2368613081,-37500.0,-5921.0577773922014,3931.2149785062729,-2117.0228826335174,-6607.4853020712662,3187.6295393062528,-4010.6856066635037,7775.818520582764,-5529.1807957919018,3920.3959780934151,-3920.3959780934151,5529.1807957919018,14787.696467818836,0.0
598523.2936376977,3647751.2368613081,-37500.0,-5646.322701738145,4514.541753497052,-2841.1115817191453,-7472.8523279468791,3968.0229055767209,-4861.5676279159898,8910.0957232925539,-5369.6537955976,4047.2883483599758,-4047.2883483599758,5369.6537955976,16798.603844065219,0.0
603523.2936376977,3647751.2368613081,-37500.0,-4938.8792427086255,5088.2464462556791,-3814.4729858838232,-8340.8734770888568,4932.4922114559013,-5925.8960782150671,10205.865940998339,-4829.389007159717,3954.9349886538448,-3954.9349886538448,4829.389007159717,19045.156985268673,0.0
608523.2936376977,3647751.2368613081,-37500.0,-3578.242842825864,5548.9527809828478,-5103.5535126322411,-9069.4514727186361,6090.6656548234023,-7243.8683163602036,11639.503761829295,-3690.2071541050404,3470.1621878161354,-3470.1621878161354,3690.2071541050404,21461.553308337567,0.0
613523.2936376977,3647751.2368613081,-37500.0,-1312.8415734087412,5703.4494890702917,-6760.9288513943284,-9371.174550085665,7392.1861909967047,-8789.5036377338947,13126.88616363049,-1669.8704062071281,2331.4917459404546,-2331.4917459404546,1669.8704062071281,23871.041425814568,0.0
618523.2936376977,3647751.2368613081,-37500.0,2016.0337453224188,5241.9003050574938,-8775.6077355710404,-8763.0921901852871,8640.944969708371,-10330.430454420766,14485.789710981526,1494.2479613374242,205.69054843540152,-205.69054843540152,-1494.2479613374242,25931.868220810771,0.0
623523.2936376977,3647751.2368613081,-37500.0,6196.9101665321314,3782.8931389783493,-10980.930832775022,-6649.6358825173857,9367.7027266996865,-11202.899690694427,15426.607598574115,5798.3418293513796,-3176.8320739508008,3176.8320739508008,-5798.3418293513796,27162.212981639186,0.0
628523.2936376977,3647751.2368613081,-37500.0,10309.604491714112,1106.695363003244,-12948.556131215057,-2749.9530026972302,8764.576755698241,-10188.330141709035,15668.49795120132,10561.554292201066,-7676.366297916893,7676.366297916893,-10561.554292201066,27224.576566143118,0.0
633523.2936376977,3647751.2368613081,-37500.0,12814.072691447074,-2395.5492012420036,-14007.701297859576,2127.9454716029768,5968.7198159927657,-6012.0628619305953,15341.501579070205,14228.612840900752,-12307.440424365852,12307.440424365852,-14228.612840900752,26581.15609497422,0.0
638523.2936376977,3647751.2368613081,-37500.0,12653.386952025865,-5474.3010556406252,-13592.476308405037,5826.5259658623254,905.66046749386362,1222.182433846813,15411.756323094665,15150.125409063008,-15338.978899791522,15338.978899791522,-15150.125409063008,26715.271617908704,0.0
643523.2936376977,3647751.2368613081,-37500.0,10570.330982794192,-6709.9082793501784,-11791.655465897375,6321.1555489345783,-4983.3988311195644,9025.8663112805971,16286.098073308352,13181.445965585941,-15490.030729831285,15490.030729831285,-13181.445965585941,28237.367662399352,0.0
648523.2936376977,3647751.2368613081,-37500.0,8522.2310605993607,-5777.7563572875742,-9439.1605940897207,3787.2321974108959,-9439.8806559087498,14105.908089629929,16865.098634511814,10030.976104026855,-13161.811601865351,13161.811601865351,-10030.976104026855,29403.919440214362,0.0
653523.2936376977,3647751.2368613081,-37500.0,7668.4753944759514,-3672.6694525589533,-7481.2956950404823,298.47695804919846,-11087.927540139231,15104.606770314922,16211.574098258005,7553.7401764484903,-9996.5263651737296,9996.5263651737296,-7553.7401764484903,28408.211518008124,0.0
658523.2936376977,3647751.2368613081,-37500.0,7737.2953852292339,-1684.6503945647924,-6350.1330295010139,-2272.2137073091371,-10130.503428218128,13013.638792795697,14278.805581491733,6358.3719044783684,-7421.0601275480603,7421.0601275480603,-6358.3719044783684,25149.748597521531,0.0
663523.2936376977,3647751.2368613081,-37500.0,7933.869068292177,-530.55783444433041,-5922.7462095990104,-3315.4527231076054,-7664.6802660067297,9595.11830037449,11677.503902897208,6046.7456939083313,-5935.7051645019346,5935.7051645019346,-6046.7456939083313,20684.485812442432,0.0
668523.2936376977,3647751.2368613081,-37500.0,7732.5115600773042,-274.08690722960296,-5842.12859041091,-3122.3628970968089,-4791.1050515788702,6151.6611110691156,9158.3651574309552,6009.9585017206291,-5352.3194364463498,5352.3194364463498,-6009.9585017206291,16237.221169516377,0.0
673523.2936376977,3647751.2368613081,-37500.0,7013.2761840388011,-638.01145943626568,-5794.3288455955271,-2236.9344480077275,-2210.842838789868,3294.2436681091726,7236.704235352413,5854.681741129436,-5261.524008534594,5261.524008534594,-5854.681741129436,12693.712266626915,0.0
678523.2936376977,3647751.2368613081,-37500.0,5894.8269807226734,-1286.1217308417172,-5611.17526458067,-1110.494101468551,-224.22104932562428,1172.4058379471996,6018.2376882581339,5445.0702094248454,-5315.2108205536015,5315.2108205536015,-5445.0702094248454,10448.248889231007,0.0
683523.2936376977,3647751.2368613081,-37500.0,4568.5440007976185,-1960.5214960084411,-5255.3869539811503,-23.314151725775019,1130.7444598304446,-278.42469924661555,5404.0646221522538,4806.2725359733104,-5310.0624236580807,5310.0624236580807,-4806.2725359733104,9367.7506634473339,0.0
688523.2936376977,3647751.2368613081,-37500.0,3208.7248922693043,-2513.1781511957802,-4765.3165962636122,885.82863251493279,1945.2854020687655,-1192.1631168489985,5156.9534674930055,4028.5807928784166,-5169.0210967511548,5169.0210967511548,-4028.5807928784166,8973.0131841287366,0.0
693523.2936376977,3647751.2368613081,-37500.0,1939.7061591869151,-2886.858391995685,-4204.3913951435225,1570.6074742124481,2351.7000679299254,-1707.1015118912223,5008.9087369912295,3207.6635894412602,-4893.0372037406169,4893.0372037406169,-3207.6635894412602,8811.1608839555101,0.0
698523.2936376977,3647751.2368613081,-37500.0,833.28783113361374,-3081.8939391269455,-3630.812970980824,2036.7790206312343,2476.8448057670407,-1942.1781124746076,4835.4180941882996,2417.593652165086,-4517.9766439110299,4517.9766439110299,-2417.593652165086,8636.2807445545295,0.0
703523.2936376977,3647751.2368613081,-37500.0,-80.894964040000829,-3127.0042249848943,-3085.8336388590701,2314.8621738875308,2423.6008397573887,-1991.1964755198694,4610.8957182828135,1704.7342417184439,-4087.2017386680936,4087.2017386680936,-1704.7342417184439,8364.8263236422681,0.0
708523.2936376977,3647751.2368613081,-37500.0,-801.90347827447886,-3059.8505299662447,-2593.1337080272515,2443.6463488940458,2267.616298386899,-1924.114992472485,4344.156307670466,1091.6138940721262,-3638.2740578869075,3638.2740578869075,-1091.6138940721262,7992.8877442945495,0.0
713523.2936376977,3647751.2368613081,-37500.0,-1345.6389390052841,-2916.4870022739042,-2162.7300823429923,2461.2347375488894,2060.7384420551093,-1790.7805509710067,4051.7200571279946,583.78783562527519,-3198.6612851088248,3198.6612851088248,-583.78783562527519,7545.3770684769088,0.0
718523.2936376977,3647751.2368613081,-37500.0,-1736.09871415156,-2726.870345937511,-1795.6333043039126,2400.8371404572008,1836.409662843924,-1625.1833098699753,3749.0315560159479,176.29576449214301,-2785.9610930064241,2785.9610930064241,-176.29576449214301,7052.6005007006352,0.0
723523.2936376977,3647751.2368613081,-37500.0,-1999.6482292526591,-2513.8045714191298,-1487.6958241751806,2289.3365739083533,1614.8634616039112,-1449.4224768567874,3448.0917830149779,-141.41431443562237,-2409.8379849711873,2409.8379849711873,141.41431443562237,6541.2026693128973,0.0
728523.2936376977,3647751.2368613081,-37500.0,-2161.6512622297532,-2293.5308088654369,-1232.3075694294089,2147.3484391585666,1407.3560520575656,-1277.0580229370203,3157.3096709572592,-382.15632375708878,-2074.2539917637769,2074.2539917637769,382.15632375708878,6031.6012462383369,0.0
733523.2936376977,3647751.2368613081,-37500.0,-2244.7423791511746,-2076.926623227193,-1022.0880595459847,1989.9835015280516,1219.3210590393539,-1115.7616191607515,2882.0601615609498,-558.95767333643448,-1779.4099164549941,1779.4099164549941,558.95767333643448,5538.080450629639,0.0
738523.2936376977,3647751.2368613081,-37500.0,-2268.1527631340196,-1870.7867020321326,-849.84705245754913,1827.8569956083206,1052.590221786681,-969.30702996093339,2625.3876443710092,-683.92466546993933,-1523.2332461457788,1523.2332461457788,683.92466546993933,5069.8108223639547,0.0
743523.2936376977,3647751.2368613081,-37500.0,-2247.6573484289347,-1678.9541353033244,-709.06443470934551,1668.0943598867175,906.88971468517923,-838.99956308349488,2388.6505683307582,-767.70942843402713,-1302.4319582691408,1302.4319582691408,767.70942843402713,4632.0468729918257,0.0
748523.2936376977,3647751.2368613081,-37500.0,-2195.8523014646944,-1503.2297819073378,-594.07792075258055,1515.2174525105579,780.81163422745658,-724.66403478697214,2172.04725258803,-819.34618589983779,-1113.1967433792809,1113.1967433792809,819.34618589983779,4227.2113679350578,0.0
543523.2936376977,3652751.2368613081,-37500.0,-3053.0770869577696,1025.7653949084224,-282.09496716412042,-1662.3477265731012,513.89694675464875,-655.46401331404741,2216.2453377110724,-2546.0316202700105,1426.4793743690072,-1426.4793743690072,2546.0316202700105,4361.4448805215434,0.0
548523.2936376977,3652751.2368613081,-37500.0,-3284.8301181653887,1183.9114814691557,-344.74152626201004,-1876.2194863814652,615.19743764044131,-769.02341317232765,2464.0252057228545,-2751.5310126135983,1584.8420928805963,-1584.8420928805963,2751.5310126135983,4845.3742110675466,0.0
553523.2936376977,3652751.2368613081,-37500.0,-3525.1685684516015,1368.4227895478682,-425.06204800223907,-2119.3214543529921,738.84149848888035,-903.97017190741303,2745.4081455631726,-2965.591777577004,1758.9906669772063,-1758.9906669772063,2965.591777577004,5393.0808064438334,0.0
558523.2936376977,3652751.2368613081,-37500.0,-3769.4868528140219,1583.4238044119727,-528.54267985142667,-2394.9483515864081,890.08491427805654,-1064.2544520257495,3065.3976564228242,-3183.9884546010308,1948.5634718029735,-1948.5634718029735,3183.9884546010308,6013.3412846770489,0.0
563523.2936376977,3652751.2368613081,-37500.0,-4010.6443000359272,1833.3320411013747,-662.4572120226477,-2706.2895205931832,1075.4096323006083,-1254.4047515235045,3429.7248170567354,-3400.0402788973574,2151.9253027493273,-2151.9253027493273,3400.0402788973574,6715.9253432167461,0.0
568523.2936376977,3652751.2368613081,-37500.0,-4237.925167970262,2122.604965714791,-836.44954393181365,-3056.1224915055996,1302.7637347663961,-1479.5497750312968,3844.9236795360789,-3603.5901091598453,2365.4144795781385,-2365.4144795781385,3603.5901091598453,7511.5720182147888,0.0
573523.2936376977,3652751.2368613081,-37500.0,-4435.5627725953373,2455.2379678589314,-1063.282728932606,-3446.307921474408,1581.8061009255107,-1745.4369181968982,4318.3801078639126,-3779.5714276086028,2582.2055060484845,-2582.2055060484845,3779.5714276086028,8411.8499154309247,0.0
578523.2936376977,3652751.2368613081,-37500.0,-4580.6319694954009,2833.829226316625,-1359.7706843800254,-3876.9441046424436,1924.1106409188289,-2058.476918328477,4858.3071143061388,-3905.9883748443267,2790.5900986449619,-2790.5900986449619,3905.9883748443267,9428.7941042084185,0.0
583523.2936376977,3652751.2368613081,-37500.0,-4640.0247664917079,3257.8849232454309,-1747.8636272192844,-4344.8850197380452,2343.2198215310964,-2425.8568041232279,5473.5224613592654,-3951.0449041573047,2971.363917904031,-2971.363917904031,3951.0449041573047,10574.070299753206,0.0
588523.2936376977,3652751.2368613081,-37500.0,-4566.1714597203327,3720.7848372319554,-2255.7298754142425,-4841.0106023515627,2854.2776757886645,-2855.7199884346769,6172.7415110792654,-3869.0747387011361,3093.8386065738141,-3093.8386065738141,3869.0747387011361,11857.126965062042,0.0
593523.2936376977,3652751.2368613081,-37500.0,-4291.3638950361683,4204.4370073206383,-2918.3736795836944,-5345.0547259963105,3472.6024706689523,-3357.1483116441764,6962.8069123979676,-3594.9796064272814,3109.8245737064162,-3109.8245737064162,3594.9796064272814,13281.295023754907,0.0
598523.2936376977,3652751.2368613081,-37500.0,-3721.4952559844905,4670.1219294850707,-3776.6295807313568,-5815.8792083421449,4209.7008659826133,-3938.765557055407,7844.7904571443678,-3037.481029684533,2944.9374459202168,-2944.9374459202168,3037.481029684533,14835.986002830126,0.0
603523.2936376977,3652751.2368613081,-37500.0,-2733.033047411845,5043.7661863279263,-4871.9192453831565,-6174.2827428255114,5063.4400935294334,-4602.3883038600206,8806.3878537286564,-2073.7602092883244,2487.5174991183267,-2487.5174991183267,2073.7602092883244,16482.423851483065,0.0
608523.2936376977,3652751.2368613081,-37500.0,-1184.1571097618757,5195.3876645262853,-6231.5355347087507,-6276.8819806854563,5996.0208510760258,-5323.3023499530163,9809.2418193021585,-554.23031744426714,1579.2513687305409,-1579.2513687305409,554.23031744426714,18131.393195037883,0.0
613523.2936376977,3652751.2368613081,-37500.0,1036.7603731194972,4919.7145019433965,-7835.8751612436363,-5889.2976923408223,6890.3012986791364,-6002.5260385142501,10772.987053583985,1661.2540938823672,21.962240398579638,-21.962240398579638,-1661.2540938823672,19619.102986296311,0.0
618523.2936376977,3652751.2368613081,-37500.0,3893.2320541767981,3944.8005055978683,-9559.2718675416254,-4695.1359566685769,7479.4643814741212,-6379.1102134350222,11568.573651469858,4599.3453286607455,-2365.0712018751724,2365.0712018751724,-4599.3453286607455,20711.025400241633,0.0
623523.2936376977,3652751.2368613081,-37500.0,7012.1412462008711,2028.245768134982,-11094.008146979533,-2424.0243511323151,7278.0936188163887,-5932.9538254935187,12057.923641878475,7977.0577491366657,-5586.1266327619032,5586.1266327619032,-7977.0577491366657,21210.923412516466,0.0
628523.2936376977,3652751.2368613081,-37500.0,9559.4254299582062,-795.42773907189678,-11924.580723741004,817.13302060914759,5628.623153610698,-3927.153063571056,12248.862072848049,11001.861170385657,-9204.6808743929123,9204.6808743929123,-11001.861170385657,21275.573207963949,0.0
633523.2936376977,3652751.2368613081,-37500.0,10514.244170580081,-3898.9793128314591,-11494.866778397956,4146.279665349527,2054.5591928461954,154.15919203123343,12563.380154087954,12491.448583108093,-12178.289607257935,12178.289607257935,-12491.448583108093,21761.450559641427,0.0
638523.2936376977,3652751.2368613081,-37500.0,9504.0867461280395,-6087.9865186604411,-9633.426842098721,6030.2797916214431,-3097.014324083761,5812.4471973675745,13635.919687331814,11639.997181316257,-13236.366160018528,13236.366160018528,-11639.997181316257,23627.989391628813,0.0
643523.2936376977,3652751.2368613081,-37500.0,7433.7693863301311,-6348.5632702017556,-6907.1330809191631,5377.4867979753471,-8367.88572175833,11265.289257491757,15196.914025081895,8933.8858447045059,-11862.067403841425,11862.067403841425,-8933.8858447045059,26325.251656985216,0.0
648523.2936376977,3652751.2368613081,-37500.0,5806.0454367621332,-4738.8331150858639,-4363.1355446660691,2621.7216172926105,-11965.498427874447,14543.438190134786,16186.890252810099,5944.2068516906838,-8877.9593069925086,8877.9593069925086,-5944.2068516906838,28037.755806245183,0.0
653523.2936376977,3652751.2368613081,-37500.0,5386.2655164871976,-2309.807847406315,-2804.3784665824637,-678.26084639219891,-12981.734492594671,14934.429482766409,15910.131781651715,4007.8361695548051,-5778.7020028263723,5778.7020028263723,-4007.8361695548051,27557.60761089118,0.0
658523.2936376977,3652751.2368613081,-37500.0,5871.3936326287294,-202.40970244760837,-2376.7096809615205,-3163.6798921590107,-11737.709577737782,13119.117935198856,14420.026225278561,3408.4481535480836,-3629.3735503648413,3629.3735503648413,-3408.4481535480836,24976.222562885345,0.0
663523.2936376977,3652751.2368613081,-37500.0,6552.0409981052653,996.03129497877239,-2733.5029761342962,-4347.3140177988271,-9195.3560671177038,10266.617033089095,12217.620038475372,3674.8053316445516,-2674.1570544030851,2674.1570544030851,-3674.8053316445516,21162.434483507048,0.0
668523.2936376977,3652751.2368613081,-37500.0,6910.1899756691455,1264.0127547893567,-3401.7533112930478,-4405.5934157008578,-6289.0179891095759,7297.355980099057,9867.3009799167885,4203.7590746853748,-2619.578277942253,2619.578277942253,-4203.7590746853748,17092.533232879039,0.0
673523.2936376977,3652751.2368613081,-37500.0,6762.6005805021632,872.1704746038057,-4020.5476074742701,-3748.8987086922784,-3627.8994968850907,4700.4178037942274,7793.3329308870525,4593.5207709919896,-3029.4564653110665,3029.4564653110665,-4593.5207709919896,13498.955257700096,0.0
678523.2936376977,3652751.2368613081,-37500.0,6156.4571791502258,144.55744708809607,-4404.4530902134147,-2758.1491573263606,-1493.6196844886722,2644.5851986072057,6227.4273652268057,4681.5825653098909,-3549.6800086424114,3549.6800086424114,-4681.5825653098909,10786.800073963021,0.0
683523.2936376977,3652751.2368613081,-37500.0,5237.0527122605827,-660.42892551133036,-4510.0580839774775,-1700.3932135412388,55.333542720210019,1127.156631515448,5222.0094471917619,4466.1251801497192,-3969.6629226160535,3969.6629226160535,-4466.1251801497192,9045.9658384494705,0.0
688523.2936376977,3652751.2368613081,-37500.0,4162.548579020664,-1381.0677046390135,-4376.6651389978324,-732.12597210019533,1079.3251495619677,73.343047139164597,4672.9178543743401,4021.7102762480804,-4202.1884936149654,4202.1884936149654,-4021.7102762480804,8096.0527726305272,0.0
693523.2936376977,3652751.2368613081,-37500.0,3063.8038396468214,-1940.2435861698748,-4075.855258995522,72.147845615959525,1685.0886629903202,-611.93005006926467,4378.3952702342367,3442.2833813013558,-4240.0436179161488,4240.0436179161488,-3442.2833813013558,7620.373194617895,0.0
698523.2936376977,3652751.2368613081,-37500.0,2032.0038747781518,-2319.5242715423651,-3679.8668049780185,691.04891663271155,1984.222720455821,-1020.3047455254865,4172.9889946406647,2811.2372004755543,-4116.5545149688851,4116.5545149688851,-2811.2372004755543,7341.13793831979,0.0
703523.2936376977,3652751.2368613081,-37500.0,1120.6234841916103,-2534.1074420698305,-3246.8512565558599,1133.8321494742645,2073.65739060228,-1230.4091225902152,3977.7721789142115,2190.176393754522,-3878.4518685948897,3878.4518685948897,-2190.176393754522,7096.2036990653687,0.0
708523.2936376977,3652751.2368613081,-37500.0,353.34911898740694,-2614.1820341575713,-2817.2037263989696,1424.7783554834227,2029.3284641766743,-1305.1400033340053,3767.8788344048035,1618.2281196752374,-3570.7154065267387,3570.7154065267387,-1618.2281196752374,6818.4315912737084,0.0
713523.2936376977,3652751.2368613081,-37500.0,-266.80165023331648,-2593.2755172121338,-2415.4876297385117,1593.2842686861061,1906.6677452801255,-1292.256394716439,3541.5362887620299,1116.0274209470551,-3229.9954550073708,3229.9954550073708,-1116.0274209470551,6493.232809559152,0.0
718523.2936376977,3652751.2368613081,-37500.0,-749.48350697213982,-2502.0952590356178,-2054.2877152776869,1668.160246070735,1743.9281168124985,-1226.4568479958086,3304.8047264011002,690.90723685584544,-2883.0838143564115,2883.0838143564115,-690.90723685584544,6128.7220913374204,0.0
723523.2936376977,3652751.2368613081,-37500.0,-1110.9517735064071,-2365.9848915372786,-1738.0738995389349,1674.7852446530017,1566.1761813894907,-1131.9382045296127,3065.1905797150657,341.61887114171054,-2547.8442111285003,2547.8442111285003,-341.61887114171054,5740.0048255668808,0.0
728523.2936376977,3652751.2368613081,-37500.0,-1369.9092176986562,-2204.4500145546449,-1466.3230711357285,1634.0525307142673,1388.945040812052,-1024.8880926454428,2829.2535676088264,61.997361432973548,-2235.0349139194905,2235.0349139194905,-61.997361432973548,5342.1238868685323,0.0
733523.2936376977,3652751.2368613081,-37500.0,-1544.9267311704177,-2031.702583468342,-1235.7618818374926,1562.3393019115604,1221.1896863458189,-915.64532636822889,2601.9236691315332,-156.46530452381626,-1950.2138819978561,1950.2138819978561,156.46530452381626,4947.4334251013106,0.0
738523.2936376977,3652751.2368613081,-37500.0,-1653.016767243239,-1857.5925579942966,-1041.8492530134529,1471.9873956319016,1067.5088646204752,-810.43595780739088,2386.51363296816,-322.9575547716338,-1695.3778459235116,1695.3778459235116,322.9575547716338,4565.0220890389555,0.0
743523.2936376977,3652751.2368613081,-37500.0,-1708.9825153338043,-1688.590653780803,-879.68816371487299,1371.9803030610576,929.73343638840663,-712.69458022350284,2184.9803889411796,-446.3626159833135,-1470.2374117291579,1470.2374117291579,446.3626159833135,4200.9904363597761,0.0
543523.2936376977,3657751.2368613081,-37500.0,-2768.1628262008053,1178.5847287565384,-416.65114616223673,-1533.7771702568934,592.56103224682647,-611.31280249299675,2115.840925505931,-2238.4284369152147,1378.149415056253,-1378.149415056253,2238.4284369152147,4169.8609121499721,0.0
548523.2936376977,3657751.2368613081,-37500.0,-2945.4650567932072,1348.1744911238504,-504.48729658507102,-1716.9786880860452,703.82241020722336,-712.37809890027438,2342.0992068895885,-2384.4523292831482,1514.0827555781304,-1514.0827555781304,2384.4523292831482,4612.7001813927418,0.0
553523.2936376977,3657751.2368613081,-37500.0,-3120.2134918571742,1542.9327119099958,-614.91807710189983,-1921.3124647093375,838.03808350555744,-830.94879098829085,2596.7457759664826,-2526.550368672667,1658.515628475169,-1658.515628475169,2526.550368672667,5109.3175608289794,0.0
558523.2936376977,3657751.2368613081,-37500.0,-3285.5740476026081,1765.7272391933759,-754.26139571898318,-2147.7620873202318,1000.0356202676555,-969.67083575179663,2883.3493786925715,-2657.8754742010701,1808.8626218141706,-1808.8626218141706,2657.8754742010701,5665.7668548787215,0.0
563523.2936376977,3657751.2368613081,-37500.0,-3431.8660059171493,2019.0995470181747,-930.6308015638806,-2396.5124827420341,1195.516365127786,-1131.2960066986038,3205.7541746110505,-2768.6937011633336,1960.628015981333,-1960.628015981333,2768.6937011633336,6288.2761164458589,0.0
568523.2936376977,3657751.2368613081,-37500.0,-3545.6039718125739,2304.7511871075749,-1154.3959150877122,-2666.4342710297296,1431.0874012238339,-1318.5122641416817,3567.9973957352008,-2845.4053004393359,2106.5105826874128,-2106.5105826874128,2845.4053004393359,6982.9547133635488,0.0
573523.2936376977,3657751.2368613081,-37500.0,-3608.2510888965594,2622.6878466689682,-1438.6962972504157,-2954.3196372376374,1714.1828475004936,-1533.6765628163719,3974.1496965811766,-2869.2840162004122,2235.1375592615022,-2235.1375592615022,2869.2840162004122,7755.300190103867,0.0
578523.2936376977,3657751.2368613081,-37500.0,-3594.6268716786758,2969.8248423332393,-1799.9453042510415,-3253.7434645347607,2052.7689269476882,-1778.4230192179571,4428.0279229813168,-2814.8897662205814,2329.2933556647026,-2329.2933556647026,2814.8897662205814,8609.3942858489354,0.0
583523.2936376977,3657751.2368613081,-37500.0,-3470.9325340031705,3337.7336566382128,-2258.1535446590929,-3553.3137289901297,2454.6246977308633,-2053.0897603061503,4932.6616870978341,-2648.1324293995281,2363.4666809506693,-2363.4666809506693,2648.1324293995281,9546.5512914231422,0.0
588523.2936376977,3657751.2368613081,-37500.0,-3192.5257517209143,3709.0606432516543,-2836.6993386408876,-3833.9241082079006,2925.808981427138,-2355.8355720681611,5489.3249022529872,-2324.1110658492771,2300.5536849456666,-2300.5536849456666,2324.1110658492771,10563.064696542149,0.0
593523.2936376977,3657751.2368613081,-37500.0,-2702.0153577230126,4051.961697325994,-3560.7531223493602,-4064.3604739078619,3467.5405474152526,-2681.0553190858845,6095.7863776258637,-1785.2234098254546,2087.6869069984295,-2087.6869069984295,1785.2234098254546,11646.443249663485,0.0
598523.2936376977,3657751.2368613081,-37500.0,-1929.4505206543315,4311.9008473119748,-4452.7966206827778,-4194.4500917316673,4070.01968178378,-3016.0565471982663,6743.3364732490591,-961.07801092215414,1651.7559906544734,-1651.7559906544734,961.07801092215414,12769.455243496412,0.0
603523.2936376977,3657751.2368613081,-37500.0,-798.95147345099861,4400.9083234113295,-5522.4061317207061,-4145.4253006059598,4700.5728478840547,-3333.5949100438647,7412.3104714449855,225.92758542680264,896.89756388074693,-896.89756388074693,-225.92758542680264,13881.893177390668,0.0
608523.2936376977,3657751.2368613081,-37500.0,749.41191331807283,4187.4061939110697,-6745.9537797242792,-3800.0555814426139,5282.3140367280712,-3575.8780540860557,8067.1007680649573,1841.0786989486146,-289.65933281596506,289.65933281596506,-1841.0786989486146,14903.084045016958,0.0
613523.2936376977,3657751.2368613081,-37500.0,2709.352098090555,3497.6147326656055,-8031.8734870901135,-3003.5861147066948,5660.5490680801086,-3625.1165507351488,8655.6608299943291,3890.0734073865178,-2009.4165539662499,2009.4165539662499,-3890.0734073865178,15727.346431349668,0.0
618523.2936376977,3657751.2368613081,-37500.0,4922.2373868888171,2153.9443148322516,-9174.1871182425257,-1602.7880009472042,5564.0517637029698,-3264.0153920958023,9127.3770593155205,6231.6516292173255,-4280.1209189461733,4280.1209189461733,-6231.6516292173255,16273.544686424559,0.0
623523.2936376977,3657751.2368613081,-37500.0,6985.9974491508701,87.005577376309688,-9821.3086049050653,436.72230587094276,4597.9982546373894,-2160.0420484187921,9494.5475052680486,8468.7540505527613,-6906.1177202181534,6906.1177202181534,-8468.7540505527613,16626.332823128429,0.0
628523.2936376977,3657751.2368613081,-37500.0,8274.8332126997593,-2473.989786074907,-9530.4148338182185,2832.0462087040528,2351.313232572903,41.429267091247347,9945.5888213287908,9922.0374194463129,-9343.3189011619052,9343.3189011619052,-9922.0374194463129,17240.282895979009,0.0
633523.2936376977,3657751.2368613081,-37500.0,8233.4905453008796,-4857.7873428940666,-7989.7762129723169,4849.250044470431,-1305.9849505202471,3433.1327510391702,10862.577797241953,9872.9556936064982,-10739.267689218854,10739.267689218854,-9872.9556936064982,18836.58928501252,0.0
638523.2936376977,3657751.2368613081,-37500.0,6890.0682717707186,-6129.9253866791669,-5353.3946530381982,5537.3762608822417,-5855.6279389393949,7495.2558386197034,12398.346836918865,8111.6654120586509,-10351.5510252902,10351.5510252902,-8111.6654120586509,21569.861541045651,0.0
643523.2936376977,3657751.2368613081,-37500.0,5062.5142780667311,-5687.6266485578008,-2366.3206531026317,4393.0901115617917,-10115.501314739135,11112.789822296085,14035.801353995132,5330.8563664022695,-8170.1145433991423,8170.1145433991423,-5330.8563664022695,24467.428028143058,0.0
648523.2936376977,3657751.2368613081,-37500.0,3807.850623263806,-3772.8214171765703,3.1021002488836045,1851.4755200998763,-12840.671982774029,13198.508800547947,15008.733097377877,2761.6463384203985,-5081.6921095412636,5081.6921095412636,-2761.6463384203985,26192.072564156471,0.0
653523.2936376977,3657751.2368613081,-37500.0,3623.5533048498914,-1297.9784896848842,1150.3640673833786,-1022.4868978583692,-13460.813866003091,13374.92418670722,14903.088340622084,1306.6098672978151,-2275.5568678980349,2275.5568678980349,-1306.6098672978151,26021.031825215592,0.0
658523.2936376977,3657751.2368613081,-37500.0,4267.3256392998273,808.81823222378921,1080.135224553494,-3286.4938662438781,-12250.110934344199,12030.158143471417,13788.429271726602,1087.2723962989769,-513.88592710099897,513.88592710099897,-1087.2723962989769,24077.431692030139,0.0
663523.2936376977,3657751.2368613081,-37500.0,5173.4029492567106,2057.7055131428201,205.56789518572825,-4538.0027552279807,-9938.3566774889041,9870.1135586378841,12025.074854350489,1677.1624687242697,85.3812972120528,-85.3812972120528,-1677.1624687242697,20996.824106984157,0.0
668523.2936376977,3657751.2368613081,-37500.0,5873.9811185898952,2414.4896341824792,-977.69518376167071,-4837.7163629068973,-7259.3408532135018,7509.1196207838175,10028.183264887501,2542.0253829487874,-180.50066824569035,180.50066824569035,-2542.0253829487874,17510.466986178479,0.0
673523.2936376977,3657751.2368613081,-37500.0,6146.1403113126617,2100.6111721934767,-2094.4891055105891,-4457.222121332712,-4725.1387619879224,5325.6788533352274,8129.6659203945492,3298.5830585450371,-902.52852092031617,902.52852092031617,-3298.5830585450371,14199.965117228565,0.0
678523.2936376977,3657751.2368613081,-37500.0,5969.0020203455497,1402.5704234010188,-2942.3254756621109,-3690.6733956099524,-2602.2106938884422,3492.7463070183935,6539.2798382405035,3763.4206957239103,-1741.0238851775523,1741.0238851775523,-3763.4206957239103,11426.119099533253,0.0
683523.2936376977,3657751.2368613081,-37500.0,5432.0121510929657,565.71722919984893,-3460.2559846251697,-2772.1309370693625,-974.76730641885308,2053.3775142448703,5353.6745206433552,3902.5583068634996,-2481.6036481491383,2481.6036481491383,-3902.5583068634996,9343.9087717796629,0.0
688523.2936376977,3657751.2368613081,-37500.0,4661.8585862794107,-241.61939805326989,-3674.6730853045483,-1858.7914020286505,180.82600322795707,982.50625541124839,4566.1384129853914,3764.7111510268223,-3023.2257715451924,3023.2257715451924,-3764.7111510268223,7937.3110691488346,0.0
693523.2936376977,3657751.2368613081,-37500.0,3779.8300109319298,-925.47808971674033,-3651.9507416462993,-1041.4483508972908,938.92795806507286,225.41247589967369,4078.7266404923603,3430.2463010581087,-3343.7244103169451,3343.7244103169451,-3430.2463010581087,7065.2478768946003,0.0
698523.2936376977,3657751.2368613081,-37500.0,2882.4795023179836,-1448.4733940259034,-3466.7891580970495,-362.01470006716653,1388.4517293221625,-280.83524077206795,3763.6277013309536,2980.4426101426607,-3465.7417034840555,3465.7417034840555,-2980.4426101426607,6534.9691343891536,0.0
703523.2936376977,3657751.2368613081,-37500.0,2036.6420201221799,-1809.7098386919286,-3185.285306560374,169.83047266482174,1613.253380623546,-596.20330632571915,3527.1534789324533,2482.6946562957737,-3431.2569831704122,3431.2569831704122,-2482.6946562957737,6178.293311298632,0.0
708523.2936376977,3657751.2368613081,-37500.0,1282.0568145708392,-2028.0917915670823,-2858.4637489083443,563.37097031834958,1683.5506671781188,-772.49463817651315,3319.5133234308819,1985.9608487475339,-3285.6589817811678,3285.6589817811678,-1985.9608487475339,5886.6660948519157,0.0
713523.2936376977,3657751.2368613081,-37500.0,637.15852555738149,-2130.6138447481808,-2521.8869528556838,837.32459187694792,1653.8205890718516,-851.62996875930833,3119.4585449566375,1521.7703106411618,-3069.4310892483245,3069.4310892483245,-1521.7703106411618,5605.3688602539551,0.0
718523.2936376977,3657751.2368613081,-37500.0,105.40288567950833,-2145.2049947912433,-2198.0696657963604,1013.6008653928628,1563.9982383246554,-865.88452109092964,2920.4078551101279,1107.5921252598778,-2814.9040615892491,2814.9040615892491,-1107.5921252598778,5313.9623786134362,0.0
723523.2936376977,3657751.2368613081,-37500.0,-319.19785673617429,-2096.9803467873944,-1899.6955288622605,1113.6068380927566,1442.0035805716927,-839.09906938236657,2722.3018164191767,750.69833082698142,-2545.9084402687213,2545.9084402687213,-750.69833082698142,5009.6936811852529,0.0
728523.2936376977,3657751.2368613081,-37500.0,-647.80800207645143,-2006.7219189424666,-1632.6284701104421,1156.3493341803726,1306.5049222331727,-788.24533701859934,2527.4389341232095,451.60813254270806,-2278.8177749721476,2278.8177749721476,-451.60813254270806,4697.2740712786053,0.0
733523.2936376977,3657751.2368613081,-37500.0,-893.77773990235903,-1890.653808468518,-1398.332981192606,1157.6981313881779,1169.3999339965401,-724.98383457471812,2338.5261130744389,206.7860451374911,-2024.0692624464712,2024.0692624464712,-206.7860451374911,4383.5182446525814,0.0
738523.2936376977,3657751.2368613081,-37500.0,-1070.7202380824883,-1760.8707858452756,-1195.6497913037365,1130.3308287732243,1037.82914989404,-657.03268238572809,2157.8695314520091,10.579337165299648,-1787.6817475931423,1787.6817475931423,-10.579337165299648,4074.8786168888191,0.0
743523.2936376977,3657751.2368613081,-37500.0,-1191.3928460396621,-1626.0252618364341,-1022.0138720245887,1084.0311777103593,915.70877564947307,-589.28201995459062,1987.1219812233903,-143.48899039075718,-1572.5589578829047,1572.5589578829047,143.48899039075718,3776.5135633678074,0.0
543523.2936376977,3662751.2368613081,-37500.0,-2452.4684894213037,1281.8613834219041,-554.29454405216063,-1389.8303745072196,649.82113690909262,-561.55191348588085,1999.698963345191,-1907.7360869511031,1284.1157087425672,-1284.1157087425672,1907.7360869511031,3947.218641685994,0.0
548523.2936376977,3662751.2368613081,-37500.0,-2573.8936332787075,1452.0007595118057,-665.21009148890516,-1540.5796517229626,765.39252896904384,-649.15693719669764,2202.6152088532981,-1994.4850527283377,1390.4762321737101,-1390.4762321737101,1994.4850527283377,4344.7121578805809,0.0
553523.2936376977,3662751.2368613081,-37500.0,-2682.6302319909105,1643.6108150852262,-802.31937256132119,-1704.508828206667,902.92550402628103,-750.31451208240071,2428.7114662786571,-2066.2986101826464,1497.2424804814084,-1497.2424804814084,2066.2986101826464,4785.6350368228068,0.0
558523.2936376977,3662751.2368613081,-37500.0,-2770.2983838239074,1857.7726272991986,-972.15261773607688,-1880.5756067472075,1066.3551639897373,-866.44285309038867,2680.2574403742619,-2114.5662692672186,1599.7636873328174,-1599.7636873328174,2114.5662692672186,5273.4785071885881,0.0
563523.2936376977,3662751.2368613081,-37500.0,-2825.6926951482442,2094.5659394551212,-1182.7750044712725,-2066.4432146400277,1260.015782324951,-998.671079831773,2959.4381119430323,-2127.7682369825461,1691.0554552028666,-1691.0554552028666,2127.7682369825461,5811.2513115004931,0.0
568523.2936376977,3662751.2368613081,-37500.0,-2834.0511992308761,2352.3431805099731,-1444.0152279511046,-2257.8764179751979,1488.4481244250342,-1147.5372311977139,3268.180922917561,-2090.7210680314888,1760.9090533282397,-1760.9090533282397,2090.7210680314888,6401.0327928174856,0.0
573523.2936376977,3662751.2368613081,-37500.0,-2776.2283373740324,2626.6309334616553,-1767.6030151649636,-2447.9107681143469,1755.9990101244757,-1312.5400878214514,3607.9011523515178,-1983.7369364396234,1794.7284135082621,-1794.7284135082621,1983.7369364396234,7043.3205548689093,0.0
578523.2936376977,3662751.2368613081,-37500.0,-2627.8448811774101,2908.49453230671,-2167.0679397656318,-2625.7180855768665,2066.0691418554529,-1491.4932960629906,3979.1286416528114,-1781.786440608669,1772.0619653099959,-1772.0619653099959,1781.786440608669,7736.0932344371213,0.0
583523.2936376977,3662751.2368613081,-37500.0,-2358.596471907154,3182.1510956168268,-2657.1220825241121,-2775.0586188208831,2419.7696196646871,-1679.603347524552,4380.959915328358,-1453.8697168933149,1664.8484087607867,-1664.8484087607867,1453.8697168933149,8473.4767879928095,0.0
588523.2936376977,3662751.2368613081,-37500.0,-1932.1513590170468,3421.5939056707593,-3252.0170299896959,-2872.1886354922872,2813.5893071677315,-1868.1314624851755,4810.2740190476898,-963.05059395296519,1435.5509683196685,-1435.5509683196685,963.05059395296519,9243.9068151947704,0.0
593523.2936376977,3662751.2368613081,-37500.0,-1307.5666517262694,3586.0753856578399,-3961.9797470407902,-2883.116023630535,3235.4110627611058,-2042.3441969868466,5260.6670198780412,-268.09360473759932,1035.7193548040132,-1035.7193548040132,268.09360473759932,10027.758575595697,0.0
598523.2936376977,3662751.2368613081,-37500.0,-444.11620023461938,3614.7542289441876,-4786.2775432655899,-2760.3734554126063,3657.8533933371259,-2178.1449705958898,5721.2401916513491,671.42840615894295,406.35470206255297,-406.35470206255297,-671.42840615894295,10794.896562704067,0.0
603523.2936376977,3662751.2368613081,-37500.0,687.06828085772668,3422.1499255452427,-5700.868664391809,-2440.4526476488118,4027.589753197748,-2236.2941077484338,6175.943984397747,1883.1852858211782,-516.88074782114609,516.88074782114609,-1883.1852858211782,11504.030895309596,0.0
608523.2936376977,3662751.2368613081,-37500.0,2079.6411014223554,2899.2176105963786,-6638.7156863362388,-1845.636822236457,4249.7440947208515,-2152.9085360863733,6605.6983256321,3358.232231315129,-1787.7715534355957,1787.7715534355957,-3358.232231315129,12109.493480833056,0.0
613523.2936376977,3662751.2368613081,-37500.0,3653.364882020644,1930.5293811020367,-7463.7136569860741,-898.98370451473829,4169.6309906863189,-1826.5936631853613,6998.4404958824853,5010.6854792485592,-3414.1950171889607,3414.1950171889607,-5010.6854792485592,12588.131923934663,0.0
618523.2936376977,3662751.2368613081,-37500.0,5207.3744419758032,444.02185329336038,-7948.7894222282266,433.18225501772571,3563.6106571831442,-1109.610151235152,7375.291046088415,6625.6785206095501,-5296.5267783332383,5296.5267783332383,-6625.6785206095501,13005.153866889754,0.0
623523.2936376977,3662751.2368613081,-37500.0,6401.0160363138657,-1495.3119834830857,-7787.7987590826979,2061.3393110779157,2168.3736442843465,174.42166164412373,7834.2334241735416,7827.9855810521976,-7152.2834818544698,7152.2834818544698,-7827.9855810521976,13612.704149073292,0.0
628523.2936376977,3662751.2368613081,-37500.0,6832.9634180563298,-3575.3788783734872,-6688.2088360780535,3681.6013163963939,-209.66655030032592,2150.829723499623,8569.3423210039055,8144.6312308609258,-8487.3827367400008,8487.3827367400008,-8144.6312308609258,14851.969100966582,0.0
633523.2936376977,3662751.2368613081,-37500.0,6267.8454710248707,-5216.3303102570762,-4564.3038290857721,4771.1991490273595,-3499.5352028074226,4744.3640016738864,9751.7074278238761,7231.2048536503262,-8721.7051591935724,8721.7051591935724,-7231.2048536503262,17024.025525668279,0.0
638523.2936376977,3662751.2368613081,-37500.0,4902.3651936104679,-5775.8831054686252,-1734.613301870035,4790.8594912337921,-7200.8777485127139,7553.556012823562,11271.588373422785,5187.6144433971285,-7513.432592945489,7513.432592945489,-5187.6144433971285,19828.555034326342,0.0
643523.2936376977,3662751.2368613081,-37500.0,3380.7337381169818,-4944.5706732357348,1091.9480026130154,3543.4375806066191,-10465.310502472585,9926.6914341147694,12687.396201988728,2669.0695643823738,-5086.4798106152366,5086.4798106152366,-2669.0695643823738,22419.918727126857,0.0
648523.2936376977,3662751.2368613081,-37500.0,2416.4407612774421,-3005.2900969600555,3142.0616281380157,1375.74977488116,-12484.902808947421,11278.980664495253,13515.831767254644,563.24628637232991,-2209.0201776151921,2209.0201776151921,-563.24628637232991,23938.088014039422,0.0
653523.2936376977,3662751.2368613081,-37500.0,2337.6181099023697,-671.73904221172575,3981.7767147517948,-1016.7009168821165,-12901.410480357823,11400.29788231838,13508.636043870367,-532.74115489793644,235.8828290928748,-235.8828290928748,532.74115489793644,23952.637822965706,0.0
658523.2936376977,3662751.2368613081,-37500.0,2980.5237271297724,1339.191859382013,3661.5285938542074,-2995.4428164536466,-11897.433615190499,10487.308812386087,12711.073576856907,-561.48501312013252,1703.4859675990433,-1703.4859675990433,561.48501312013252,22553.238130265174,0.0
663523.2936376977,3662751.2368613081,-37500.0,3927.4365600406918,2617.1250401194206,2558.2458090149676,-4233.4341962751778,-9975.5172812416968,8941.7488491515196,11360.194165010693,142.51485582564351,2119.8276095879028,-2119.8276095879028,-142.51485582564351,20167.556169474763,0.0
668523.2936376977,3662751.2368613081,-37500.0,4786.086140600828,3095.798971846139,1124.7288965860835,-4711.0468483930199,-7676.8550859528214,7156.3351431101155,9747.2681529473812,1142.0388432027228,1730.4726412925959,-1730.4726412925959,-1142.0388432027228,17315.832600118396,0.0
673523.2936376977,3662751.2368613081,-37500.0,5323.6334261253987,2928.4039014140449,-278.80915932100777,-4584.8005740850776,-5414.5175171663141,5411.147818250025,8124.2938376633219,2092.8856594365434,884.40777618574339,-884.40777618574339,-2092.8856594365434,14443.827505972129,0.0
678523.2936376977,3662751.2368613081,-37500.0,5468.240665154708,2346.5682935518166,-1438.9138910833526,-4063.3498519610225,-3432.9109404206229,3864.5686859808102,6668.1280715286357,2802.325371375644,-110.47145626038309,110.47145626038309,-2802.325371375644,11857.906837408831,0.0
683523.2936376977,3662751.2368613081,-37500.0,5255.8151716756311,1568.5410888746017,-2271.7527342058497,-3336.3454035207442,-1835.8152896567217,2583.2722765573508,5479.8913081652772,3206.6556406775198,-1043.2841106676788,1043.2841106676788,-3206.6556406775198,9724.9285195305238,0.0
688523.2936376977,3662751.2368613081,-37500.0,4774.3639929729179,759.03517111781275,-2780.9086045220706,-2547.4127819286164,-633.40899242093838,1576.033424754866,4591.5359170454321,3324.57389458836,-1800.1855450430671,1800.1855450430671,-3324.57389458836,8096.1202324872083,0.0
693523.2936376977,3662751.2368613081,-37500.0,4124.3955222121704,22.432224104106275,-3016.4515690521184,-1791.5456143491667,215.79526471023036,819.64459566526341,3970.355203649257,3215.1070692888584,-2341.1705149528029,2341.1705149528029,-3215.1070692888584,6934.296957433743,0.0
698523.2936376977,3662751.2368613081,-37500.0,3396.3289710194344,-587.8771444749699,-3044.992655889881,-1122.8589787603451,775.04537012948424,276.23281926780692,3543.0927605133029,2948.5502285563766,-2673.0108588797107,2673.0108588797107,-2948.5502285563766,6144.0542741714444,0.0
703523.2936376977,3662751.2368613081,-37500.0,2660.6055298901115,-1055.0463635644985,-2931.6090566937833,-565.24097694297723,1110.9183766625188,-95.991522369991571,3235.9166480015933,2589.8532189256239,-2826.7850789851045,2826.7850789851045,-2589.8532189256239,5608.6084315653115,0.0
708523.2936376977,3662751.2368613081,-37500.0,1965.8215222396082,-1384.9735501095861,-2731.0847504319572,-122.45865881484808,1283.5589328781157,-336.581373407591,2995.7892072108925,2191.178891360224,-2842.2744149440623,2842.2744149440623,-2191.178891360224,5223.9669984354678,0.0
713523.2936376977,3662751.2368613081,-37500.0,1341.1724372691992,-1595.4855032409716,-2485.2291622061102,213.64782251486719,1342.6549129537723,-479.8073122686244,2790.9230342338783,1790.2179576357098,-2758.6277327432413,2758.6277327432413,-1790.2179576357098,4916.43584496324,0.0
718523.2936376977,3662751.2368613081,-37500.0,800.65392835259183,-1708.9189306040732,-2223.5433081813962,457.18841144928962,1326.7924931288471,-553.61373037337933,2604.5037535310566,1411.5673396350821,-2609.7021110290875,2609.7021110290875,-1411.5673396350821,4642.5906270287478,0.0
723523.2936376977,3662751.2368613081,-37500.0,347.47374528314822,-1747.613477376583,-1965.3429285003585,624.25335387502128,1264.5339101809336,-579.7587919960115,2428.7212556078348,1069.3563226686451,-2422.4342748764416,2422.4342748764416,-1069.3563226686451,4380.985693929646,0.0
728523.2936376977,3662751.2368613081,-37500.0,-22.107427302356715,-1731.5463498193049,-1722.2208613515977,730.52775719325803,1176.1740517525816,-574.55818060016838,2260.631719773944,770.05950157626307,-2216.9305859943488,2216.9305859943488,-770.05950157626307,4123.3827706116681,0.0
733523.2936376977,3662751.2368613081,-37500.0,-315.79067729588508,-1677.374369311656,-1500.289181366044,790.04100072660026,1075.5873313628458,-549.85387638692407,2099.645100887582,514.97340254077312,-2007.3744692405196,2007.3744692405196,-514.97340254077312,3868.3960207371488,0.0
738523.2936376977,3662751.2368613081,-37500.0,-543.10807873280612,-1598.307969722041,-1301.9907782990349,814.66046975609106,971.87949798405316,-513.98521135874114,1946.1271803232403,302.17117813931316,-1803.2037972120097,1803.2037972120097,-302.17117813931316,3617.6347729286858,0.0
543523.2936376977,3667751.2368613081,-37500.0,-2121.5794418502214,1336.179150846976,-686.04003782424456,-1237.1435052454715,685.57548580076491,-508.35752764324769,1873.0860688104053,-1570.2158657117975,1154.3677490981486,-1154.3677490981486,1570.2158657117975,3702.0470373952576,0.0
548523.2936376977,3667751.2368613081,-37500.0,-2189.4091593534517,1497.238278212473,-815.85015742263772,-1355.5725948811221,800.23964562985623,-582.26553360750904,2052.4315363416376,-1601.7613835723703,1227.2093790829811,-1227.2093790829811,1601.7613835723703,4052.2977935422614,0.0
553523.2936376977,3667751.2368613081,-37500.0,-2236.2928608910474,1674.2719291248466,-973.69095355711067,-1479.9526746113881,934.57634331703844,-665.96047341522501,2250.1821288475116,-1609.7432597893896,1292.5930892176773,-1292.5930892176773,1609.7432597893896,4435.9937754331486,0.0
558523.2936376977,3667751.2368613081,-37500.0,-2253.1469914313052,1866.3776417158338,-1165.6419707831151,-1607.6701140370144,1091.3398656075792,-759.80186735408893,2467.5253839996935,-1584.8014925511236,1344.2885645122667,-1344.2885645122667,1584.8014925511236,4854.4516381907124,0.0
563523.2936376977,3667751.2368613081,-37500.0,-2228.4018768924921,2071.0685359336035,-1398.8311368986988,-1734.5574747135449,1273.1828453247158,-863.57441282335412,2705.3319785738504,-1515.0279874152109,1373.6080687198735,-1373.6080687198735,1515.0279874152109,5308.0832608149003,0.0
568523.2936376977,3667751.2368613081,-37500.0,-2147.5900628845197,2283.4429901201634,-1681.3766646808472,-1854.3161129101145,1482.2746595017416,-976.1203399199801,2963.9766124406269,-1385.5548695951027,1368.6677327892619,-1368.6677327892619,1385.5548695951027,5795.9258337072606,0.0
573523.2936376977,3667751.2368613081,-37500.0,-1993.0297475731447,2495.0242972428191,-2022.1001504695173,-1957.7845602692516,1719.6569813458595,-1094.8182858457401,3243.1034526485464,-1178.2613348460322,1313.5326033437805,-1313.5326033437805,1178.2613348460322,6315.029736480923,0.0
578523.2936376977,3667751.2368613081,-37500.0,-1743.7665736322435,2692.1824626099792,-2429.8169196090712,-2032.0400056765764,1984.1930590034797,-1214.8623051854656,3541.331166571706,-871.785376131622,1187.3202550111487,-1187.3202550111487,871.785376131622,6859.6956955035421,0.0
583523.2936376977,3667751.2368613081,-37500.0,-1376.0735215868376,2854.0764976466153,-2911.8864349334631,-2059.3508730376243,2270.9029765015921,-1328.2849762922758,3855.9192558601731,-442.17533045494781,963.45594376673,-963.45594376673,442.17533045494781,7420.6088913907342,0.0
588523.2936376977,3667751.2368613081,-37500.0,-865.03503288680076,2950.1542454657979,-3471.523967478478,-2016.0620421433789,2568.3859714462369,-1422.6448770272129,4182.4665293804628,135.24561958925133,609.49474109363496,-609.49474109363496,-135.24561958925133,7984.0389277770246,0.0
593523.2936376977,3667751.2368613081,-37500.0,-188.10605440508391,2937.5211165496294,-4103.1384406159241,-1871.6615595100366,2854.9327339930901,-1479.25408965824,4514.8347249662347,881.85168856060761,88.342209356916669,-88.342209356916669,-881.85168856060761,8531.5895422865142,0.0
598523.2936376977,3667751.2368613081,-37500.0,667.9606794654419,2759.154233184569,-4784.7869968857722,-1588.6822270932232,3092.912168687164,-1470.7690242591209,4845.7914626933452,1808.0667739951218,-637.58227013403803,637.58227013403803,-1808.0667739951218,9041.7650654286426,0.0
603523.2936376977,3667751.2368613081,-37500.0,1695.0401862438289,2345.2442077515198,-5466.9847806151511,-1124.9268195080392,3221.2858144619472,-1357.9768579633414,5169.4130317325153,2900.2226557474214,-1596.6750578823946,1596.6750578823946,-2900.2226557474214,9496.139717188038,0.0
608523.2936376977,3667751.2368613081,-37500.0,2845.1754624284608,1622.1789157324258,-6058.4279378546153,-441.03278817210497,3147.3042613619937,-1086.0631595877719,5487.1879074765147,4100.5087212027993,-2789.4512291939127,2789.4512291939127,-4100.5087212027993,9895.5089033302265,0.0
613523.2936376977,3667751.2368613081,-37500.0,4008.011004851237,536.15513586859947,-6413.024246206056,481.81752358656416,2741.5909833042574,-582.30886411232075,5820.1612163028931,5281.9378508345317,-4158.0473535261817,4158.0473535261817,-5281.9378508345317,10292.760648220095,0.0
618523.2936376977,3667751.2368613081,-37500.0,4995.6673359942661,-902.06445902008284,-6330.3962917437611,1609.5466626253094,1846.8372020546558,238.97864970129481,6226.1317441673982,6229.5298482659618,-5547.4071054606902,5547.4071054606902,-6229.5298482659618,10838.669246473377,0.0
623523.2936376977,3667751.2368613081,-37500.0,5561.0608062593419,-2555.6818131418831,-5591.4861314023519,2812.0281113971614,316.90793314863549,1453.4530703647683,6807.3065335841875,6654.5690866374507,-6678.1786478779532,6678.1786478779532,-6654.5690866374507,11792.361223897255,0.0
628523.2936376977,3667751.2368613081,-37500.0,5481.2240311737733,-4116.7195411575922,-4049.6633478526246,3834.9910010214485,-1900.5247750435153,3075.8707059817152,7673.5852112978564,6278.2408354390227,-7174.8103942945709,7174.8103942945709,-6278.2408354390227,13397.685536635814,0.0
633523.2936376977,3667751.2368613081,-37500.0,4702.485571591279,-5143.2739377035778,-1763.3309700239927,4337.6699132975391,-4656.6483337899172,4992.4101684479419,8843.2993663282523,4991.4034103618833,-6694.2568953902337,6694.2568953902337,-4991.4034103618833,15640.476380679485,0.0
638523.2936376977,3667751.2368613081,-37500.0,3459.1869787305463,-5228.4504579610966,912.99787705474637,4030.8119805307165,-7545.5260502809369,6926.9846197475372,10152.700130575751,3008.7827662856207,-5134.4497485815555,5134.4497485815555,-3008.7827662856207,18135.481144666268,0.0
643523.2936376977,3667751.2368613081,-37500.0,2226.5640899676564,-4237.2548771673946,3395.0778415109448,2858.0507537679046,-9993.4422983824497,8505.0440964271038,11293.280317502747,862.72971294004969,-2782.9373466597472,2782.9373466597472,-862.72971294004969,20283.571216173776,0.0
648523.2936376977,3667751.2368613081,-37500.0,1480.4526839125524,-2427.1573256008205,5108.6855229361772,1073.2015805800525,-11489.058561698013,9408.42197201411,11965.95422353187,-830.00286666876707,-242.39561616196568,242.39561616196568,830.00286666876707,21549.390128240324,0.0
653523.2936376977,3667751.2368613081,-37500.0,1441.7742464388223,-328.02512640879183,5746.1681627137077,-874.27362595337547,-11803.202022951411,9514.2466063202901,12015.120678838481,-1672.7991223127601,1851.2369255299436,-1851.2369255299436,1672.7991223127601,21668.135928730382,0.0
658523.2936376977,3667751.2368613081,-37500.0,2009.9330404700527,1523.1498164016118,5354.9771691368969,-2555.0840936039663,-11041.984325390595,8915.7985192908782,11462.031761794504,-1629.7679821600123,3103.7075782349357,-3103.7075782349357,1629.7679821600123,20690.612539344882,0.0
663523.2936376977,3667751.2368613081,-37500.0,2891.3430418198154,2788.1350208916488,4234.7942902283548,-3712.9089684614391,-9531.7312740507259,7836.052180650855,10454.755283046719,-942.23107652421663,3450.6586183251866,-3450.6586183251866,942.23107652421663,18890.524265077238,0.0
668523.2936376977,3667751.2368613081,-37500.0,3775.989132151049,3375.0583306558806,2762.8669859998722,-4287.6582358923442,-7653.5546123317936,6519.807757246369,9190.5696579717751,51.900112320410472,3070.3540319293224,-3070.3540319293224,-51.900112320410472,16624.998370099751,0.0
673523.2936376977,3667751.2368613081,-37500.0,4446.3258462604545,3371.8204574924239,1261.5641458740095,-4355.2493492572785,-5726.7611892580135,5165.987033300089,7854.8613993252648,1060.0990811114691,2239.440382805431,-2239.440382805431,-1060.0990811114691,14225.050443840428,0.0
678523.2936376977,3667751.2368613081,-37500.0,4802.2637882718318,2950.1303364613141,-57.203213675360217,-4052.4279576183462,-3964.2248440044832,3906.7116692440954,6590.7120773580964,1894.6635575288194,1221.954077442874,-1221.954077442874,-1894.6635575288194,11940.941632585982,0.0
683523.2936376977,3667751.2368613081,-37500.0,4837.5788344283583,2291.3960738203723,-1090.5245917282609,-3522.4094418576728,-2477.0057843502514,2813.6836433355934,5491.7922966418337,2471.28380157423,215.48780881593848,-215.48780881593848,-2471.28380157423,9930.80901316583,0.0
688523.2936376977,3667751.2368613081,-37500.0,4602.7004481752756,1546.4055398796684,-1816.9889467769026,-2886.396210918575,-1299.7440987790324,1913.8186616435282,4603.923978046153,2781.1636817623075,-659.26876272187951,659.26876272187951,-2781.1636817623075,8271.4372999972256,0.0
693523.2936376977,3667751.2368613081,-37500.0,4172.2329420184396,821.56900402768713,-2264.734174389363,-2233.7445049472317,-418.75737487842923,1204.8832678381391,3927.2651891898004,2859.5542392767825,-1346.5182338995487,1346.5182338995487,-2859.5542392767825,6975.5875102617401,0.0
698523.2936376977,3667751.2368613081,-37500.0,3622.7909754297202,180.74187635089933,-2485.212122051269,-1622.6290429165538,204.97325209850274,668.03094771909889,3427.2986135252791,2760.6299703701243,-1836.0964369818246,1836.0964369818246,-2760.6299703701243,6009.446336494012,0.0
703523.2936376977,3667751.2368613081,-37500.0,3020.6361980053562,-346.03073196986185,-2535.4129563368297,-1085.4601060513301,619.79808858701574,276.80620368880489,3057.0541696549262,2540.9395270619093,-2145.1264264513543,2145.1264264513543,-2540.9395270619093,5310.3448723538249,0.0
708523.2936376977,3667751.2368613081,-37500.0,2416.616953303942,-752.19972662420582,-2467.7203222067455,-635.65484385199841,873.63225130129615,3.0614573291513452,2774.3919361977596,2250.3115018517237,-2303.8302211315549,2303.8302211315549,-2250.3115018517237,4805.4829244176244,0.0
713523.2936376977,3667751.2368613081,-37500.0,1845.7460954676828,-1045.5535108618635,-2325.3547771762674,-273.98081171910189,1008.8663788267611,-179.55028677241387,2547.9181212661165,1928.1043585310197,-2346.0165809927257,2346.0165809927257,-1928.1043585310197,4428.3596756745274,0.0
718523.2936376977,3667751.2368613081,-37500.0,1329.2496000579456,-1241.2328531958474,-2141.335895727806,6.3013741404830954,1060.3877620542016,-293.83756733841426,2356.6449528511084,1602.7623898852999,-2303.5295574812772,2303.5295574812772,-1602.7623898852999,4128.1564386796936,0.0
723523.2936376977,3667751.2368613081,-37500.0,877.57866948165565,-1356.9777040412075,-1939.3342614100866,215.67278452147011,1055.4445551496765,-358.49550224119963,2187.6469605325051,1293.1003284850169,-2203.56817164525,2203.56817164525,-1293.1003284850169,3871.2483574536927,0.0
728523.2936376977,3667751.2368613081,-37500.0,493.47103283910405,-1410.2320600215087,-1735.318222684873,365.83732686484319,1014.4540218702051,-388.22482007838852,2033.5249941370148,1010.2593629955002,-2067.8511861280276,2067.8511861280276,-1010.2593629955002,3637.9802095331343,0.0
733523.2936376977,3667751.2368613081,-37500.0,174.6008634148078,-1416.6089636266495,-1539.3497580356236,468.1903480890262,952.1785932508069,-394.20482295674805,1890.3387105647289,759.71602399192273,-1912.8268391774891,1912.8268391774891,-759.71602399192273,3418.2076408443077,0.0
738523.2936376977,3667751.2368613081,-37500.0,-84.346113325776471,-1389.2582173737828,-1357.2064434823208,532.99903529469509,878.94064299864613,-384.69808981891038,1756.1470127497723,543.03973339883191,-1750.3813550145035,1750.3813550145035,-543.03973339883191,3207.5017808489097,0.0
548523.2936376977,3672751.2368613081,-37500.0,-1809.0467421514211,1489.4321370545383,-947.48958861480003,-1169.686382766394,810.30823149331945,-514.3719337097815,1898.4991536171019,-1223.4455671540381,1038.2248652435183,-1038.2248652435183,1223.4455671540381,3746.0043393654,0.0
553523.2936376977,3672751.2368613081,-37500.0,-1801.6117025179517,1643.2423465892771,-1118.6034166928423,-1257.3494400330023,936.12204205442765,-581.37298327965129,2069.5355905432598,-1177.367591386711,1062.401680261451,-1062.401680261451,1177.367591386711,4073.6399201815525,0.0
558523.2936376977,3672751.2368613081,-37500.0,-1758.3765909768767,1803.7865910519836,-1322.7462434067484,-1341.1908025950947,1079.8914577536416,-654.29769428499253,2255.0947509426146,-1092.7835557308938,1065.1786435513288,-1065.1786435513288,1092.7835557308938,4425.3369276243111,0.0
563523.2936376977,3672751.2368613081,-37500.0,-1668.4682805948639,1966.3250533081455,-1565.4036202210646,-1415.9594939066953,1242.5410747403396,-731.92437962491022,2455.1392830579243,-958.63958223645182,1037.1352713310409,-1037.1352713310409,958.63958223645182,4799.6941258573324,0.0
568523.2936376977,3672751.2368613081,-37500.0,-1519.0265894692841,2123.33760530679,-1852.1573039345026,-1474.3455974118735,1423.9462659411788,-811.91224747244962,2669.1117888423228,-761.93075071735484,966.0868638463146,-966.0868638463146,761.93075071735484,5193.8607756227411,0.0
573523.2936376977,3672751.2368613081,-37500.0,-1295.3750028011157,2263.4866503353433,-2188.0295910130994,-1506.4509385003528,1622.1618408115376,-890.29538286329011,2895.7874655834066,-487.94264232305522,836.65313666529232,-836.65313666529232,487.94264232305522,5603.1280322774592,0.0
578523.2936376977,3672751.2368613081,-37500.0,-981.62963575971207,2370.3544736647259,-2576.3137163097963,-1499.2424348954248,1832.2709085286879,-960.81925429236685,3133.1527895174922,-120.99436475584378,630.03275200699738,-630.03275200699738,120.99436475584378,6020.5656750620274,0.0
583523.2936376977,3672751.2368613081,-37500.0,-562.0550907714736,2421.0389021302403,-3016.6119650178121,-1436.0920149473859,2044.7167169686661,-1014.1007843500043,3378.3926206095816,353.97013919680427,324.27368440408458,-324.27368440408458,-353.97013919680427,6436.8929752148661,0.0
588523.2936376977,3672751.2368613081,-37500.0,-23.618204845368851,2384.8630043689268,-3501.7176747421749,-1296.608265616441,2242.9682859565924,-1036.6073077686256,3628.1481921253749,948.44210588600572,-104.45968594464267,104.45968594464267,-948.44210588600572,6840.9838335496452,0.0
593523.2936376977,3672751.2368613081,-37500.0,639.65712852950276,2222.7841554158022,-4012.9321126427162,-1057.1447663252675,2400.4079901123041,-1009.4760560165336,3879.3435930266633,1665.3966596798937,-678.81019756406022,678.81019756406022,-1665.3966596798937,7221.795935109064,0.0
598523.2936376977,3672751.2368613081,-37500.0,1419.871042973466,1888.6905367000647,-4513.571434975016,-692.69014457945411,2476.5250589123152,-907.27101781792544,4131.1121615695283,2491.6143550519187,-1414.1421931609289,1414.1421931609289,-2491.6143550519187,7573.229832523456,0.0
603523.2936376977,3672751.2368613081,-37500.0,2285.6478011971403,1334.6490397702864,-4941.038406514117,-181.30538773041005,2413.0016802703567,-696.94981020231216,4388.5459093158479,3386.9206465477955,-2307.9789764621037,2307.9789764621037,-3386.9206465477955,7904.2264308848771,0.0
608523.2936376977,3672751.2368613081,-37500.0,3170.801412843306,523.15868803891863,-5199.5101439837681,487.20798270252556,2131.4632957071067,-337.78931385798455,4668.8369880973078,4271.4207667069131,-3323.9158834705354,3323.9158834705354,-4271.4207667069131,8256.3269178637747,0.0
613523.2936376977,3672751.2368613081,-37500.0,3965.5934925465858,-550.52111962138497,-5158.4355109726202,1296.810739776043,1536.7390002590014,216.01311355919987,5008.6079341316208,5015.2412482653872,-4371.3066900982067,4371.3066900982067,-5015.2412482653872,8725.54028156616,0.0
618523.2936376977,3672751.2368613081,-37500.0,4520.3273866055542,-1826.1659126822344,-4666.3527109668084,2185.4857654830203,532.08709940383324,1006.9135378079924,5466.3915470786942,5441.1527744182176,-5287.9815053595294,5287.9815053595294,-5441.1527744182176,9468.1359817094544,0.0
623523.2936376977,3672751.2368613081,-37500.0,4675.4876983476634,-3146.4529647034624,-3591.4775338124969,3027.2256924190992,-946.66911575682536,2056.0274802369536,6108.2702674662532,5355.8750677978169,-5842.8256850401795,5842.8256850401795,-5355.8750677978169,10650.381760004935,0.0
628523.2936376977,3672751.2368613081,-37500.0,4326.9548891233144,-4250.2999625957154,-1892.1799542787771,3632.7424432737794,-2878.3969297474118,3335.3883276685583,6969.2280381513174,4621.5167416380809,-5781.612277333048,5781.612277333048,-4621.5167416380809,12334.312516045116,0.0
633523.2936376977,3672751.2368613081,-37500.0,3508.4261207027112,-4825.0132228924867,305.41741496750251,3790.3954915036593,-5105.0373014966281,4741.0969972617313,8005.6252440623912,3252.1227512020514,-4926.6655143417884,4926.6655143417884,-3252.1227512020514,14382.446492379819,0.0
638523.2936376977,3672751.2368613081,-37500.0,2435.0693556989099,-4625.9959327353627,2677.803085716188,3350.7998485903418,-7322.7684263894052,6090.8507180195529,9075.0083209383247,1477.3902718112877,-3296.6986169335623,3296.6986169335623,-1477.3902718112877,16470.828207808587,0.0
643523.2936376977,3672751.2368613081,-37500.0,1447.8623501361794,-3611.0666651295942,4776.0357631394909,2316.0233955053795,-9151.8655394301022,7166.0885550697049,9972.4759943362806,-298.43241779510186,-1164.2095654462228,1164.2095654462228,298.43241779510186,18199.583231877928,0.0
648523.2936376977,3672751.2368613081,-37500.0,865.47606666285242,-1992.6084282034658,6187.5045460180618,866.79015428241712,-10268.598868261086,7787.8839577704621,10510.373997289735,-1651.3703259268379,1018.6631432983775,-1018.6631432983775,1651.3703259268379,19232.791656819685,0.0
653523.2936376977,3672751.2368613081,-37500.0,839.38639715215641,-155.66081447585671,6693.7046208670254,-703.58550038403735,-10523.285541945508,7881.6026097012373,10587.507541183419,-2314.1862174706071,2798.0130152430743,-2798.0130152430743,2314.1862174706071,19401.414398668017,0.0
658523.2936376977,3672751.2368613081,-37500.0,1311.184911746886,1503.7680379166879,6326.0387157379264,-2105.4470756694532,-9972.6483255413568,7490.268373354701,10210.115080295607,-2258.306123436897,3884.8279903407811,-3884.8279903407811,2258.306123436897,18729.293950226205,0.0
663523.2936376977,3672751.2368613081,-37500.0,2080.1466998925771,2713.2409875618655,5305.0942642926011,-3144.058879083314,-8822.4564306399552,6738.0197691795101,9468.2498938069384,-1649.7207587919677,4216.2287250733407,-4216.2287250733407,1649.7207587919677,17387.415937954742,0.0
668523.2936376977,3672751.2368613081,-37500.0,2911.4145183523096,3370.0749931182008,3926.3701514013328,-3747.1395173340625,-7333.4265595632778,5776.38007655826,8492.8459803741043,-739.59296879588919,3910.1278050247834,-3910.1278050247834,739.59296879588919,15616.118757018919,0.0
673523.2936376977,3672751.2368613081,-37500.0,3617.2440197633941,3511.7151802128365,2462.0776202783909,-3941.305426089762,-5743.8117267037678,4742.7216170280435,7417.0699560970015,234.5735242965734,3173.8064352345946,-3173.8064352345946,-234.5735242965734,13655.52776342321,0.0
678523.2936376977,3672751.2368613081,-37500.0,4089.2980898873211,3255.3824935645293,1109.521828785035,-3809.6835646552745,-4229.7787279760441,3740.1992444054267,6352.8071773523043,1101.8926679410965,2222.7229957447366,-2222.7229957447366,-1101.8926679410965,11703.307075658102,0.0
683523.2936376977,3672751.2368613081,-37500.0,4293.9558759980901,2742.6081628115521,-18.711747789206218,-3454.1144697803575,-2898.0772915899593,2834.3951264828152,5381.2930019770465,1768.8392264956049,1232.709001074373,-1232.709001074373,-1768.8392264956049,9898.9794476345633,0.0
688523.2936376977,3672751.2368613081,-37500.0,4250.8073323590615,2103.0153003951959,-880.62263057306041,-2970.4582659992284,-1796.7829538042406,2058.7233300667413,4551.0033916945731,2206.0148132570057,323.27771415394477,-323.27771415394477,-2206.0148132570057,8325.4101489007335,0.0
693523.2936376977,3672751.2368613081,-37500.0,4008.8701834245494,1437.1981979626455,-1482.5234477616561,-2436.3502018158456,-932.23117353875682,1422.783411498787,3877.6990378246674,2426.9929802746833,-439.41213334836721,439.41213334836721,-2426.9929802746833,7018.0635617392145,0.0
698523.2936376977,3672751.2368613081,-37500.0,3627.4751031883825,813.03028869300067,-1857.9654177296497,-1907.6880831020073,-285.31549096444417,920.57551263822211,3349.8511758586501,2468.46436377494,-1030.7103239517578,1030.7103239517578,-2468.46436377494,5976.1122318918651,0.0
703523.2936376977,3672751.2368613081,-37500.0,3163.6599436117817,269.41653069873587,-2051.7056044453188,-1420.157551319754,175.68916531584648,537.28191987453113,2941.5302343988055,2375.3376614389545,-1453.7916756790282,1453.7916756790282,-2375.3376614389545,5173.130205536906,0.0
708523.2936376977,3672751.2368613081,-37500.0,2665.3974713724579,-176.95297039690749,-2109.291710025514,-993.06111498042401,486.31591000989573,254.26316290734701,2624.3561351140797,2191.2626319169653,-1727.7336737708997,1727.7336737708997,-2191.2626319169653,4567.3587797907994,0.0
713523.2936376977,3672751.2368613081,-37500.0,2169.1082523828195,-524.54851754186939,-2071.3340073547738,-633.71875799758891,680.57520505179423,52.378782720431992,2373.3892132546462,1953.6311068992836,-1878.6365915583642,1878.6365915583642,-1953.6311068992836,4111.6693415194968,0.0
718523.2936376977,3672751.2368613081,-37500.0,1699.8675519712403,-780.98511934845021,-1971.1015995915275,-341.49201006898295,788.22351739862256,-86.056721552311174,2168.9637838004869,1691.7240276510463,-1933.7879457297274,1933.7879457297274,-1691.7240276510463,3762.0499327160378,0.0
723523.2936376977,3672751.2368613081,-37500.0,1273.0192274828221,-958.49873495538191,-1834.1798653927817,-111.02048087089281,833.7667451122735,-176.31915096882454,1996.7160301048173,1426.7785327049135,-1918.3090639691234,1918.3090639691234,-1426.7785327049135,3482.8899085733419,0.0
728523.2936376977,3672751.2368613081,-37500.0,896.30448617662773,-1070.8709408525342,-1679.2232761657747,65.409065675257594,836.49674205063332,-230.98443867676201,1846.8000779260453,1173.0400656824536,-1853.5763117756314,1853.5763117756314,-1173.0400656824536,3248.548722805499,0.0
733523.2936376977,3672751.2368613081,-37500.0,571.97138981448882,-1131.5403778794325,-1519.161011726163,196.26743282596124,811.05978618052791,-260.03328003088131,1712.8169721122285,939.17909907957983,-1756.7816696399937,1756.7816696399937,-939.17909907957983,3042.269234342577,0.0
548523.2936376977,3677751.2368613081,-37500.0,-1446.6266649549873,1436.6744651454237,-1053.87689281554,-989.39272835062252,798.71424657580144,-447.75708494925135,1746.2046216036033,-872.84570877718375,836.82744189409391,-836.82744189409391,872.84570877718375,3435.4497280012015,0.0
553523.2936376977,3677751.2368613081,-37500.0,-1394.4452250918966,1561.7038271774086,-1230.318679449945,-1044.5369887741253,912.09097709177217,-499.4394337668727,1892.5902707807149,-784.26038407885449,823.1055086766869,-823.1055086766869,784.26038407885449,3710.3554582169468,0.0
558523.2936376977,3677751.2368613081,-37500.0,-1303.8502065026619,1685.2970467965295,-1436.5625870984534,-1090.5255529473591,1038.5262951768318,-553.55892278489637,2049.294428203224,-655.2118998705073,782.57657243059089,-782.57657243059089,655.2118998705073,4000.5186512284376,0.0
563523.2936376977,3677751.2368613081,-37500.0,-1165.4614428930911,1801.0522380731111,-1676.0348333024326,-1121.7049299556984,1177.3840235559483,-608.22831719700866,2215.8092750219935,-476.40533658749325,706.02637751933582,-706.02637751933582,476.40533658749325,4303.5375110299419,0.0
568523.2936376977,3677751.2368613081,-37500.0,-968.89214832540483,1899.7672069285425,-1951.4073641990551,-1130.6494162256154,1326.5986998037997,-660.41127586370067,2391.2176917694469,-237.68667389666064,582.18276824938368,-582.18276824938368,237.68667389666064,4615.8018489595261,0.0
573523.2936376977,3677751.2368613081,-37500.0,-703.29430245571245,1968.6587719082925,-2263.6993087021115,-1107.8676101032158,1481.8939425003693,-705.48766035287395,2574.1716094864432,71.302787466957653,397.71637796188713,-397.71637796188713,-71.302787466957653,4932.3867491645633,0.0
578523.2936376977,3677751.2368613081,-37500.0,-358.40534776277434,1990.5618936338058,-2610.8754409373223,-1041.6122549166075,1635.7022622333011,-736.72060731470231,2762.9800266194002,459.90307635591125,137.61907611131937,-137.61907611131937,-459.90307635591125,5247.1939211627314,0.0
583523.2936376977,3677751.2368613081,-37500.0,73.665299294661153,1943.2915100587961,-2985.7562670279672,-917.93364164342927,1775.7299212778225,-744.63964369913708,2955.9167554394189,934.37322281893307,-213.73957367793292,213.73957367793292,-934.37322281893307,5553.6245786270583,0.0
588523.2936376977,3677751.2368613081,-37500.0,595.6265828098816,1799.5296133188879,-3373.0643107935139,-721.21006521704055,1883.1543032577601,-716.38859708467567,3151.9290919196515,1494.6716393998913,-670.43433066358,670.43433066358,-1494.6716393998913,5846.2869666402758,0.0
593523.2936376977,3677751.2368613081,-37500.0,1200.9199425224172,1527.880749068024,-3745.5426677616001,-435.51686224468079,1930.5567539765352,-635.14346980326775,3352.0088523815689,2129.7962947074457,-1241.093996744481,1241.093996744481,-2129.7962947074457,6124.5435660813864,0.0
598523.2936376977,3677751.2368613081,-37500.0,1868.3218615152712,1096.1200241554795,-4059.4191273983911,-47.355110604232586,1879.9450681508515,-479.80274282875564,3561.5104578339101,2811.6441175915093,-1922.6492342544302,1922.6492342544302,-2811.6441175915093,6398.9431271331932,0.0
603523.2936376977,3677751.2368613081,-37500.0,2555.8198123543771,478.04179973821186,-4250.247394265909,449.60811078576535,1681.7058564915742,-225.32420174130991,3793.4679620527113,3488.0325523090901,-2691.3246500042628,2691.3246500042628,-3488.0325523090901,6701.1251135138009,0.0
608523.2936376977,3677751.2368613081,-37500.0,3195.6595865940826,-334.66318679416383,-4231.5233786608069,1047.230411506526,1276.1156693095345,155.63946526058905,4072.0430833792207,4076.9631563377206,-3491.4941278412925,3491.4941278412925,-4076.9631563377206,7094.8904172506309,0.0
613523.2936376977,3677751.2368613081,-37500.0,3694.5636767295696,-1315.2125587002199,-3900.3475927765676,1713.2036933120328,600.02152534069251,688.78185868252217,4433.2707371773158,4466.5260493958331,-4225.3567817179546,4225.3567817179546,-4466.5260493958331,7678.7619917829415,0.0
618523.2936376977,3677751.2368613081,-37500.0,3945.2697319780427,-2382.3827231128871,-3155.8111999254843,2381.1978093767789,-398.19725957779661,1390.6240027694173,4918.3270113435447,4527.3306914818731,-4750.2644942620173,4750.2644942620173,-4527.3306914818731,8562.9465513142168,0.0
623523.2936376977,3677751.2368613081,-37500.0,3855.1061439964683,-3388.4208073516152,-1934.0583286132805,2946.588620493691,-1733.9038507898417,2256.8839858632969,5556.362870150153,4144.2784594009108,-4894.333243238817,4894.333243238817,-4144.2784594009108,9814.6307271426613,0.0
628523.2936376977,3677751.2368613081,-37500.0,3390.0887257698255,-4129.8686765834882,-255.58114019717104,3276.8385644457976,-3356.0596240489608,3248.8393664090254,6341.7434733966065,3267.2448820177224,-4499.763218662235,4499.763218662235,-3267.2448820177224,11400.253462552479,0.0
633523.2936376977,3677751.2368613081,-37500.0,2617.5214898562845,-4394.9564219446675,1734.9679069185577,3243.7820514667696,-5125.6707225249229,4284.4069621857534,7217.3312590423466,1963.4982877700775,-3490.321362672611,3490.321362672611,-1963.4982877700775,13166.598522870285,0.0
638523.2936376977,3677751.2368613081,-37500.0,1715.8548287370047,-4042.212860482864,3768.1434035980333,2773.0496371812737,-6823.3181953167777,5243.8529975109914,8074.7277485024806,437.4375984552737,-1935.3098569553511,1935.3098569553511,-437.4375984552737,14872.090304401332,0.0
643523.2936376977,3677751.2368613081,-37500.0,927.76765011110353,-3074.6033802104434,5509.9826481532564,1887.6610120472988,-8197.6821101258483,5995.6734221277238,8778.3219046687955,-1012.7896437807575,-65.597996856181112,65.597996856181112,1012.7896437807575,16251.567783668428,0.0
648523.2936376977,3677751.2368613081,-37500.0,469.2577242032595,-1660.0407202552105,6667.1652357013436,715.98214740729043,-9040.9727365038325,6434.9827047774152,9207.6135371318287,-2094.7669652737814,1785.3663460888465,-1785.3663460888465,2094.7669652737814,17089.516709019284,0.0
653523.2936376977,3677751.2368613081,-37500.0,445.80405773195247,-77.170619041460284,7083.4134880883184,-546.88867220202997,-9253.5286558148546,6515.0841804729089,9294.863661622534,-2625.3060488427554,3292.7752178011715,-3292.7752178011715,2625.3060488427554,17274.461337613771,0.0
658523.2936376977,3677751.2368613081,-37500.0,824.7351426187322,1383.4280600569364,6775.4348931436689,-1703.4789499220485,-8863.9063684540597,6255.7796740490112,9038.7274619107047,-2579.6772145753343,4242.6329666893062,-4242.6329666893062,2579.6772145753343,16814.939976155343,0.0
663523.2936376977,3677751.2368613081,-37500.0,1470.4777052868653,2506.5557837173396,5898.9233074254471,-2608.7357284945433,-8000.7376151276549,5727.7071940784381,8493.4699279887009,-2069.2726755473805,4574.7113445445129,-4574.7113445445129,2069.2726755473805,15817.161670691485,0.0
668523.2936376977,3677751.2368613081,-37500.0,2209.8779565278332,3191.3078192122107,4676.4823290569539,-3193.4194416888963,-6839.873914936923,5025.27830276438,7745.350683529532,-1276.3107677229541,4361.2877074973876,-4361.2877074973876,1276.3107677229541,14441.775615726407,0.0
673523.2936376977,3677751.2368613081,-37500.0,2889.4919092906061,3441.7405456920451,3328.1506646010439,-3457.4558339386585,-5554.7745644929073,4241.9928790465456,6888.6772781440468,-387.13538212664207,3751.3381220905285,-3751.3381220905285,387.13538212664207,12860.547883132946,0.0
678523.2936376977,3677751.2368613081,-37500.0,3406.184285074416,3331.4996144773477,2027.7649023643564,-3447.4797790047601,-4285.3866584824655,3455.0191758865194,6008.7757101820525,450.78406174398378,2913.6958622089164,-2913.6958622089164,-450.78406174398378,11225.657030350883,0.0
683523.2936376977,3677751.2368613081,-37500.0,3712.2948602392325,2964.981440944216,887.6271467630894,-3232.3299665335539,-3126.7094553686748,2719.1817459067415,5173.0051517413085,1144.528114871589,1997.7504078594789,-1997.7504078594789,-1144.528114871589,9654.3233179486979,0.0
688523.2936376977,3677751.2368613081,-37500.0,3805.4574463003032,2447.6633152687477,-37.174574999207444,-2884.0021367861041,-2131.0295254673993,2067.4279213922309,4426.912921991664,1652.2401179667318,1114.787292462634,-1114.787292462634,-1652.2401179667318,8225.4113683834585,0.0
693523.2936376977,3677751.2368613081,-37500.0,3712.9395153741425,1868.8124457798749,-735.10240019754542,-2465.9937728561567,-1316.8894652198362,1514.6440800767132,3792.7052105265948,1970.5320469034182,334.93826732256366,-334.93826732256366,-1970.5320469034182,6983.0379342476417,0.0
698523.2936376977,3677751.2368613081,-37500.0,3476.7757822547505,1294.6180650631502,-1222.6714307004343,-2028.003987443913,-679.73264183404774,1062.5659799753817,3271.61167417656,2120.0991849016973,-307.03387739033792,307.03387739033792,-2120.0991849016973,5943.0950914078494,0.0
703523.2936376977,3677751.2368613081,-37500.0,3142.4829533365046,768.19490904732038,-1531.1434809238456,-1605.0152283478981,-201.43085649972636,704.4678419599544,2851.6397780495845,2133.4275034647294,-802.54075780747144,802.54075780747144,-2133.4275034647294,5100.2593005706258,0.0
708523.2936376977,3677751.2368613081,-37500.0,2751.8897248825942,313.19352009526494,-1696.8426382524722,-1218.8833951075658,142.41675549260268,429.0080853230051,2515.7743223253328,2045.9619493536252,-1159.9274317308195,1159.9274317308195,-2045.9619493536252,4434.5539073280306,0.0
713523.2936376977,3677751.2368613081,-37500.0,2339.4759990742391,-61.324460656521126,-1755.0342803991941,-881.02175661533431,377.53122040544361,223.04690392207218,2246.6831410938148,1890.6670459208162,-1396.8224976864585,1396.8224976864585,-1890.6670459208162,3917.3990606138973,0.0
718523.2936376977,3677751.2368613081,-37500.0,1931.2360733269302,-356.14163685778902,-1736.6550002058057,-595.26952760149516,527.98756609016471,73.502960185311068,2028.7792737221273,1695.2872973107696,-1534.5739672482659,1534.5739672482659,-1695.2872973107696,3517.1714746493458,0.0
723523.2936376977,3677751.2368613081,-37500.0,1545.1001761380023,-577.94110706426375,-1667.0289741275367,-360.44796614992725,614.72401390888911,-31.568937274717463,1849.0900259477246,1481.4685532232818,-1594.6380291813523,1594.6380291813523,-1481.4685532232818,3203.8519269929698,0.0
728523.2936376977,3677751.2368613081,-37500.0,1192.1517322613367,-736.36130181997919,-1565.8089178232442,-172.39822833212497,655.03583815775187,-102.46739616883353,1697.4863827689169,1265.0016079011161,-1596.5234479011838,1596.5234479011838,-1265.0016079011161,2952.1077584868649,0.0
553523.2936376977,3682751.2368613081,-37500.0,-1025.7701494883268,1442.0732189265127,-1305.7496813968876,-847.26992276687611,867.73633092391583,-422.35792817192379,1722.5619762124093,-439.98262724477706,588.51626451710479,-588.51626451710479,439.98262724477706,3355.9888871569719,0.0
558523.2936376977,3682751.2368613081,-37500.0,-900.92909822324634,1527.0720561501214,-1504.9514559176969,-862.1441921678429,974.42476433661341,-460.20770064459845,1853.6929034503357,-281.4762106486703,512.61100086620752,-512.61100086620752,281.4762106486703,3591.5901518516271,0.0
563523.2936376977,3682751.2368613081,-37500.0,-730.39270669110226,1596.0546058664263,-1730.3929089157709,-858.79242824177527,1087.4441132590052,-495.53191159158166,1991.2930687249511,-76.572666128491079,398.68912178618643,-398.68912178618643,76.572666128491079,3833.0626341923803,0.0
568523.2936376977,3682751.2368613081,-37500.0,-506.62794077648476,1639.132565395081,-1981.8930677034728,-830.32683703873522,1203.2877438709822,-525.00702107895199,2134.5127756579245,181.63007020174967,237.26024644044452,-237.26024644044452,-181.63007020174967,4077.0001008671834,0.0
573523.2936376977,3682751.2368613081,-37500.0,-222.75814808502898,1643.4222343184595,-2256.841309830882,-768.40938927309514,1316.1338839136288,-543.89772243042125,2282.3971353098054,499.00669373322535,17.954996345451718,-17.954996345451718,-499.00669373322535,4319.4784899157958,0.0
578523.2936376977,3682751.2368613081,-37500.0,126.20337084763185,1592.7280011790369,-2548.7909333515977,-663.34995807498967,1416.9475574529388,-545.67648215538338,2434.1593141400367,878.98300948181554,-269.6649309881393,269.6649309881393,-878.98300948181554,4556.6885327010823,0.0
583523.2936376977,3682751.2368613081,-37500.0,541.51652551282757,1467.5966747676343,-2845.5627914275851,-504.51790971970973,1492.3982418955902,-521.63634964685946,2589.7201136038047,1320.4324241802715,-634.59765788470486,634.59765788470486,-1320.4324241802715,4786.2834977983475,0.0
588523.2936376977,3682751.2368613081,-37500.0,1018.1721178729816,1246.1054000348397,-3126.857513090989,-281.26405951948635,1523.6721677120515,-460.56917913674715,2750.6447501452644,1814.7737097932095,-1081.8876515545662,1081.8876515545662,-1814.7737097932095,5009.8817365200366,0.0
593523.2936376977,3682751.2368613081,-37500.0,1541.6742133309283,905.92406998773822,-3361.5641362357619,15.386781913179158,1485.3918502382492,-348.63829882523902,2921.5891444707327,2342.3030420476443,-1608.8002806061108,1608.8002806061108,-2342.3030420476443,5237.2079652416678,0.0
598523.2936376977,3682751.2368613081,-37500.0,2084.4910399149053,428.34572896794941,-3505.3199869903269,389.9863764334998,1345.073109440302,-169.64987826973459,3112.1872662232163,2868.1441109140278,-2199.533373657885,2199.533373657885,-2868.1441109140278,5491.9295476256311,0.0
603523.2936376977,3682751.2368613081,-37500.0,2603.1032999081713,-195.02044503865346,-3499.506132410821,838.64122237396793,1063.8854055676561,93.970270332610582,3338.8270729171059,3338.8575168389916,-2818.7904737107829,2818.7904737107829,-3338.8575168389916,5817.6407795934174,0.0
608523.2936376977,3682751.2368613081,-37500.0,3037.4727244446362,-952.66079237944984,-3273.709355105339,1343.8212736150201,599.87200998118033,459.08388268372016,3624.8865912723895,3681.756616708125,-3405.5549521771909,3405.5549521771909,-3681.756616708125,6279.0302352883655,0.0
613523.2936376977,3682751.2368613081,-37500.0,3315.7244809807485,-1801.7795568636759,-2754.4307074548137,1868.855332730569,-84.961367946449911,938.18091116494759,3997.2682755456171,3810.0973639159747,-3870.0480635282265,3870.0480635282265,-3810.0973639159747,6950.2650152901806,0.0
618523.2936376977,3682751.2368613081,-37500.0,3367.0926991673441,-2658.7721115641693,-1882.5906179578901,2354.2759618204291,-1012.6777984831192,1533.910700425703,4477.8847797245198,3637.7012581301519,-4098.7191457052304,4098.7191457052304,-3637.7012581301519,7887.1863501566731,0.0
623523.2936376977,3682751.2368613081,-37500.0,3144.2172099862273,-3398.3593153663069,-639.73047455500785,2719.6961786062288,-2173.3374433751474,2232.3051987634126,5071.9106182937003,3104.5944726072821,-3972.6749455419003,3972.6749455419003,-3104.5944726072821,9094.2939913608243,0.0
628523.2936376977,3682751.2368613081,-37500.0,2650.3857275127261,-3869.6201833913974,923.22510029031127,2875.3411847733669,-3509.1833824076962,2996.6597520975815,5757.685333719347,2209.3409511389818,-3401.5949868665821,3401.5949868665821,-2209.3409511389818,10505.655919818293,0.0
633523.2936376977,3682751.2368613081,-37500.0,1959.5266730426342,-3932.8629525273586,2668.4256680488711,2744.6467576507466,-4907.5707484885552,3765.7180037837898,6482.6732844041499,1034.922557731071,-2366.0879756891563,2366.0879756891563,-1034.922557731071,11989.107561716619,0.0
638523.2936376977,3682751.2368613081,-37500.0,1212.7725091870159,-3509.2901703421026,4381.4475823268322,2292.6038991949335,-6212.0292346343194,4460.0926120289041,7167.7778519005024,-250.41440437298331,-949.8439868534864,949.8439868534864,250.41440437298331,13370.761360360995,0.0
643523.2936376977,3682751.2368613081,-37500.0,583.14908129064372,-2621.4654626958527,5816.8839968079319,1547.1463305159359,-7254.4379762869394,4997.9170759970339,7722.0648689881336,-1428.9760302286702,661.09146745887324,-661.09146745887324,1428.9760302286702,14472.535095517173,0.0
648523.2936376977,3682751.2368613081,-37500.0,219.27289653009564,-1399.8527505126112,6765.9626180317227,600.10415431797253,-7898.7998509347299,5315.1439523771933,8066.1106251433794,-2297.0843550289383,2221.5324677136905,-2221.5324677136905,2297.0843550289383,15152.498700770275,0.0
653523.2936376977,3682751.2368613081,-37500.0,195.6150093853721,-47.082085471033722,7115.9079111780547,-415.95622447108553,-8077.5828102167152,5381.8132902306606,8153.4488130511227,-2727.0221230433535,3497.1644726447157,-3497.1644726447157,2727.0221230433535,15335.085144292256,0.0
658523.2936376977,3682751.2368613081,-37500.0,494.49804987260575,1223.253651018814,6873.4294310125515,-1364.5850786257722,-7804.3177769305248,5207.1353226411866,7979.5913708979315,-2697.4207370287909,4328.2653357705676,-4328.2653357705676,2697.4207370287909,15021.171043808292,0.0
663523.2936376977,3682751.2368613081,-37500.0,1024.5635541065924,2243.357963868852,6146.1879149779825,-2138.7802149473087,-7159.759583510121,4832.5450744079981,7577.2935031960324,-2282.2761219534977,4659.8119456701579,-4659.8119456701579,2282.2761219534977,14277.124626457913,0.0
668523.2936376977,3682751.2368613081,-37500.0,1660.1157761438121,2921.5588587632406,5098.1166322364234,-2678.60414457557,-6262.1245991655214,4317.7091001617182,7003.4970057710379,-1612.0704205590898,4532.8498290800835,-4532.8498290800835,1612.0704205590898,13210.591830471732,0.0
673523.2936376977,3682751.2368613081,-37500.0,2280.1741022898582,3242.6800753062744,3901.7846695216108,-2971.4344767553935,-5235.8828423428231,3725.9813056753837,6324.6033958220714,-829.61146117406815,4051.2823328523396,-4051.2823328523396,829.61146117406815,11943.702995280237,0.0
678523.2936376977,3682751.2368613081,-37500.0,2793.7968393808851,3248.6531214268448,2703.9798856499024,-3040.7610066208235,-4189.0183859555691,3113.6312740858557,5604.6396522703435,-57.214139823196547,3343.3851951720339,-3343.3851951720339,57.214139823196547,10591.630498996441,0.0
683523.2936376977,3682751.2368613081,-37500.0,3149.0929154391415,3012.744961601999,1609.272971497352,-2931.0820307289678,-3201.6543440395258,2524.0998002157426,4897.7656948234198,619.37089086948299,2531.3896406812701,-2531.3896406812701,-619.37089086948299,9249.5772243856245,0.0
688523.2936376977,3682751.2368613081,-37500.0,3330.1314090036067,2616.9175410889684,678.34932064727002,-2694.2903332729738,-2324.1301777124136,1986.5200164741191,4244.0783448908496,1152.9860421102821,1713.8255407855013,-1713.8255407855013,-1152.9860421102821,7987.5773481816032,0.0
693523.2936376977,3682751.2368613081,-37500.0,3347.7076489766832,2136.4053728496592,-64.912142532936414,-2379.9711532142337,-1580.892642400544,1517.0147506624401,3667.2663220070572,1528.7165264916362,959.29962916178135,-959.29962916178135,-1528.7165264916362,6850.7728012673851,0.0
698523.2936376977,3682751.2368613081,-37500.0,3228.7416288179907,1631.6743792250302,-623.01613511665175,-2029.8804610240963,-976.87515999039715,1121.3642626521694,3175.1439834356629,1754.3215183176844,307.9700731911289,-307.9700731911289,-1754.3215183176844,5862.6916374655611,0.0
703523.2936376977,3682751.2368613081,-37500.0,3007.0992364676144,1146.0547964511322,-1014.6199033175019,-1675.7948826107779,-504.10687752409711,798.02528039318759,2764.2983081709426,1850.8374598436169,-223.03515040226944,223.03515040226944,-1850.8374598436169,5029.6639111809009,0.0
708523.2936376977,3682751.2368613081,-37500.0,2716.9497337800922,706.92205144605157,-1266.2443841749446,-1339.6182924005816,-147.34352050189179,540.88762124213679,2425.7717881109907,1845.0278925157804,-633.02931609916914,633.02931609916914,-1845.0278925157804,4345.2827410348409,0.0
713523.2936376977,3682751.2368613081,-37500.0,2388.7090648189987,328.62108951745427,-1406.4188945180415,-1034.7344604342907,111.71490700618598,341.48182388979018,2148.6742524089545,1764.1479745196889,-931.6494208845952,931.6494208845952,-1764.1479745196889,3794.4813342770994,0.0
718523.2936376977,3682751.2368613081,-37500.0,2047.096169273412,15.88002781862882,-1462.0551619435748,-767.85510816762769,291.5978436358273,190.5707805664014,1921.9495335143422,1632.8203562510046,-1133.9598629946242,1133.9598629946242,-1632.8203562510046,3357.1788572525356,0.0
723523.2936376977,3682751.2368613081,-37500.0,1710.6747489652914,-233.01834997055161,-1456.5578011580092,-540.88414769249471,409.39018110209815,79.183138436585821,1735.3288621488664,1471.5418449072572,-1256.9476271017647,1256.9476271017647,-1471.5418449072572,3011.5069594405754,0.0
553523.2936376977,3687751.2368613081,-37500.0,-701.95498434002286,1296.6406650034162,-1344.9867825543599,-669.26599557696545,808.44786528089332,-351.63425387394631,1561.6544035232957,-149.07120891244961,369.19889890146044,-369.19889890146044,149.07120891244961,3018.2491100855959,0.0
558523.2936376977,3687751.2368613081,-37500.0,-555.14036521683522,1344.423924393986,-1529.6809735342601,-659.79531144071552,894.64907029082292,-375.89972153268832,1670.7968932761225,25.34366511362424,266.85379272726857,-266.85379272726857,-25.34366511362424,3207.2014892897041,0.0
563523.2936376977,3687751.2368613081,-37500.0,-367.01836821385007,1370.1250967230565,-1732.8262588677956,-630.6282347868862,981.87477071931744,-395.54310399123256,1784.2694408528707,240.38336530060366,127.25565075083676,-127.25565075083676,-240.38336530060366,3397.6939231172505,0.0
568523.2936376977,3687751.2368613081,-37500.0,-132.87657611276481,1364.0442227939261,-1951.7693473544302,-575.81361085260664,1065.7083185602378,-407.26005899376713,1901.5752266667223,499.78345059329274,-56.835011943321291,56.835011943321291,-499.78345059329274,3587.2440124251389,0.0
573523.2936376977,3687751.2368613081,-37500.0,150.55559310108231,1314.2548573172867,-2181.0132077781082,-488.54088096117937,1139.5366250345464,-406.57105074984463,2022.4493092549458,805.40437091438025,-292.50307031232165,292.50307031232165,-805.40437091438025,3773.7341316026836,0.0
578523.2936376977,3687751.2368613081,-37500.0,483.89406445115333,1206.7013640618829,-2410.9782964128781,-361.42962079227283,1193.8811709781594,-387.58222462593312,2147.2507905518701,1155.8472225339615,-585.64172392143348,585.64172392143348,-1155.8472225339615,3956.4225880729132,0.0
583523.2936376977,3687751.2368613081,-37500.0,863.47694219507764,1025.7628241019393,-2626.4955326550648,-187.13141895351708,1215.6857912584844,-342.78950772731969,2277.5967075489202,1544.6088740182186,-939.31088986018324,939.31088986018324,-1544.6088740182186,4137.6863538536081,0.0
588523.2936376977,3687751.2368613081,-37500.0,1279.3673059138787,755.57916112049963,-2805.1520518622197,40.619286112352462,1187.6837909684523,-263.00035106763073,2417.2758094569926,1957.8166026246286,-1351.3382394805872,1351.3382394805872,-1957.8166026246286,4325.7130705769923,0.0
593523.2936376977,3687751.2368613081,-37500.0,1713.1823184811542,382.50630766019475,-2915.8037319155701,325.36172372477199,1088.0781491022979,-137.4879438559496,2573.3690308366881,2371.7678078537238,-1811.0996251789893,1811.0996251789893,-2371.7678078537238,4538.0636401531929,0.0
598523.2936376977,3687751.2368613081,-37500.0,2136.2347994580082,-100.94187459883187,-2917.8732781060485,665.57526778362433,890.92068174912947,45.462175537985715,2757.2380432397449,2750.8237370525899,-2295.6559440135748,2295.6559440135748,-2750.8237370525899,4805.1124751280286,0.0
603523.2936376977,3687751.2368613081,-37500.0,2508.8876709365463,-690.51383078939648,-2762.4552910425782,1051.7091572137483,567.74918505527376,297.41530591706294,2984.6245846945358,3046.6774049435667,-2765.8964556168762,2765.8964556168762,-3046.6774049435667,5170.6826700276097,0.0
608523.2936376977,3687751.2368613081,-37500.0,2782.4837219547062,-1363.4212572944693,-2396.6388486689625,1462.9501850920917,91.163138716076148,627.85949353261265,3273.7903562922602,3200.5517936159376,-3164.0898415728816,3164.0898415728816,-3200.5517936159376,5685.8603267144617,0.0
613523.2936376977,3687751.2368613081,-37500.0,2905.44035663665,-2071.8230741214343,-1772.4971252809539,1864.6385984648571,-559.09056688721387,1041.3731265219949,3640.9879235665267,3150.174146117602,-3415.1396530736015,3415.1396530736015,-3150.174146117602,6394.0274009842124,0.0
618523.2936376977,3687751.2368613081,-37500.0,2834.5749047292793,-2739.5924293938206,-861.36328620459881,2207.9177120305121,-1387.5444958602936,1534.0396687865546,4093.9670452458713,2842.8531447357077,-3434.4087002378924,3434.4087002378924,-2842.8531447357077,7311.7230701663511,0.0
623523.2936376977,3687751.2368613081,-37500.0,2550.7800130118803,-3266.5853262094224,328.30419028025574,2433.6428550306805,-2373.298484697209,2089.7670406549364,4625.7639469159049,2253.8857520536189,-3144.2078995948727,3144.2078995948727,-2253.8857520536189,8414.5451670558541,0.0
628523.2936376977,3687751.2368613081,-37500.0,2074.7741660429106,-3544.1295722433301,1734.8016600756644,2482.1045582961324,-3462.4145728957828,2677.8617133796633,5211.1847403576157,1405.7330030269486,-2497.9409313200595,2497.9409313200595,-1405.7330030269486,9634.0212524494527,0.0
633523.2936376977,3687751.2368613081,-37500.0,1475.1983006768851,-3481.6355799464013,3237.4362273478869,2308.0032366776145,-4567.1387021763185,3253.6863340474742,5807.0059995034007,379.32618374885226,-1505.4483966651051,1505.4483966651051,-379.32618374885226,10865.38755228931,0.0
638523.2936376977,3687751.2368613081,-37500.0,861.12085247724099,-3037.4122062424281,4669.3638723192062,1896.6561674478469,-5576.0066113534049,3763.8697452291253,6356.0949401612042,-691.92304943605245,-248.09931194689295,248.09931194689295,691.92304943605245,11984.130114338168,0.0
643523.2936376977,3687751.2368613081,-37500.0,356.69751922487649,-2240.6664965315481,5850.5186062121593,1274.5489586054289,-6374.8606181895138,4155.8432761580934,6796.326857406244,-1649.1389139702951,1127.605524444999,-1127.605524444999,1649.1389139702951,12868.390709019754,0.0
648523.2936376977,3687751.2368613081,-37500.0,65.774666854360589,-1192.2038995763739,6631.2241344589502,508.02103074469517,-6872.8248666559693,4389.0796329164905,7073.9677887702783,-2348.6911563856088,2440.6661334820215,-2440.6661334820215,2348.6911563856088,13422.262242790062,0.0
653523.2936376977,3687751.2368613081,-37500.0,41.613743445725987,-40.689040254504008,6929.2949962265675,-311.02897606146558,-7023.3796909282255,4443.9186710712065,7156.4237094421615,-2700.1351345208141,3520.2909460248311,-3520.2909460248311,2700.1351345208141,13593.290231262736,0.0
658523.2936376977,3687751.2368613081,-37500.0,275.07092226846123,1055.9897403406585,6745.5738766621216,-1086.9795383617061,-6832.3452925363235,4324.6763326987775,7038.3261548226183,-2685.4121177571187,4246.4175090934923,-4246.4175090934923,2685.4121177571187,13378.9563055412,0.0
663523.2936376977,3687751.2368613081,-37500.0,704.37242994052144,1967.9005368542062,6153.9454277893547,-1741.1147726109027,-6350.9859079642974,4056.4202921069345,6739.5891410908507,-2353.6012325877346,4570.7754676782297,-4570.7754676782297,2353.6012325877346,12821.242012555835,0.0
668523.2936376977,3687751.2368613081,-37500.0,1238.9443836150879,2615.70415947319,5273.7600179493074,-2224.200588426243,-5659.0454197863555,3677.4872254070438,6298.0925990086243,-1797.6407878975033,4514.3988152502507,-4514.3988152502507,1797.6407878975033,11992.850883889299,0.0
673523.2936376977,3687751.2368613081,-37500.0,1785.5555417439869,2974.8934803366114,4237.7535011583605,-2519.040617890741,-4845.2401351017197,3230.8714860939076,5760.6066494350007,-1125.3627550979854,4148.1905242387729,-4148.1905242387729,1125.3627550979854,10980.607390481813,0.0
678523.2936376977,3687751.2368613081,-37500.0,2267.8133665068913,3065.9420011357079,3166.1349983696496,-2635.2848359114537,-3991.3142602804705,2757.0258942079899,5174.7481312941582,-435.41465296176239,3567.4497534530451,-3567.4497534530451,435.41465296176239,9870.8048603147581,0.0
683523.2936376977,3687751.2368613081,-37500.0,2635.6903699267673,2937.920280113739,2151.5550595305581,-2600.465842060376,-3162.4118449492807,2289.2679942818941,4583.19179664277,196.97783756152785,2869.3388240113818,-2869.3388240113818,-196.97783756152785,8739.0285897269259,0.0
688523.2936376977,3687751.2368613081,-37500.0,2866.301136868055,2652.1102473159358,1254.4714722412918,-2450.7525063046583,-2403.6019690039834,1851.8190173177436,4019.8469654366877,724.56764402709143,2137.7333292259705,-2137.7333292259705,-724.56764402709143,7644.8370534343803,0.0
693523.2936376977,3687751.2368613081,-37500.0,2959.1713503980727,2269.3383486656153,505.78425077087456,-2223.5019971325469,-1740.8663278369338,1459.8595580303722,3507.2951073183867,1125.8017676024515,1435.9249536702305,-1435.9249536702305,-1125.8017676024515,6630.3900060068772,0.0
698523.2936376977,3687751.2368613081,-37500.0,2929.2512463657372,1842.1289621961582,-86.802770079028463,-1952.338704767933,-1184.5512883710189,1120.8124647416241,3056.2774311418148,1399.0178388956431,805.44086860312132,-805.44086860312132,-1399.0178388956431,5721.6575801962881,0.0
703523.2936376977,3687751.2368613081,-37500.0,2799.9939675303935,1411.1520309956736,-531.45543559022053,-1664.6086751896678,-733.66291788317403,836.16187865575932,2668.3643448121652,1555.7379491257357,268.62686044093016,-268.62686044093016,-1555.7379491257357,4930.9618207877238,0.0
708523.2936376977,3687751.2368613081,-37500.0,2597.7424996009577,1004.7608380115238,-845.59382030314441,-1380.6453740715292,-379.95650429073532,603.31874168537001,2339.9014450558889,1614.6509489072532,-167.06639974761038,167.06639974761038,-1614.6509489072532,4259.9411008014167,0.0
713523.2936376977,3687751.2368613081,-37500.0,2347.8332250638132,640.36736665644821,-1050.7369540230854,-1114.2023871788151,-111.29518488434896,417.25006467112149,2064.7625276073741,1596.9911119215494,-504.5241066971729,504.5241066971729,-1596.9911119215494,3702.4208391764992,0.0
718523.2936376977,3687751.2368613081,-37500.0,2072.3130153326219,326.64718630137281,-1168.9414643065941,-873.49725686488216,85.882851927038303,271.74999545937283,1835.7736416492207,1523.4306536258512,-752.94806117649409,752.94806117649409,-1523.4306536258512,3246.9816684502657,0.0
723523.2936376977,3687751.2368613081,-37500.0,1788.9278154807348,65.894479002810115,-1220.6321411085021,-662.46345038764537,224.93082869098214,160.33969212900683,1645.5305329906002,1412.28299256079,-924.71525261254953,924.71525261254953,-1412.28299256079,2879.200957815563,0.0
558523.2936376977,3692751.2368613081,-37500.0,-267.28972143083115,1150.6799209762867,-1515.3204513893816,-484.92809970487014,805.58912556876021,-301.44801854741053,1502.4237803013489,267.05812806357778,52.467480981876037,-52.467480981876037,-267.05812806357778,2853.190675834031,0.0
563523.2936376977,3692751.2368613081,-37500.0,-73.5911638824997,1138.8272425575358,-1690.7201929452765,-437.74726638321437,868.59943396822996,-308.86016101179871,1596.4134448626733,479.59206172029553,-101.83299709182003,101.83299709182003,-479.59206172029553,3003.1721355381519,0.0
568523.2936376977,3692751.2368613081,-37500.0,157.87713282047611,1092.1652474536288,-1872.2163208330712,-366.05777216720259,923.48712794638993,-307.29941536352754,1693.5985695042336,726.65065990783671,-295.40716808332104,295.40716808332104,-726.65065990783671,3151.5507093591668,0.0
573523.2936376977,3692751.2368613081,-37500.0,427.43977463498021,1000.4107586123307,-2052.321851412275,-264.65952241400379,963.47228619270379,-292.7609866799155,1794.5044272200616,1006.8845059856428,-532.19397727770115,532.19397727770115,-1006.8845059856428,3298.3960090770925,0.0
578523.2936376977,3692751.2368613081,-37500.0,732.47754986969846,852.24937201364833,-2219.6483531985136,-128.37653208684631,979.39783687734257,-260.19045572566955,1900.599228834712,1315.4190229680858,-814.10817014695897,814.10817014695897,-1315.4190229680858,3446.1638282790332,0.0
583523.2936376977,3692751.2368613081,-37500.0,1066.1517698140524,636.19723187978832,-2357.85774967113,47.28777124707193,959.33960818100024,-203.4258131906951,2014.8815580243458,1642.4188505492355,-1139.5046812980925,1139.5046812980925,-1642.4188505492355,3601.467659693446,0.0
588523.2936376977,3692751.2368613081,-37500.0,1416.0249267384097,342.13387107398108,-2444.7224330802042,265.1498942728029,888.39852081168397,-115.27131231554316,2142.5693940439842,1971.5417726128817,-1501.1624780142538,1501.1624780142538,-1971.5417726128817,3777.317353348466,0.0
593523.2936376977,3692751.2368613081,-37500.0,1762.8428251899909,-36.299344443397253,-2451.6307127055188,524.94922018628745,748.87882835240725,12.210432582284579,2291.6854467884059,2278.5817387392754,-1883.8854645446172,1883.8854645446172,-2278.5817387392754,3995.2013165356343,0.0
598523.2936376977,3692751.2368613081,-37500.0,2079.9481907552131,-498.33667949466184,-2344.0796710950017,821.57652003449039,521.1419478264902,187.08212349158916,2473.1236061034833,2530.8353837216773,-2262.0512106584456,2262.0512106584456,-2530.8353837216773,4285.5129580084504,0.0
603523.2936376977,3692751.2368613081,-37500.0,2334.0301685081645,-1031.9266023152254,-2083.8988213962871,1143.1009708097363,185.48568826164697,416.48560023504871,2699.6283354269062,2687.9968773173596,-2597.8030108080602,2597.8030108080602,-2687.9968773173596,4684.1615942759709,0.0
608523.2936376977,3692751.2368613081,-37500.0,2488.0636667578983,-1609.4283463063264,-1634.0204502152471,1469.0102335969723,-274.62884113481516,705.09929175861339,2983.2832900479762,2705.5685878096529,-2841.0272943310911,2841.0272943310911,-2705.5685878096529,5224.1769978318453,0.0
613523.2936376977,3692751.2368613081,-37500.0,2507.1610973796101,-2184.5378572430177,-966.34479103730246,1769.3920898938695,-867.89670566091274,1053.1419483549985,3331.7629233353573,2541.6525520527484,-2932.6229961998388,2932.6229961998388,-2541.6525520527484,5924.3115122519703,0.0
618523.2936376977,3692751.2368613081,-37500.0,2367.3574545952097,-2692.5419887660296,-72.354571748303073,2006.055630052213,-1589.443398116611,1454.1682175872154,3744.4117646693971,2167.2306084789775,-2812.4719250475569,2812.4719250475569,-2167.2306084789775,6779.3293321731262,0.0
623523.2936376977,3692751.2368613081,-37500.0,2065.9265297459478,-3056.2303879977126,1025.4807544604823,2136.580383856246,-2415.2882104622295,1893.1938452154363,4209.5076806104435,1578.4606116040791,-2432.4924094604694,2432.4924094604694,-1578.4606116040791,7755.6467288121385,0.0
628523.2936376977,3692751.2368613081,-37500.0,1629.9427930900424,-3198.7758896404853,2265.4359183884371,2121.6663557708912,-3299.122035280715,2345.9661322946704,4703.5353457736601,807.35841546277129,-1772.8953065542171,1772.8953065542171,-807.35841546277129,8792.8969963294803,0.0
633523.2936376977,3692751.2368613081,-37500.0,1118.530843883168,-3062.2020149553659,3546.4444528405647,1934.806653468278,-4173.8969774308953,2780.2624202909778,5192.4917494331139,-74.353471532041453,-856.83368728651192,856.83368728651192,74.353471532041453,9810.5808926139744,0.0
638523.2936376977,3692751.2368613081,-37500.0,615.08119027837267,-2626.371535522504,4739.989860118385,1571.5916633428046,-4959.8535795192502,3159.7056549898166,5635.0177125520595,-962.79552105210689,243.27745102287111,-243.27745102287111,962.79552105210689,10719.014305076653,0.0
643523.2936376977,3692751.2368613081,-37500.0,209.42829990501625,-1920.9135193528114,5713.4158085526124,1054.919034453836,-5578.2446628787138,3449.6626573435374,5987.8312700061897,-1741.5271127813,1413.2134133362058,-1413.2134133362058,1741.5271127813,11433.176158404192,0.0
648523.2936376977,3692751.2368613081,-37500.0,-24.785223314281868,-1023.7242188912076,6358.3374387140102,433.18343649096539,-5967.1284893092534,3623.7283089571456,6213.670845762831,-2307.9572123585399,2518.4108419812515,-2518.4108419812515,2307.9572123585399,11886.708595101936,0.0
653523.2936376977,3692751.2368613081,-37500.0,-48.996566834103326,-44.996460240280214,6614.2525172649985,-228.78307881701781,-6093.9628206145389,3668.7373488867943,6289.1926358925248,-2597.1243677672619,3433.014182101665,-3433.014182101665,2597.1243677672619,12042.445533564003,0.0
658523.2936376977,3692751.2368613081,-37500.0,132.44020591125479,897.67410404384486,6478.9323697932268,-863.06262153735884,-5960.7185837706838,3586.6796804895771,6209.1611219416136,-2594.0771871787974,4066.1506252792378,-4066.1506252792378,2594.0771871787974,11896.638816842022,0.0
663523.2936376977,3692751.2368613081,-37500.0,477.49060737429517,1703.9178550108782,6003.0738183256808,-1411.6608645557224,-5600.3905337025544,3393.134476277336,5985.7825873449729,-2331.4726491018337,4376.6796395016863,-4376.6796395016863,2331.4726491018337,11476.2322183581,0.0
668523.2936376977,3692751.2368613081,-37500.0,921.02094309711049,2307.10247378432,5273.2054792588542,-1835.2732377537409,-5067.1531417866863,3113.1255808300325,5644.5226817878156,-1875.4896362716618,4373.4386995829236,-4373.4386995829236,1875.4896362716618,10830.85227513571,0.0
673523.2936376977,3692751.2368613081,-37500.0,1392.1672656629987,2679.5651509643526,4390.2586611634379,-2116.2311457655464,-4424.1440792560197,2775.9641873877549,5218.4631333498774,-1306.8702105388611,4104.0038872954437,-4104.0038872954437,1306.8702105388611,10022.442804823904,0.0
678523.2936376977,3692751.2368613081,-37500.0,1828.7383693302031,2828.1407822280134,3450.6248146741377,-2256.378311605376,-3732.5329489080395,2410.529362298827,4742.8885612984122,-703.67587732834272,3638.0657971108803,-3638.0657971108803,703.67587732834272,9115.3537631392264,0.0
683523.2936376977,3692751.2368613081,-37500.0,2185.7376422898633,2784.1120066523736,2533.5444291970534,-2271.9119526446798,-3043.9976466709809,2041.8723191714487,4251.003460763869,-129.62499868446594,3051.2291327766043,-3051.2291327766043,129.62499868446594,8168.7244968402647,0.0
688523.2936376977,3692751.2368613081,-37500.0,2437.9005703499647,2591.8092127408122,1695.4841564613118,-2187.3215979215606,-2397.052197530008,1689.386366693079,3770.7596461496141,371.17524826296903,2412.8029917534336,-2412.8029917534336,-371.17524826296903,7231.7962105455454,0.0
693523.2936376977,3692751.2368613081,-37500.0,2577.8213574333149,2298.786439261572,970.10582722635445,-2029.9649410804777,-1816.564772605399,1366.3429067833374,3322.4356055247267,774.31342861579185,1778.7069611771444,-1778.7069611771444,-774.31342861579185,6341.9215958647665,0.0
698523.2936376977,3692751.2368613081,-37500.0,2611.7052420443156,1948.9098341472577,371.68508668575106,-1826.0526911960005,-1315.3568709390609,1080.3845645069377,2917.5913678285533,1071.9508944063987,1188.9238725680234,-1188.9238725680234,-1071.9508944063987,5524.5895000103865,0.0
703523.2936376977,3692751.2368613081,-37500.0,2554.4719994307229,1578.4752218541898,-99.992297324673586,-1598.1954133846871,-896.81362533556023,834.54728981622088,2560.4680501287526,1268.3398521729646,668.16980317607363,-668.16980317607363,-1268.3398521729646,4794.6954884110801,0.0
708523.2936376977,3692751.2368613081,-37500.0,2425.3301813702474,1214.7947262381488,-454.66227943489764,-1364.2940109696888,-557.69969684036198,628.46100687275589,2250.7155537226299,1375.3030296284994,228.37393594755986,-228.37393594755986,-1375.3030296284994,4158.399416879849,0.0
713523.2936376977,3692751.2368613081,-37500.0,2244.3656865164348,876.46986831835773,-707.33420746980585,-1137.407282162553,-290.69156531005967,459.49566253228403,1985.4867695492726,1408.4184679898744,-128.15734124381606,128.15734124381606,-1408.4184679898744,3615.1184809475849,0.0
718523.2936376977,3692751.2368613081,-37500.0,2030.2589284400403,574.61144682542556,-875.0738396274736,-926.21934975938984,-86.396421909778852,323.72353446493167,1760.5629227050481,1384.1917004621196,-405.6398780419218,405.6398780419218,-1384.1917004621196,3159.3896824141066,0.0
563523.2936376977,3697751.2368613081,-37500.0,155.34358688744453,914.04132203643633,-1612.9758204335774,-278.60743222427107,753.99788371589659,-235.24083480644265,1428.3707128525343,649.67907133261917,-286.75048728478077,286.75048728478077,-649.67907133261917,2652.1031368869999,0.0
568523.2936376977,3697751.2368613081,-37500.0,374.84769872455121,836.06140622460839,-1755.4428117934592,-197.68849767596015,783.95145616441596,-224.24227171963651,1510.4746449258078,875.38019625861864,-479.13926880316933,479.13926880316933,-875.38019625861864,2771.0627349535057,0.0
573523.2936376977,3697751.2368613081,-37500.0,621.92774805318049,714.35493138961738,-1886.9236621721011,-90.758816072074993,796.0096371281345,-200.56408011997664,1597.1912201512373,1122.3103240962728,-705.59260675007476,705.59260675007476,-1122.3103240962728,2892.0291911180657,0.0
578523.2936376977,3697751.2368613081,-37500.0,891.8494398618227,540.47919857597242,-1995.3795943737182,45.459868227612837,781.82955577696487,-160.04093845574414,1690.865815877364,1383.4325592644514,-964.88715398913803,964.88715398913803,-1383.4325592644514,3020.238711925811,0.0
583523.2936376977,3697751.2368613081,-37500.0,1176.101095599148,306.83256461689552,-2064.7196250127436,213.20647052321218,731.07231774086358,-97.802517920964362,1795.3668393660078,1647.3247660160332,-1252.0564398230572,1252.0564398230572,-1647.3247660160332,3165.3540085710283,0.0
588523.2936376977,3697751.2368613081,-37500.0,1461.5743556391888,8.151529264702857,-2074.4476021132232,412.82604206454079,631.4782110507939,-8.4251211716509768,1916.4499772226716,1897.282788426297,-1556.8617948806427,1556.8617948806427,-1897.282788426297,3342.7786163680453,0.0
593523.2936376977,3697751.2368613081,-37500.0,1730.0816751788066,-356.40686649068897,-1999.8681201055488,641.6856548777937,469.31654756676602,113.73608673902946,2061.8151885249245,2110.8148016985133,-1862.2010873469742,1862.2010873469742,-2110.8148016985133,3573.9814923742606,0.0
598523.2936376977,3697751.2368613081,-37500.0,1958.5896600403455,-780.66061499585339,-1813.2579112715566,892.94090499213848,230.39913486164406,273.97389963636027,2240.5394385669674,2259.9589404933445,-2142.8141016205941,2142.8141016205941,-2259.9589404933445,3884.6138994520534,0.0
603523.2936376977,3697751.2368613081,-37500.0,2120.6430936324227,-1248.5754434506532,-1486.470350625016,1154.3505292350983,-98.155778124465883,476.3710361728011,2461.6451374591757,2312.9704495372644,-2364.877476533693,2364.877476533693,-2312.9704495372644,4299.6654720505303,0.0
608523.2936376977,3697751.2368613081,-37500.0,2189.4326315353733,-1731.8664647807257,-995.35262684376551,1407.4907917414623,-525.30689414376047,722.66087730457946,2731.8779041856083,2237.9093168894401,-2487.2950416494355,2487.2950416494355,-2237.9093168894401,4836.5215601534755,0.0
613523.2936376977,3697751.2368613081,-37500.0,2142.7034561220548,-2189.0825995903242,-326.00483971850986,1627.8743306946112,-1052.7280066472242,1010.8999324241805,3053.2036967121421,2008.3852380167,-2465.542109804127,2465.542109804127,-2008.3852380167,5498.3896077871213,0.0
618523.2936376977,3697751.2368613081,-37500.0,1969.1012555286504,-2567.4941840707984,517.80302215411564,1786.5412003525071,-1671.1720748105179,1334.1770274810917,3420.7713704485695,1611.0513618527823,-2258.5955946179752,2258.5955946179752,-1611.0513618527823,6270.3785193023441,0.0
623523.2936376977,3697751.2368613081,-37500.0,1674.6337431496129,-2808.9212762411767,1507.7493526382109,1853.5315393300245,-2357.4930079467272,1679.7309491330307,3821.9409585864796,1053.3989484861531,-1838.5837853031876,1838.5837853031876,-1053.3989484861531,7118.9114746010619,0.0
628523.2936376977,3697751.2368613081,-37500.0,1286.9918483090919,-2859.6916387252713,2587.2483262060696,1803.1537345720897,-3073.6264338788374,2028.9427662841222,4236.5794556958235,369.30919216054707,-1201.3510452704681,1201.3510452704681,-369.30919216054707,7994.0958793364598,0.0
633523.2936376977,3697751.2368613081,-37500.0,855.15222736864371,-2683.1920836711101,3673.7328150724734,1620.161376733718,-3768.8024337631969,2358.6131856977818,4638.4391440161871,-380.6462994179418,-374.65829690498106,374.65829690498106,380.6462994179418,8834.7104535976141,0.0
638523.2936376977,3697751.2368613081,-37500.0,442.62115447000332,-2271.5553552669589,4668.532309147161,1305.1294325349791,-4385.5525407839759,2643.6419814731712,4997.3667743755059,-1116.2477346587195,579.82555931534603,-579.82555931534603,1116.2477346587195,9575.5256916098751,0.0
643523.2936376977,3697751.2368613081,-37500.0,114.9870922148763,-1652.0893839768519,5473.2619752624314,877.00275761458556,-4868.7329080373311,2860.7370366220898,5282.6429213090332,-1751.6051969446269,1573.3128072190686,-1573.3128072190686,1751.6051969446269,10156.133585928193,0.0
648523.2936376977,3697751.2368613081,-37500.0,-74.804756678324608,-885.15758913507216,6008.5788791849409,371.40618541701713,-5175.3567008161144,2992.2866356339032,5467.8420638163916,-2212.528044952162,2504.9357845277332,-2504.9357845277332,2212.528044952162,10529.653506300698,0.0
653523.2936376977,3697751.2368613081,-37500.0,-98.506088018922782,-53.281330680157787,6229.4878022251332,-165.23206233727026,-5282.3277214118225,3029.3123055306942,5535.9142780763214,-2451.75567714406,3280.9549697647594,-3280.9549697647594,2451.75567714406,10669.269842256108,0.0
658523.2936376977,3697751.2368613081,-37500.0,42.180751162988606,755.22337026719947,6132.3726959098512,-684.07070759562544,-5189.7604043243246,2972.6669594365535,5482.1450456011471,-2457.0870850931142,3832.1173486776379,-3832.1173486776379,2457.0870850931142,10571.033450886618,0.0
663523.2936376977,3697751.2368613081,-37500.0,318.43555070672267,1462.7703431425919,5752.1473049859978,-1142.2120822455988,-4919.1866480966992,2832.2420808512243,5314.0556602172192,-2250.3692210102326,4124.0203225698515,-4124.0203225698515,2250.3692210102326,10252.481406860201,0.0
668523.2936376977,3697751.2368613081,-37500.0,683.35613055710087,2014.4213871692759,5151.5639663795528,-1508.7618322717303,-4507.7328509014624,2624.6001307554975,5048.9608284412388,-1878.8610317039772,4158.4093607412942,-4158.4093607412942,1878.8610317039772,9747.8798525415368,0.0
673523.2936376977,3697751.2368613081,-37500.0,1083.485800641603,2382.8503623949114,4406.9155173483086,-1767.4637013788845,-4000.4119177784405,2369.8390315517681,4710.4062324533415,-1402.7899355867003,3966.7413575953642,-3966.7413575953642,1402.7899355867003,9101.6692454877484,0.0
678523.2936376977,3697751.2368613081,-37500.0,1469.2091767625268,2566.7556062370086,3594.4307451039326,-1916.0714972698659,-3442.7140850923665,2088.5221952354991,4324.5367520222808,-883.17072613556434,3599.4242813181063,-3599.4242813181063,883.17072613556434,8361.7863961271796,0.0
683523.2936376977,3697751.2368613081,-37500.0,1801.7724452693442,2584.8946784197215,2780.2223976249193,-1963.4646895754656,-2874.9778432113458,1799.2624939050718,3917.0027038565095,-372.68309354946427,3114.394038776376,-3114.394038776376,372.68309354946427,7574.0967464760161,0.0
688523.2936376977,3697751.2368613081,-37500.0,2056.3611389353509,2468.3861051812301,2014.780182107429,-1925.7758264974639,-2329.1137279364589,1517.2211626689409,3510.4714965268026,89.353686464752172,2567.6727327291387,-2567.6727327291387,-89.353686464752172,6778.5634688634,0.0
693523.2936376977,3697751.2368613081,-37500.0,2221.8759264324344,2253.395698250245,1331.5443368155072,-1822.5795357271395,-1827.5054291401941,1253.4926198308101,3122.5206862244158,478.26943182036507,2007.11238204296,-2007.11238204296,-478.26943182036507,6007.1929892997659,0.0
698523.2936376977,3697751.2368613081,-37500.0,2298.5941302257406,1975.4369574727091,748.36726505757974,-1673.7952131353318,-1383.5244115172231,1015.1845810332576,2764.3802879024097,782.68078007333497,1469.3538209510166,-1469.3538209510166,-782.68078007333497,5283.4658700004466,0.0
703523.2936376977,3697751.2368613081,-37500.0,2294.9020384433675,1665.6819168419911,270.54758380549549,-1497.5578756976972,-1002.9939557282202,805.94219954338678,2441.521175736741,1001.6978062848045,979.34097426644939,-979.34097426644939,-1001.6978062848045,4622.8073743530604,0.0
708523.2936376977,3697751.2368613081,-37500.0,2223.9957488461823,1349.1201159823245,-105.6398501504099,-1309.0281262141382,-686.03254120410531,626.68444386273438,2155.527457480016,1141.7037709543984,551.50161507368762,-551.50161507368762,-1141.7037709543984,4033.6600328792529,0.0
713523.2936376977,3697751.2368613081,-37500.0,2101.0858757195124,1044.1314212640552,-389.62956995194293,-1119.9597530756159,-428.87635088391795,476.37745792096598,1905.6918724549637,1213.3705384882696,191.77444745254331,-191.77444745254331,-1213.3705384882696,3518.8094743011193,0.0
563523.2936376977,3702751.2368613081,-37500.0,327.3665722301418,704.06689174005191,-1508.7913412738155,-150.32933618318026,642.85458642382912,-173.86535918585844,1279.8623792900853,760.98653439767691,-429.04548037376662,429.04548037376662,-760.98653439767691,2344.5856147659943,0.0
568523.2936376977,3702751.2368613081,-37500.0,528.95588596648588,603.70176805812844,-1613.2317889253497,-66.021946305726402,652.23179497670617,-156.57362922195924,1351.0301833432072,960.18455913881633,-612.30220359113389,612.30220359113389,-960.18455913881633,2443.982197567907,0.0
573523.2936376977,3702751.2368613081,-37500.0,748.9065612292128,462.87959559713914,-1699.4083691598241,40.256552096531927,642.29235905275527,-127.45042826278967,1428.0066334812689,1170.4282270532619,-820.65379315988048,820.65379315988048,-1170.4282270532619,2549.8828253836641,0.0
578523.2936376977,3702751.2368613081,-37500.0,981.32853634218657,275.83532145489471,-1755.5240402534739,170.27243456675731,605.76635729227712,-83.171745618244884,1513.6813416459486,1383.6268655853128,-1050.639976702214,1050.639976702214,-1383.6268655853128,2669.5008251224881,0.0
583523.2936376977,3702751.2368613081,-37500.0,1217.1842955101783,38.278354140587133,-1766.6918259436545,324.61230137200448,534.04716591922158,-20.00766038756591,1612.2423457930417,1588.0834015539406,-1295.2517774821952,1295.2517774821952,-1588.0834015539406,2814.0126814097139,0.0
588523.2936376977,3702751.2368613081,-37500.0,1443.9104126327413,-251.28895360377339,-1715.0047798274477,502.00726361544599,417.42863557193397,65.999044115196696,1729.2261706736385,1768.1061583135904,-1542.8798385153138,1542.8798385153138,-1768.1061583135904,2998.8151104955064,0.0
593523.2936376977,3702751.2368613081,-37500.0,1645.4327677571014,-589.90963326419649,-1580.1625074271378,698.550112166752,245.66183164522701,178.71717869002518,1871.2008825365133,1904.0770761746528,-1776.3988645004417,1776.3988645004417,-1904.0770761746528,3242.4735519090259,0.0
598523.2936376977,3702751.2368613081,-37500.0,1802.8451502673026,-968.30753574864923,-1340.9251725258609,906.90141588803215,8.9403318597942665,321.44525063617812,2044.9325272023761,1973.2843909297239,-1972.7052995933204,1972.7052995933204,-1973.2843909297239,3563.8694194423488,0.0
603523.2936376977,3702751.2368613081,-37500.0,1896.0304706663426,-1369.1388888739893,-977.64326276796794,1115.6599057744309,-300.60816323331113,496.25478180871846,2256.0427373135717,1951.8426759013612,-2103.1497485875293,2103.1497485875293,-1951.8426759013612,3977.8995520404637,0.0
608523.2936376977,3702751.2368613081,-37500.0,1906.4118739139644,-1765.8995997936779,-475.96994040077766,1309.158546651568,-686.93635294891192,703.19130544450456,2507.4020878925839,1817.9250419715293,-2135.372876277615,2135.372876277615,-1817.9250419715293,4491.045445562725,0.0
613523.2936376977,3702751.2368613081,-37500.0,1820.7638752773651,-2123.2172394105455,168.45666119226544,1468.0043523464831,-1147.7744337518279,939.42759587418038,2797.6661605961035,1556.2482672314079,-2036.9613122733251,2036.9613122733251,-1556.2482672314079,5098.2406376764084,0.0
618523.2936376977,3702751.2368613081,-37500.0,1635.5785994632063,-2399.2874810212488,945.0705340262316,1570.6549509214765,-1672.415412992656,1198.5404878056588,3120.3440195298513,1163.2629729577754,-1780.9915050194807,1780.9915050194807,-1163.2629729577754,5781.6569833946678,0.0
623523.2936376977,3702751.2368613081,-37500.0,1360.942693099495,-2550.9196434665969,1824.4602523097531,1596.1535691515508,-2240.2313297998821,1470.1507699702088,3463.6221069850617,651.88111424269061,-1352.8692931160299,1352.8692931160299,-651.88111424269061,6511.2791396760667,0.0
628523.2936376977,3702751.2368613081,-37500.0,1022.4663124672907,-2540.9318720793676,2757.1508112623014,1527.79874773234,-2820.6827006251842,1740.1808847787477,3810.9531106414274,54.073060486453983,-757.0236178810402,757.0236178810402,-54.073060486453983,7247.0338928214123,0.0
633523.2936376977,3702751.2368613081,-37500.0,659.85326954896743,-2346.5898255339316,3676.6086898424196,1357.0730693138808,-3375.4469993489174,1991.9142752933467,4142.219625203441,-580.33989638368212,-21.322353983271967,21.322353983271967,580.33989638368212,7942.4189161843924,0.0
638523.2936376977,3702751.2368613081,-37500.0,321.46389555079628,-1966.8132580637775,4507.0348352113124,1086.7712789557529,-3862.7922002519877,2207.8445580971238,4435.2459779656101,-1189.5775853083878,802.95212502894753,-802.95212502894753,1189.5775853083878,8549.4810002845461,0.0
643523.2936376977,3702751.2368613081,-37500.0,55.621808018442948,-1425.5945139361852,5174.892179849614,732.21181169378735,-4243.567570031455,2372.0442452153161,4667.8584175030828,-1709.8168179752402,1646.7419417432084,-1646.7419417432084,1709.8168179752402,9024.5946183961714,0.0
648523.2936376977,3702751.2368613081,-37500.0,-99.124596353378863,-769.90329310824279,5621.4597610182718,319.83788760557565,-4487.4561247121464,2472.5404576543497,4820.9312928046202,-2086.7762646200895,2433.7918386222486,-2433.7918386222486,2086.7762646200895,9334.0264162023996,0.0
653523.2936376977,3702751.2368613081,-37500.0,-121.8521925437566,-62.14917671346516,5812.9406089215281,-116.66870669063444,-4577.8446303407563,2503.1105104810254,4881.7823408344384,-2285.6674304741682,3093.5695889564267,-3093.5695889564267,2285.6674304741682,9458.1177691467255,0.0
658523.2936376977,3702751.2368613081,-37500.0,-12.82845104118679,630.77861937752232,5745.2731302910342,-541.78638204430308,-4514.0069463251393,2464.0418893949036,4846.316502524588,-2296.621263655612,3572.9337301894611,-3572.9337301894611,2296.621263655612,9393.1660299371324,0.0
663523.2936376977,3702751.2368613081,-37500.0,208.03052967527444,1248.7464770928036,5442.6294225621259,-923.61557504226664,-4310.1738377871488,2361.7188286772748,4719.1661725799122,-2134.3407629502926,3843.4564098910014,-3843.4564098910014,2134.3407629502926,9150.7267740033894,0.0
668523.2936376977,3702751.2368613081,-37500.0,506.83400234156557,1746.9498129142689,4950.6537048243172,-1238.063955038702,-3992.0221387458964,2207.2336079134511,4512.2312783128809,-1832.7331738068297,3902.9877167842769,-3902.9877167842769,1832.7331738068297,8754.7274876493175,0.0
673523.2936376977,3702751.2368613081,-37500.0,843.39335885389028,2100.1652537558575,4326.890297431778,-1470.9899007288764,-3591.7644492840914,2014.4528230337332,4242.3920561267332,-1436.6939114984134,3772.0136754783625,-3772.0136754783625,1436.6939114984134,8237.2678026258127,0.0
678523.2936376977,3702751.2368613081,-37500.0,1178.6290913009782,2302.6111682234305,3631.1027078731722,-1618.2511438109314,-3143.1420876759867,1798.0187505090885,3929.0595866495009,-993.5583841389614,3486.7147586341598,-3486.7147586341598,993.5583841389614,7634.1027640260136,0.0
683523.2936376977,3702751.2368613081,-37500.0,1480.0946019516791,2364.5369529944878,2917.5141728990084,-1684.150409326945,-2677.3222414446077,1571.6674302228125,3591.9783177032291,-546.16525013177238,3091.0131395492126,-3091.0131395492126,546.16525013177238,6980.6366467418811,0.0
688523.2936376977,3702751.2368613081,-37500.0,1724.966189485024,2307.1430656420862,2229.9264678999857,-1679.007817361429,-2220.1992670222121,1347.070268155162,3249.3413828141438,-128.48381065407352,2629.466254345788,-2629.466254345788,128.48381065407352,6308.9140209660973,0.0
693523.2936376977,3702751.2368613081,-37500.0,1900.6679571895045,2157.2966694262996,1599.7135559866992,-1616.5502329403485,-1791.142563288771,1133.2383635739691,2916.0549512658577,236.15428491721991,2142.0650632153665,-2142.0650632153665,-236.15428491721991,5645.7617901957465,0.0
698523.2936376977,3702751.2368613081,-37500.0,2003.7738433804082,1943.0392930739483,1046.0841582807484,-1511.6109045649587,-1402.9292503738448,936.40938975873337,2602.4547064627045,534.76164664637054,1661.218425739416,-1661.218425739416,-534.76164664637054,5011.9828003172988,0.0
703523.2936376977,3702751.2368613081,-37500.0,2037.9544400647537,1690.3543114130866,577.78552399544185,-1378.3953426099381,-1062.472776508429,760.27775750556577,2314.3790472472951,763.10092854069887,1210.6636684146661,-1210.6636684146661,-763.10092854069887,4422.3621120776997,0.0
708523.2936376977,3702751.2368613081,-37500.0,2011.6332362643541,1421.2463362121853,195.47898478987807,-1229.3726798175251,-771.96763762222372,606.4228890159128,2054.4395878863452,923.50415159018621,805.78662305702142,-805.78662305702142,-923.50415159018621,3886.212904825813,0.0
568523.2936376977,3707751.2368613081,-37500.0,631.38794478787565,399.28587653995578,-1456.0343039147592,34.162554307782209,531.55714958932106,-102.4540619126013,1213.3413512195898,994.82254743397539,-701.2068682827155,701.2068682827155,-994.82254743397539,2166.4407416681615,0.0
573523.2936376977,3707751.2368613081,-37500.0,822.56286945402667,248.4559289802996,-1501.9596695747257,135.63936609577527,505.09688800695261,-70.662111752653459,1283.7735964166732,1168.2883880318125,-886.8792484663287,886.8792484663287,-1168.2883880318125,2265.1022179870365,0.0
578523.2936376977,3707751.2368613081,-37500.0,1018.1587976480223,58.109358004260535,-1513.6344771260208,255.75793296975061,452.98667722726969,-25.607103570561211,1364.2697446294719,1336.3234599370403,-1084.610829209978,1084.610829209978,-1336.3234599370403,2383.019554289081,0.0
583523.2936376977,3707751.2368613081,-37500.0,1209.3968264450816,-173.4258579806106,-1477.9196705115824,393.98534108178393,368.29704563348059,35.490596820523479,1458.8695080110319,1487.8321189937203,-1286.3956680999524,1286.3956680999524,-1487.8321189937203,2531.3828803826746,0.0
588523.2936376977,3707751.2368613081,-37500.0,1384.9575172550069,-444.950679988736,-1379.8227851536244,548.11401933451475,243.59331444758638,115.43312832812326,1572.3883720651543,1608.8962446450482,-1480.4490514981562,1480.4490514981562,-1608.8962446450482,2723.7822300444009,0.0
593523.2936376977,3707751.2368613081,-37500.0,1531.2898770929264,-751.15643309256859,-1203.3237332900815,713.73135257833837,71.495441508417102,216.77252530662966,1709.9235057852784,1683.1787366327833,-1650.7966717080915,1650.7966717080915,-1683.1787366327833,2974.5000439264113,0.0
598523.2936376977,3707751.2368613081,-37500.0,1633.4698724965763,-1081.3857558818995,-932.85008566088175,883.75126013581678,-154.45787335835783,341.43025195216461,1876.0310216653043,1692.9608886021276,-1777.3468533829034,1777.3468533829034,-1692.9608886021276,3295.8130220228545,0.0
603523.2936376977,3707751.2368613081,-37500.0,1676.7478553233666,-1418.6743467085005,-555.50138351940416,1048.1446470623464,-438.62686206227141,490.21746882651291,2073.6889550047026,1620.9753976304453,-1836.7439393623565,1836.7439393623565,-1620.9753976304453,3695.0064075943892,0.0
608523.2936376977,3707751.2368613081,-37500.0,1648.8164307133795,-1739.4753289376843,-63.98016040885161,1194.0467645339436,-781.8312155555883,662.29474913865863,2303.2698447480566,1453.0783819922531,-1804.2886183719029,1804.2886183719029,-1453.0783819922531,4171.9938463508706,0.0
613523.2936376977,3707751.2368613081,-37500.0,1542.6237646876275,-2014.5333449370617,540.05807829785908,1306.4281670603177,-1179.8288126008547,854.65006514844185,2561.7639958898276,1181.572485993458,-1657.0775738436037,1657.0775738436037,-1181.572485993458,4718.0496483475354,0.0
618523.2936376977,3707751.2368613081,-37500.0,1359.2685314147759,-2211.3052286059328,1242.8433321675998,1369.461720877536,-1622.0216776179655,1061.7143596801013,2842.4254728486048,808.66524813562137,-1378.220505175113,1378.220505175113,-808.66524813562137,5315.6563219812861,0.0
623523.2936376977,3707751.2368613081,-37500.0,1110.2212079878391,-2298.0459234365408,2016.4255884582574,1368.5797046924158,-2090.8086702998316,1275.2618085006502,3134.9163590006501,349.20785339268554,-961.55371967808401,961.55371967808401,-349.20785339268554,5939.3100082603814,0.0
628523.2936376977,3707751.2368613081,-37500.0,817.96390844600148,-2249.1742789581886,2818.7337999666929,1292.9911244707785,-2562.0200444689976,1484.7316929081674,3425.9148130940539,-168.33563368947691,-415.79179173815737,415.79179173815737,168.33563368947691,6557.2313981945981,0.0
633523.2936376977,3707751.2368613081,-37500.0,514.30007149311825,-2050.9191862589728,3596.5438277368253,1138.1801832694491,-3006.7235413160106,1678.045062332385,3700.02354451468,-703.59053560505401,233.22949335667741,-233.22949335667741,703.59053560505401,7133.9970227707236,0.0
638523.2936376977,3707751.2368613081,-37500.0,236.13999607103247,-1705.7759881553109,4291.4671325488725,907.73708400402813,-3394.370364680165,1842.8742920563172,3940.7871010495469,-1208.9551168230596,943.4229301641094,-943.4229301641094,1208.9551168230596,7633.9809807411148,0.0
643523.2936376977,3707751.2368613081,-37500.0,19.405828015122498,-1234.2717319863884,4848.0885558293476,613.89634027981629,-3696.8135206801235,1968.17514337885,4131.95325773277,-1636.6368922955382,1660.933093946546,-1660.933093946546,1636.6368922955382,8025.2144452234024,0.0
648523.2936376977,3707751.2368613081,-37500.0,-107.5070507195183,-673.12982639149391,5222.4918277591305,276.43954137656556,-3892.3637215820108,2045.6788724052835,4259.4245102347077,-1946.4869855579009,2327.6278747477609,-2327.6278747477609,1946.4869855579009,8283.0352457068311,0.0
653523.2936376977,3707751.2368613081,-37500.0,-128.93861428073359,-69.986808259419703,5389.0437029576988,-79.918647477750255,-3968.9198968465194,2071.0094172776649,4313.6034715978058,-2112.618181647802,2889.9259534850253,-2889.9259534850253,2112.618181647802,8392.8217383260635,0.0
658523.2936376977,3707751.2368613081,-37500.0,-44.412776126158597,524.07429239162536,5343.7321684240351,-429.0747885351737,-3925.4297192767235,2044.175814411868,4290.9932555808064,-2127.0843614547689,3306.7682243781687,-3306.7682243781687,2127.0843614547689,8351.2850954750884,0.0
663523.2936376977,3707751.2368613081,-37500.0,132.20075457424039,1062.265014652115,5103.3896810910974,-747.16435964572383,-3771.404141434396,1969.3511036729574,4194.4222123047193,-1999.837953022231,3554.8270720076962,-3554.8270720076962,1999.837953022231,8166.1172839760748,0.0
668523.2936376977,3707751.2368613081,-37500.0,376.29765910318156,1508.2658189132408,4701.3628143695596,-1015.4627538457597,-3524.7614787141333,1854.0395795929589,4032.1479045308488,-1755.3459378237214,3629.998530695897,-3629.998530695897,1755.3459378237214,7854.2027789214053,0.0
673523.2936376977,3707751.2368613081,-37500.0,657.68047287066963,1839.6865606228885,4181.0689200102952,-1222.0508356839118,-3208.6663244920851,1707.8684639950663,3816.3609300531793,-1427.1242063654609,3545.3786724356951,-3545.3786724356951,1427.1242063654609,7438.8926686484538,0.0
678523.2936376977,3707751.2368613081,-37500.0,945.80528783310467,2048.5907753346169,3589.1332613881268,-1362.1348196886381,-2848.1433308872392,1541.2823892033941,3561.5210020328491,-1051.7499925163384,3326.7911755608839,-3326.7911755608839,1051.7499925163384,6946.9347247247524,0.0
683523.2936376977,3707751.2368613081,-37500.0,1214.009993590955,2139.6374308508371,2969.5135674231519,-1437.2503901526788,-2467.1263848574335,1364.3833839490203,3282.8058513325236,-663.67585268784615,3007.2885940262727,-3007.2885940262727,663.67585268784615,6405.6047946417721,0.0
688523.2936376977,3707751.2368613081,-37500.0,1442.1448404039929,2126.7951929909736,2359.4133912532157,-1453.76699405872,-2086.3360416628116,1186.0682835194116,2994.7236888540942,-291.61970040447613,2621.9007750610122,-2621.9007750610122,291.61970040447613,5840.4050205151643,0.0
693523.2936376977,3707751.2368613081,-37500.0,1617.5581286667079,2029.6081214168546,1787.1672476660001,-1421.1316205051066,-1722.096188577156,1013.5169408381754,2709.7410769858125,43.274339213469375,2203.4703632240521,-2203.4703632240521,-43.274339213469375,5273.4905309146034,0.0
698523.2936376977,3707751.2368613081,-37500.0,1734.7526592150944,1869.7673934053323,1271.8346801645464,-1350.2052569153047,-1385.9923860055596,852.00628911998456,2437.0791851675576,327.7348691062432,1779.9281893823711,-1779.9281893823711,-327.7348691062432,4722.8246579258412,0.0
703523.2936376977,3707751.2368613081,-37500.0,1794.1853133462287,1668.4242359208854,824.01180094770984,-1251.9086316457729,-1085.155195986933,704.9774193534729,2182.4593353386012,555.57138454465178,1372.9659291045486,-1372.9659291045486,-555.57138454465178,4201.9423115236996,0.0
573523.2936376977,3712751.2368613081,-37500.0,855.5154108773271,70.534693906008329,-1304.0953359697166,202.21135450644576,385.42363507275195,-27.48436697857673,1161.0492562537067,1130.4640901418297,-913.96093672690063,913.96093672690063,-1130.4640901418297,2029.7584181608847,0.0
578523.2936376977,3712751.2368613081,-37500.0,1016.8627866910523,-115.83581778917947,-1279.5588396497376,310.55088530048221,323.32135440010194,16.344958531074404,1237.9422052936698,1257.9729271800052,-1079.222598401253,1079.222598401253,-1257.9729271800052,2149.4573487348612,0.0
583523.2936376977,3712751.2368613081,-37500.0,1168.6640086516093,-334.68971366226765,-1207.7445543106428,431.87247869561043,231.90268328047128,73.560848982137145,1329.2950952990309,1364.2318988402108,-1240.5674936191454,1240.5674936191454,-1364.2318988402108,2302.4086850229132,0.0
588523.2936376977,3712751.2368613081,-37500.0,1301.1597895853417,-583.05591695677538,-1076.5386981834772,563.51995812791836,105.64159541191094,146.08917199764127,1438.9675955200196,1437.4073638602476,-1386.8155048772724,1386.8155048772724,-1437.4073638602476,2499.4471081045103,0.0
593523.2936376977,3712751.2368613081,-37500.0,1403.3283555996843,-854.38725692172022,-873.755669683772,701.06977258143252,-60.584841781663457,235.53956289299359,1570.5961595030844,1464.3793463602378,-1503.7650962538737,1503.7650962538737,-1464.3793463602378,2750.47812560088,0.0
598523.2936376977,3712751.2368613081,-37500.0,1463.7585428966227,-1137.8036753224414,-588.48668618540057,838.0860930954392,-270.7858289123397,342.91767170983911,1726.9209843882752,1431.7898484629084,-1574.5675432116366,1574.5675432116366,-1431.7898484629084,3062.4640100465476,0.0
603523.2936376977,3712751.2368613081,-37500.0,1471.9957394106582,-1417.6694852830194,-212.93593811291876,966.06660817053137,-526.96023205872314,468.28624066110689,1909.0745001523389,1327.6371901020539,-1580.7282732683052,1580.7282732683052,-1327.6371901020539,3437.6621747368386,0.0
608523.2936376977,3712751.2368613081,-37500.0,1420.3136174748424,-1673.7824744902443,255.36472319514269,1074.692198505056,-828.08768086062457,610.41009685791676,2115.9774765318443,1143.3669167601456,-1503.8722537819585,1503.8722537819585,-1143.3669167601456,3872.502334417577,0.0
613523.2936376977,3712751.2368613081,-37500.0,1305.7167132398622,-1882.4543005656947,811.24261248869789,1152.4821265694939,-1169.1544752965999,766.44441941932837,2343.9641472522435,876.24267940950722,-1328.283607503588,1328.283607503588,-876.24267940950722,4357.1753877149195,0.0
618523.2936376977,3712751.2368613081,-37500.0,1131.7998316284945,-2018.663440908276,1439.9441593490815,1187.9020077800421,-1540.4347906390456,931.74581119123582,2586.707837761865,531.57591933647223,-1044.010103830564,1044.010103830564,-531.57591933647223,4875.8361216627154,0.0
623523.2936376977,3712751.2368613081,-37500.0,909.94490989090741,-2059.2382912121584,2116.1814544761905,1170.8700129176473,-1927.2908656379632,1099.8931574756427,2835.4702856770768,124.2209784849552,-650.04538816820673,650.04538816820673,-124.2209784849552,5407.3571589256007,0.0
628523.2936376977,3712751.2368613081,-37500.0,659.30580808438071,-1986.6981903721796,2804.7780699319196,1094.469844591935,-2310.7351369390294,1262.9903164184723,3079.6381573270619,-321.30544893815755,-156.85014005296392,156.85014005296392,321.30544893815755,5926.6592853582661,0.0
633523.2936376977,3712751.2368613081,-37500.0,405.19933162499433,-1793.0266523727987,3463.2984122649177,956.54337670795655,-2668.8772146497236,1412.275129724349,3307.4101680923618,-772.54977675254952,412.62631474056877,-412.62631474056877,772.54977675254952,6406.6301798515269,0.0
638523.2936376977,3712751.2368613081,-37500.0,175.90062932928365,-1482.4323957736733,4046.5848684311882,760.76520274733764,-2979.1751390898239,1538.989107042036,3506.4681809933031,-1192.7468057864705,1024.0862501191339,-1024.0862501191339,1192.7468057864705,6820.5339690588062,0.0
643523.2936376977,3712751.2368613081,-37500.0,-1.6543791977287445,-1072.2107133096531,4512.5388904780975,516.84635319591598,-3221.1609640670281,1635.3815634540058,3664.7340600484781,-1545.8303769361153,1635.3694897504695,-1635.3694897504695,1545.8303769361153,7144.6387373971302,0.0
648523.2936376977,3712751.2368613081,-37500.0,-106.32236227537506,-591.22063281347698,4827.9849175504887,239.69514031851222,-3379.1148531552012,1695.662618605875,3771.6377215672601,-1801.8003108610096,2201.7993771893757,-2201.7993771893757,1801.8003108610096,7360.654112039042,0.0
653523.2936376977,3712751.2368613081,-37500.0,-126.26656566346213,-76.138654765544658,4973.3049513678434,-52.365894576341816,-3444.1226705691961,1716.7161540107902,3819.8022640562749,-1941.1989956641078,2682.3055448170076,-2682.3055448170076,1941.1989956641078,7457.5702164634104,0.0
658523.2936376977,3712751.2368613081,-37500.0,-60.658996380933523,433.70985478095764,4944.773590410884,-339.96939511925461,-3415.0602021947702,1698.4206173352127,3806.2630839582857,-1957.638733967025,3044.9478293944035,-3044.9478293944035,1957.638733967025,7432.5447112111324,0.0
663523.2936376977,3712751.2368613081,-37500.0,80.770350933503323,901.75063352343227,4754.1750385284286,-605.14734078617846,-3298.343639041444,1643.5303709650868,3732.7097101344166,-1857.888961293537,3270.6504804849028,-3270.6504804849028,1857.888961293537,7290.7341922483238,0.0
668523.2936376977,3712751.2368613081,-37500.0,280.06126590512309,1298.6247828261348,4425.998685991688,-833.35416144581518,-3106.5855840332465,1557.1680933698394,3604.9213072004645,-1659.7155419711626,3354.5018473715209,-3354.5018473715209,1659.7155419711626,7044.1700989026667,0.0
673523.2936376977,3712751.2368613081,-37500.0,514.49187763450766,1604.9283547984437,3993.0678452790307,-1014.7311436896806,-2856.5360482111428,1446.059793375829,3431.7653500905562,-1388.2123188842916,3304.6615864075111,-3304.6615864075111,1388.2123188842916,6709.9625422654053,0.0
678523.2936376977,3712751.2368613081,-37500.0,760.28958827074689,1811.9854227833061,3491.6754266959629,-1144.502205576257,-2566.7839970914461,1317.6773979847519,3224.0555018640248,-1071.6016643738431,3139.4786046325644,-3139.4786046325644,1071.6016643738431,6308.1992894028399,0.0
683523.2936376977,3712751.2368613081,-37500.0,995.81451595594206,1920.9108643540858,2957.1871768425126,-1222.6014109153271,-2255.6505887850417,1179.4421069433436,2993.4597256101074,-737.39598848276546,2883.7025235187771,-2883.7025235187771,737.39598848276546,5859.8956204572441,0.0
688523.2936376977,3712751.2368613081,-37500.0,1203.7515071039381,1940.5251028126681,2420.7358114321032,-1252.7671945345587,-1939.5632906586882,1038.0947132373458,2751.4994921793837,-409.51071821268079,2564.6476797530045,-2564.6476797530045,409.51071821268079,5385.2578321592773,0.0
693523.2936376977,3712751.2368613081,-37500.0,1372.1807576325632,1884.7600110134736,1907.2425748560365,-1241.377212462352,-1632.0318976496703,899.28219301290642,2508.5066765492138,-106.56091021440943,2208.9421166024272,-2208.9421166024272,106.56091021440943,4902.4026312681062,0.0
698523.2936376977,3712751.2368613081,-37500.0,1494.659727887984,1770.1036389927681,1434.6899173328629,-1196.2680269131695,-1343.2086308258647,767.36068519948458,2272.5582166824702,158.72319875927303,1840.1991184644608,-1840.1991184644608,-158.72319875927303,4426.5725818755591,0.0
583523.2936376977,3717751.2368613081,-37500.0,1107.1643779800088,-452.88744185239568,-961.63405624965912,446.83924428654308,121.88226803757067,98.306697161727783,1218.5054161953567,1230.1480095792954,-1170.162309575162,1170.162309575162,-1230.1480095792954,2114.1145873940245,0.0
588523.2936376977,3717751.2368613081,-37500.0,1204.3632223224388,-675.80274365574928,-808.50062290706785,557.81321453260341,-1.4132856834857048,162.97320360048059,1323.5516423674835,1265.6507664375363,-1275.2802180648937,1275.2802180648937,-1265.6507664375363,2311.6095035940434,0.0
593523.2936376977,3717751.2368613081,-37500.0,1272.0326655862505,-912.48792970423654,-591.56054059367989,670.76725717513034,-157.92793949252805,240.89422811401946,1447.9473204364754,1257.5821647254033,-1348.4972700142484,1348.4972700142484,-1257.5821647254033,2556.7784488156194,0.0
598523.2936376977,3717751.2368613081,-37500.0,1301.6885794128816,-1152.5573223313177,-303.57438602417068,780.08224235845989,-349.93512683517639,332.48915332010682,1593.0826637418049,1196.1867925024308,-1376.0685228661978,1376.0685228661978,-1196.1867925024308,2852.8074958187794,0.0
603523.2936376977,3717751.2368613081,-37500.0,1286.1774455780235,-1382.1461883391314,59.546860140426624,878.72861811471569,-577.91317215360277,437.40763746056325,1758.9070322082907,1073.4835652785428,-1343.686599842626,1343.686599842626,-1073.4835652785428,3198.9580941328923,0.0
608523.2936376977,3717751.2368613081,-37500.0,1221.010027957482,-1584.3314169801088,497.12339239706154,958.56108513073696,-839.8573591954397,554.30226342688866,1943.5976102689897,884.84052091437775,-1237.9928450519976,1237.9928450519976,-884.84052091437775,3590.0985492763493,0.0
613523.2936376977,3717751.2368613081,-37500.0,1105.7465063602217,-1740.2122569942342,1002.158347048517,1010.8945701365647,-1130.6749765371917,680.64876727684577,2143.4028494334539,630.61665435209011,-1048.5536606536118,1048.5536606536118,-630.61665435209011,4016.6429768999856,0.0
618523.2936376977,3717751.2368613081,-37500.0,945.15335601966274,-1830.7136458258424,1560.2059424558558,1027.3676243854616,-1441.8147470921697,812.66581334344698,2352.6929229775701,317.55279728031746,-770.09415066145516,770.09415066145516,-317.55279728031746,4464.8414081109649,0.0
623523.2936376977,3717751.2368613081,-37500.0,749.78605342586309,-1839.0086613545418,2149.0578990449626,1001.0281399333459,-1761.2924824503505,945.38467627626392,2564.2240357926289,-40.486285218546243,-404.61198149475189,404.61198149475189,40.486285218546243,4917.4189449183086,0.0
628523.2936376977,3717751.2368613081,-37500.0,535.67220557446626,-1753.2466932849079,2739.6031126533903,927.49458019256531,-2074.243838821013,1072.904621988954,2769.5827613875008,-422.80094090165744,37.130594661060286,-37.130594661060286,422.80094090165744,5354.5989565669261,0.0
633523.2936376977,3717751.2368613081,-37500.0,322.91172305724479,-1569.0770425820097,3298.0337813684541,805.97446769459089,-2364.0493960552349,1188.8391908515766,2959.6983644825846,-803.40926419968162,535.2524919935662,-535.2524919935662,803.40926419968162,5755.5124182270638,0.0
638523.2936376977,3717751.2368613081,-37500.0,133.264112281959,-1291.360409481541,3789.2594841666905,639.89500124846779,-2613.944255719221,1286.9128762414505,3125.2728557178875,-1153.8136656098247,1061.8964562599301,-1061.8964562599301,1153.8136656098247,6099.9031765620084,0.0
643523.2936376977,3717751.2368613081,-37500.0,-12.902831380569571,-934.54052758036016,4181.0429666824029,436.94486986623377,-2808.886631256627,1361.6267806077371,3257.2127882200461,-1446.5880750675215,1583.9087894615132,-1583.9087894615132,1446.5880750675215,6369.945297531659,0.0
648523.2936376977,3717751.2368613081,-37500.0,-99.686585937808758,-521.41685163375371,4448.0882179887694,208.44108208331807,-2937.350808191803,1408.8782296767238,3347.4679024456013,-1659.1015951063237,2066.6874773960535,-2066.6874773960535,1659.1015951063237,6551.9057820115167,0.0
653523.2936376977,3717751.2368613081,-37500.0,-118.05698935387085,-80.457165668467965,4575.2482313400724,-31.903753361157406,-2992.6991780057151,1426.4220091148698,3390.2818228307947,-1776.5902623823677,2478.4843043522415,-2478.4843043522415,1776.5902623823677,6637.3968277936065,0.0
658523.2936376977,3717751.2368613081,-37500.0,-67.053356888214651,357.83053726718862,4559.178952027044,-269.58976597293309,-2973.8560804109325,1414.083281111423,3383.146936871904,-1793.9162898882803,2794.2851036313969,-2794.2851036313969,1793.9162898882803,6623.9967477943628,0.0
663523.2936376977,3717751.2368613081,-37500.0,46.451359629213457,764.71094942931109,4408.1719455703078,-490.99947211279522,-2885.1857720912544,1373.6952298833749,3327.0332149456062,-1715.7022638559038,2998.5111187128841,-2998.5111187128841,1715.7022638559038,6515.1820098373037,0.0
668523.2936376977,3717751.2368613081,-37500.0,209.26974057176739,1116.4665063602786,4140.3116930925544,-684.81838573210246,-2735.6390295623132,1308.7834743323385,3226.0154051212571,-1554.9318867924057,3086.0964342173447,-3086.0964342173447,1554.9318867924057,6319.6020770613432,0.0
673523.2936376977,3717751.2368613081,-37500.0,404.25855319294982,1396.5339881841037,3780.4877952672032,-842.98370245520323,-2537.398307666509,1224.0765924636944,3086.5885238863461,-1330.4659883166501,3061.929121394925,-3061.929121394925,1330.4659883166501,6049.8833458759482,0.0
678523.2936376977,3717751.2368613081,-37500.0,612.94663397585191,1596.3172685889444,3356.9396377741687,-961.06807024123725,-2304.3094995718461,1124.9396258251402,2916.8737198459571,-1064.0874955985146,2938.9925629789286,-2938.9925629789286,1064.0874955985146,5721.1797754761465,0.0
683523.2936376977,3717751.2368613081,-37500.0,817.90963365077175,1714.7832133357051,2897.9872388252843,-1038.1375461081643,-2050.3819714305341,1016.8272940089287,2725.8482495363378,-777.6746169102737,2735.7586211015359,-2735.7586211015359,777.6746169102737,5349.7064120379982,0.0
688523.2936376977,3717751.2368613081,-37500.0,1004.537433916416,1757.1645996889663,2429.4145108204143,-1076.2134634881231,-1788.5631587260539,904.82951989368257,2522.6347975764093,-490.93799331733294,2473.4051257575065,-2473.4051257575065,490.93799331733294,4951.4392796355751,0.0
693523.2936376977,3717751.2368613081,-37500.0,1162.0485956762748,1733.1831984064602,1972.7342610868554,-1079.5084648771997,-1529.8948693236498,793.34939538733295,2315.7402154089782,-219.93879702010645,2173.3212822846831,-2173.3212822846831,219.93879702010645,4541.0981065604501,0.0
588523.2936376977,3722751.2368613081,-37500.0,1102.77695684675,-732.54396212776658,-576.08934715630676,538.21450962332619,-82.573028957786192,170.00611195303986,1222.0980439514647,1101.2648415068381,-1155.6528105546442,1155.6528105546442,-1101.2648415068381,2149.8831211818615,0.0
593523.2936376977,3722751.2368613081,-37500.0,1144.0625367298871,-936.46961627513747,-354.18261848544699,630.1368213608107,-227.26781804126554,237.24195129718944,1338.3162210312544,1068.1958311698495,-1194.0048644668832,1194.0048644668832,-1068.1958311698495,2384.4323897716176,0.0
598523.2936376977,3722751.2368613081,-37500.0,1151.6046670494891,-1137.6876987193398,-71.959866523011158,716.62092615804545,-400.35587298355347,314.84439848823166,1471.5903294216619,988.42376717572984,-1188.9974834491238,1188.9974834491238,-988.42376717572984,2660.4395796779672,0.0
603523.2936376977,3722751.2368613081,-37500.0,1120.7097326263179,-1324.2262501104149,272.07673690474627,791.95593970645552,-601.38636254008281,402.26183054835911,1621.1735830149973,856.93935084466568,-1129.7812634785348,1129.7812634785348,-856.93935084466568,2975.5590299838364,0.0
608523.2936376977,3722751.2368613081,-37500.0,1049.1070417756764,-1482.1453519329295,675.31700900611656,849.78346828022575,-827.91462715727721,498.18828466208652,1784.9431525823416,671.77122090848877,-1006.8637221978553,1006.8637221978553,-671.77122090848877,3324.1977643488344,0.0
613523.2936376977,3722751.2368613081,-37500.0,937.88417281322802,-1596.5190446178299,1130.0385181225831,883.57618210944656,-1075.1397947270361,600.46488687133785,1959.3570693900836,435.09441014729867,-813.60754350442221,813.60754350442221,-435.09441014729867,3697.5840993551997,0.0
618523.2936376977,3722751.2368613081,-37500.0,792.18014373224764,-1652.8919614182637,1622.7930557146119,887.29421709187079,-1335.7381800367457,706.05724818713009,2139.5530375076655,154.06489773306424,-547.81057132879778,547.81057132879778,-154.06489773306424,4084.0528644946535,0.0
623523.2936376977,3722751.2368613081,-37500.0,621.41175672967984,-1639.0960737550888,2134.4417075242832,856.16071342498833,-1599.9908634857959,811.13814713965223,2319.5924022809418,-158.87953973931246,-213.08930416478239,213.08930416478239,158.87953973931246,4469.5690656284005,0.0
628523.2936376977,3722751.2368613081,-37500.0,438.84547656981533,-1547.1810283248915,2641.0380390108194,787.44834452928899,-1856.2727356260214,911.29221915576352,2492.8186973309353,-486.47468931309095,180.2693790180895,-180.2693790180895,486.47468931309095,4838.5139041026832,0.0
633523.2936376977,3722751.2368613081,-37500.0,260.43457758799178,-1375.1044012521861,3115.6226772884916,681.13262321194657,-2091.9118720713427,1001.839309338287,2652.2354806072171,-807.94755725128675,615.30313026074327,-615.30313026074327,807.94755725128675,5174.7248457823598,0.0
638523.2936376977,3722751.2368613081,-37500.0,103.01031891173292,-1127.7913793291286,3530.7881134012036,540.26074966407327,-2294.3443832321927,1078.2464041334915,2790.7699932924033,-1101.1134866318332,1069.4068898189009,-1069.4068898189009,1101.1134866318332,5462.7179222767127,0.0
643523.2936376977,3722751.2368613081,-37500.0,-17.900845764286629,-817.24597648678912,3861.6584627636057,370.91942229464513,-2452.4074933689403,1136.5728195480408,2901.4906851302085,-1344.9601483124509,1516.3818504291373,-1516.3818504291373,1344.9601483124509,5688.9599198734395,0.0
648523.2936376977,3722751.2368613081,-37500.0,-90.224912980600493,-461.57744059062685,4088.7751172959711,181.76016821239051,-2557.5598844155384,1173.8794317198149,2978.1720841564697,-1522.2618698146871,1929.2291994118127,-1929.2291994118127,1522.2618698146871,5843.0230289562887,0.0
653523.2936376977,3722751.2368613081,-37500.0,-107.01240993196569,-83.051628827359551,4200.3447995218876,-16.863335861310873,-2604.8092116161793,1188.5309135628913,3016.2579544407936,-1621.7156425962767,2283.2097599490503,-2283.2097599490503,1621.7156425962767,5918.4482493702735,0.0
658523.2936376977,3722751.2368613081,-37500.0,-67.289805812502038,294.48830992271388,4193.4284783115754,-214.00227453332687,-2593.1822703434118,1180.3405017078744,3013.6299541598878,-1639.1823615782541,2558.6058656976102,-2558.6058656976102,1639.1823615782541,5913.1923944738319,0.0
663523.2936376977,3722751.2368613081,-37500.0,24.057219730135643,648.34559836786218,4073.8820979283892,-399.26763304054185,-2525.6665873358156,1150.5361176240713,2970.8028370610268,-1577.8255798070031,2742.6890154873245,-2742.6890154873245,1577.8255798070031,5829.6028244059316,0.0
668523.2936376977,3722751.2368613081,-37500.0,157.28656626794583,959.34330340680606,3855.1359969058308,-563.83559589208653,-2408.6636125072691,1101.5628465409461,2890.6689843938102,-1447.196086975348,2830.5934702353893,-2830.5934702353893,1447.196086975348,5673.9482067949748,0.0
673523.2936376977,3722751.2368613081,-37500.0,319.41727650393176,1213.477452113643,3556.1347556367054,-701.15538210752766,-2251.0874444348397,1036.7662793720044,2778.0181841912095,-1261.5338963451081,2825.0588256270898,-2825.0588256270898,1261.5338963451081,5455.6114976081381,0.0
678523.2936376977,3722751.2368613081,-37500.0,496.09630616936073,1402.6736544968041,3198.8720986316375,-807.28697772591067,-2063.287257186832,960.01512680399503,2638.9764824080512,-1037.6787004618077,2735.2304017438923,-2735.2304017438923,1037.6787004618077,5186.0803070975107,0.0
683523.2936376977,3722751.2368613081,-37500.0,673.36140102383422,1524.6804591239188,2805.9690228587388,-880.87904357069488,-1855.9803319697064,875.32586719531184,2480.4606533765677,-792.99254904352983,2574.8656772717604,-2574.8656772717604,792.99254904352983,4877.8968939381366,0.0
688523.2936376977,3722751.2368613081,-37500.0,839.03718213415254,1582.2821545081079,2398.6292372390262,-922.85729043161189,-1639.3361662507748,786.53627960200981,2309.6764893177915,-543.60792573638344,2360.3226351383646,-2360.3226351383646,543.60792573638344,4543.6857391828989,0.0
598523.2936376977,3727751.2368613081,-37500.0,1015.464893434523,-1102.5662718607782,113.20665778427916,652.19937488383937,-429.01472116353557,293.25900624127121,1360.5274642345996,808.23281967530863,-1017.2674891010751,1017.2674891010751,-808.23281967530863,2481.7826609106396,0.0
603523.2936376977,3727751.2368613081,-37500.0,975.24827291154827,-1252.8354681754793,434.4113289709839,709.19849937841457,-605.13760966870359,365.90422823620946,1494.5627443201042,674.75433159749434,-940.2973839397024,940.2973839397024,-674.75433159749434,2765.9539474122735,0.0
608523.2936376977,3727751.2368613081,-37500.0,901.91780989529093,-1374.8391094176848,802.32044374564202,750.35365375284289,-800.2885491662023,444.55845368384752,1639.135029729322,497.9246927415295,-808.60830687180419,808.60830687180419,-497.9246927415295,3074.8284931080516,0.0
613523.2936376977,3727751.2368613081,-37500.0,797.40391498769395,-1456.8756757421477,1209.1666618765935,770.78041225631557,-1010.132860240549,527.41746642665896,1791.0451599407379,280.88444306880342,-618.23803587243754,618.23803587243754,-280.88444306880342,3400.6593956597708,0.0
618523.2936376977,3727751.2368613081,-37500.0,666.7588874840128,-1488.0374419684586,1642.814874540137,766.12682442524761,-1228.5024643843919,612.06836171769953,1946.1683051404568,30.621025301536974,-368.94216154461247,368.94216154461247,-30.621025301536974,3733.675065266606,0.0
623523.2936376977,3727751.2368613081,-37500.0,518.18563375335054,-1459.560412892072,2086.9712032009816,733.12444909173666,-1447.5587333825092,695.5686170408618,2099.6660836436363,-241.97800373230154,-65.085662870145256,65.085662870145256,241.97800373230154,4062.5016986100109,0.0
628523.2936376977,3727751.2368613081,-37500.0,362.59505664323501,-1366.1884034754944,2522.0007546434472,670.1216923274776,-1658.2032125309836,774.60564482838652,2246.2734520486956,-522.61997404837393,283.89825726302388,-283.89825726302388,522.61997404837393,4374.7688936296427,0.0
633523.2936376977,3727751.2368613081,-37500.0,212.66535233675191,-1207.3071038037911,2926.3611449490304,577.50400925487168,-1850.7274850002075,845.72988834491616,2380.5749306222979,-794.68925310346049,663.67225509643163,-663.67225509643163,794.68925310346049,4657.8805948395302,0.0
638523.2936376977,3727751.2368613081,-37500.0,81.486798931208881,-987.59716322445183,3278.5305115093856,457.90753420120268,-2015.6451840563489,905.64068236848334,2497.1507609585915,-1040.8329167492511,1055.8811421537807,-1055.8811421537807,1040.8329167492511,4899.9001067951021,0.0
643523.2936376977,3727751.2368613081,-37500.0,-19.011929029391435,-717.012753566127,3559.1716849261911,316.15780331256218,-2144.596351995554,951.48744453338702,2590.6524463731739,-1244.8350648262647,1439.7165287649148,-1439.7165287649148,1244.8350648262647,5090.452998361061,0.0
648523.2936376977,3727751.2368613081,-37500.0,-79.582003528322133,-410.01534520599608,3753.1906025786634,158.91439371811768,-2231.1876955012726,981.14275154579434,2656.1913391815037,-1393.4722243445876,1793.9613652955559,-1793.9613652955559,1393.4722243445876,5221.5381616395343,0.0
653523.2936376977,3727751.2368613081,-37500.0,-94.830904195788861,-84.146914302383863,3851.3337987651425,-5.9395657520577094,-2271.6302091255425,993.40411136751993,2690.1141461216375,-1478.018292495778,2099.1921992160937,-2099.1921992160937,1478.018292495778,5288.1354058845573,0.0
658523.2936376977,3727751.2368613081,-37500.0,-63.834607442984101,241.82582796751524,3851.049556026891,-170.06897463772731,-2265.0690831245643,988.09258057138379,2690.6304826062155,-1495.1295074581303,2339.7667046351753,-2339.7667046351753,1495.1295074581303,5288.5271246718548,0.0
663523.2936376977,3727751.2368613081,-37500.0,9.9137424456706462,549.87803733292651,3756.4861105604873,-325.4952830830548,-2213.5607076514962,966.03558298280961,2657.9717691578012,-1446.9723611694669,2505.2699189084315,-2505.2699189084315,1446.9723611694669,5224.2976504304534,0.0
668523.2936376977,3727751.2368613081,-37500.0,119.17278091342507,824.47464343577906,3577.6733966036386,-465.31364653216019,-2121.7169784656926,928.94123990294531,2594.2041946297495,-1340.617695985823,2591.2118966947664,-2591.2118966947664,1340.617695985823,5100.0236513180707,0.0
673523.2936376977,3727751.2368613081,-37500.0,254.07169309263568,1053.8448034606902,3329.0913359135316,-584.22032494814005,-1996.1002969554731,879.19175924517231,2502.8837719660301,-1186.8696152729808,2598.9378487534923,-2598.9378487534923,1186.8696152729808,4922.7248936344558,0.0
678523.2936376977,3727751.2368613081,-37500.0,403.44251791010879,1230.6452192808986,3027.9029707503601,-678.79545873343238,-1844.4780401888315,819.59028107532799,2388.6536594369063,-998.77949123588792,2534.8545420627015,-2534.8545420627015,998.77949123588792,4701.1550491522285,0.0
608523.2936376977,3732751.2368613081,-37500.0,776.46665745912605,-1267.5111760599805,888.68415973802405,660.94120074933676,-762.85145879884601,394.7598272653774,1505.3974065002481,357.25916220709075,-640.28335377770816,640.28335377770816,-357.25916220709075,2842.0481453611546,0.0
613523.2936376977,3732751.2368613081,-37500.0,679.98854941128275,-1324.5538443967262,1251.1245593742253,671.84012436865407,-940.89005332876798,461.99760050739428,1637.5803589615043,160.3105806136949,-457.08703617533774,457.08703617533774,-160.3105806136949,3125.9362232870253,0.0
618523.2936376977,3732751.2368613081,-37500.0,563.77478994346291,-1337.3100226179265,1632.0076161411755,661.89089023957104,-1124.0979288884287,530.05636120531801,1771.2179566212071,-61.361537593552441,-226.10854639151574,226.10854639151574,61.361537593552441,3412.9985113609491,0.0
623523.2936376977,3732751.2368613081,-37500.0,434.86285086345185,-1299.4950633307296,2017.5700915773873,628.8696168647275,-1306.1709693365683,596.67377431650675,1902.3817131725198,-298.37546792033726,48.070195227802728,-48.070195227802728,298.37546792033726,3694.0203994975132,0.0
628523.2936376977,3732751.2368613081,-37500.0,302.19565998591594,-1207.7078031597098,2391.7321471734026,571.82034975703743,-1479.9741325977482,659.35559144071419,2026.9043346361673,-538.94816389878531,357.0156489582306,-357.0156489582306,538.94816389878531,3959.1675248075994,0.0
633523.2936376977,3732751.2368613081,-37500.0,175.87217824090641,-1062.193179433707,2737.2317782001592,491.32613112001559,-1638.0315191043665,715.54399730251373,2140.5809095676664,-769.76764252273824,688.67678208220309,-688.67678208220309,769.76764252273824,4198.562135233964,0.0
638523.2936376977,3732751.2368613081,-37500.0,66.130555702835821,-867.2405883461272,3037.0762367624916,389.63028918002931,-1773.128010090101,762.81672996266616,2239.229120041156,-977.1916375407751,1028.1235135711456,-1028.1235135711456,977.1916375407751,4402.9281059544001,0.0
643523.2936376977,3732751.2368613081,-37500.0,-17.79546382659613,-631.10043666062415,3276.1268193092214,270.56815180373508,-1878.9483637821063,799.09311946031767,2318.6690650941578,-1148.6171430807708,1358.7427144147809,-1358.7427144147809,1148.6171430807708,4564.2402408905573,0.0
648523.2936376977,3732751.2368613081,-37500.0,-68.761525915975866,-365.38311379686201,3442.582733537407,139.30060276955498,-1950.6627420914363,822.81850456615996,2375.0023810546236,-1273.8109830319645,1663.7468995506524,-1663.7468995506524,1273.8109830319645,4676.3011954711192,0.0
653523.2936376977,3732751.2368613081,-37500.0,-82.550499916618676,-84.004974014057893,3529.1293469302718,1.8778585733548638,-1985.3703566156935,833.10051221049332,2405.2640227657666,-1345.9825596110529,1927.7760446153586,-1927.7760446153586,1345.9825596110529,4735.1744666596733,0.0
658523.2936376977,3732751.2368613081,-37500.0,-58.317067587699086,198.16240960900947,3533.5681712844303,-135.30520402465302,-1982.3340649654065,829.77723718677146,2407.9411049355012,-1362.4217508469653,2138.3439087674751,-2138.3439087674751,1362.4217508469653,4739.4188241994334,0.0
663523.2936376977,3732751.2368613081,-37500.0,1.4281069875025996,466.72586740545484,3458.8428036784949,-266.08078816958823,-1942.9751009997422,813.40893063756573,2383.0929848690998,-1324.6100121238514,2286.9092159275929,-2286.9092159275929,1324.6100121238514,4690.0988904799415,0.0
668523.2936376977,3732751.2368613081,-37500.0,91.269321105610629,709.06787712576966,3312.4854559133109,-385.02443839350531,-1870.6397277692897,785.19746566385982,2332.2056922909806,-1237.8154312058,2369.4295181713219,-2369.4295181713219,1237.8154312058,4590.5794092063397,0.0
628523.2936376977,3737751.2368613081,-37500.0,254.05788723642283,-1069.1778207376622,2256.7447087784722,489.3782035403998,-1320.6807439164565,562.32505109789463,1831.8087302486213,-541.20491980793065,406.71086792445874,-406.71086792445874,541.20491980793065,3587.3263247636592,0.0
633523.2936376977,3737751.2368613081,-37500.0,147.3141496428407,-936.63909233714571,2552.8361921408582,419.49161990534844,-1451.062615957356,606.96782849025271,1928.4821151604774,-737.56504712627782,696.63695367627827,-696.63695367627827,737.56504712627782,3790.6011286761559,0.0
638523.2936376977,3737751.2368613081,-37500.0,55.137745628036697,-763.71179471531423,2809.0836815490275,332.83641698604384,-1562.3225943117486,644.4991050456382,2012.418868050137,-913.01728882388818,991.10313407076603,-991.10313407076603,913.01728882388818,3963.9826857672433,0.0
643523.2936376977,3737751.2368613081,-37500.0,-15.271651380321657,-557.23912191419629,3013.5540400455047,232.4707691498063,-1649.6505808172692,673.38692211160537,2080.306482580695,-1057.6992373560893,1276.77616626586,-1276.77616626586,1057.6992373560893,4101.2101054136156,0.0
648523.2936376977,3737751.2368613081,-37500.0,-58.35139947582217,-326.59189218709042,3156.9525537977702,122.42054907800312,-1709.3661289728511,692.48489544342897,2128.9870990720947,-1163.6310998316512,1540.2863163063803,-1540.2863163063803,1163.6310998316512,4197.4411966893931,0.0
633523.2936376977,3517751.2368613081,-42500.0,36.917202934747962,561.14801283992563,3040.2435865522807,343.52117196533197,1899.0473954963065,869.72748143281569,2239.3778776302106,-640.70699080072598,2340.5809468788434,-2340.5809468788434,640.70699080072598,4396.608458718596,0.0
638523.2936376977,3517751.2368613081,-42500.0,-37.113393063220542,322.08976173059511,3150.0043749427518,214.31772804944518,1953.7413897317065,889.89596047702003,2275.9486744468836,-789.11978141347515,2286.1666442163501,-2286.1666442163501,789.11978141347515,4467.9879129503934,0.0
643523.2936376977,3517751.2368613081,-42500.0,-79.71483198847848,62.817757058153504,3190.7268580555824,75.379123533929445,1972.7425576397493,895.62579012097171,2286.7112278331351,-901.35002218390196,2168.2939045155308,-2168.2939045155308,901.35002218390196,4490.1344511432608,0.0
648523.2936376977,3517751.2368613081,-42500.0,-86.716124679742776,-204.02833811101965,3156.8748730240291,-67.219853330568,1953.4569103613155,885.97958698069408,2270.6789580089644,-969.72210290358794,1990.1001329677999,-1990.1001329677999,969.72210290358794,4460.7636532591814,0.0
653523.2936376977,3517751.2368613081,-42500.0,-56.933305116790628,-464.55128525488357,3047.3775198272265,-206.83622140685446,1895.4129826325675,860.83071950538715,2228.3227405749803,-989.60049767115515,1758.9705627626104,-1758.9705627626104,989.60049767115515,4379.9029884149513,0.0
658523.2936376977,3517751.2368613081,-42500.0,7.5394146500223256,-704.88026071883939,2865.9694777593886,-336.83615265522479,1800.4158246799429,820.91703439292917,2161.7562315365885,-959.99940957840818,1486.0423131012317,-1486.0423131012317,959.99940957840818,4250.0186222399507,0.0
663523.2936376977,3517751.2368613081,-42500.0,101.47122725127495,-912.51672435284536,2620.981397700883,-451.19995622047782,1672.4538065089162,767.80395964417255,2074.6948570479376,-883.74943051558944,1185.2299983694786,-1185.2299983694786,883.74943051558944,4075.9303767311003,0.0
668523.2936376977,3517751.2368613081,-42500.0,217.06422824727747,-1077.5333235714763,2324.5875452362147,-545.06491857645369,1517.360371093104,703.75789862353588,1971.8451631336357,-767.17781271322247,871.90486737446281,-871.90486737446281,767.17781271322247,3864.5149729025684,0.0
673523.2936376977,3517751.2368613081,-42500.0,344.86019554968868,-1193.4378351331945,1991.6202902026519,-615.1243375129784,1342.277640331745,631.54673878945584,1857.8498272710626,-619.35250037833998,561.42975287874674,-561.42975287874674,619.35250037833998,3624.2305757668328,0.0
678523.2936376977,3517751.2368613081,-42500.0,474.82730264522178,-1257.5803745796893,1638.1401976188013,-659.82864140415586,1155.0039985179772,554.19718420794243,1736.8258837719361,-451.02420206525284,267.77616971958429,-267.77616971958429,451.02420206525284,3364.5228304218608,0.0
683523.2936376977,3517751.2368613081,-42500.0,597.44208433210849,-1271.0722180771379,1279.9821221877169,-679.37207242831016,963.32202975929283,474.7434759770897,1612.6312507563905,-273.44948107066716,2.421003725865404,-2.421003725865404,273.44948107066716,3095.1806979088574,0.0
618523.2936376977,3522751.2368613081,-42500.0,458.31673559589063,1207.8413482856388,2508.6375358561845,741.67008363871287,1737.6757246571162,858.41893792015514,2196.5525567026216,10.313800973826119,2291.1874676453954,-2291.1874676453954,-10.313800973826119,4316.1297208954047,0.0
623523.2936376977,3522751.2368613081,-42500.0,313.21659501451836,1073.7731832380803,2804.9997177323362,658.94847053349986,1898.3394487751655,924.71252201546304,2313.9144142255286,-214.11304518332031,2437.0769356024675,-2437.0769356024675,214.11304518332031,4542.2328171060872,0.0
628523.2936376977,3522751.2368613081,-42500.0,175.6966839427169,888.57596049892015,3063.9238313210449,550.15363378072868,2037.0377796379444,981.12430201246116,2412.450470079918,-436.42949508164406,2526.4008574732179,-2526.4008574732179,436.42949508164406,4731.7638691167149,0.0
633523.2936376977,3522751.2368613081,-42500.0,56.482838395748189,656.46811220833104,3269.0054991850602,417.67519432585647,2145.5354370417949,1024.3914649331089,2487.2404586291418,-643.35699858097678,2548.8123933117768,-2548.8123933117768,643.35699858097678,4875.8482692549487,0.0
638523.2936376977,3522751.2368613081,-42500.0,-34.1442610807837,385.87555180082074,3405.1988578285877,265.90414692314482,2216.3579778964267,1051.5878968695445,2534.1457139562253,-821.24631247749608,2497.4642431723787,-2497.4642431723787,821.24631247749608,4966.8131544293665,0.0
643523.2936376977,3522751.2368613081,-42500.0,-87.61264686693923,89.193598828787387,3460.4706533707795,101.1023780907679,2243.5791232495408,1060.4261677918187,2550.1829413355754,-957.49036487417675,2370.1918872994293,-2370.1918872994293,957.49036487417675,4998.9023087773858,0.0
648523.2936376977,3522751.2368613081,-42500.0,-98.272681791003009,-218.03030566400045,3427.3393497911193,-68.990673554783172,2223.5471084444698,1049.5329990284945,2533.898835874822,-1042.0110681527453,2170.2630696860319,-2170.2630696860319,1042.0110681527453,4968.9089921263712,0.0
653523.2936376977,3522751.2368613081,-42500.0,-64.330805891075798,-518.45014578698044,3304.0265306191441,-235.79287706576824,2155.4261873679998,1018.6522567977636,2485.7058628935124,-1068.5715209513896,1906.4973028023264,-1906.4973028023264,1068.5715209513896,4876.6343073034068,0.0
658523.2936376977,3522751.2368613081,-42500.0,11.703901835113021,-794.64822457158982,3094.9789174718899,-390.68251300146846,2041.4430226563236,968.7347378717659,2408.1188010624219,-1035.6614348717521,1592.6562869966192,-1592.6562869966192,1035.6614348717521,4725.089237445738,0.0
663523.2936376977,3522751.2368613081,-42500.0,123.18619338236957,-1030.970958933842,2810.618322625658,-525.85199449788479,1886.772749379486,901.89091697766196,2305.7082375609207,-946.76437588522469,1246.1476370176113,-1246.1476370176113,946.76437588522469,4520.3932285483097,0.0
668523.2936376977,3522751.2368613081,-42500.0,260.11485823367133,-1215.1640874872171,2466.3238678184593,-635.07428786884338,1699.0656289190119,821.20730657783008,2184.3959612391482,-809.93337480935122,886.23116344670041,-886.23116344670041,809.93337480935122,4271.3694619909902,0.0
673523.2936376977,3522751.2368613081,-42500.0,410.39245208083474,-1339.5281220452748,2080.8053163467489,-714.25669102933364,1487.6840624747417,730.4524092749748,2050.1839946546493,-636.74621511368991,532.02495133328125,-532.02495133328125,636.74621511368991,3988.8834883944246,0.0
678523.2936376977,3522751.2368613081,-42500.0,561.32806290281383,-1401.416957732788,1674.1480484000972,-761.70019590147649,1262.7763772155756,633.71934186641283,1908.4557291659012,-440.84107340677673,200.64560817397313,-200.64560817397313,440.84107340677673,3685.0146438676411,0.0
683523.2936376977,3522751.2368613081,-42500.0,701.10626896984502,-1403.0441139909142,1265.8588406967783,-778.04395874222803,1034.3373692592127,535.0612128156738,1764.1600958078438,-236.30825318319052,-94.229061494553363,94.229061494553363,236.30825318319052,3372.1666244995549,0.0
688523.2936376977,3522751.2368613081,-42500.0,819.97847977092317,-1350.7014954276037,873.20844021708092,-765.93642607711547,811.39311390541445,438.17117585206194,1621.9508197074285,-36.214652437995937,-343.1992037070267,343.1992037070267,36.214652437995937,3062.2164530297932,0.0
693523.2936376977,3522751.2368613081,-42500.0,911.01936712351858,-1253.5942586874924,510.07459442570138,-729.51986018577031,601.40888739295565,346.14544587945778,1485.9872556144992,148.52488590551258,-541.34393859788997,541.34393859788997,-148.52488590551258,2765.7778899730984,0.0
698523.2936376977,3522751.2368613081,-42500.0,970.40139127988357,-1122.5314633542866,186.36204796469147,-673.8336859113042,409.96238711506686,261.34652989372142,1359.6448248532174,309.81845634850856,-687.86956259853366,687.86956259853366,-309.81845634850856,2491.6145818405503,0.0
613523.2936376977,3527751.2368613081,-42500.0,723.38286703511733,1438.8796082606777,2235.4474658157296,931.86960515485043,1707.9901047046869,902.59008664757584,2255.7774664812414,371.75194959797386,2194.2064443975087,-2194.2064443975087,-371.75194959797386,4428.9320093417382,0.0
618523.2936376977,3527751.2368613081,-42500.0,560.74909112809542,1362.6907819245973,2602.0130929267057,875.02961245849258,1919.0144865131235,994.59732075140801,2411.7413061239936,130.70127204442542,2425.5068868249946,-2425.5068868249946,-130.70127204442542,4731.2834417120175,0.0
623523.2936376977,3527751.2368613081,-42500.0,391.71934999164552,1225.3711916530199,2949.199364810851,785.27135516417547,2116.08909464712,1079.3687852789972,2553.5078705884789,-126.4421520249125,2609.0316640285673,-2609.0316640285673,126.4421520249125,5004.2953779007194,0.0
628523.2936376977,3527751.2368613081,-42500.0,228.54133298172385,1025.9615678399202,3257.1543187997136,662.56615321388938,2288.651001961678,1152.4839544532897,2674.2211465209921,-385.71614282932433,2728.7333280566108,-2728.7333280566108,385.71614282932433,5236.0715549585257,0.0
633523.2936376977,3527751.2368613081,-42500.0,84.694540996605483,768.46018713689546,3505.3120883311999,509.37401067073057,2425.9190645949598,1209.492606780017,2767.465662499369,-630.79747771211169,2770.8169788271034,-2770.8169788271034,630.79747771211169,5415.1195594073733,0.0
638523.2936376977,3527751.2368613081,-42500.0,-26.556491825451179,462.35304121377021,3674.3721710807172,330.86740955441491,2517.890221783261,1246.3183183757519,2827.7340238249694,-844.43980098754764,2725.6365036573297,-2725.6365036573297,844.43980098754764,5531.302615128754,0.0
643523.2936376977,3527751.2368613081,-42500.0,-93.877555120656268,122.45619391059645,3748.5338519176362,134.82702244983869,2556.4476607788533,1259.700654618264,2850.9430352701593,-1010.3440769320945,2589.3968267893702,-2589.3968267893702,1010.3440769320945,5576.8351688509674,0.0
648523.2936376977,3527751.2368613081,-42500.0,-109.57324982257983,-232.06019979998399,3717.6465038683145,-68.847759930577681,2536.4180374378693,1247.6119981065499,2834.9546337118686,-1115.2054028294997,2365.3087746624878,-2365.3087746624878,1115.2054028294997,5547.192252212154,0.0
653523.2936376977,3527751.2368613081,-42500.0,-70.947364800275551,-579.43788740067691,3578.8722191696688,-268.99762439571771,2456.3860645742639,1209.5751522546971,2780.036671777284,-1150.5770608553219,2063.8841508994924,-2063.8841508994924,1150.5770608553219,5441.7888794325017,0.0
658523.2936376977,3527751.2368613081,-42500.0,19.007420531488286,-897.6686215318972,3337.4890633000773,-454.32973061353317,2319.0905795055669,1146.8140885656658,2689.1781005006756,-1114.1686316493178,1702.1971686877791,-1702.1971686877791,1114.1686316493178,5264.3023556642775,0.0
663523.2936376977,3527751.2368613081,-42500.0,151.79690440332462,-1167.0216142314587,3006.602412865162,-614.63548522467363,2131.2912273045067,1062.1958108109593,2568.0493460777802,-1010.2751316115402,1302.1507035561215,-1302.1507035561215,1010.2751316115402,5022.5575573725264,0.0
668523.2936376977,3527751.2368613081,-42500.0,314.50323096463853,-1372.2966338463364,2605.7561717371109,-741.8857542245488,1903.0989782684655,959.9609823997331,2424.1884152178736,-849.21174043361748,888.01769342945931,-888.01769342945931,849.21174043361748,4727.9682222269093,0.0
673523.2936376977,3527751.2368613081,-42500.0,491.55350551155556,-1504.3822762937398,2158.6805125955261,-831.00748856707196,1646.8793150639506,845.28546326846947,2265.4386366063627,-645.8558500317082,483.70243289245934,-483.70243289245934,645.8558500317082,4394.6075511520294,0.0
678523.2936376977,3527751.2368613081,-42500.0,666.8174406144318,-1560.8587058732851,1690.5960918060382,-880.21681708228493,1375.9233769791597,723.74776881317814,2098.8902703832664,-417.60080686259676,110.22084941710952,-110.22084941710952,417.60080686259676,4038.0391016639755,0.0
683523.2936376977,3527751.2368613081,-42500.0,825.61538758036681,-1545.6092666934328,1225.5702629947714,-890.88389587497352,1103.1222657968358,600.79400978823082,1930.9149553365462,-182.14028926619622,-216.17633562842363,216.17633562842363,182.14028926619622,3674.072607335032,0.0
688523.2936376977,3527751.2368613081,-42500.0,956.27899315557659,-1467.6221081529795,784.35468812483919,-867.00518423419908,839.85334266288078,481.28230257450281,1767.3016621242621,44.505687830013329,-484.99821957206075,484.99821957206075,-44.505687830013329,3317.5917747417911,0.0
693523.2936376977,3527751.2368613081,-42500.0,1051.0536863524683,-1339.3049693764278,382.97686415451403,-814.42613989979282,595.21724910136356,369.16271197638059,1613.0246048599399,249.42327016877482,-691.60202797734189,691.60202797734189,-249.42327016877482,2981.5566944091211,0.0
698523.2936376977,3527751.2368613081,-42500.0,1106.3075048512358,-1174.6752590599722,32.160834557821921,-739.98051644336761,375.67412704458962,267.31433376549433,1471.8991097934879,423.56210347174283,-836.53577281176013,836.53577281176013,-423.56210347174283,2676.2270877847104,0.0
703523.2936376977,3527751.2368613081,-42500.0,1122.1571381079257,-987.73210601327776,-262.51885145421801,-650.69165382747042,185.04447067693491,177.52888522251982,1346.3442171163267,561.84556485608641,-924.40184293064704,924.40184293064704,-561.84556485608641,2408.6123524970876,0.0
708523.2936376977,3527751.2368613081,-42500.0,1101.7072583155941,-791.20793805833455,-499.95169153590251,-553.13519328929408,24.787069810824015,100.60860450683376,1237.3218221848836,662.77595372457415,-962.5275227619087,962.5275227619087,-662.77595372457415,2182.1640896446283,0.0
603523.2936376977,3532751.2368613081,-42500.0,1162.172092272737,1543.1413413909161,1438.5478992721416,1091.0835527338436,1351.6251075497451,799.87093645741231,2078.3066509231526,975.53198397100994,1635.0269937724061,-1635.0269937724061,-975.53198397100994,4062.4738569324654,0.0
608523.2936376977,3532751.2368613081,-42500.0,1032.8913096952847,1597.4917765508558,1833.8120112255369,1105.4314480171638,1600.3271507696229,916.64373356524322,2269.3627380645489,787.95527836294013,1957.1398432226651,-1957.1398432226651,-787.95527836294013,4444.4470426624666,0.0
613523.2936376977,3532751.2368613081,-42500.0,872.30840990901038,1597.6793230320748,2250.4174385499432,1087.7069877705524,1857.1653040929916,1035.4186305757819,2461.5769890877041,556.4896913963388,2267.6320040196338,-2267.6320040196338,-556.4896913963388,4822.3699363270434,0.0
618523.2936376977,3532751.2368613081,-42500.0,688.1644570884165,1533.0950404593013,2672.026330738543,1032.7350385174664,2112.5059366182836,1151.7984220404717,2647.7008907192294,288.26726110524874,2547.8755353209808,-2547.8755353209808,-288.26726110524874,5183.598057923894,0.0
623523.2936376977,3532751.2368613081,-42500.0,491.98909471633993,1396.1307551340471,3077.8890582525232,937.04159461641643,2354.4994106544859,1260.5023637496136,2819.2961347236219,-4.8564564939913453,2777.3776312710042,-2777.3776312710042,4.8564564939913453,5513.8806082885694,0.0
628523.2936376977,3532751.2368613081,-42500.0,298.59445404027019,1183.8807609280855,3443.8513617404619,799.68596925642703,2569.6623575924377,1355.632118836483,2967.613557451115,-306.49386323794602,2935.5579757278938,-2935.5579757278938,306.49386323794602,5798.1050728647897,0.0
633523.2936376977,3532751.2368613081,-42500.0,124.88406235720018,899.64533116061398,3744.1670173875787,622.97791324415164,2743.8617009820291,1431.0990737393374,3084.2682367177299,-596.67585949750719,3004.0696210958495,-3004.0696210958495,596.67585949750719,6021.3425203511415,0.0
638523.2936376977,3532751.2368613081,-42500.0,-12.003490649371532,553.87474584223025,3954.04730189879,412.90695691927272,2863.6580084729067,1481.1925353155859,3161.89590121537,-853.62020470913035,2969.3979338171957,-2969.3979338171957,853.62020470913035,6170.1314179486299,0.0
643523.2936376977,3532751.2368613081,-42500.0,-97.020954853878095,164.19677128942033,4052.677563324336,179.11623235818391,2917.8686028612929,1501.2296278048434,3194.8742179404971,-1056.1958933899164,2825.3092311793157,-2825.3092311793157,1056.1958933899164,6233.8708525347529,0.0
648523.2936376977,3532751.2368613081,-42500.0,-119.62772957433489,-245.7127567406813,4026.2327588247858,-65.68980660597343,2899.1158650481675,1488.1912385069481,3180.0581479087705,-1186.7467320690719,2574.6250140768389,-2574.6250140768389,1186.7467320690719,6206.1369640539788,0.0
653523.2936376977,3532751.2368613081,-42500.0,-75.787672419130033,-648.4299667270775,3870.2953113233239,-306.90665578440496,2805.0650581383884,1441.2247941320495,3117.4289150231371,-1233.7572007326603,2229.825395222666,-2229.825395222666,1233.7572007326603,6085.7020918198687,0.0
658523.2936376977,3532751.2368613081,-42500.0,30.957904152533612,-1015.9688717925378,3591.0960601385032,-529.62239480429946,2639.0649723103807,1361.8994873929214,3010.5309828519271,-1193.7734974521352,1812.1753702017911,-1812.1753702017911,1193.7734974521352,5877.0505312306796,0.0
663523.2936376977,3532751.2368613081,-42500.0,189.6835038514287,-1323.2943769799292,3205.199451375724,-720.37452215429437,2410.0038079207184,1254.1398067495822,2866.4578302236314,-1072.0954717057873,1349.3946188791799,-1349.3946188791799,1072.0954717057873,5590.2608290888411,0.0
668523.2936376977,3532751.2368613081,-42500.0,383.58182448445325,-1551.4606427199969,2737.5940445587607,-868.73527017154254,2131.3542745279246,1123.8269254715321,2694.9095957674217,-882.02230738632591,872.2561502235925,-872.2561502235925,882.02230738632591,5240.2286921005352,0.0
673523.2936376977,3532751.2368613081,-42500.0,592.47408580128604,-1689.7307319840995,2218.5409165244869,-968.41354278929771,1819.5762252718021,978.13526204513028,2506.240313652288,-642.79653196023833,410.78626186445598,-410.78626186445598,642.79653196023833,4845.3414907912365,0.0
678523.2936376977,3532751.2368613081,-42500.0,795.76751463830988,-1736.2893228218231,1679.8259527180319,-1017.6783744194552,1492.1896029313425,824.72934433571947,2309.8641181539697,-376.71598823195984,-9.1738423542762177,9.1738423542762177,376.71598823195984,4425.8098978379803,0.0
683523.2936376977,3532751.2368613081,-42500.0,975.2175482892219,-1697.5231504756234,1151.1623887972462,-1019.0785149976136,1165.8870970673113,670.9701228008787,2114.022067048149,-106.05774356673467,-368.42012026291025,368.42012026291025,106.05774356673467,4001.9057479263083,0.0
688523.2936376977,3532751.2368613081,-42500.0,1116.9664447919827,-1586.1820083312386,657.37487133401351,-978.59425686453073,855.00843161882551,523.26253993664579,1925.902429766445,149.56915227002327,-655.52545635695947,655.52545635695947,-149.56915227002327,3592.3287618225008,0.0
693523.2936376977,3532751.2368613081,-42500.0,1212.5815546478132,-1418.9381148257692,216.72377083101762,-904.46130463647842,570.57065906318223,386.62718196326773,1751.3828199632751,375.02301667522761,-866.68881307316042,866.68881307316042,-375.02301667522761,3212.8429415474498,0.0
698523.2936376977,3532751.2368613081,-42500.0,1259.0955181577483,-1213.890216760534,-159.58139303041892,-805.92821135958889,319.89930433128956,264.51893469925801,1594.6336667240437,560.43258308886732,-1004.5872150923625,1004.5872150923625,-560.43258308886732,2875.2390924430847,0.0
703523.2936376977,3532751.2368613081,-42500.0,1258.2668179016177,-988.44210662482203,-466.88240338519728,-692.16238399786687,106.77784317853211,158.86391645494584,1457.8782734615888,701.10175570516969,-1076.6592462846393,1076.6592462846393,-701.10175570516969,2586.6419797486133,0.0
708523.2936376977,3532751.2368613081,-42500.0,1215.3818767027897,-757.79518214147095,-705.92369647116141,-571.43353866724442,-68.041186921700245,70.253905846544185,1341.4149411611124,796.76847815645863,-1093.2423783889169,1093.2423783889169,-796.76847815645863,2349.2234277880134,0.0
713523.2936376977,3532751.2368613081,-42500.0,1137.9168332362854,-534.10900821382904,-881.40887363584613,-450.61615464531781,-206.13669846669828,-1.7715485415092809,1243.9032990499663,850.51846357252452,-1065.8865333235474,1065.8865333235474,-850.51846357252452,2160.4682225522902,0.0
598523.2936376977,3537751.2368613081,-42500.0,1447.4770956962673,1517.7198352329449,931.37132145705948,1177.7460926556432,1141.6087086304044,758.00860019956644,2023.8014065188352,1354.2110665003233,1219.4008167077704,-1219.4008167077704,-1354.2110665003233,3920.1253432436911,0.0
603523.2936376977,3537751.2368613081,-42500.0,1358.8852616680267,1648.9373931821003,1322.1950953071007,1239.4242354578923,1410.0271565331241,892.894215647446,2235.1090664990488,1221.7200469219454,1576.67115465045,-1576.67115465045,-1221.7200469219454,4351.0259901526788,0.0
608523.2936376977,3537751.2368613081,-42500.0,1226.2655189733537,1736.1202205255793,1757.5324831273301,1272.1019581181417,1700.9576372799504,1036.4406141754803,2456.6225826412906,1032.1361613269546,1946.4917225593645,-1946.4917225593645,-1032.1361613269546,4795.4110220017719,0.0
613523.2936376977,3537751.2368613081,-42500.0,1052.7867041888555,1763.8441998056328,2225.4347562909888,1267.5539432736962,2006.401322747176,1184.6243116820408,2682.6830417250908,786.63122722950664,2311.1859538504127,-2311.1859538504127,-786.63122722950664,5241.0249360103826,0.0
618523.2936376977,3537751.2368613081,-42500.0,846.35117838861174,1717.7019002831544,2707.8560252101665,1218.3457884230813,2315.025520614518,1331.9826056960239,2904.9055791948063,491.71637794768094,2648.7144913025995,-2648.7144913025995,-491.71637794768094,5672.7119828817822,0.0
623523.2936376977,3537751.2368613081,-42500.0,619.96042278385107,1586.3904371639162,3180.6924485010645,1118.9309321254791,2612.2783740687919,1471.701234953026,3112.9573562163455,160.05624943992211,2933.870810837012,-2933.870810837012,-160.05624943992211,6072.8616816271888,0.0
628523.2936376977,3537751.2368613081,-42500.0,391.3376509303269,1364.0636272169809,3614.7662109371463,966.8568476849606,2881.0105458376206,1595.9207463709331,3295.7017004894192,-189.43374353553099,3140.4013182986318,-3140.4013182986318,189.43374353553099,6422.2842577436531,0.0
633523.2936376977,3537751.2368613081,-42500.0,181.5908238148975,1052.5662715762933,3977.945773119869,763.88498468136697,3102.6925666727589,1696.2932181971266,3442.1626542832728,-532.51272213741731,3243.9898294039967,-3243.9898294039967,532.51272213741731,6701.5399633611605,0.0
638523.2936376977,3537751.2368613081,-42500.0,12.867744355916409,663.03019683278376,4238.3908888457809,516.76442934667466,3259.2103861381256,1764.7771395132788,3542.4495235581539,-841.72894882912965,3225.7978930160943,-3225.7978930160943,841.72894882912965,6892.6641621767549,0.0
643523.2936376977,3537751.2368613081,-42500.0,-94.786822769647799,216.26952145643483,4368.6139629906811,237.3828227801618,3335.0706399397141,1794.5948196545328,3588.7750357412665,-1089.637584644152,3075.9825148683808,-3075.9825148683808,1089.637584644152,6981.1245447426354,0.0
648523.2936376977,3537751.2368613081,-42500.0,-126.85690800715282,-258.45847939729452,4349.7194604203578,-57.916282870219703,3319.6803207081743,1781.2094717727157,3576.5082192292457,-1252.6975502425073,2796.414637875132,-2796.414637875132,1252.6975502425073,6957.7400042089348,0.0
653523.2936376977,3537751.2368613081,-42500.0,-77.31055053555248,-726.4338058063405,4174.9413419209295,-349.89792665432714,3209.2449236732987,1723.1305233986425,3505.1103916800121,-1315.1056996545549,2401.8121654339266,-2401.8121654339266,1315.1056996545549,6820.2249298663364,0.0
658523.2936376977,3537751.2368613081,-42500.0,49.7163307661774,-1151.8391213254827,3851.5725913989922,-618.70393576164099,3007.8163484550041,1622.352077994673,3378.7665704301894,-1271.6677131823872,1918.7514599045653,-1918.7514599045653,1271.6677131823872,6574.0262002372829,0.0
663523.2936376977,3537751.2368613081,-42500.0,240.08271500421006,-1502.692009508308,3400.6555051930932,-846.4187372329443,2727.1601928149848,1484.2873414691824,3206.4228261464032,-1128.9192312359842,1382.5193048039278,-1382.5193048039278,1128.9192312359842,6232.2225763469205,0.0
668523.2936376977,3537751.2368613081,-42500.0,471.75495070612754,-1755.2660429361176,2854.3360701480938,-1019.3962885568026,2385.3823032248251,1317.1735131605606,3000.6895062605427,-904.11991021171229,832.36259360622489,-832.36259360622489,904.11991021171229,5814.4368818461398,0.0
673523.2936376977,3537751.2368613081,-42500.0,718.41170456635189,-1896.999818453465,2251.4090273722823,-1129.8426312901674,2004.5723252826776,1131.0536251995154,2775.3693772014808,-622.32285605356719,306.16183973913496,-306.16183973913496,622.32285605356719,5344.9194434278361,0.0
678523.2936376977,3537751.2368613081,-42500.0,953.65746349097128,-1927.3078165292748,1632.05955641076,-1176.3453627856347,1607.974196687182,936.54742510689732,2543.0729060647345,-312.25499262052108,-164.29698390345445,164.29698390345445,312.25499262052108,4850.132388624339,0.0
683523.2936376977,3537751.2368613081,-42500.0,1154.8434302145902,-1856.3011596097908,1032.9463907357178,-1163.3307460111441,1217.2767965397416,743.66102607412097,2314.5153286901082,-2.0147286401422662,-556.51775665930711,556.51775665930711,2.0147286401422662,4356.2223999114867,0.0
688523.2936376977,3537751.2368613081,-42500.0,1305.7135535319553,-1701.9621760021369,483.55219522639993,-1099.6967892142222,850.52174432069012,560.84865011053603,2098.5890016266858,284.48152047228342,-858.52500446417343,858.52500446417343,-284.48152047228342,3886.7158920643633,0.0
693523.2936376977,3537751.2368613081,-42500.0,1397.5229757421882,-1486.6077310007931,4.2649857375499849,-997.02718971563525,520.89921579903,394.44825788878478,1902.1028809623872,529.72011141960502,-1068.2542237083624,1068.2542237083624,-529.72011141960502,3460.6343520889973,0.0
698523.2936376977,3537751.2368613081,-42500.0,1428.7265584725599,-1233.4647382245355,-393.84328997237918,-867.80015982611837,236.44862649798762,248.50708291954354,1729.3577700170731,723.34298348203845,-1191.6290853938899,1191.6290853938899,-723.34298348203845,3091.1013287622645,0.0
703523.2936376977,3537751.2368613081,-42500.0,1403.6454909695701,-963.9481227925661,-707.93457785611815,-723.90463786023133,0.48797669797619719,124.93013266066862,1581.9597061945274,861.66701593268783,-1240.0078770063992,1240.0078770063992,-861.66701593268783,2784.5064067347662,0.0
708523.2936376977,3537751.2368613081,-42500.0,1330.6310330372191,-695.90971633348079,-941.56861027770253,-575.62294145741214,-187.50004735521836,23.840614194895299,1459.0300872392277,946.40462952815619,-1227.6139229669195,1227.6139229669195,-946.40462952815619,2540.4072133440686,0.0
713523.2936376977,3537751.2368613081,-42500.0,1220.1876160538832,-442.84540849226164,-1102.6325151028659,-431.09828499924987,-330.79618422468423,-55.963019480742652,1357.7878363061031,983.04453563455536,-1169.3681457270727,1169.3681457270727,-983.04453563455536,2352.4321727996612,0.0
718523.2936376977,3537751.2368613081,-42500.0,1083.3699158026991,-213.86922683907343,-1201.4192943474238,-296.20977780073531,-434.39902314122537,-116.54684397729159,1274.3540897888909,979.25916839103684,-1079.3198535924626,1079.3198535924626,-979.25916839103684,2210.215706503413,0.0
593523.2936376977,3542751.2368613081,-42500.0,1686.1722222202625,1368.5793123647748,386.22265453083696,1199.86766513418,872.7243690725528,680.03501351737145,1933.3795079992815,1674.3348633072242,711.65331572214347,-711.65331572214347,-1674.3348633072242,3690.1588108243018,0.0
598523.2936376977,3542751.2368613081,-42500.0,1660.6452622236191,1567.4378462213956,738.16103798034135,1310.4010896239342,1142.5293548298691,826.60484110342043,2155.5621992735314,1622.0402526331634,1070.6430356491803,-1070.6430356491803,-1622.0402526331634,4149.1407145918329,0.0
603523.2936376977,3542751.2368613081,-42500.0,1584.064252709584,1739.8445461722181,1153.4699159459767,1399.7850170623265,1448.9054534287498,989.25679050515873,2396.2692605142192,1507.1516560385198,1466.8293775106458,-1466.8293775106458,-1507.1516560385198,4641.1678628008995,0.0
608523.2936376977,3542751.2368613081,-42500.0,1453.4235192455374,1867.9057406013253,1627.1874870904169,1457.6277165886099,1787.261419399729,1165.2074717809337,2652.3192812341736,1323.5884916599148,1886.9717644353973,-1886.9717644353973,-1323.5884916599148,5156.3073378321496,0.0
613523.2936376977,3542751.2368613081,-42500.0,1270.268218555223,1932.124956805161,2147.7434538766979,1472.9444948156981,2149.0523876595344,1349.8275634803874,2917.7407634927886,1069.8793086834905,2311.5949781166073,-2311.5949781166073,-1069.8793086834905,5680.6493130912659,0.0
618523.2936376977,3542751.2368613081,-42500.0,1042.0441918173478,1913.2889337876966,2695.8016080272641,1435.2410070779868,2521.2307671950011,1536.4405838523728,3182.9904781737155,750.96809780954106,2715.0736846661466,-2715.0736846661466,-750.96809780954106,6196.234122938009,0.0
623523.2936376977,3542751.2368613081,-42500.0,782.94964029089658,1795.1134996733006,3243.8545687062033,1335.9764951183704,2886.1435246992569,1716.3316259666944,3435.5407101585934,379.66876396094131,3066.7619412476083,-3066.7619412476083,-379.66876396094131,6681.4340542569043,0.0
628523.2936376977,3542751.2368613081,-42500.0,513.86336509238924,1567.4381786679967,3757.0203083322785,1170.2851603300705,3222.1116975258283,1879.0653901865553,3661.2718147736277,-22.712967361741221,3333.4214645114926,-3333.4214645114926,22.712967361741221,7111.9322182160759,0.0
633523.2936376977,3542751.2368613081,-42500.0,260.95899345816969,1229.4923192980061,4195.4106381858101,938.69890085837642,3504.8790397792573,2013.1877154789101,3845.8078703544284,-427.09550075621087,3482.9852333712079,-3482.9852333712079,427.09550075621087,7462.3795321056505,0.0
638523.2936376977,3542751.2368613081,-42500.0,52.814136687941939,792.49875754010213,4518.189567501664,648.48761022969336,3709.9787294614662,2107.3245891430115,3975.8147462021748,-799.03888260567783,3489.3358210552169,-3489.3358210552169,799.03888260567783,7708.6982262740567,0.0
643523.2936376977,3542751.2368613081,-42500.0,-83.803986484156013,280.7421914789125,4689.0067600405991,314.16639202581661,3815.8342434838332,2151.5905738531383,4040.4441403531105,-1102.8848829183446,3337.338996300181,-3337.338996300181,1102.8848829183446,7830.8313162347658,0.0
648523.2936376977,3542751.2368613081,-42500.0,-128.80309573906507,-269.65517467183037,4681.9630781974784,-43.217604615158443,3807.1309470433403,2139.1006330318896,4032.8620937616834,-1307.1210978587205,3026.9995463772166,-3026.9995463772166,1307.1210978587205,7815.5605766114168,0.0
653523.2936376977,3542751.2368613081,-42500.0,-73.168262024178205,-814.56001004597647,4486.8129125443984,-398.17568001156269,3677.7535187618582,2067.275796847272,3951.6298151956707,-1389.9221368858996,2575.4903279313221,-2575.4903279313221,1389.9221368858996,7658.8715192617628,0.0
658523.2936376977,3542751.2368613081,-42500.0,78.373410793049203,-1307.837012994469,4111.9803005385511,-724.02905430517683,3432.516135834635,1938.6064951861249,3801.6478658358701,-1343.4793781295848,2016.1219615865998,-2016.1219615865998,1343.4793781295848,7367.3245431389141,0.0
663523.2936376977,3542751.2368613081,-42500.0,307.40395905494381,-1708.3436168377616,3584.3281668983113,-996.70387239540855,3087.0992972542113,1760.6167118200176,3594.2907680698545,-1175.8308147753607,1394.0758087839897,-1394.0758087839897,1175.8308147753607,6958.0246694520793,0.0
668523.2936376977,3542751.2368613081,-42500.0,584.81229288621148,-1986.2330432119761,2945.4613273160589,-1198.1987397350028,2666.0538453870467,1544.9662749442548,3346.1143921304561,-909.52344874342884,759.7019653696907,-759.7019653696907,909.52344874342884,6457.0820071782664,0.0
673523.2936376977,3542751.2368613081,-42500.0,876.03489423284759,-2126.9828531342873,2245.3641474071164,-1318.8883284041494,2199.2779740865708,1305.863776576703,3075.6934944147679,-577.39032254772656,160.97551839042902,-160.97551839042902,577.39032254772656,5896.8022242681691,0.0
678523.2936376977,3542751.2368613081,-42500.0,1147.1234357380049,-2132.2518368488277,1534.9551472366122,-1358.1648207374897,1717.8073898270013,1058.1550112898121,2800.0781699750401,-216.6094292234676,-363.05267061390907,363.05267061390907,216.6094292234676,5312.1322467584387,0.0
683523.2936376977,3542751.2368613081,-42500.0,1370.0567353480458,-2017.6588210568448,859.34453835932015,-1323.4235625925951,1249.8936837729316,815.51684957919599,2533.2799254874908,137.35736910711927,-786.39407573882272,786.39407573882272,-137.35736910711927,4736.9847946273194,0.0
688523.2936376977,3542751.2368613081,-42500.0,1526.131262938997,-1808.4344832792419,253.15140466156163,-1227.8508636319752,818.14183423122643,589.10444468781134,2286.2225087220422,455.52527243345202,-1097.299105850668,1097.299105850668,-455.52527243345202,4200.9413189267334,0.0
693523.2936376977,3542751.2368613081,-42500.0,1607.013806450002,-1534.3002465626025,-261.55050458761093,-1087.7035936828333,438.0734870253516,386.82811683447756,2066.5339362059854,718.04953160439766,-1296.8165448914374,1296.8165448914374,-718.04953160439766,3726.6130027429872,0.0
698523.2936376977,3542751.2368613081,-42500.0,1613.7618723220096,-1224.8113147818049,-674.88190903611337,-919.7376139901919,118.05143137212609,213.24794573555724,1878.1701359892963,914.73224760653977,-1395.6663077985213,1395.6663077985213,-914.73224760653977,3327.7771342577935,0.0
703523.2936376977,3542751.2368613081,-42500.0,1554.5499587080856,-905.94699131035509,-987.13275585295366,-739.22823893146858,-139.79039599008686,69.94028511285218,1721.4130173490416,1043.8661736203017,-1410.5017686858214,1410.5017686858214,-1043.8661736203017,3008.4928526607823,0.0
708523.2936376977,3542751.2368613081,-42500.0,1441.9242427822087,-598.19968060354438,-1205.9354109084582,-558.75734370730538,-338.07292678223251,-43.8630967131311,1593.4651211799687,1110.1433234491403,-1360.434146037064,1360.434146037064,-1110.1433234491403,2763.6219361855169,0.0
713523.2936376977,3542751.2368613081,-42500.0,1290.236249014293,-316.00185597537336,-1343.377065890289,-387.72152519206537,-482.56839390911364,-130.55004830939075,1489.5261013957843,1122.3110693077269,-1264.3307632558226,1264.3307632558226,-1122.3110693077269,2581.0701872423579,0.0
718523.2936376977,3542751.2368613081,-42500.0,1113.63351710509,-68.117327990741217,-1413.52732102253,-232.39041430719723,-580.75392824210769,-193.45240856793069,1404.0275092020277,1091.0576426532332,-1139.050222499937,1139.050222499937,-1091.0576426532332,2445.3139585826348,0.0
723523.2936376977,3542751.2368613081,-42500.0,924.73051277739319,141.41658415886633,-1430.5935519719417,-96.307865002295685,-640.67033376401196,-236.29516293882477,1331.6714194983899,1027.3760255659809,-998.53481344823672,998.53481344823672,-1027.3760255659809,2340.969318670926,0.0
588523.2936376977,3547751.2368613081,-42500.0,1836.8979020876736,1098.6333042330473,-147.04390425611251,1145.0579275852187,563.99813360415737,568.19219095627057,1817.3134691006555,1887.9187478204053,155.9634634561811,-155.9634634561811,-1887.9187478204053,3396.6661655761254,0.0
593523.2936376977,3547751.2368613081,-42500.0,1889.9906911910005,1344.0426941006153,134.7441077378721,1298.9618795379681,814.59335239146174,717.53517440247617,2038.9912087996199,1931.4073924728248,479.46317118731554,-479.46317118731554,-1931.4073924728248,3856.1041403122304,0.0
598523.2936376977,3547751.2368613081,-42500.0,1893.4379104966144,1585.2631760859103,490.41284605071104,1443.7031752759106,1112.9256528054434,890.03485599027965,2286.474832312816,1917.0409329983531,860.30392543890184,-860.30392543890184,-1917.0409329983531,4367.5304806408139,0.0
603523.2936376977,3547751.2368613081,-42500.0,1837.9361772045017,1805.2846318281249,923.14583077343775,1568.3782166154224,1459.1173465454815,1084.9646890147953,2558.8847832439787,1832.0158698969449,1292.5133295957498,-1292.5133295957498,-1832.0158698969449,4925.3076230010074,0.0
608523.2936376977,3547751.2368613081,-42500.0,1717.2348175262036,1982.9965221563357,1430.5323606982163,1659.9679747326684,1849.534752726174,1299.6748777548994,2853.4485011243614,1666.0285916123009,1763.3724456193706,-1763.3724456193706,-1666.0285916123009,5519.282761205468,0.0
613523.2936376977,3547751.2368613081,-42500.0,1530.1780740713425,2094.2307166476844,2002.4135174380899,1704.0447887894129,2275.5860546221588,1529.0656204651318,3164.1316575090468,1413.6227948399282,2252.1952621354294,-2252.1952621354294,-1413.6227948399282,6134.0949925618515,0.0
618523.2936376977,3547751.2368613081,-42500.0,1282.7665798540536,2113.8539413083067,2618.9615846400961,1686.0543007038245,2722.7082352959255,1765.1708389100947,3480.316496949516,1076.783861220998,2729.8786379232497,-2729.8786379232497,-1076.783861220998,6748.8101153237922,0.0
623523.2936376977,3547751.2368613081,-42500.0,989.76333067255166,2019.016430292638,3249.5469911408541,1593.2127454468027,3169.8588072901612,1996.9958460061046,3787.0085824162124,667.32261706517647,3159.7447860986026,-3159.7447860986026,-667.32261706517647,7337.1172213767895,0.0
628523.2936376977,3547751.2368613081,-42500.0,675.21485662717998,1793.3971956033208,3853.0725420950594,1416.9158859744805,3589.8924499477721,2210.7774032896691,4066.4114977228805,208.37548860290167,3500.1538551065933,-3500.1538551065933,-208.37548860290167,7868.3345351682956,0.0
633523.2936376977,3547751.2368613081,-42500.0,371.22521189024553,1431.889978507038,4380.4278449406238,1155.3445142282167,3951.1775516398784,2390.8188463687397,4299.7108231642878,-265.77651139354316,3709.1185105971445,-3709.1185105971445,265.77651139354316,8309.4106764143162,0.0
638523.2936376977,3547751.2368613081,-42500.0,114.52731047263342,944.73103134188625,4779.4292601954385,815.71880120645915,4220.6434250741713,2520.9770833314774,4468.8752885488711,-712.2650139296527,3750.661442965913,-3750.661442965913,712.2650139296527,8627.9599494916656,0.0
643523.2936376977,3547751.2368613081,-42500.0,-59.095724421229015,359.74082957774726,5002.0153775206936,415.48157273740998,4368.111736529152,2586.7252845955427,4558.7093763550492,-1084.8364409649209,3601.9722846744562,-3601.9722846744562,1084.8364409649209,8796.1205056052058,0.0
648523.2936376977,3547751.2368613081,-42500.0,-121.71002369710392,-278.61425366883088,5012.6262755424623,-18.288834431795976,4371.2935299269411,2577.5032852273516,4559.0954675331823,-1341.1890588583801,3259.7363894589207,-3259.7363894589207,1341.1890588583801,8794.7140587481845,0.0
653523.2936376977,3547751.2368613081,-42500.0,-59.827072531703379,-914.05264748586683,4795.8844065726216,-451.62514387613629,4220.3747594753913,2488.8624017576772,4467.0749232927628,-1451.0039410576219,2743.6637873688305,-2743.6637873688305,1451.0039410576219,8616.9085603713975,0.0
658523.2936376977,3547751.2368613081,-42500.0,121.34261356177403,-1486.7757245646708,4361.3292446938713,-848.35641735623562,3920.9006717467705,2323.8133573548571,4288.3033812181156,-1402.5307470113319,2095.5951510722625,-2095.5951510722625,1402.5307470113319,8270.4858219748348,0.0
663523.2936376977,3547751.2368613081,-42500.0,397.66174553984399,-1943.4872588433591,3743.4167765241714,-1175.7959935843091,3493.9114853245683,2092.8936934071789,4037.3621090879465,-1205.5982327362892,1373.7077817532484,-1373.7077817532484,1205.5982327362892,7777.9963036414147,0.0
668523.2936376977,3547751.2368613081,-42500.0,730.35894158396502,-2246.4913618165497,2996.310026986594,-1409.9946758337724,2973.0121330790139,1812.7993216100006,3736.2024778566129,-889.85043657840231,642.96332334895158,-642.96332334895158,889.85043657840231,7174.558052440414,0.0
673523.2936376977,3547751.2368613081,-42500.0,1073.7473856628203,-2379.3211279361512,2184.6939830057604,-1539.1430724420607,2399.0262842120324,1503.8660997660927,3410.049583742441,-498.5913202580997,-35.691447450008098,35.691447450008098,498.5913202580997,6503.6711284760531,0.0
678523.2936376977,3547751.2368613081,-42500.0,1384.0595220942791,-2347.5055013781139,1373.1472253116231,-1564.3023230272165,1813.6494542742496,1187.0454910426813,3082.1751376239913,-80.121996763827553,-614.45173436972391,614.45173436972391,80.121996763827553,5811.9040142219765,0.0
683523.2936376977,3547751.2368613081,-42500.0,1626.8564259268796,-2174.763076755537,616.8796150616912,-1497.5427788163545,1253.7248578870781,881.12740137543653,2771.0039093315631,320.85398253243619,-1063.9496432335782,1063.9496432335782,-320.85398253243619,5143.4580211781995,0.0
688523.2936376977,3547751.2368613081,-42500.0,1781.2750944482507,-1896.3013663990912,-44.167878530325481,-1358.3451157484753,747.35662505785274,600.79138616168382,2489.787812644126,669.57409879563579,-1374.0568565300471,1374.0568565300471,-669.57409879563579,4535.3814498041347,0.0
693523.2936376977,3547751.2368613081,-42500.0,1840.6943718148948,-1551.4251798434041,-587.23913249920543,-1169.4503629010894,312.32027809319044,355.72833190519884,2246.5727864498954,944.25293961236844,-1550.9928143760546,1550.9928143760546,-944.25293961236844,4013.8287243154955,0.0
698523.2936376977,3547751.2368613081,-42500.0,1810.5550823850465,-1177.2936210075291,-1005.3208616667293,-953.19716349921009,-43.491414069782941,150.73953648484968,2044.0656806932202,1135.9761616276933,-1612.3598599011962,1612.3598599011962,-1135.9761616276933,3591.6291746831489,0.0
703523.2936376977,3547751.2368613081,-42500.0,1704.636920986819,-804.80774612407481,-1303.6436017999831,-728.95062006630621,-320.27563006314926,-13.488006971338288,1880.1026438484998,1246.4157320337204,-1581.7748445035422,1581.7748445035422,-1246.4157320337204,3267.7341074733722,0.0
708523.2936376977,3547751.2368613081,-42500.0,1541.0611742004928,-456.74895972088586,-1495.4792985666495,-511.76182340333798,-523.9487512444274,-139.28455825862821,1748.9724644912108,1284.5536520946141,-1484.2918801695184,1484.2918801695184,-1284.5536520946141,3029.3280127088024,0.0
713523.2936376977,3547751.2368613081,-42500.0,1338.8934520511575,-147.71922904376771,-1598.242455650065,-312.06932546007602,-663.80911128326329,-230.87239602275807,1643.2461867075128,1263.3941386553245,-1343.1782804059942,1343.1782804059942,-1263.3941386553245,2856.5484122033267,0.0
718523.2936376977,3547751.2368613081,-42500.0,1115.7452623435306,114.78130391308882,-1630.435957933149,-136.10736020756971,-750.59675384744378,-293.39814840570591,1555.4981049404864,1197.2570606708289,-1178.0867285808588,1178.0867285808588,-1197.2570606708289,2728.1348243320149,0.0
723523.2936376977,3547751.2368613081,-42500.0,886.40148686586781,328.75858404050155,-1609.588351673309,13.315025189999707,-795.087861161977,-332.20385750744452,1479.4517926060903,1099.8775386830075,-1004.3658116552824,1004.3658116552824,-1099.8775386830075,2625.7589975110945,0.0
728523.2936376977,3547751.2368613081,-42500.0,662.28839621609586,496.06252556014562,-1551.0822799119755,135.92582306677417,-807.20745376857724,-352.34263338942321,1410.4461101976176,983.28347749395391,-833.14752377563275,833.14752377563275,-983.28347749395391,2535.9701308072663,0.0
583523.2936376977,3552751.2368613081,-42500.0,1864.6215933022929,729.73748643470503,-617.77646377324038,1009.7847200336998,241.03964498675305,428.96200343225405,1692.2750324903523,1956.4403350155635,-392.347294100152,392.347294100152,-1956.4403350155635,3080.6470531973796,0.0
588523.2936376977,3552751.2368613081,-42500.0,2000.3086839214814,991.79850907229923,-427.95531016072601,1194.4665128989973,452.99453714174757,570.79123842803278,1901.1720989455048,2096.9052450756353,-138.19325953223165,138.19325953223165,-2096.9052450756353,3509.3583688857225,0.0
593523.2936376977,3552751.2368613081,-42500.0,2096.9892777820482,1272.2213601907092,-164.39069246543212,1384.2723133855072,718.69446241739877,741.24776203519059,2141.1450973351457,2194.5725990984402,184.5326470941809,-184.5326470941809,-2194.5725990984402,4004.9798988927469,0.0
598523.2936376977,3552751.2368613081,-42500.0,2140.7444933696534,1558.2571715452591,183.41364171833075,1569.8311791135591,1043.3226922604872,942.16837671869791,2413.7403782975052,2232.4119805041032,578.26406675625924,-578.26406675625924,-2232.4119805041032,4567.8103627869386,0.0
603523.2936376977,3552751.2368613081,-42500.0,2118.2358544177196,1831.5190623775677,622.69808956995826,1738.4693777042223,1429.392738109726,1173.8240260526802,2719.2090501102857,2192.9552423011578,1039.8406091238789,-1039.8406091238789,-2192.9552423011578,5193.8278476705791,0.0
608523.2936376977,3552751.2368613081,-42500.0,2018.8039665624985,2067.7963000324394,1154.9065537240037,1874.2528715612675,1875.1599114252051,1434.1490892729994,3055.6922880302873,2060.4325521606943,1558.2869634754202,-1558.2869634754202,-2060.4325521606943,5873.4613648812492,0.0
613523.2936376977,3552751.2368613081,-42500.0,1837.1599851690505,2237.8237539420461,1772.7332957814453,1958.6059182511847,2372.8439820687308,1717.90902721833,3417.5581631140803,1823.7218028021125,2112.7618576990703,-2112.7618576990703,-1823.7218028021125,6590.4348281974108,0.0
618523.2936376977,3552751.2368613081,-42500.0,1576.3802651286856,2309.4244711681231,2457.1705559321349,1971.7267462984216,2906.9250059930669,2015.9365585101339,3793.3956492683801,1479.9137931658775,2671.2534780774336,-2671.2534780774336,-1479.9137931658775,7320.9238882570344,0.0
623523.2936376977,3552751.2368613081,-42500.0,1250.6212177698051,2251.3300336226785,3175.2671218515247,1894.952132644846,3452.9442583391992,2314.6430398758957,4165.5762022870194,1037.9772716275097,3190.7848395479718,-3190.7848395479718,-1037.9772716275097,8033.3680808089184,0.0
628523.2936376977,3552751.2368613081,-42500.0,886.67053786518625,2038.6640328286087,3879.5744747555218,1714.0405710823945,3977.3893483207244,2596.0753698136405,4511.8628185673351,521.63489929468119,3619.9394203438651,-3619.9394203438651,-521.63489929468119,8689.3377677626449,0.0
633523.2936376977,3552751.2368613081,-42500.0,523.27366893975136,1659.5188536278729,4510.353399621159,1423.0343441686662,4439.2930817107717,2838.8085128834377,4807.6947189973962,-29.744487052451859,3904.2895131422533,-3904.2895131422533,29.744487052451859,9245.8283705149152,0.0
638523.2936376977,3552751.2368613081,-42500.0,207.3173638790108,1121.3307449602364,5001.3517960199206,1027.9568605428587,4794.0167708317695,3019.8876814205396,5028.6431710764955,-563.46629672450263,3994.6840580281255,-3994.6840580281255,563.46629672450263,9659.1812913826216,0.0
643523.2936376977,3552751.2368613081,-42500.0,-13.402681929430003,455.08913096084569,5289.1790927853335,549.22574868486504,4999.2228698065492,3117.814390293428,5153.3183540374248,-1019.8025781428371,3857.3184738573909,-3857.3184738573909,1019.8025781428371,9890.4657260148379,0.0
648523.2936376977,3552751.2368613081,-42500.0,-99.919468807005728,-284.78443777333587,5325.0160204076165,21.542401990939261,5022.2767356175682,3116.2111669797173,5166.6832422553471,-1341.9077951961058,3483.314929247867,-3483.314929247867,1341.9077951961058,9911.6401107575093,0.0
653523.2936376977,3552751.2368613081,-42500.0,-32.018189587179194,-1026.3620293523438,5085.969414162867,-509.60435596305837,4847.4560511473474,3007.3869951348688,5063.2480745624835,-1487.4577857361687,2894.7308598605346,-2894.7308598605346,1487.4577857361687,9711.2810833085714,0.0
658523.2936376977,3552751.2368613081,-42500.0,184.91678351083152,-1691.6806150551088,4582.5296876064695,-994.71069301708155,4480.8083380912831,2794.7591380592962,4849.3782910415575,-1438.7416406814248,2144.180957950729,-2144.180957950729,1438.7416406814248,9298.3777101405285,0.0
663523.2936376977,3552751.2368613081,-42500.0,519.06191506664459,-2211.2322673125695,3859.0863515388955,-1388.8995298761301,3950.7555290201931,2493.1957847964309,4543.9235265892867,-1207.653118166422,1306.9701018909002,-1306.9701018909002,1207.653118166422,8702.9012569725946,0.0
668523.2936376977,3552751.2368613081,-42500.0,918.35540024444981,-2537.261427958028,2986.5301612873109,-1660.022017892248,3303.7522180887381,2126.911220535455,4176.2891111633053,-833.40475275866322,467.34381152563685,-467.34381152563685,833.40475275866322,7972.6339113737922,0.0
673523.2936376977,3552751.2368613081,-42500.0,1322.0238107524292,-2651.6948064628568,2048.8505587167833,-1793.7633865789953,2596.0415694487265,1725.3872282548029,3781.0361756580028,-373.45105032184506,-297.13653003957995,297.13653003957995,373.45105032184506,7166.8205390551202,0.0
678523.2936376977,3552751.2368613081,-42500.0,1673.5888609684812,-2566.5103149243082,1127.8524194007407,-1794.3673926689905,1883.9516823603115,1318.491979995707,3390.213569640161,109.28291805031301,-928.37223178557758,928.37223178557758,-109.28291805031301,6348.0818507768299,0.0
683523.2936376977,3552751.2368613081,-42500.0,1931.2115198247341,-2317.2640439363713,290.45719653246761,-1681.2466071796414,1215.4863495097886,932.15385660016932,3028.1645591007787,558.65199282553101,-1394.3479186792038,1394.3479186792038,-558.65199282553101,5574.2364850847644,0.0
688523.2936376977,3552751.2368613081,-42500.0,2072.7985580774866,-1952.7599060074208,-418.50077440324958,-1483.0950560661322,625.12678896244722,585.56989488176305,2710.6100113189873,933.64659108739761,-1688.9166439124292,1688.9166439124292,-933.64659108739761,4891.2336663804363,0.0
693523.2936376977,3552751.2368613081,-42500.0,2095.6380807510996,-1524.4561395610356,-977.47273479404794,-1231.5624815953154,132.34581340112297,290.2518035091507,2445.0533948903267,1211.5386679608444,-1826.4475218347159,1826.4475218347159,-1211.5386679608444,4327.8125936060487,0.0
698523.2936376977,3552751.2368613081,-42500.0,2012.1508803025597,-1078.2857483842483,-1384.8182839129797,-956.11204753297068,-256.87537665361015,50.611212677206019,2231.3488688086882,1386.5115987706754,-1834.1210453469153,1834.1210453469153,-1386.5115987706754,3892.5895866635724,0.0
703523.2936376977,3552751.2368613081,-42500.0,1844.0009039441318,-649.99573078311789,-1653.0943667915064,-680.82458814786912,-546.81759309212396,-134.52384350034583,2063.2201829064461,1465.5685776056662,-1744.4043672322505,1744.4043672322505,-1465.5685776056662,3574.9439326322954,0.0
708523.2936376977,3552751.2368613081,-42500.0,1616.455647520648,-263.75560721109485,-1803.0319705281661,-423.12590804992936,-748.32909188661984,-270.07676851683385,1930.8527890682176,1463.5960609482645,-1589.244544790708,1589.244544790708,-1463.5960609482645,3350.6302155785779,0.0
713523.2936376977,3552751.2368613081,-42500.0,1354.0810790371447,66.931774287968551,-1858.4833511351596,-193.9579660816284,-875.52418920741252,-363.01939582944078,1823.7149901039604,1398.9200450060744,-1396.4673914981404,1396.4673914981404,-1398.9200450060744,3190.3972844955319,0.0
718523.2936376977,3552751.2368613081,-42500.0,1078.0818685983677,337.11015848849968,-1842.8533867635267,1.2091059089655616,-943.28421886281876,-421.03019456044279,1732.6430603211368,1290.0047863219695,-1188.14808553335,1188.14808553335,-1290.0047863219695,3067.6831619729051,0.0
723523.2936376977,3552751.2368613081,-42500.0,805.0963473683222,547.90957584872808,-1776.9858812138664,161.03781902992654,-965.62662857696307,-451.5738950082806,1650.8005902035247,1153.4023459362606,-980.3999145740321,980.3999145740321,-1153.4023459362606,2962.6443320200997,0.0
728523.2936376977,3552751.2368613081,-42500.0,547.04164312748094,704.28596975195171,-1678.2049882185047,287.00206625623355,-954.81494707484933,-461.35930251370581,1573.7224066574959,1002.756156834949,-784.00003026655827,784.00003026655827,-1002.756156834949,2862.6623481122542,0.0
733523.2936376977,3552751.2368613081,-42500.0,311.58909132159982,813.21152462567159,-1560.1421477523211,382.26649604470924,-921.01212809046763,-456.08763453966941,1498.87638272095,848.55316416445544,-605.38910644722955,605.38910644722955,-848.55316416445544,2760.9659308049927,0.0
578523.2936376977,3557751.2368613081,-42500.0,1748.8185944707416,300.16237750599726,-983.99292293573865,801.04155664593986,-67.975236031485167,272.37558059498974,1579.0586568502249,1859.7321944842702,-876.51848227988739,876.51848227988739,-1859.7321944842702,2796.8659733619788,0.0
583523.2936376977,3557751.2368613081,-42500.0,1957.1742140947615,545.86525074463941,-894.15218489107701,998.43435992315653,90.578964286136852,396.58001354585571,1764.7736529035676,2082.2850902602754,-715.22745574623298,715.22745574623298,-2082.2850902602754,3166.210167639158,0.0
588523.2936376977,3557751.2368613081,-42500.0,2144.670227608055,828.02989509015504,-741.03939473881996,1214.8961679732065,302.49770981733553,552.20971471478742,1983.3024859080388,2284.6511170945914,-485.38605359182361,485.38605359182361,-2284.6511170945914,3609.3219717915545,0.0
593523.2936376977,3557751.2368613081,-42500.0,2295.8778259964542,1140.4512358831448,-509.49793084197523,1444.4175887187002,577.20782023633035,743.66026907714922,2238.7776424233257,2449.3823440883734,-177.2051776831122,177.2051776831122,-2449.3823440883734,4133.4464018362287,0.0
598523.2936376977,3557751.2368613081,-42500.0,2393.297888645905,1471.2317221743185,-184.69778661783423,1677.2478576373642,923.18438248868733,974.51686905096858,2534.5821673818746,2555.7907476745845,215.98865043335582,-215.98865043335582,-2555.7907476745845,4742.493819883779,0.0
603523.2936376977,3557751.2368613081,-42500.0,2418.8071436640012,1801.4510312220982,245.70911512276246,1899.212688575368,1346.4161873610758,1246.7290155014166,2872.809319507779,2581.153765136783,695.24391017737651,-695.24391017737651,-2581.153765136783,5435.4664125845584,0.0
608523.2936376977,3557751.2368613081,-42500.0,2356.0473829061407,2104.3301267142983,788.53573534001532,2091.3856207985732,1848.340706680671,1559.5433175672342,3253.2972212971677,2502.9844627190992,1252.9772279219233,-1252.9772279219233,-2502.9844627190992,6204.7054311034062,0.0
613523.2936376977,3557751.2368613081,-42500.0,2193.804655005219,2345.4382063840126,1441.1989533775411,2230.4319140876546,2423.3331771242197,1908.2488457114077,3671.6118639869655,2302.5370718562708,1869.8408999890971,-1869.8408999890971,-2302.5370718562708,7034.088306541873,0.0
618523.2936376977,3557751.2368613081,-42500.0,1930.1513232777784,2484.6003079573393,2187.4539764630949,2289.9993309050706,3056.0278073552258,2282.8814686908872,4116.1718619189887,1969.4736198551848,2512.1616550476701,-2512.1616550476701,-1969.4736198551848,7897.454625641949,0.0
623523.2936376977,3557751.2368613081,-42500.0,1576.7029173602409,2480.1205877822204,2993.5697153913566,2243.4973310203582,3719.0166001890952,2667.1604282989142,4566.7868368283407,1507.1913835523587,3130.9975715191326,-3130.9975715191326,-1507.1913835523587,8757.7202909643711,0.0
628523.2936376977,3557751.2368613081,-42500.0,1161.824479960191,2295.6064457875655,3806.2728196566154,2068.4139926971197,4371.7657432603046,3038.0695832307811,4996.0225859505863,937.72746068173592,3664.0868555042166,-3664.0868555042166,-937.72746068173592,9567.2991382038163,0.0
633523.2936376977,3557751.2368613081,-42500.0,731.17750718346167,1908.9531009463683,4554.1260562759026,1751.8961816182023,4961.7971652173555,3366.5964774477757,5371.9791914373145,304.54783846607506,4041.8494226562811,-4041.8494226562811,-304.54783846607506,10270.50716731335,0.0
638523.2936376977,3557751.2368613081,-42500.0,343.93760826632547,1321.92937858665,5153.8787925386214,1296.6638656397993,5429.1114311859001,3620.1141274620936,5661.5543251823974,-328.80481324842094,4197.8793114370064,-4197.8793114370064,328.80481324842094,10808.464580986623,0.0
643523.2936376977,3557751.2368613081,-42500.0,63.721473042395843,567.56731481143083,5522.3898336767097,725.58292624142723,5714.2506779108398,3766.6133494435867,5834.5210707558745,-885.85826694329717,4082.8926213674904,-4082.8926213674904,885.85826694329717,11126.517961170355,0.0
648523.2936376977,3557751.2368613081,-42500.0,-55.019242470485516,-288.16877174436382,5592.8313811757134,82.756144807667525,5769.2107062319028,3780.4087285404685,5868.444481319736,-1290.3397639256507,3679.094470766714,-3679.094470766714,1290.3397639256507,11183.373646178881,0.0
653523.2936376977,3557751.2368613081,-42500.0,18.051556897310089,-1153.306367001323,5331.4385939313861,-570.67285699446938,5568.8270835053036,3648.1306008670535,5753.656049630069,-1482.9736062065558,3010.2232034798708,-3010.2232034798708,1482.9736062065558,10960.127519820517,0.0
658523.2936376977,3557751.2368613081,-42500.0,278.05334198799704,-1925.6868375895826,4749.2588737039869,-1166.3037020509955,5119.0299117182594,3373.1536016736427,5497.0081796734376,-1437.025013025996,2142.4299829279021,-2142.4299829279021,1437.025013025996,10466.685205874939,0.0
663523.2936376977,3557751.2368613081,-42500.0,682.78624745523257,-2514.102656360923,3903.7039664044573,-1641.7894693260678,4458.4691759422376,2976.6099247908123,5123.0836767296287,-1166.6361595141993,1173.6293745185872,-1173.6293745185872,1166.6361595141993,9743.2087810887624,0.0
668523.2936376977,3557751.2368613081,-42500.0,1161.7650117999383,-2857.9694283074386,2887.9614565884135,-1953.5727884291221,3652.0193571023037,2494.1240359346994,4671.7061114678718,-723.95572402536413,213.52081901713817,-213.52081901713817,723.95572402536413,8855.5104402282959,0.0
673523.2936376977,3557751.2368613081,-42500.0,1633.680179377757,-2938.5713367421858,1811.2503923562424,-2084.6764312113114,2777.8540187238414,1969.0533755919591,4190.638908252221,-185.60279808164557,-639.23570216984581,639.23570216984581,185.60279808164557,7885.2460260495218,0.0
678523.2936376977,3557751.2368613081,-42500.0,2025.7546588528255,-2778.3832151862862,776.72702814052127,-2045.154529158315,1912.3994863239832,1444.4347767818779,3724.3596002428058,366.36309612408184,-1314.9442429378123,1314.9442429378123,-366.36309612408184,6917.3654402639768,0.0
683523.2936376977,3557751.2368613081,-42500.0,2288.1377529146507,-2430.112687471722,-135.79433783273237,-1865.927155226196,1117.9344467652468,956.15631853769935,3305.1051264981438,861.95369940401338,-1780.8037926587565,1780.8037926587565,-861.95369940401338,6027.5796575467557,0.0
688523.2936376977,3557751.2368613081,-42500.0,2399.5788712883882,-1960.8051179790527,-878.15257578024205,-1589.1003412398222,435.84104886288469,529.02007420089114,2950.7748816582689,1254.0288818437016,-2038.4490859014563,2038.4490859014563,-1254.0288818437016,5271.7346609010283,0.0
693523.2936376977,3557751.2368613081,-42500.0,2364.811188018316,-1436.8565839086452,-1433.2092021889591,-1258.3697805044412,-114.15277110665272,175.98547836829982,2666.3390355557972,1520.902330489452,-2114.542253614175,2114.542253614175,-1520.902330489452,4678.243132082137,0.0
698523.2936376977,3557751.2368613081,-42500.0,2206.869416895312,-913.68736702207048,-1808.2347262003739,-911.97948751586785,-530.41087250081227,-100.19829141107797,2446.1331546872261,1662.6098760142609,-2049.1179690100271,2049.1179690100271,-1662.6098760142609,4245.4806828565961,0.0
703523.2936376977,3557751.2368613081,-42500.0,1958.0910029057586,-431.02252282602899,-2026.0350908930138,-579.04491470796199,-823.8527083745654,-304.16900493054982,2277.5116799239886,1694.0495263090443,-1885.3801155401839,1885.3801155401839,-1694.0495263090443,3946.8179698019339,0.0
708523.2936376977,3557751.2368613081,-42500.0,1652.4759636641297,-12.713890735179646,-2116.6850796057547,-278.77596899949293,-1012.3903418948829,-444.97602201572397,2145.4001076920722,1637.8429729019147,-1662.7308447014409,1662.7308447014409,-1637.8429729019147,3742.8172748072998,0.0
713523.2936376977,3557751.2368613081,-42500.0,1320.5655056218181,330.72386518265733,-2111.3283831843646,-21.579311005159049,-1116.4501221397704,-533.58383233018185,2036.1029575763741,1518.6058479424678,-1413.1676697255102,1413.1676697255102,-1518.6058479424678,3594.6399124632399,0.0
718523.2936376977,3557751.2368613081,-42500.0,986.8366658136357,598.53075468834913,-2038.3343176559756,188.96930728059624,-1155.9317756408,-581.09317635472212,1939.2882200579011,1359.1852905760286,-1160.2896007767429,1160.2896007767429,-1359.1852905760286,3472.346153043904,0.0
723523.2936376977,3557751.2368613081,-42500.0,669.01680340470409,796.19111486768179,-1921.4337564173488,354.01111426147207,-1148.4821628421562,-597.65811374806617,1848.280338865331,1178.69578131201,-919.918044575826,919.918044575826,-1178.69578131201,3356.8448008092173,0.0
728523.2936376977,3557751.2368613081,-42500.0,378.59227490082981,932.55476511895438,-1779.233882101569,477.55570001440088,-1108.7596650660107,-591.95451817874573,1759.4130263000811,991.88007974051231,-701.48676581893562,701.48676581893562,-991.88007974051231,3238.0705735078877,0.0
733523.2936376977,3557751.2368613081,-42500.0,121.89727017495568,1017.7511296202583,-1625.5459132112087,565.05694208948046,-1048.3435530199292,-571.02799501888649,1671.1163888632282,809.29093230201795,-509.62514420637001,509.62514420637001,-809.29093230201795,3112.1131591675016,0.0
738523.2936376977,3557751.2368613081,-42500.0,-98.637545896710435,1061.8330285635998,-1470.0997933062306,622.41966305079143,-976.00344452850095,-540.36990142807622,1583.100774579962,637.88922114018408,-345.61400092134193,345.61400092134193,-637.88922114018408,2978.6997070230545,0.0
578523.2936376977,3562751.2368613081,-42500.0,1747.2865916130791,57.771252427075638,-1223.4827865073391,725.36219231920836,-239.47811977944087,208.78680727838196,1654.6822734743114,1877.2104336589723,-1189.145947989568,1189.145947989568,-1877.2104336589723,2895.2438635369117,0.0
583523.2936376977,3562751.2368613081,-42500.0,2006.5716295181144,304.29618918450609,-1181.482010093468,944.95639806602833,-95.025252274147419,338.03286937169185,1842.2909040621694,2158.3243799666939,-1071.3918511117577,1071.3918511117577,-2158.3243799666939,3257.6098948059334,0.0
588523.2936376977,3562751.2368613081,-42500.0,2253.3659595963959,598.15339806245868,-1077.9156241100927,1192.8951607253132,108.1415577792045,504.6581693121388,2066.0574950580094,2430.5248366914566,-881.5399461389095,881.5399461389095,-2430.5248366914566,3702.3534021657365,0.0
593523.2936376977,3562751.2368613081,-42500.0,2470.2666365221362,935.80424682142268,-894.3205803881126,1464.2822048928272,382.81336474656689,715.2164656359455,2332.3139962642786,2674.8699918977827,-605.51709586957622,605.51709586957622,-2674.8699918977827,4242.0305257050959,0.0
598523.2936376977,3562751.2368613081,-42500.0,2636.2274669391441,1307.436859127241,-611.17924030347774,1749.7520505179991,741.62538097071103,975.76797318758963,2647.0233915114363,2867.3956571075964,-231.42726077016778,231.42726077016778,-2867.3956571075964,4886.0703545190318,0.0
603523.2936376977,3562751.2368613081,-42500.0,2727.8123717320914,1694.9011828272908,-210.11997912722052,2034.2763763694652,1195.3214074593477,1290.8759798879746,3015.0932273332851,2979.9344630241262,247.52027101814065,-247.52027101814065,-2979.9344630241262,5638.6081409431436,0.0
608523.2936376977,3562751.2368613081,-42500.0,2721.6984604949243,2069.9576863754505,322.62235924564629,2296.2441981407078,1750.2024756640856,1662.2009360644433,3439.2187977833623,2982.258941813699,829.17288371863106,-829.17288371863106,-2982.258941813699,6496.0217667251472,0.0
613523.2936376977,3562751.2368613081,-42500.0,2598.671810639762,2393.5360581751811,991.41417984107113,2507.24400987337,2404.7470367065725,2086.7003606594603,3917.4468986591978,2845.9502000189959,1497.9962288214901,-1497.9962288214901,-2845.9502000189959,7444.2466999531107,0.0
618523.2936376977,3562751.2368613081,-42500.0,2349.0639741206751,2616.9561814263307,1785.3998049298052,2633.1245857498125,3145.633679520226,2554.5637313356369,4439.2027191862444,2550.1653989548158,2220.7983925182161,-2220.7983925182161,-2550.1653989548158,8456.1355388686407,0.0
623523.2936376977,3562751.2368613081,-42500.0,1979.0203435767003,2686.1741339502414,2672.5577745180108,2636.9747449268757,3943.7902719862032,3047.2048016580634,4982.2737978243913,2088.9620055853848,2943.9563236743734,-2943.9563236743734,-2088.9620055853848,9489.4221782925051,0.0
628523.2936376977,3562751.2368613081,-42500.0,1516.1878274672642,2549.8627950417813,3595.3361969186581,2484.5179262616416,4751.6086471378476,3535.8930665521343,5513.4435332223657,1479.0001774557941,3594.0154451234503,-3594.0154451234503,-1479.0001774557941,10486.183449920663,0.0
633523.2936376977,3562751.2368613081,-42500.0,1012.5297589547579,2171.2765386646061,4470.2962212709526,2151.9080668637102,5502.962722950253,3981.8723432733741,5991.6335076803653,765.39362666110628,4083.6899454321992,-4083.6899454321992,-765.39362666110628,11374.932865080478,0.0
638523.2936376977,3562751.2368613081,-42500.0,541.4618693537609,1542.2440349912313,5194.4120856418067,1634.9294271762697,6117.8560917161194,4338.9456591319367,6372.0888606989865,22.5871970350845,4324.6123708082996,-4324.6123708082996,-22.5871970350845,12076.437719404974,0.0
643523.2936376977,3562751.2368613081,-42500.0,187.05013675269402,695.50151107452677,5659.7224013263594,957.23594836630923,6512.9487915838636,4559.2532280765645,6612.0045175249215,-652.8908438514336,4246.2244655817412,-4246.2244655817412,652.8908438514336,12513.762100898379,0.0
648523.2936376977,3562751.2368613081,-42500.0,25.327317440075181,-290.17777339613087,5775.3979434977691,174.05052423995025,6617.4700416945698,4602.0854820217783,6677.8057758278155,-1159.2441085153378,3817.0147593079391,-3817.0147593079391,1159.2441085153378,12625.750047052461,0.0
653523.2936376977,3562751.2368613081,-42500.0,101.82175864391982,-1297.3972487522158,5492.2731805079047,-632.29338259088399,6391.2201200964209,4444.0398733377215,6552.9776105545825,-1413.4046074524463,3060.9941150797781,-3060.9941150797781,1413.4046074524463,12381.336615060814,0.0
658523.2936376977,3562751.2368613081,-42500.0,413.47150592480386,-2191.8128819944632,4821.2718713937111,-1366.3988668831748,5838.6784365126359,4087.2502837454149,6244.2947410418255,-1375.0087386356956,2061.1850880695529,-2061.1850880695529,1375.0087386356956,11790.497763239087,0.0
663523.2936376977,3562751.2368613081,-42500.0,904.0143366985767,-2853.1757229472923,3836.8888071166753,-1940.5782664907863,5012.7514825100643,3561.9693819208055,5784.1156675073235,-1060.3934038145767,945.30314863870001,-945.30314863870001,1060.3934038145767,10907.494148767548,0.0
668523.2936376977,3562751.2368613081,-42500.0,1477.2555644383531,-3204.7475824234984,2661.9202440127251,-2295.2757424864212,4004.9595422106786,2921.461002881123,5227.0140234514301,-539.19663273401704,-143.50843208025867,143.50843208025867,539.19663273401704,9824.1262606914297,0.0
673523.2936376977,3562751.2368613081,-42500.0,2023.9041164259186,-3229.2977741330005,1438.1563047182512,-2411.1553564807814,2924.8305767245829,2230.5057886849218,4639.552821338797,86.038324868981249,-1080.2724214091886,1080.2724214091886,-86.038324868981249,8654.2940634270999,0.0
678523.2936376977,3562751.2368613081,-42500.0,2450.6570540409084,-2966.0628111004271,294.39715642081404,-2308.6190178341185,1876.2692437849382,1551.7905612834766,4083.7971027815129,708.48370817553791,-1783.239720092877,1783.239720092877,-708.48370817553791,7514.1292162468371,0.0
683523.2936376977,3562751.2368613081,-42500.0,2700.024025347409,-2492.2711926875013,-676.66749065462534,-2036.5630668311271,939.29229684630684,935.00843553708626,3602.3129069577221,1242.0401766504299,-2222.6232345085036,2222.6232345085036,-1242.0401766504299,6502.402401018865,0.0
688523.2936376977,3562751.2368613081,-42500.0,2755.5997371500766,-1898.8405458472016,-1427.0388680721869,-1656.4175258017858,161.76133407631897,411.49874369647489,3213.8796398639402,1634.7238145867022,-2413.6642084079513,2413.6642084079513,-1634.7238145867022,5684.2933916418488,0.0
693523.2936376977,3562751.2368613081,-42500.0,2634.9877032986569,-1269.6407980873066,-1948.9794383184417,-1227.751338184906,-439.302956184295,-5.5906710267493009,2917.147327997372,1869.3686836262145,-2400.7599848977484,2400.7599848977484,-1869.3686836262145,5081.1542959540666,0.0
698523.2936376977,3562751.2368613081,-42500.0,2376.6460081465948,-669.23589294737792,-2263.2965621922758,-799.03779197621054,-870.46389398658243,-317.54259326585259,2696.8360234053753,1955.7829603432856,-2240.391270785175,2240.391270785175,-1955.7829603432856,4671.0785996659315,0.0
703523.2936376977,3562751.2368613081,-42500.0,2026.682027141356,-139.18625016544323,-2406.2434491593599,-404.0353959995681,-1152.7935677346661,-535.01584580355029,2531.3080408729938,1919.8683263579037,-1987.9305989687546,1987.9305989687546,-1919.8683263579037,4403.6302952134556,0.0
708523.2936376977,3562751.2368613081,-42500.0,1629.0663401423221,299.7387082552479,-2418.7898594065396,-62.321230903160675,-1313.8418274319072,-673.37039214840127,2399.5922886498329,1793.7857709042876,-1689.9674276324233,1689.9674276324233,-1793.7857709042876,4222.1019228848545,0.0
713523.2936376977,3562751.2368613081,-42500.0,1220.120665228859,642.56231225323961,-2339.5862412008105,217.97057213919697,-1381.8894303868001,-749.16445548517504,2285.5325767560757,1609.0263034425341,-1381.4248621572572,1381.4248621572572,-1609.0263034425341,4080.3880919832695,0.0
718523.2936376977,3562751.2368613081,-42500.0,826.55943862943434,894.64879903004635,-2201.3385497582417,436.76679876873169,-1382.5495904271559,-777.94789808781763,2178.75500337428,1392.5451426440704,-1085.8365991021237,1085.8365991021237,-1392.5451426440704,3948.6884816063739,0.0
723523.2936376977,3562751.2368613081,-42500.0,465.83875296027549,1067.0628865241547,-2029.6457485357555,598.95822147301703,-1337.2159591339257,-773.12959268817065,2073.7283819555346,1165.2779954316186,-817.21863417223904,817.21863417223904,-1165.2779954316186,3811.4591934068244,0.0
728523.2936376977,3562751.2368613081,-42500.0,147.67277508104002,1173.1735958867564,-1843.3059530090502,711.98044409866043,-1262.7275357781234,-745.59314930925927,1968.2488428014724,942.16771309809144,-582.42864429859071,582.42864429859071,-942.16771309809144,3662.8740981402166,0.0
733523.2936376977,3562751.2368613081,-42500.0,-124.0818678940215,1226.4567918782611,-1655.3267496614214,784.1306330841719,-1171.7156230183641,-703.76467313784246,1862.0803119947127,732.97042821981518,-383.38901328825153,383.38901328825153,-732.97042821981518,3502.7175955232055,0.0
738523.2936376977,3562751.2368613081,-42500.0,-349.6339648502518,1239.2488012059193,-1474.1456165522022,823.51418243775834,-1073.2550918038555,-653.90959122829145,1755.9752999603581,543.3415004293314,-218.9030129733469,218.9030129733469,-543.3415004293314,3333.5143168401428,0.0
743523.2936376977,3562751.2368613081,-42500.0,-531.76744979823752,1222.1680492964465,-1304.7920119665098,837.46496563024709,-973.58902643518093,-600.51383829490044,1651.0570984789906,375.91256619838987,-86.007482343713178,86.007482343713178,-375.91256619838987,3158.7820592913608,0.0
573523.2936376977,3567751.2368613081,-42500.0,1382.6235256002258,-414.83283915516103,-1398.3777052776979,400.48137198734264,-509.6323874090773,22.69290811565293,1589.3375253223066,1500.4391991213936,-1514.4272627206776,1514.4272627206776,-1500.4391991213936,2752.8168775861841,0.0
578523.2936376977,3567751.2368613081,-42500.0,1681.6030572353955,-233.23287966735722,-1451.5014125987336,598.97895591093663,-436.58813015016176,117.14812724637717,1745.2864872796299,1821.0101618610993,-1508.8476474714689,1508.8476474714689,-1821.0101618610993,3028.7967571907516,0.0
583523.2936376977,3567751.2368613081,-42500.0,1993.4837423937013,2.0712558353299699,-1466.2765806369928,836.00585101498234,-315.65931380352703,246.43064527484779,1931.1282175553886,2161.2155655505994,-1448.5436271912877,1448.5436271912877,-2161.2155655505994,3372.4477246651472,0.0
588523.2936376977,3567751.2368613081,-42500.0,2305.0504004162481,295.30886077381257,-1425.0526528349801,1112.1624113242412,-132.33088142881886,419.03934204169326,2154.74909460859,2508.1099585653924,-1316.2689380485917,1316.2689380485917,-2508.1099585653924,3802.7046870166164,0.0
593523.2936376977,3567751.2368613081,-42500.0,2597.764982567197,646.70831737449964,-1306.5332486677682,1424.6489495657659,129.91826911118707,644.24475354257652,2425.0286986552019,2842.4956531912085,-1093.5126914838108,1093.5126914838108,-2842.4956531912085,4338.9936034174407,0.0
598523.2936376977,3567751.2368613081,-42500.0,2847.56673211928,1050.0393302537727,-1086.6026452691769,1765.6296235925993,488.68466706193266,931.43767402910771,2751.2960963680612,3138.1677179060935,-762.43504052843014,762.43504052843014,-3138.1677179060935,4998.7391203785546,0.0
603523.2936376977,3567751.2368613081,-42500.0,3025.642106166526,1489.7122178298825,-740.32940669497441,2120.3857037471303,960.83913218130544,1289.0023022552507,3142.5052730618982,3362.0185341960369,-309.04448822939207,309.04448822939207,-3362.0185341960369,5794.2896719266128,0.0
608523.2936376977,3567751.2368613081,-42500.0,3100.7213956563105,1937.8466082900673,-245.60431507040511,2465.5403853697658,1559.568434147187,1722.5768781632744,3605.8471136568387,3475.644770250864,272.20613754886926,-272.20613754886926,-3475.644770250864,6729.3859564747454,0.0
613523.2936376977,3567751.2368613081,-42500.0,3043.4438144911464,2352.1175508382462,411.25449727355823,2767.8786063010016,2290.0644593816314,2232.6118194000896,4143.822343328372,3439.1762092926965,972.54285255112882,-972.54285255112882,-3439.1762092926965,7795.2304873755811,0.0
618523.2936376977,3567751.2368613081,-42500.0,2833.0735389481356,2675.6546948090563,1227.9895054382159,2984.5749367879425,3143.9354159745576,2811.2673726393905,4748.9027935240319,3217.9059272929862,1762.4324320854591,-1762.4324320854591,-3217.9059272929862,8966.3373810642515,0.0
623523.2936376977,3567751.2368613081,-42500.0,2466.1909624736377,2840.6459642464065,2177.8290099694723,3065.8898196685359,4092.9418694126384,3438.9561374119467,5398.2250430899103,2791.760206816497,2586.1659534805131,-2586.1659534805131,-2791.760206816497,10196.729978144007,0.0
628523.2936376977,3567751.2368613081,-42500.0,1965.8484121420631,2777.2701758085273,3201.8533072324235,2961.4215539966976,5083.4690361822222,4081.2603670491699,6052.677622429841,2166.5696602401781,3360.0171063561024,-3360.0171063561024,-2166.5696602401781,11417.649950119279,0.0
633523.2936376977,3567751.2368613081,-42500.0,1388.1624776788453,2428.7175492211823,4205.6426275495151,2630.5164496158191,6034.1346992180952,4687.5195749287432,6660.0637567500762,1384.4715197267785,3977.2097501849375,-3977.2097501849375,-1384.4715197267785,12538.551766570119,0.0
638523.2936376977,3567751.2368613081,-42500.0,821.95624408765286,1770.9244972437223,5064.412527176175,2056.1048403897043,6839.6768821248897,5192.8959207992975,7160.2150242827229,528.97560007325274,4322.5500406173196,-4322.5500406173196,-528.97560007325274,13453.430421322282,0.0
643523.2936376977,3567751.2368613081,-42500.0,376.97324853750035,832.25355512434783,5640.1808418713299,1258.9279252038721,7383.9995463399991,5525.7511573982738,7492.555684310486,-280.74643966343842,4297.2413618092714,-4297.2413618092714,280.74643966343842,14054.008877991648,0.0
648523.2936376977,3567751.2368613081,-42500.0,158.91767924993766,-295.24056782700103,5811.131049430337,306.43177793580963,7562.9452054542953,5621.0163501889519,7606.794857540488,-910.28576330020474,3849.6268804014962,-3849.6268804014962,910.28576330020474,14249.44607907148,0.0
653523.2936376977,3567751.2368613081,-42500.0,235.94395075642063,-1462.4376822917004,5507.0379072617116,-690.63501562343015,7312.6223986581208,5437.4729162703843,7475.3046974162471,-1243.6350070784797,3001.595462613464,-3001.595462613464,1243.6350070784797,13989.032429618725,0.0
658523.2936376977,3567751.2368613081,-42500.0,609.15834727304843,-2492.4707010939655,4737.816859085824,-1598.0880339631535,6633.5418431829776,4973.2493823819414,7103.6082226656781,-1220.0213232301262,1856.980086163308,-1856.980086163308,1220.0213232301262,13280.955873262907,0.0
663523.2936376977,3567751.2368613081,-42500.0,1203.1831970997214,-3226.4814330553481,3600.3400679677875,-2291.1016930176179,5598.5969240708655,4271.9699499091812,6534.7128607677814,-857.43466263973983,582.50252287854369,-582.50252287854369,857.43466263973983,12199.110652809375,0.0
668523.2936376977,3567751.2368613081,-42500.0,1885.7828034148947,-3567.9339661307722,2256.2644365372375,-2687.5950069908154,4338.0963322877551,3414.7108351544985,5844.3446485042887,-249.05333550712174,-635.32329070944957,635.32329070944957,249.05333550712174,10873.161283731382,0.0
673523.2936376977,3567751.2368613081,-42500.0,2509.6806195780114,-3505.2914736959483,888.37255587251434,-2767.2715182960642,3006.4002880796606,2499.8989697529473,5125.9885016526978,467.74865124070664,-1639.81067237863,1639.81067237863,-467.74865124070664,9463.7616433151361,0.0
678523.2936376977,3567751.2368613081,-42500.0,2956.5678393153871,-3104.0261445606602,-345.46657675597146,-2568.6614407036091,1744.4584347368136,1619.7511217147403,4466.4184142363865,1154.7322430011334,-2338.7213698362093,2338.7213698362093,-1154.7322430011334,8130.4797406225398,0.0
683523.2936376977,3567751.2368613081,-42500.0,3163.801627470104,-2475.6677897666418,-1342.2520914575755,-2168.5477536291833,653.17397600368452,842.75387567939765,3921.1139542911314,1708.2807230045178,-2712.1869588345903,2712.1869588345903,-1708.2807230045178,7000.5368904212946,0.0
688523.2936376977,3567751.2368613081,-42500.0,3126.8914538596141,-1741.1464086253623,-2060.5865308932607,-1655.6890706365305,-215.55199132297247,206.92176875323912,3506.2712102510277,2074.9265675942961,-2797.4533428364566,2797.4533428364566,-2074.9265675942961,6143.8547894765134,0.0
693523.2936376977,3567751.2368613081,-42500.0,2884.1763222689842,-1003.1479904792085,-2509.2382199719946,-1109.707506220828,-852.77548500169496,-277.41130179469172,3207.5476186344258,2247.5712059508319,-2663.1754298777973,2663.1754298777973,-2247.5712059508319,5561.2725220807624,0.0
698523.2936376977,3567751.2368613081,-42500.0,2495.3906466837739,-333.08054740094718,-2727.9421593196885,-589.87509488163334,-1278.9473403185946,-619.70474724722942,2994.4573858515932,2250.935748524545,-2385.4849252992112,2385.4849252992112,-2250.935748524545,5196.1187134621632,0.0
703523.2936376977,3567751.2368613081,-42500.0,2023.2708928407908,229.61347275957226,-2769.211716791729,-132.86024841212873,-1529.7406317770465,-840.50793643452243,2834.1578933520686,2125.246006485082,-2032.117632164877,2032.117632164877,-2125.246006485082,4967.4893345100736,0.0
708523.2936376977,3567751.2368613081,-42500.0,1522.0287185005523,671.20388225798456,-2685.4487432662886,244.04219279983826,-1645.0878325579215,-964.42908137092513,2700.414086594827,1913.5055082449815,-1655.1634417053112,1655.1634417053112,-1913.5055082449815,4803.4133165894245,0.0
713523.2936376977,3567751.2368613081,-42500.0,1032.4214883166528,995.31951934598317,-2521.8724310059706,537.57391666994079,-1662.3789516230977,-1015.5250339332755,2576.366860983474,1653.8629027524648,-1290.0511522320562,1290.0511522320562,-1653.8629027524648,4655.9142681778403,0.0
718523.2936376977,3567751.2368613081,-42500.0,581.37919427678264,1215.3897657701139,-2313.9077152205673,753.24883448975777,-1613.1679761541779,-1014.843622802421,2453.2455914325719,1376.3135038964583,-957.886762150972,957.886762150972,-1376.3135038964583,4499.9657297812173,0.0
723523.2936376977,3567751.2368613081,-42500.0,184.03487180368387,1349.0150659028991,-2087.29069093015,901.15305695453333,-1522.2432409187659,-979.49544741850582,2327.7720987230232,1102.2480347644387,-668.96794934215188,668.96794934215188,-1102.2480347644387,4326.3605203976413,0.0
728523.2936376977,3567751.2368613081,-42500.0,-153.40988528442085,1414.3335030559222,-1859.4818785037808,993.02426509349232,-1408.0247564604053,-922.64732489600647,2199.8090059131796,845.49492351304048,-426.21881833395605,426.21881833395605,-845.49492351304048,4134.8450906774551,0.0
733523.2936376977,3567751.2368613081,-42500.0,-430.88856770892625,1427.9879446536881,-1641.4812790742983,1040.4462188025759,-1283.552587781955,-853.98028973210432,2070.709766321489,613.91968042593999,-227.99997441985721,227.99997441985721,-613.91968042593999,3929.3644540600972,0.0
738523.2936376977,3567751.2368613081,-42500.0,-652.14763169103526,1404.2044421596047,-1439.5635461300399,1053.8752524210859,-1157.6258243650864,-780.32002163402763,1942.3203705687602,411.04732880632832,-70.172243595421747,70.172243595421747,-411.04732880632832,3715.2589601631662,0.0
743523.2936376977,3567751.2368613081,-42500.0,-823.0033111627057,1354.5584369091646,-1256.7284805558966,1042.223510860264,-1035.8633345998187,-706.27356159244653,1816.4441762400484,237.45823174379663,52.507079496683531,-52.507079496683531,-237.45823174379663,3497.7972708670991,0.0
568523.2936376977,3572751.2368613081,-42500.0,898.29527944370955,-819.81731576932611,-1425.5304549542523,55.033120214342105,-702.44893411608666,-147.55298086680801,1572.109240827602,995.77320978086368,-1670.4606864685709,1670.4606864685709,-995.77320978086368,2751.2335901645251,0.0
573523.2936376977,3572751.2368613081,-42500.0,1198.8092236730852,-718.79474041897129,-1546.2740686816296,212.01502753208183,-695.10816801443525,-91.944412513175479,1705.3033225416164,1311.8390301033119,-1759.5428710833726,1759.5428710833726,-1311.8390301033119,2965.2446506204892,0.0
578523.2936376977,3572751.2368613081,-42500.0,1533.4325191893113,-568.36050689913145,-1652.4890995975531,410.90194762547037,-654.78930540597435,-7.5947790278330221,1859.1966824034635,1669.6130475393818,-1817.2379348812622,1817.2379348812622,-1669.6130475393818,3221.3566773784128,0.0
583523.2936376977,3572751.2368613081,-42500.0,1895.6733395730637,-359.11946200256909,-1730.7845882428908,656.99740200611166,-567.95010147858102,114.53631279262375,2040.6784693579903,2064.2833088669536,-1827.5695016156221,1827.5695016156221,-2064.2833088669536,3537.5085576005263,0.0
588523.2936376977,3572751.2368613081,-42500.0,2273.8092117113083,-82.868827732370789,-1763.1336605538345,953.95894051994367,-417.66310834318227,285.29168169732429,2258.8110783148031,2485.5335309835518,-1770.990686158468,1770.990686158468,-2485.5335309835518,3936.7016875268428,0.0
593523.2936376977,3572751.2368613081,-42500.0,2649.5499736840088,265.41049231047612,-1726.4221438305847,1302.2735167336778,-183.60743039682941,517.17087278950521,2524.8905959323961,2915.7508794757227,-1624.9471662458541,1624.9471662458541,-2915.7508794757227,4445.8017617349478,0.0
598523.2936376977,3572751.2368613081,-42500.0,2997.0478896710256,684.6867225275513,-1592.6827357486795,1697.1798926649913,157.32266418169883,823.80477102162831,2852.129035482355,3328.3652772354772,-1365.4774551522778,1365.4774551522778,-3328.3652772354772,5092.7311060703023,0.0
603523.2936376977,3572751.2368613081,-42500.0,3282.8105615494123,1164.1318427459262,-1330.5797017318512,2126.0663456102993,629.38543695539261,1218.8367246471164,3254.8451242752371,3686.860037610762,-970.34164975355952,970.34164975355952,-3686.860037610762,5902.1946903141943,0.0
608523.2936376977,3572751.2368613081,-42500.0,3467.305776288058,1678.8041862693308,-908.85167509504959,2565.5682543240014,1254.8391307042793,1713.9495371825813,3746.8694578641625,3945.2886617390927,-424.13244976696888,424.13244976696888,-3945.2886617390927,6890.3907575657231,0.0
613523.2936376977,3572751.2368613081,-42500.0,3509.199849203731,2185.593669640336,-302.41401505927269,2978.9254889786748,2048.7838836092878,2315.7745288854394,4338.058034714817,4051.4002423550824,274.45653041472224,-274.45653041472224,-4051.4002423550824,8059.0808549560288,0.0
618523.2936376977,3572751.2368613081,-42500.0,3373.0502730211865,2620.9996610081093,498.52495850031761,3314.6360644771253,3011.749018619184,3021.5169293573076,5027.2707991674433,3953.5319408350169,1103.7057335187083,-1103.7057335187083,-3953.5319408350169,9389.2082106288744,0.0
623523.2936376977,3572751.2368613081,-42500.0,3040.6195799108632,2903.0962053518665,1476.8839678982529,3507.9946921277042,4120.4058602679934,3813.4303034652717,5793.7606771552273,3612.0021676309343,2009.9606137386534,-2009.9606137386534,-3612.0021676309343,10834.490920253262,0.0
628523.2936376977,3572751.2368613081,-42500.0,2524.519002210815,2940.4650700680813,2576.8200678035232,3487.5055410632799,5317.9566355007219,4652.8922930880017,6593.3950522329096,3014.5004265591269,2901.9910218696668,-2901.9910218696668,-3014.5004265591269,12316.268492875623,0.0
633523.2936376977,3572751.2368613081,-42500.0,1880.5495055313593,2650.2436405411217,3695.8355023885824,3187.9444706288909,6507.4500959918505,5475.8558021544159,7361.1421293670746,2192.6959378080878,3653.3761658417629,-3653.3761658417629,-2192.6959378080878,13722.100626502122,0.0
638523.2936376977,3572751.2368613081,-42500.0,1212.3799741793493,1984.8742519828947,4687.1066037081355,2570.3140242009099,7553.0521059781549,6192.7398622538558,8016.9250327186792,1234.2073201208209,4118.0218132923546,-4118.0218132923546,-1234.2073201208209,14911.634012454751,0.0
643523.2936376977,3572751.2368613081,-42500.0,660.6280327740991,962.12373819842651,5378.3795439276464,1645.3919432177677,8294.9517736628477,6696.7166441468207,8475.4247303893717,281.3516466973017,4161.5069965981602,-4161.5069965981602,-281.3516466973017,15733.163822416145,0.0
648523.2936376977,3572751.2368613081,-42500.0,370.86241499096838,-313.57799380352822,5609.8587948693594,492.29022342559068,8581.0314079826512,6883.3386193029319,8661.529942152174,-491.61767116406327,3704.3171748705686,-3704.3171748705686,491.61767116406327,16051.944824938293,0.0
653523.2936376977,3572751.2368613081,-42500.0,444.38509364375858,-1654.48325279494,5284.1993711788518,-740.79061911669976,8310.8865414151751,6679.8270454760577,8529.8473798155974,-924.23193080598958,2762.8820918506312,-2762.8820918506312,924.23193080598958,15785.972242112995,0.0
658523.2936376977,3572751.2368613081,-42500.0,890.35385848523651,-2828.4155537999341,4409.7232833243797,-1863.8758793760171,7476.8256259396085,6074.4600786051624,8082.465276906888,-925.71277884286246,1466.4198062768951,-1466.4198062768951,925.71277884286246,14938.098987554718,0.0
663523.2936376977,3572751.2368613081,-42500.0,1607.3526626098555,-3626.1121342272154,3112.4684267336943,-2697.4064126134654,6179.9221783983648,5130.625918460194,7377.1101254229779,-514.30469980150042,31.887070102999104,-31.887070102999104,514.30469980150042,13609.712703348387,0.0
668523.2936376977,3572751.2368613081,-42500.0,2412.6081135158133,-3928.0769131026323,1603.7931651564641,-3127.727367074734,4606.9593115257339,3974.080673996089,6520.1621745431512,185.49594797443035,-1299.526222910657,1299.526222910657,-185.49594797443035,11986.031160244298,0.0
673523.2936376977,3572751.2368613081,-42500.0,3107.9030576722098,-3736.2249886998043,115.58366302210908,-3137.3747235024016,2975.7811849038799,2756.8068496842066,5643.7478900344504,990.26256541517387,-2335.3973001306554,2335.3973001306554,-990.26256541517387,10295.628434494212,0.0
678523.2936376977,3572751.2368613081,-42500.0,3546.2911587745671,-3156.0200230907176,-1164.8794437830531,-2796.1606223926387,1475.7554104673359,1615.3593304955127,4868.7465307933708,1723.354981549531,-2978.6135192532447,2978.6135192532447,-1723.354981549531,8757.691981259115,0.0
683523.2936376977,3572751.2368613081,-42500.0,3666.4993118880293,-2345.2722869498916,-2131.4679922964251,-2223.5019064819207,229.91435142449171,642.80021500898647,4265.1809594299129,2264.4576841511689,-3230.6475342088779,3230.6475342088779,-2264.4576841511689,7531.2178894669478,0.0
688523.2936376977,3572751.2368613081,-42500.0,3487.5141694784329,-1460.2164320967456,-2759.7741870030441,-1545.5710159145397,-711.98126481610609,-118.24639443277481,3838.8835155411857,2565.2703270887696,-3161.8163829230689,3161.8163829230689,-2565.2703270887696,6677.4031188668323,0.0
693523.2936376977,3572751.2368613081,-42500.0,3078.9512013084018,-620.87865173983812,-3084.013238984639,-865.57692004999649,-1357.8364635864939,-666.42960498997616,3551.851252914717,2636.7957360724699,-2871.6274386877944,2871.6274386877944,-2636.7957360724699,6153.2641785962323,0.0
698523.2936376977,3572751.2368613081,-42500.0,2527.9892160481904,99.859163240258624,-3167.9254384032047,-252.09416367654134,-1749.6199938305747,-1026.1825768971869,3352.258826885487,2524.6462156968046,-2457.3044228381423,2457.3044228381423,-2524.6462156968046,5851.1026322096714,0.0
703523.2936376977,3572751.2368613081,-42500.0,1915.5555013746077,670.80220273137718,-3081.4822556428858,259.21843384266487,-1942.5260815815866,-1233.4244545694783,3195.8154556074887,2286.1305648463108,-1996.78328787736,1996.78328787736,-2286.1305648463108,5658.8533714724981,0.0
708523.2936376977,3572751.2368613081,-42500.0,1304.5194058038055,1090.2067669683399,-2887.0890123231602,657.60481940623436,-1991.1482434926843,-1325.6280316988689,3053.7086337517262,1975.1489830737069,-1543.9331169354273,1543.9331169354273,-1975.1489830737069,5497.2454189716718,0.0
713523.2936376977,3572751.2368613081,-42500.0,737.06314056818792,1373.4331749026492,-2633.8974203052494,948.17132199362834,-1942.3983901769589,-1336.3337535633016,2911.2070645180866,1634.976948026276,-1130.9287825201238,1130.9287825201238,-1634.976948026276,5324.2640590238007,0.0
718523.2936376977,3572751.2368613081,-42500.0,237.14585867274104,1543.4541509327089,-2357.2430431109437,1144.4161924398013,-1833.1534417422515,-1292.9247512601535,2763.0600021231157,1296.5429426281335,-773.42148890877218,773.42148890877218,-1296.5429426281335,5124.4066652918291,0.0
723523.2936376977,3572751.2368613081,-42500.0,-185.12258197844693,1624.7192209381176,-2080.5751201162047,1263.0267514464549,-1690.5681935277528,-1216.3583492100602,2609.2504244675356,979.65375820355371,-475.89996046931179,475.89996046931179,-979.65375820355371,4896.9826317541256,0.0
728523.2936376977,3572751.2368613081,-42500.0,-529.04709089254595,1639.770369807489,-1818.1718815247857,1320.7093442533533,-1533.5738229445162,-1121.8707599398433,2452.1059784770951,695.354865197192,-236.09991141239399,236.09991141239399,-695.354865197192,4648.0065688975719,0.0
733523.2936376977,3572751.2368613081,-42500.0,-799.6675159178717,1607.7434008603661,-1577.7505234402447,1332.5189488063918,-1374.6864068202512,-1020.0380222515283,2294.6296162319682,448.40032870925751,-48.192478301386018,48.192478301386018,-448.40032870925751,4385.5597940768112,0.0
738523.2936376977,3572751.2368613081,-42500.0,-1005.0388408935264,1544.0051917237738,-1362.6154137718509,1311.1686731257807,-1221.6919316089393,-917.85870394720121,2139.6572814682859,239.37045857621013,95.115399142111869,-95.115399142111869,-239.37045857621013,4117.4718515110726,0.0
743523.2936376977,3572751.2368613081,-42500.0,-1154.3871142828539,1460.3921155212568,-1173.2754660888613,1266.9173166846501,-1079.040272671826,-819.70516796418303,1989.5059319638735,66.30145426977812,201.31017210820232,-201.31017210820232,-66.30145426977812,3850.3438743429283,0.0
748523.2936376977,3572751.2368613081,-42500.0,-1256.9551303935386,1365.7105078037582,-1008.5895821160012,1207.7587859546165,-948.91923425745324,-728.09245796040636,1845.884247753419,-74.149941985422871,277.37563103201455,-277.37563103201455,74.149941985422871,3589.2774303781107,0.0
563523.2936376977,3577751.2368613081,-42500.0,344.86508972884849,-1120.0685532373134,-1331.4710297188449,-279.52197584769448,-812.45893361044125,-291.03673538910044,1590.2054940180756,422.20874800704269,-1662.9567934071297,1662.9567934071297,-422.20874800704269,2850.7570173366921,0.0
568523.2936376977,3577751.2368613081,-42500.0,610.81214910380868,-1100.1154409122046,-1488.065048159016,-177.34455809434277,-857.71284600997649,-273.76734956898025,1714.471301339662,694.33800850272326,-1817.3073260898163,1817.3073260898163,-694.33800850272326,3043.5623609876238,0.0
573523.2936376977,3577751.2368613081,-42500.0,923.789325931809,-1042.8666169857163,-1649.6753767315097,-36.632609828235708,-885.73292286929495,-236.12941830949805,1851.6956577505134,1019.8579295862496,-1963.6187523120984,1963.6187523120984,-1019.8579295862496,3256.2906414470604,0.0
578523.2936376977,3577751.2368613081,-42500.0,1284.355968359532,-937.1998111414722,-1808.7208588260382,150.78059390888777,-885.96065176524405,-169.92100264072414,2005.8807886595655,1401.6761545589716,-2090.375247834183,2090.375247834183,-1401.6761545589716,3498.8382383130802,0.0
583523.2936376977,3577751.2368613081,-42500.0,1689.3731961709598,-770.86674926694593,-1953.5185152304475,393.22065041516765,-844.10822716098664,-64.590864718743148,2183.1419942543962,1839.3247424144131,-2181.8176217865907,2181.8176217865907,-1839.3247424144131,3787.0409267627747,0.0
588523.2936376977,3577751.2368613081,-42500.0,2130.2428094818929,-531.52997857803757,-2067.1082738136279,698.1847323902025,-741.42764914043232,93.089840357139153,2392.4852426186399,2326.9830805486476,-2217.3682330347679,2217.3682330347679,-2326.9830805486476,4144.4185487232062,0.0
593523.2936376977,3577751.2368613081,-42500.0,2590.8839130766091,-208.66223312537767,-2126.1791201299884,1070.7290928620432,-554.19627240153977,319.18154515345077,2646.5398875505912,2851.0325740020826,-2171.5657455491264,2171.5657455491264,-2851.0325740020826,4602.9289288481423,0.0
598523.2936376977,3577751.2368613081,-42500.0,3045.7414255675735,203.38741911861874,-2100.4956761365988,1511.0449449950277,-253.75552593221536,632.36434471606253,2961.9762882894056,3387.3517440738988,-2015.012620048813,2015.012620048813,-3387.3517440738988,5201.4786332764115,0.0
603523.2936376977,3577751.2368613081,-42500.0,3458.4241378443062,700.93873679615717,-1953.4978174404162,2011.095137731256,192.36392066566398,1053.0650314365257,3359.2547719948916,3898.8684222149868,-1717.0335876129482,1717.0335876129482,-3898.8684222149868,5981.2627307052826,0.0
608523.2936376977,3577751.2368613081,-42500.0,3781.9724754753915,1265.2121738933472,-1645.0425385717392,2550.3746744631781,817.4826307765162,1601.5055383456154,3861.1843134453161,4334.3322142013694,-1250.8489069829332,1250.8489069829332,-4334.3322142013694,6978.0981113315966,0.0
613523.2936376977,3577751.2368613081,-42500.0,3962.1664536470016,1855.9518619316543,-1137.4512285139642,3091.2606176361855,1650.0789934434242,2294.1396396667606,4488.9511424831799,4629.7966863059046,-601.91460002776512,601.91460002776512,-4629.7966863059046,8212.9011643359954,0.0
618523.2936376977,3577751.2368613081,-42500.0,3945.4708328191755,2406.1904904852149,-405.84697286557605,3575.1159216665542,2704.5585356826296,3137.9216980037327,5253.0494870673801,4714.7136934671944,220.59607596558953,-220.59607596558953,-4714.7136934671944,9681.4115463753224,0.0
623523.2936376977,3577751.2368613081,-42500.0,3692.7496637873542,2821.264833403297,547.17765824949856,3921.3033728996284,3968.3251077530135,4122.0842659373175,6139.9091892236593,4524.4384738316621,1170.6756639443113,-1170.6756639443113,-4524.4384738316621,11343.75304024923,0.0
628523.2936376977,3577751.2368613081,-42500.0,3198.2262959520549,2986.3734936684609,1674.5894690548726,4032.3338499309052,5386.535237593429,5207.8682753070352,7103.0765734801189,4019.7570605314695,2154.5723213054835,-2154.5723213054835,-4019.7570605314695,13114.907889670689,0.0
633523.2936376977,3577751.2368613081,-42500.0,2509.8690042240378,2786.944143368733,2870.8638451182946,3808.8794083315383,6848.5784582942597,6318.2774054956562,8063.7766635322951,3211.1854597532147,3028.6280426031126,-3028.6280426031126,-3211.1854597532147,14859.08532702453,0.0
638523.2936376977,3577751.2368613081,-42500.0,1742.6900072149665,2143.3370804116794,3969.5307370586465,3177.0938663808433,8183.7639375491253,7332.5763208947146,8917.0751985279167,2181.1207810562187,3614.028934697872,-3614.028934697872,-2181.1207810562187,16393.391854714915,0.0
643523.2936376977,3577751.2368613081,-42500.0,1072.1403296079989,1054.5239459191719,4762.4902728252555,2125.8411138795786,9176.2711269416977,8093.1562186590836,9544.0097045930452,1091.4846702358966,3734.6600499172373,-3734.6600499172373,-1091.4846702358966,17507.394443422731,0.0
648523.2936376977,3577751.2368613081,-42500.0,695.44385739754705,-365.35441432323643,5047.2016126340322,742.0647212894678,9607.5207503124984,8432.819822758458,9833.3642733871438,161.88782609061104,3275.6965863402202,-3275.6965863402202,-161.88782609061104,18002.760708462607,0.0
653523.2936376977,3577751.2368613081,-42500.0,761.03765633601881,-1883.0627334809615,4694.9177074021009,-778.02346505374112,9323.0786817342068,8223.7065899203808,9712.0487490358737,-389.69843562208075,2244.7585274372877,-2244.7585274372877,389.69843562208075,17748.879430869449,0.0
658523.2936376977,3577751.2368613081,-42500.0,1291.9240886154985,-3196.5773046019672,3713.5491074991555,-2164.7462705531361,8300.9791685137934,7432.8389150539988,9175.043691649118,-429.85341260595482,801.8040398256403,-801.8040398256403,429.85341260595482,16737.251081462815,0.0
663523.2936376977,3577751.2368613081,-42500.0,2151.1899868106057,-4033.3291704195258,2266.7110631676651,-3158.1931144122705,6682.2327382415024,6153.129641867331,8300.5862318110103,25.581363467596589,-773.55801108285561,773.55801108285561,-25.581363467596589,15107.913313361449,0.0
668523.2936376977,3577751.2368613081,-42500.0,3085.7555248279664,-4250.1523235613813,626.14066861099798,-3601.3741422793028,4734.9047097607991,4583.0610133178989,7239.6977483362725,811.38541150661376,-2174.9772787065253,2174.9772787065253,-811.38541150661376,13127.584053456743,0.0
673523.2936376977,3577751.2368613081,-42500.0,3830.9312808689256,-3875.7914467458318,-922.91073876923349,-3488.3563229404735,2764.3036428704586,2960.1908487351661,6179.6908183133582,1685.1192828233225,-3174.9801908218478,3174.9801908218478,-1685.1192828233225,11122.640505146073,0.0
678523.2936376977,3577751.2368613081,-42500.0,4210.826733734144,-3074.2601032190987,-2170.4842950425545,-2941.816301486735,1019.2851510219114,1486.5628737522311,5286.8490472186122,2426.1631503404105,-3684.2694719038745,3684.2694719038745,-2426.1631503404105,9391.0207469095167,0.0
683523.2936376977,3577751.2368613081,-42500.0,4178.971919563759,-2062.1300796362425,-3021.6737050430156,-2144.5326095221749,-358.77940254779003,284.74178106688714,4643.4756306121089,2902.7471209813075,-3742.6310465888682,3742.6310465888682,-2902.7471209813075,8118.7267653110566,0.0
688523.2936376977,3577751.2368613081,-42500.0,3795.1563832884858,-1032.5773441474519,-3483.5468778388922,-1271.105761763092,-1334.434727381054,-605.02838568932214,4229.4782157641239,3082.935901046832,-3465.9469775305147,3465.9469775305147,-3082.935901046832,7328.1261963609995,0.0
693523.2936376977,3577751.2368613081,-42500.0,3172.7553216916526,-116.3981198359193,-3624.8648409415764,-449.08719337277233,-1945.1402193334222,-1201.742050574878,3968.6895794030866,3006.1195583440972,-2988.8734255422382,2988.8734255422382,-3006.1195583440972,6899.5717623315832,0.0
698523.2936376977,3577751.2368613081,-42500.0,2431.1209302152365,621.41474591701126,-3535.9120801072968,248.96433106240136,-2263.1749816006645,-1555.0595020913436,3784.2740352103483,2744.4177622413167,-2427.265467845838,2427.265467845838,-2744.4177622413167,6664.8142304411149,0.0
703523.2936376977,3577751.2368613081,-42500.0,1667.9850149503104,1165.968892765037,-3301.9168873126077,795.35562568121884,-2367.3936623211584,-1723.2708275284601,3624.3176470286858,2373.0908817179406,-1863.518258444956,1863.518258444956,-2373.0908817179406,6491.241221250225,0.0
708523.2936376977,3577751.2368613081,-42500.0,950.43965723262988,1532.6260697857763,-2990.8959592028705,1191.821248516427,-2327.7499577448366,-1760.542157045903,3462.4656220321608,1954.8025943880214,-1347.1964543678635,1347.1964543678635,-1954.8025943880214,6305.7165279258334,0.0
713523.2936376977,3577751.2368613081,-42500.0,317.07801923785968,1750.7926941774217,-2651.2791006379075,1455.8941688019297,-2199.5100780063522,-1711.4677343190053,3289.5683817863965,1534.6713956889507,-902.34217730939815,902.34217730939815,-1534.6713956889507,6080.5374804198436,0.0
718523.2936376977,3577751.2368613081,-42500.0,-215.37116665490018,1853.3377696781465,-2314.4026439016516,1611.3477343008549,-2023.0297778691865,-1610.0130281865695,3105.6331114524382,1141.3462885296008,-535.88691582646686,535.88691582646686,-1141.3462885296008,5813.3826273573968,0.0
723523.2936376977,3577751.2368613081,-42500.0,-644.89104007385743,1870.8290706022065,-1998.5738071255728,1682.4682259228186,-1825.9924673524249,-1480.5842657687438,2914.5320698353694,790.470671039487,-244.66262758016376,244.66262758016376,-790.470671039487,5513.1138554862127,0.0
728523.2936376977,3577751.2368613081,-42500.0,-978.23253766769415,1829.0439428455293,-1713.0174606488335,1691.122224583482,-1626.3064931726119,-1339.8536684891369,2721.1079634289067,488.48459518392872,-20.389982797521355,20.389982797521355,-488.48459518392872,5191.8659237084003,0.0
733523.2936376977,3577751.2368613081,-42500.0,-1226.6012773082098,1748.3924535388489,-1461.0660648644168,1655.5938337552047,-1434.8074334762464,-1198.6381424048589,2529.8109088869314,235.87441447048226,147.13540312680905,-147.13540312680905,-235.87441447048226,4861.2684043732397,0.0
738523.2936376977,3577751.2368613081,-42500.0,-1402.8142196587009,1644.3048686976208,-1242.4904216708217,1590.4215865601798,-1257.4566383864881,-1063.5303300455544,2344.1837346397574,29.624425018443276,268.19542667505658,-268.19542667505658,-29.624425018443276,4530.9548178168852,0.0
743523.2936376977,3577751.2368613081,-42500.0,-1519.5824706030926,1528.0102271937226,-1055.0920573338619,1506.7324319711024,-1096.9981651887865,-938.19478987350067,2166.7734170850822,-135.07768517461753,352.19591216610718,-352.19591216610718,135.07768517461753,4208.2184504135012,0.0
748523.2936376977,3577751.2368613081,-42500.0,-1588.580467886484,1407.3944221823447,-895.73295376895692,1412.7730303290814,-954.14517334357879,-824.34165013718371,1999.2313638042178,-263.73153776521434,407.26580777568353,-407.26580777568353,263.73153776521434,3898.1837826344308,0.0
558523.2936376977,3582751.2368613081,-42500.0,-222.21861416309667,-1298.3266711700117,-1154.2680046584771,-576.70481446573626,-845.2144544805052,-401.27562500444401,1622.7199084537574,-158.38041340596556,-1519.1461107355553,1519.1461107355553,158.38041340596556,2988.6069812074766,0.0
563523.2936376977,3582751.2368613081,-42500.0,-18.18099708028214,-1347.184446897706,-1317.5930678750572,-534.14436114692296,-926.03846960584383,-417.98651321546373,1749.993392402389,41.860385577248053,-1705.1616873063972,1705.1616873063972,-41.860385577248053,3194.071728361323,0.0
568523.2936376977,3582751.2368613081,-42500.0,236.13779034363083,-1374.3959887244075,-1498.4964174861218,-461.58262598155318,-1003.3907776232591,-423.46898710913985,1886.6402579776145,296.11730279474818,-1901.7078227227946,1901.7078227227946,-296.11730279474818,3409.7372592468755,0.0
573523.2936376977,3582751.2368613081,-42500.0,546.75575855134093,-1370.1133603652781,-1694.843854167679,-350.17481265414494,-1070.597447398229,-411.37198533525702,2033.9767666759494,612.64850652025825,-2102.9350964925038,2102.9350964925038,-612.64850652025825,3637.7293137132879,0.0
578523.2936376977,3582751.2368613081,-42500.0,918.14211458264367,-1322.133425059927,-1901.8300209890019,-189.60241692850781,-1117.7920171250535,-372.99108730774503,2194.3725092409727,998.83338468649458,-2299.4700814119851,2299.4700814119851,-998.83338468649458,3883.1228063151584,0.0
583523.2936376977,3582751.2368613081,-42500.0,1351.7371742000073,-1215.9949853741962,-2110.7330125015933,31.616718830936065,-1130.8694547898094,-296.64250933353662,2372.0296671734513,1459.7255307443529,-2477.3036671739324,2477.3036671739324,-1459.7255307443529,4156.1902386330139,0.0
588523.2936376977,3582751.2368613081,-42500.0,1843.889196080783,-1035.612101875827,-2307.3758159462782,325.36015283787708,-1090.3067696812084,-166.99731253179161,2574.1281092559293,1995.90844757381,-2616.6653673764476,2616.6653673764476,-1995.90844757381,4475.5228146102145,0.0
593523.2936376977,3582751.2368613081,-42500.0,2383.1861477982075,-764.81546380422265,-2470.4229293711405,702.4125574974139,-970.00731780565241,35.524461338692483,2812.3406202229921,2600.5398456285252,-2691.1792663308574,2691.1792663308574,-2600.5398456285252,4871.562918625802,0.0
598523.2936376977,3582751.2368613081,-42500.0,2947.3475149761662,-390.28514372412354,-2569.8609967523748,1169.9223855377033,-736.5083999669381,335.10260756652991,3104.5341244051169,3255.6185284214066,-2667.8462789395512,2667.8462789395512,-3255.6185284214066,5389.0230928012334,0.0
603523.2936376977,3582751.2368613081,-42500.0,3500.2022991983304,93.613991259228555,-2566.3685094770904,1727.4443227300528,-349.17468467398709,760.2559776154468,3476.1364288483564,3927.8348072916006,-2508.7222343480216,2508.7222343480216,-3927.8348072916006,6085.454800892282,0.0
608523.2936376977,3582751.2368613081,-42500.0,3989.8628440091657,677.78040712282666,-2412.7675118772827,2361.3177236321285,237.60928048823598,1342.3830722347659,3960.1338013591158,4564.9434554577729,-2175.4865810805118,2175.4865810805118,-4564.9434554577729,7023.3174347948934,0.0
613523.2936376977,3582751.2368613081,-42500.0,4349.9778732444065,1329.4494846006291,-2059.2389551659294,3037.5348376071865,1068.817955271455,2112.2085010425171,4593.5594768837218,5094.4455162922059,-1638.1969337776773,1638.1969337776773,-5094.4455162922059,8255.4587957426138,0.0
618523.2936376977,3582751.2368613081,-42500.0,4506.6585129873356,1983.0907783277414,-1464.1301868840078,3694.1560045433857,2178.0975915151944,3092.9439786138132,5406.3277489209277,5427.3095476527833,-888.99108100840067,888.99108100840067,-5427.3095476527833,9807.0666324849299,0.0
623523.2936376977,3582751.2368613081,-42500.0,4393.7235618864097,2534.9324853300614,-611.37208770567713,4235.8961781475609,3570.8454856343551,4288.9291477508132,6400.9093636333382,5470.0025818119075,40.205096916169168,-40.205096916169168,-5470.0025818119075,11657.459762873479,0.0
628523.2936376977,3582751.2368613081,-42500.0,3977.3225747458469,2847.2676077989809,466.99521589088198,4535.6345956231389,5201.7458543539115,5669.2436751195801,7534.5384252522499,5147.3149063345927,1060.1552451671687,-1060.1552451671687,-5147.3149063345927,13723.535038394804,0.0
633523.2936376977,3582751.2368613081,-42500.0,3286.721560117518,2769.8176421820021,1669.2275056569811,4449.5186014668152,6951.3456573182384,7148.0823683051412,8715.5585113984471,4435.2213027905491,2015.5212347151269,-2015.5212347151269,-4435.2213027905491,15847.588411691226,0.0
638523.2936376977,3582751.2368613081,-42500.0,2440.7256998658054,2182.8571761149519,2814.8123479586056,3852.1273797753493,8612.1317291521609,8568.3973922656642,9809.3653180661331,3396.5560130396543,2696.8768475991692,-2696.8768475991692,-3396.5560130396543,17796.452236074998,0.0
643523.2936376977,3582751.2368613081,-42500.0,1650.6384557033232,1057.7997895369235,3662.9601109747314,2692.4296223465658,9900.4270373240779,9702.126566163688,10652.776157998651,2203.2165221948571,2884.5429852181933,-2884.5429852181933,-2203.2165221948571,19282.983039912488,0.0
648523.2936376977,3582751.2368613081,-42500.0,1177.1218592400498,-485.33824551279133,3969.5945946966381,1056.2840726827853,10510.667793909863,10285.061339205593,11083.780194611909,1120.9811345225755,2424.7303727749177,-2424.7303727749177,-1120.9811345225755,20019.866959125255,0.0
653523.2936376977,3582751.2368613081,-42500.0,1232.3647573982164,-2161.8396350955336,3576.5620816475339,-800.91143462254388,10213.863731855907,10096.372496723188,10987.790702393366,437.29613136163084,1315.6793906196342,-1315.6793906196342,-437.29613136163084,19804.064665464044,0.0
658523.2936376977,3582751.2368613081,-42500.0,1860.4873392137688,-3585.9016618922401,2497.4607041101708,-2497.820517911111,8967.4545073828176,9061.7112293242826,10347.228156750018,342.77123455646637,-245.29737742397862,245.29737742397862,-342.77123455646637,18606.866689524843,0.0
663523.2936376977,3582751.2368613081,-42500.0,2876.248837216026,-4411.2986492699347,943.14298724100695,-3659.0233666310942,6969.2168462199998,7318.7516831194198,9269.1069713163633,827.96393808319522,-1905.0288581025704,1905.0288581025704,-827.96393808319522,16622.711321073133,0.0
668523.2936376977,3582751.2368613081,-42500.0,3930.9625384523656,-4476.9562019819004,-748.37783852429789,-4071.1006121485038,4600.4952032657047,5184.3897715028452,7969.1515146241236,1676.7818405830601,-3287.7843771653061,3287.7843771653061,-1676.7818405830601,14236.473519986774,0.0
673523.2936376977,3582751.2368613081,-42500.0,4677.8251248483466,-3859.6092894957242,-2245.1209468711304,-3757.6123571483195,2280.2249527814633,3030.964292712209,6712.0267979680266,2575.3452380753861,-4142.4295136268565,4142.4295136268565,-2575.3452380753861,11911.556790452822,0.0
678523.2936376977,3582751.2368613081,-42500.0,4919.6858555070876,-2803.551695557268,-3334.0354063237241,-2927.4809648299033,321.8846926586624,1153.0860442068729,5720.0845982787141,3258.4287671933498,-4410.5604027766231,4410.5604027766231,-3258.4287671933498,10041.100231177996,0.0
683523.2936376977,3582751.2368613081,-42500.0,4648.6341038170012,-1592.5157190058314,-3954.5943305400297,-1852.9467998595194,-1128.5286150922259,-297.49994412637693,5075.1394801296183,3595.347241505413,-4191.8000308820783,4191.8000308820783,-3595.347241505413,8812.2837796432214,0.0
688523.2936376977,3582751.2368613081,-42500.0,3988.2381720672702,-450.07565646731712,-4161.5896499710007,-765.45102135643947,-2069.729706931334,-1299.1950367678598,4704.1247654076051,3586.7322352807364,-3657.6149808083187,3657.6149808083187,-3586.7322352807364,8154.861523129046,0.0
693523.2936376977,3582751.2368613081,-42500.0,3107.3419456317756,496.0772698142037,-4063.6214150181613,188.71972346372024,-2584.1182843930451,-1909.9399011896064,4478.9142452115793,3311.2137339316096,-2975.7645818969204,2975.7645818969204,-3311.2137339316096,7841.8883985155007,0.0
698523.2936376977,3582751.2368613081,-42500.0,2157.7020877790169,1201.9843265052164,-3774.174552145726,944.09830235046616,-2781.7338845335357,-2218.2678103270196,4301.9226740843987,2870.3607469251883,-2271.9550622358256,2271.9550622358256,-2870.3607469251883,7655.1259555220749,0.0
703523.2936376977,3582751.2368613081,-42500.0,1247.5645102619931,1677.5540297465984,-3386.3221959681737,1491.2363842303014,-2766.1648449600907,-2312.3301430528768,4122.8849657987439,2354.6377882173751,-1623.0963603549767,1623.0963603549767,-2354.6377882173751,7464.4846919860483,0.0
708523.2936376977,3582751.2368613081,-42500.0,440.29995381647706,1958.9180384096028,-2965.8712384123346,1851.3910287307347,-2620.3717760538984,-2265.9136573149467,3924.4615441129945,1830.3592253806119,-1066.4828526856468,1066.4828526856468,-1830.3592253806119,7218.1602960326481,0.0
713523.2936376977,3582751.2368613081,-42500.0,-235.90766304459308,2089.8319101314191,-2554.1639367150842,2058.3157570962089,-2404.5279081308945,-2135.0002097233464,3706.2086553925974,1339.3753052837499,-612.88429154535584,612.88429154535584,-1339.3753052837499,6909.1047415079584,0.0
718523.2936376977,3582751.2368613081,-42500.0,-776.34516863422652,2111.6151731047216,-2174.1096609080919,2147.5306268292156,-2159.208536307648,-1959.3060770381305,3474.3856509651391,904.028091829191,-257.80872221935829,257.80872221935829,-904.028091829191,6549.7026757186877,0.0
723523.2936376977,3582751.2368613081,-42500.0,-1189.9543795837963,2058.911740901267,-1836.1587821559788,2151.0246491118619,-1910.0471164435774,-1765.5043171834352,3236.7336119087327,533.06616313779557,10.597590335638074,-10.597590335638074,-533.06616313779557,6157.9078193672685,0.0
728523.2936376977,3582751.2368613081,-42500.0,-1492.3600818617606,1958.7399565597095,-1543.0306620990591,2095.2601260213955,-1672.0941272906832,-1570.5586279548656,3000.2036762204452,226.69483797500669,206.67879813527981,-206.67879813527981,-226.69483797500669,5750.8910705667658,0.0
733523.2936376977,3582751.2368613081,-42500.0,-1701.4251078350935,1831.1155534371087,-1293.0478568564658,2000.9445096247384,-1453.2959693364246,-1384.5655682551064,2770.1972026825938,-19.701128977348816,344.58283416171594,-344.58283416171594,19.701128977348816,5342.6838334865179,0.0
738523.2936376977,3582751.2368613081,-42500.0,-1834.6773375730631,1690.2581769885405,-1082.3147343497387,1883.6237158826734,-1257.0478438535849,-1212.9627586004517,2550.503639671645,-213.05202890048434,436.97284022690081,-436.97284022690081,213.05202890048434,4943.7197103280459,0.0
743523.2936376977,3582751.2368613081,-42500.0,-1907.9887372465334,1545.8777918584658,-906.0553782972753,1754.5662533563102,-1083.9687690784126,-1058.1489978987076,2343.5159656897317,-361.03473563023289,494.55770593962922,-494.55770593962922,361.03473563023289,4561.1734000236092,0.0
748523.2936376977,3582751.2368613081,-42500.0,-1935.033955657078,1404.3216712978369,-759.38438210026504,1621.6705793911185,-933.08750569520987,-920.62596546807151,2150.5251083093663,-471.16226806560309,526.06385601143131,-526.06385601143131,471.16226806560309,4199.565277830221,0.0
558523.2936376977,3587751.2368613081,-42500.0,-625.65744534694875,-1454.3501968350688,-1082.6172677779496,-832.43127485966761,-913.30352860119024,-520.15659513429205,1786.9474227345422,-577.33022704711266,-1466.0377432680332,1466.0377432680332,577.33022704711266,3345.8558444370397,0.0
563523.2936376977,3587751.2368613081,-42500.0,-453.42856461433081,-1545.3395578998166,-1253.7710583679539,-827.77871390638279,-1018.9082075936915,-561.24645073134604,1933.2199816216146,-416.61787567906276,-1674.840826488426,1674.840826488426,416.61787567906276,3591.6958696071779,0.0
568523.2936376977,3587751.2368613081,-42500.0,-227.20602404012928,-1622.9087497455193,-1449.5087302229683,-796.75215832998481,-1128.1130939559953,-595.61427395672968,2089.2025371599771,-199.70305168557229,-1904.693274037608,1904.693274037608,199.70305168557229,3847.5056903105969,0.0
573523.2936376977,3587751.2368613081,-42500.0,62.277170062527233,-1677.7635039195054,-1670.436742173167,-729.62892115111185,-1235.7748727110441,-617.30438442049422,2255.0377957483925,84.975327748695236,-2152.6935860370781,2152.6935860370781,-84.975327748695236,4112.1494376982901,0.0
578523.2936376977,3587751.2368613081,-42500.0,423.84821293033451,-1697.6494967882943,-1915.1777189193933,-614.40078899668026,-1333.5932317568272,-617.73048885287926,2431.2695176623065,449.45043387470298,-2412.7821076828545,2412.7821076828545,-449.45043387470298,4385.6092007951775,0.0
583523.2936376977,3587751.2368613081,-42500.0,864.51978414201437,-1667.0203363083378,-2179.0950899159352,-436.73145204389681,-1408.8236743079042,-584.79559020022668,2619.4683948265374,905.03692000993374,-2674.3822291531505,2674.3822291531505,-905.03692000993374,4670.800215147694,0.0
588523.2936376977,3587751.2368613081,-42500.0,1387.3437138435957,-1567.1076585997112,-2452.5454014918032,-180.30694342573182,-1442.6646438505429,-501.82956771831232,2823.3644507586714,1460.3093436024342,-2920.7874893644471,2920.7874893644471,-1460.3093436024342,4976.782397423467,0.0
593523.2936376977,3587751.2368613081,-42500.0,1988.295926800806,-1376.818224959193,-2718.6686994976881,172.09574653577633,-1408.3969591057983,-346.39018653902997,3050.7474036446629,2117.9568253061998,-3127.5041499928438,3127.5041499928438,-2117.9568253061998,5323.8587872865392,0.0
598523.2936376977,3587751.2368613081,-42500.0,2652.1195977324865,-1075.0978579868254,-2950.9303690330939,636.33499130444523,-1269.5447659589258,-89.072943279826063,3316.3639025293619,2870.2786068488267,-3261.0414602346864,3261.0414602346864,-2870.2786068488267,5750.37140676115,0.0
603523.2936376977,3587751.2368613081,-42500.0,3347.4071416869433,-645.6092433555109,-3111.0411640898919,1222.764954658415,-978.69246792548336,307.32263037117212,3645.7433345298332,3693.3484279789941,-3279.1037720523004,3279.1037720523004,-3693.3484279789941,6318.9281386538023,0.0
608523.2936376977,3587751.2368613081,-42500.0,4021.9309151416414,-84.58207439292643,-3148.5521994548162,1929.4906890243276,-478.18448574657776,887.55335711163093,4078.9396730163235,4540.5071585770229,-3133.7297539549081,3133.7297539549081,-4540.5071585770229,7116.2768330509425,0.0
613523.2936376977,3587751.2368613081,-42500.0,4600.4406119356017,587.83552065444906,-3004.2936336911639,2732.5326903791724,295.26539374149297,1701.3044828804263,4670.8798740269131,5337.0081162952047,-2779.4317732325189,2779.4317732325189,-5337.0081162952047,8239.4304964765415,0.0
618523.2936376977,3587751.2368613081,-42500.0,4988.6657392525058,1313.9682104483704,-2620.5133579919111,3573.4107729511038,1399.2647299572122,2796.0537863508116,5480.6165299832073,5979.3036997475219,-2188.2481495908596,2188.2481495908596,-5979.3036997475219,9766.4903140280294,0.0
623523.2936376977,3587751.2368613081,-42500.0,5088.3393590752057,1987.0145551880419,-1960.1693900408861,4346.9059988774088,2864.9334901271786,4202.6152820919042,6541.7598481841014,6344.096445845601,-1371.8809735468722,1371.8809735468722,-6344.096445845601,11720.833432242263,0.0
628523.2936376977,3587751.2368613081,-42500.0,4827.0687987645506,2449.812254933036,-1034.9670381852402,4895.4696617992631,4665.8006060632442,5910.8277928171528,7827.691499036926,6312.4960896875291,-406.80055567498675,406.80055567498675,-6312.4960896875291,14039.292273519284,0.0
633523.2936376977,3587751.2368613081,-42500.0,4201.678196285985,2515.4096921608525,64.570531496367209,5021.1054496323159,6681.1028854735905,7835.7373692223864,9238.3101538905703,5811.365232179789,548.48766613344515,-548.48766613344515,-5811.365232179789,16549.450287764881,0.0
638523.2936376977,3587751.2368613081,-42500.0,3322.8620482880124,2018.8687350829348,1152.2993020337008,4527.6970691581264,8667.6261115833167,9782.246919377214,10605.573685572075,4865.410764612554,1261.1230237911591,-1261.1230237911591,-4865.410764612554,18962.234522926501,0.0
643523.2936376977,3587751.2368613081,-42500.0,2434.2995388765835,897.84712556499153,1964.1044102407052,3300.9401596100774,10264.994721793759,11429.590925085202,11710.597064937716,3639.9551233841585,1473.6004757926714,-1473.6004757926714,-3639.9551233841585,20894.574627932583,0.0
648523.2936376977,3587751.2368613081,-42500.0,1868.9238444816081,-724.15214905385506,2226.0754496095033,1411.0878679483187,11063.087752495583,12370.888086050705,12323.230705728534,2439.852705293114,998.96734623543193,-998.96734623543193,-2439.852705293114,21940.611764277975,0.0
653523.2936376977,3587751.2368613081,-42500.0,1918.4593086898833,-2506.1947722356235,1765.6527792377083,-816.71979868235121,10741.467442318586,12237.477589361901,12270.334646630941,1628.1638695950751,-166.29519955109572,166.29519955109572,-1628.1638695950751,21795.95834837513,0.0
658523.2936376977,3587751.2368613081,-42500.0,2654.2199018776705,-3970.3795471196067,618.00159772469885,-2850.6296539186624,9236.2194436759164,10883.328700233404,11515.188394385554,1465.2396061318595,-1778.7635985811821,1778.7635985811821,-1465.2396061318595,20401.321940271195,0.0
663523.2936376977,3587751.2368613081,-42500.0,3825.5833333648065,-4697.1267202352628,-949.70792543150571,-4157.2266004001149,6825.4701026962466,8515.3014633247694,10205.483307499044,1952.2911227656209,-3408.3161509828074,3408.3161509828074,-1952.2911227656209,18027.461174677272,0.0
668523.2936376977,3587751.2368613081,-42500.0,4960.0593583101709,-4526.286904395246,-2541.1479042819055,-4457.6117258904487,4038.097546863125,5638.7539631489244,8649.0003062072028,2813.7803345047905,-4622.197362377321,4622.197362377321,-2813.7803345047905,15225.346872072691,0.0
673523.2936376977,3587751.2368613081,-42500.0,5619.7822286059454,-3611.7900208526621,-3805.8960498844049,-3838.1772597830168,1424.3863538253381,2828.9948077868817,7214.0998503273258,3657.7394909979735,-5175.8451642620166,5175.8451642620166,-3657.7394909979735,12638.962220733907,0.0
678523.2936376977,3587751.2368613081,-42500.0,5609.0842800895789,-2296.4972970361969,-4565.5006146400292,-2640.2595360012401,-649.11649273692626,500.06502821671967,6180.7393046601528,4184.2737383576959,-5076.0040415238991,5076.0040415238991,-4184.2737383576959,10753.639979594282,0.0
683523.2936376977,3587751.2368613081,-42500.0,4994.6220779463129,-927.04850426357154,-4823.2502418659424,-1251.6546556336746,-2060.440735855761,-1181.2352631356207,5594.9917909699452,4285.9442571814952,-4502.3371600471955,4502.3371600471955,-4285.9442571814952,9690.8449034134974,0.0
688523.2936376977,3587751.2368613081,-42500.0,3988.6087370303085,262.37331180108316,-4692.9147939816567,40.638831403847306,-2868.3814994645654,-2242.3136292619606,5294.5902057259991,4015.2421756164426,-3682.0043700677575,3682.0043700677575,-4015.2421756164426,9219.2004153778198,0.0
693523.2936376977,3587751.2368613081,-42500.0,2820.7343349619518,1168.5321402394761,-4318.2788195949406,1087.9258069671366,-3213.3836486631367,-2805.9540693965769,5099.2397394186983,3497.6124269212255,-2802.7655785775437,2802.7655785775437,-3497.6124269212255,9004.4867637512252,0.0
698523.2936376977,3587751.2368613081,-42500.0,1667.0323043978797,1782.7388680892745,-3823.6076671868586,1849.4838386581489,-3244.6358268207814,-3014.2067821123414,4908.0078393471431,2861.2083695656456,-1983.9524359952193,1983.9524359952193,-2861.2083695656456,8816.8791648477236,0.0
703523.2936376977,3587751.2368613081,-42500.0,633.76725793002129,2145.5587528194374,-3296.687099579608,2346.4705049206,-3085.5349197634505,-2990.460836366321,4685.5024609918783,2203.9271532407238,-1283.9616149292754,1283.9616149292754,-2203.9271532407238,8557.3508418285419,0.0
708523.2936376977,3587751.2368613081,-42500.0,-230.42672703249772,2313.9116735907501,-2790.7938540838613,2626.0447730642836,-2825.4141445819132,-2828.3096096656868,4429.2942406822513,1587.6221461666623,-719.76091818090242,719.76091818090242,-1587.6221461666623,8206.8710103001104,0.0
713523.2936376977,3587751.2368613081,-42500.0,-915.30222333087238,2343.0854905397937,-2333.4155824983554,2740.2993757799409,-2523.4459168898543,-2593.2075159965684,4149.2160628091187,1044.5803513249055,-284.99500542651759,284.99500542651759,-1044.5803513249055,7781.2698514250333,0.0
718523.2936376977,3587751.2368613081,-42500.0,-1432.3893917961705,2279.2797167279386,-1935.2298262661366,2736.2662515849702,-2216.0338114926903,-2328.2726046136436,3857.5168587997928,586.76065993155976,37.370221461247695,-37.370221461247695,-586.76065993155976,7306.4487660262048,0.0
723523.2936376977,3587751.2368613081,-42500.0,-1803.4466724875369,2157.9562265374329,-1597.0615784578983,2652.3893749964413,-1923.8424104926291,-2060.3558127646015,3564.9683747446761,213.76439421436154,267.53251829336318,-267.53251829336318,-213.76439421436154,6807.419599851034,0.0
728523.2936376977,3587751.2368613081,-42500.0,-2053.3878257517003,2004.8125505121966,-1314.5856092335284,2518.2243819655109,-1657.2885688627518,-1805.0780994708539,3279.7410283516388,-81.443029125545706,424.94495947952447,-424.94495947952447,81.443029125545706,6304.4454999974723,0.0
733523.2936376977,3587751.2368613081,-42500.0,-2206.3896677804364,1837.6328532000612,-1081.2334805356447,2355.503032666501,-1420.4437598249933,-1570.6202609202489,3007.4279029417639,-308.83252646088039,526.60472879841268,-526.60472879841268,308.83252646088039,5812.3736844137957,0.0
738523.2936376977,3587751.2368613081,-42500.0,-2284.0220770658198,1668.1971082289713,-889.8619312473005,2179.6130933404188,-1213.6562263878736,-1360.4249634083098,2751.4717475985108,-479.10232696917149,586.55099564387376,-586.55099564387376,479.10232696917149,5341.2302559555064,0.0
743523.2936376977,3587751.2368613081,-42500.0,-2304.5689983825596,1503.9263720370602,-733.63222729890435,2001.0531081359748,-1035.2422326235078,-1175.0512473610156,2513.6709961932188,-602.46683258710891,615.96443181754421,-615.96443181754421,602.46683258710891,4897.1885182044552,0.0
748523.2936376977,3587751.2368613081,-42500.0,-2282.9997154460634,1349.1828701734755,-606.41654442551771,1826.6875359616749,-882.53825873104336,-1013.4083562484666,2294.6387630386175,-688.07168175884715,623.52317346907637,-623.52317346907637,688.07168175884715,4483.5348208515807,0.0
753523.2936376977,3587751.2368613081,-42500.0,-2231.2604630390274,1206.2459310069819,-502.93562005099835,1660.7570990202589,-752.5309836487038,-873.55159915702188,2094.1762970920267,-743.78121975942281,615.83301754428317,-615.83301754428317,743.78121975942281,4101.4944801945257,0.0
553523.2936376977,3592751.2368613081,-42500.0,-1161.4163483794662,-1436.4042397011644,-827.55195470873639,-1057.7297566303084,-839.57933042953812,-581.17525401217779,1807.2048285758192,-1111.0893362693992,-1150.9133127174382,1150.9133127174382,1111.0893362693992,3451.8475936419186,0.0
558523.2936376977,3592751.2368613081,-42500.0,-1079.3423514780338,-1565.3428100915314,-970.5275904653289,-1112.5893874638189,-954.28582068841024,-648.3320348203971,1966.0998108899753,-1048.716332507187,-1341.5090649525569,1341.5090649525569,1048.716332507187,3734.588908834065,0.0
563523.2936376977,3592751.2368613081,-42500.0,-953.66504997743777,-1695.8703547247023,-1139.5199428146889,-1155.0200144767196,-1081.2191811557047,-718.02324036561163,2137.1315723539378,-944.21250433524528,-1560.5122344941219,1560.5122344941219,944.21250433524528,4033.746586193382,0.0
568523.2936376977,3592751.2368613081,-42500.0,-773.59131359519654,-1822.6956836138281,-1338.2039021859,-1177.6825266192868,-1219.1207636528534,-787.22314595376929,2320.0670559448331,-785.56174874487169,-1809.8001488283853,1809.8001488283853,785.56174874487169,4347.1266225759373,0.0
573523.2936376977,3592751.2368613081,-42500.0,-526.90259277790085,-1938.0094647669389,-1569.9227441217495,-1170.772049330878,-1364.9247920112143,-851.02337702299701,2514.315917785776,-558.54490047831985,-2089.8947270118247,2089.8947270118247,558.54490047831985,4671.5846887383459,0.0
578523.2936376977,3592751.2368613081,-42500.0,-200.43190845715833,-2030.7410426176025,-1836.9976911611457,-1121.4778619160952,-1512.7572490990337,-901.81850100208692,2718.9820006727746,-246.92646617821856,-2398.9609797166772,2398.9609797166772,246.92646617821856,5003.2583613517809,0.0
583523.2936376977,3592751.2368613081,-42500.0,218.90336264607203,-2085.7967384941239,-2139.6063000082609,-1013.4942316856582,-1652.518837797146,-928.20607764416832,2933.1203072055641,166.86038939757168,-2731.3830776307586,2731.3830776307586,-166.86038939757168,5338.4052395384979,0.0
588523.2936376977,3592751.2368613081,-42500.0,742.19742310357231,-2083.479592099256,-2474.0676959010161,-826.75744289052875,-1767.94897560614,-913.52995458360374,3156.418443321144,700.1908545654619,-3075.8575938710064,3075.8575938710064,-700.1908545654619,5675.4481968175478,0.0
593523.2936376977,3592751.2368613081,-42500.0,1375.3784181527672,-1999.4992313575954,-2830.3968273065047,-537.74579723163117,-1834.1201954589037,-834.00950359684236,3390.7010167045078,1367.415868479904,-3413.0613418310331,3413.0613418310331,-1367.415868479904,6019.2395869636366,0.0
598523.2936376977,3592751.2368613081,-42500.0,2114.341252561303,-1806.3000671065172,-3189.1300908661997,-120.94222118222837,-1814.4733012539925,-656.46389945821045,3642.9091195223705,2175.1485701047354,-3713.2215128296407,3713.2215128296407,-2175.1485701047354,6388.9173340894768,0.0
603523.2936376977,3592751.2368613081,-42500.0,2938.2065640214551,-1476.8646305860057,-3517.8212946859489,447.56005850179258,-1657.9057821910767,-335.8465682412513,3930.4672976670904,3115.1756437776676,-3934.4638856793335,3934.4638856793335,-3115.1756437776676,6830.2718518008605,0.0
608523.2936376977,3592751.2368613081,-42500.0,3801.2618429871395,-992.50306169299665,-3768.3962047976856,1182.9078454858345,-1297.2032467168792,186.70598346179605,4289.6726539549645,4155.0051796491252,-4023.671929575622,4023.671929575622,-4155.0051796491252,7430.0063160015479,0.0
613523.2936376977,3592751.2368613081,-42500.0,4625.7735236930293,-355.98474051773627,-3877.8419452903408,2079.2319567747577,-651.40348868517515,983.6158478649736,4785.1944265434922,5227.4177967032965,-3922.6562644298183,3922.6562644298183,-5227.4177967032965,8320.339640853419,0.0
618523.2936376977,3592751.2368613081,-42500.0,5300.4925150101253,390.17713323503256,-3776.1656657535559,3091.5260073196064,363.67942669339686,2135.0588946404728,5509.7799504592258,6222.8922759490742,-3583.0261635289244,3583.0261635289244,-6222.8922759490742,9654.0269677113229,0.0
623523.2936376977,3592751.2368613081,-42500.0,5692.5623044391368,1144.4764833447418,-3406.0016982303273,4113.8211707879282,1811.5203338467986,3712.2938172182821,6550.5949656209468,6992.118931278942,-2991.7887479005904,2991.7887479005904,-6992.118931278942,11542.642744059174,0.0
628523.2936376977,3592751.2368613081,-42500.0,5681.1479231878056,1736.9835850169288,-2755.3834027725397,4961.8364234157316,3694.0561668909777,5743.8681429759108,7923.4221902040244,7368.1016198125672,-2204.381161124702,2204.381161124702,-7368.1016198125672,13984.172718948723,0.0
633523.2936376977,3592751.2368613081,-42500.0,5215.225207689321,1946.971572139706,-1896.6659100126305,5376.7445742326863,5898.1311703712072,8161.6859008193305,9532.7926330704377,7214.8472718725798,-1371.8501083683414,1371.8501083683414,-7214.8472718725798,16813.079104816978,0.0
638523.2936376977,3592751.2368613081,-42500.0,4382.1325275556328,1564.0576245271222,-1011.3816962399,5073.0619324465588,8148.4155187052538,10735.805151773668,11176.203374335002,6498.416763556439,-738.22362173135753,738.22362173135753,-6498.416763556439,19684.118025361284,0.0
643523.2936376977,3592751.2368613081,-42500.0,3449.7396650659903,492.50837428594042,-371.36954717067124,3848.2386047152081,10004.073223535155,13030.505415929752,12567.695586846905,5355.9325700494082,-583.21542624108997,583.21542624108997,-5355.9325700494082,22099.775067043473,0.0
648523.2936376977,3592751.2368613081,-42500.0,2825.5639607403959,-1136.8371709188725,-255.3943215268861,1740.2935902696652,10943.620326105987,14443.429406917496,13390.939477230591,4115.4011278701219,-1106.0106199952331,1106.0106199952331,-4115.4011278701219,23505.590810648489,0.0
653523.2936376977,3592751.2368613081,-42500.0,2888.5344503014858,-2922.6306632879209,-816.79638753154131,-846.010460638979,10555.550293234344,14392.075632455068,13396.899945884439,3210.2499621426009,-2289.6368179080896,2289.6368179080896,-3210.2499621426009,23467.35603542332,0.0
658523.2936376977,3592751.2368613081,-42500.0,3735.2650367941055,-4300.0623593429218,-1969.6773015076337,-3188.7425113571817,8771.7730630038423,12624.954976369618,12525.005844115758,2973.6472926606357,-3833.5887132082507,3833.5887132082507,-2973.6472926606357,21888.261148758247,0.0
663523.2936376977,3592751.2368613081,-42500.0,5028.4217699266292,-4800.2917911503937,-3387.3523068982181,-4558.432073681548,5981.4450387776869,9457.7845163813017,10981.239091231822,3418.6549584185868,-5245.2915879345637,5245.2915879345637,-3418.6549584185868,19144.722271104456,0.0
668523.2936376977,3592751.2368613081,-42500.0,6149.8220899670996,-4303.2663538378292,-4649.9170364416514,-4618.2376424507138,2882.0265158044613,5678.6910941786982,9199.6424417107373,4207.5248688394431,-6077.9157616182265,6077.9157616182265,-4207.5248688394431,16007.033734607459,0.0
673523.2936376977,3592751.2368613081,-42500.0,6581.5592731925581,-3071.2970055589876,-5448.1563768719798,-3570.8101445498874,142.50575642379252,2141.6754152108642,7673.4841602619144,4878.1599490236822,-6147.9274495031696,6147.9274495031696,-4878.1599490236822,13327.702794897266,0.0
678523.2936376977,3592751.2368613081,-42500.0,6174.207231342305,-1546.4321705283983,-5691.950078059117,-1941.1251362612538,-1859.4408443938123,-610.33348643695251,6709.9617396120339,5122.6500276885017,-5565.1570199937687,5565.1570199937687,-5122.6500276885017,11626.696570086815,0.0
683523.2936376977,3592751.2368613081,-42500.0,5113.1010516800407,-110.60135239755247,-5473.1621256623921,-244.92061647330104,-3068.8810976315563,-2434.4405196432149,6251.6184846712486,4887.5152710967095,-4595.279907778403,4595.279907778403,-4887.5152710967095,10844.57653814231,0.0
688523.2936376977,3592751.2368613081,-42500.0,3716.1026849580721,1025.9450255190345,-4959.9450290367568,1195.8836565089105,-3627.4106594497721,-3451.9941468418201,6025.5151640178028,4293.5840368700283,-3502.4749456069912,3502.4749456069912,-4293.5840368700283,10554.008386252599,0.0
693523.2936376977,3592751.2368613081,-42500.0,2265.2040008264712,1808.4324328594134,-4311.3688751685895,2259.4106822883514,-3734.8492865299572,-3878.1866772545318,5829.7896847586408,3511.8940140050167,-2468.5099654610954,2468.5099654610954,-3511.8940140050167,10371.282195676082,0.0
698523.2936376977,3592751.2368613081,-42500.0,941.64388500408927,2272.8925943924555,-3640.9669868476526,2951.3596848782186,-3569.2187035795014,-3918.0927893163221,5588.1438182485299,2686.0671194303,-1585.3637714129432,1585.3637714129432,-2686.0671194303,10109.141481645311,0.0
703523.2936376977,3592751.2368613081,-42500.0,-168.00754987339943,2489.7729804458863,-3014.9422326355739,3334.3099378908273,-3260.8796303553236,-3729.4871115767546,5291.7153567695732,1908.8585220945524,-880.61024197621646,880.61024197621646,-1908.8585220945524,9721.093494530829,0.0
708523.2936376977,3592751.2368613081,-42500.0,-1041.7003062639506,2531.4135269001877,-2464.1225961217406,3484.2624111206915,-2894.8071952881369,-3421.1772703900297,4955.4178438261033,1227.9648773577358,-345.75405807539909,345.75405807539909,-1227.9648773577358,9224.1377806468263,0.0
713523.2936376977,3592751.2368613081,-42500.0,-1693.2999003065199,2458.4527603995753,-1997.2111382691949,3470.5041355901176,-2521.7398072605615,-3063.2093069131902,4598.4181717833471,660.13967059403535,43.465478812644676,-43.465478812644676,-660.13967059403535,8654.2108084198917,0.0
718523.2936376977,3592751.2368613081,-42500.0,-2152.85044783588,2316.7201694334371,-1610.8774281959347,3348.9495928204024,-2169.3570484187408,-2698.1600657946897,4237.2269373718054,203.9677821644041,315.3454925074326,-315.3454925074326,-203.9677821644041,8046.9210012555086,0.0
723523.2936376977,3592751.2368613081,-42500.0,-2455.0013021161799,2138.6480439862526,-1296.251093285041,3161.7295362473296,-1850.8523965295074,-2350.2262432768844,3884.0400552568076,-151.16920955461944,496.48902107608171,-496.48902107608171,151.16920955461944,7431.0351142086947,0.0
728523.2936376977,3592751.2368613081,-42500.0,-2633.0151723951099,1946.0526973848373,-1042.6679978254463,2939.1236884679852,-1570.806918925585,-2031.7735161548776,3546.9908938115123,-419.56165815509149,609.55757738016473,-609.55757738016473,419.56165815509149,6827.4097062206401,0.0
733523.2936376977,3592751.2368613081,-42500.0,-2716.1143210884638,1752.9163798986167,-839.62807015428518,2702.0489617032422,-1328.9749773429357,-1747.824075118212,3230.9554490836586,-616.05965890181233,672.80898131559661,-672.80898131559661,616.05965890181233,6249.934405031433,0.0
738523.2936376977,3592751.2368613081,-42500.0,-2728.659419735749,1567.6995488599712,-677.69230986687489,2464.3843245170697,-1122.6258118926469,-1499.0393868747371,2938.3996069057371,-754.48582667142523,700.43946522355031,-700.43946522355031,754.48582667142523,5707.0135210799781,0.0
743523.2936376977,3592751.2368613081,-42500.0,-2690.2586698880609,1395.1047187875497,-548.79305986032796,2234.9013155454481,-947.93998078993593,-1283.6532605942691,2670.1024531405783,-846.94848934483468,703.21647120198725,-703.21647120198725,846.94848934483468,5203.007826908839,0.0
748523.2936376977,3592751.2368613081,-42500.0,-2616.2928363062083,1237.3569922412676,-446.24391630653247,2018.7698709954373,-800.80817664200629,-1098.690209599539,2425.7198754964234,-903.65609743930895,689.15362417265146,-689.15362417265146,903.65609743930895,4739.4400163834989,0.0
753523.2936376977,3592751.2368613081,-42500.0,-2518.5802381187423,1095.1030533778426,-364.61145057839565,1818.6879947828343,-677.26160113260141,-940.70783258067934,2204.2017103716457,-932.99259950737064,664.12163759031841,-664.12163759031841,932.99259950737064,4315.9303681091105,0.0
553523.2936376977,3597751.2368613081,-42500.0,-1596.1121577871245,-1463.2181332450998,-693.66342789573264,-1307.6956295022226,-835.9821634900801,-689.32655079221649,1970.966217526417,-1555.0785296302538,-961.05516127154942,961.05516127154942,1555.0785296302538,3803.7048197079498,0.0
558523.2936376977,3597751.2368613081,-42500.0,-1569.7928515923891,-1616.676118609525,-823.04408288772493,-1409.0861834873194,-961.02640039329697,-782.15989236549865,2155.9339778230988,-1556.8109531960235,-1142.0931272132111,1142.0931272132111,1556.8109531960235,4142.2273381864143,0.0
563523.2936376977,3597751.2368613081,-42500.0,-1504.5913065366663,-1779.8360148350082,-979.36308477170417,-1506.6245167008417,-1103.2807265867989,-883.90807799990444,2357.0734331351009,-1523.841357793201,-1355.6044742074114,1355.6044742074114,1523.841357793201,4505.5519211056298,0.0
568523.2936376977,3597751.2368613081,-42500.0,-1388.5371017879011,-1949.4547056677927,-1167.8256255933056,-1594.1219032958036,-1263.3372092383302,-993.06896569399726,2574.4326495128153,-1443.6277816372308,-1605.9601928921547,1605.9601928921547,1443.6277816372308,4891.8996141658336,0.0
573523.2936376977,3597751.2368613081,-42500.0,-1207.191301439748,-2120.0308983132254,-1394.1112558337281,-1662.74504394417,-1440.5497933558579,-1106.5316436943049,2807.4337397572854,-1300.4473697296612,-1897.119102962864,1897.119102962864,1300.4473697296612,5297.8480658647668,0.0
578523.2936376977,3597751.2368613081,-42500.0,-943.65132684219748,-2282.90351509621,-1663.9820825168267,-1700.1893699707782,-1632.1307148202718,-1218.7331606024168,3054.6670851132794,-1075.0458602923793,-2231.8484583603986,2231.8484583603986,1075.0458602923793,5717.9389273960242,0.0
583523.2936376977,3597751.2368613081,-42500.0,-578.99761530420199,-2425.1510473053659,-1982.5019829504861,-1689.7126420378702,-1831.7726520116187,-1320.4420401168443,3313.7174737391465,-744.59952498686278,-2610.4753443576119,2610.4753443576119,744.59952498686278,6144.475262151861,0.0
588523.2936376977,3597751.2368613081,-42500.0,-93.561266537535104,-2528.3929102619672,-2352.6414320862173,-1609.1210333782385,-2027.6028369359487,-1397.0115121059803,3581.1541032881555,-283.34478113093064,-3028.9977679856693,3028.9977679856693,283.34478113093064,6567.9121918404571,0.0
593523.2936376977,3597751.2368613081,-42500.0,530.39632670355206,-2567.8001760553889,-2772.9919817356417,-1429.9695162072103,-2199.2587708278211,-1425.8943294482201,3853.0007320392378,335.53222737088322,-3476.4248644763384,3476.4248644763384,-335.53222737088322,6978.7182830175952,0.0
598523.2936376977,3597751.2368613081,-42500.0,1303.7764780315451,-2512.0083472228985,-3234.3391587335855,-1117.578027513968,-2313.9517622074086,-1373.1843891576202,4126.3763557758029,1135.8482008337103,-3931.4015947340586,3931.4015947340586,-1135.8482008337103,7372.4401030107929,0.0
603523.2936376977,3597751.2368613081,-42500.0,2222.6269630739434,-2325.2620695011651,-3715.1140307688961,-633.08056089173363,-2321.720984357401,-1189.0640860008748,4403.7286321805832,2131.0563559553275,-4358.6872782961809,4358.6872782961809,-2131.0563559553275,7760.9751434221762,0.0
608523.2936376977,3597751.2368613081,-42500.0,3256.6381343513272,-1973.9446103048283,-4176.5191231507779,60.337089434802628,-2150.9707535272864,-802.56391430959093,4702.2530565129255,3312.4996085141879,-4707.1036501780054,4707.1036501780054,-3312.4996085141879,8193.6914838957709,0.0
613523.2936376977,3597751.2368613081,-42500.0,4335.6113560948634,-1440.1706018886255,-4559.7230138007353,983.8831939419033,-1707.1992488087469,-117.45907757764142,5071.7327780508549,4633.4074763116359,-4912.2310447296777,4912.2310447296777,-4633.4074763116359,8787.2179721614593,0.0
618523.2936376977,3597751.2368613081,-42500.0,5339.3088390859402,-744.08875782519419,-4789.8816018769257,2119.1814423872256,-880.69713810959934,985.97631299074408,5617.5338643116165,5991.9837824473643,-4908.8327641629976,4908.8327641629976,-5991.9837824473643,9742.5328023804796,0.0
623523.2936376977,3597751.2368613081,-42500.0,6101.8629467039909,28.170494762912906,-4793.6115543331007,3374.0084796275037,428.13349653465826,2634.3008067026281,6493.6607067771038,7222.6470644238052,-4657.7258518655017,4657.7258518655017,-7222.6470644238052,11298.614613529362,0.0
628523.2936376977,3597751.2368613081,-42500.0,6446.0136829797166,703.88890290970073,-4534.4474660224887,4547.1372165240937,2257.8596059379147,4916.6673383787629,7808.000934923748,8110.6606772172545,-4185.9346644367743,4185.9346644367743,-8110.6606772172545,13598.751359122049,0.0
633523.2936376977,3597751.2368613081,-42500.0,6256.8813973586093,1035.5767599670339,-4060.0158969993004,5317.143128712526,4511.8455075900201,7803.4904169256506,9508.6029236001395,8445.5872177206547,-3624.7024767749867,3624.7024767749867,-8445.5872177206547,16549.625860883178,0.0
638523.2936376977,3597751.2368613081,-42500.0,5581.36833652718,772.55032987829077,-3534.8246827642083,5294.0407723355029,6887.4272139607847,11037.523213722112,11367.897704085604,8114.36671340672,-3212.2156176256235,3212.2156176256235,-8114.36671340672,19768.536319855175,0.0
643523.2936376977,3597751.2368613081,-42500.0,4700.2176635728765,-205.49045445155016,-3217.1060532138576,4166.798005712697,8865.2272152953065,14047.551364946643,13023.198965429703,7203.1296835336898,-3225.2311694166392,3225.2311694166392,-7203.1296835336898,22628.578955429839,0.0
648523.2936376977,3597751.2368613081,-42500.0,4088.9821485020784,-1746.6787479179288,-3354.149933397568,1931.5185622014315,9823.7206257775542,15985.889811336068,14055.091119306624,6042.0413929490951,-3838.4474311946924,3838.4474311946924,-6042.0413929490951,24399.760139003254,0.0
653523.2936376977,3597751.2368613081,-42500.0,4203.5605867182257,-3385.0212424058777,-4031.2187447125011,-915.0859829059109,9294.5046328697263,16001.036502166869,14126.186189547439,5116.2194893888818,-4976.9135303060057,4976.9135303060057,-5116.2194893888818,24498.823279063767,0.0
658523.2936376977,3597751.2368613081,-42500.0,5145.626728185819,-4496.2376002345518,-5075.9333396776356,-3434.4961613928153,7255.3809652333111,13723.158993290746,13156.08816258616,4816.8718867189491,-6274.972851191982,6274.972851191982,-4816.8718867189491,22796.655882712865,0.0
663523.2936376977,3597751.2368613081,-42500.0,6468.9686329118558,-4622.7481255659013,-6116.1933323000176,-4694.5647990275957,4238.4788742662422,9638.538284426586,11437.027082066301,5162.0273010442224,-7222.5881062183116,7222.5881062183116,-5162.0273010442224,19810.157673467216,0.0
668523.2936376977,3597751.2368613081,-42500.0,7413.4444111084968,-3744.0101575881854,-6779.0281803190683,-4343.6828839843429,1088.9185342888888,4914.5138686644686,9564.1189915566847,5760.6162178026088,-7440.5755063842435,7440.5755063842435,-5760.6162178026088,16565.558812670446,0.0
673523.2936376977,3597751.2368613081,-42500.0,7429.4973113609258,-2246.3483514957557,-6882.2712811892907,-2768.0121170847365,-1476.3657821512618,728.61325573398085,8133.7869876713039,6112.8432897523526,-6875.9604617114946,6875.9604617114946,-6112.8432897523526,14088.646108193927,0.0
678523.2936376977,3597751.2368613081,-42500.0,6479.4203684821859,-635.24939938976036,-6474.9857509408412,-707.94296540165146,-3145.5654865343481,-2282.9511274923216,7380.933292444096,5947.8112272275048,-5762.3934594412476,5762.3934594412476,-5947.8112272275048,12786.023425115005,0.0
683523.2936376977,3597751.2368613081,-42500.0,4903.60325510231,727.43620146722594,-5738.7966180992289,1215.0045461167504,-3973.0964093151943,-4068.2567561460614,7079.8776467796451,5297.212663941521,-4427.5548578276403,4427.5548578276403,-5297.212663941521,12314.443102815258,0.0
688523.2936376977,3597751.2368613081,-42500.0,3120.0530758825639,1696.2872096639232,-4867.5925586801604,2689.6140913792433,-4185.1359945654312,-4889.6140196818078,6887.2918772886687,4354.5459245534366,-3132.6051301417283,3132.6051301417283,-4354.5459245534366,12118.547768136137,0.0
693523.2936376977,3597751.2368613081,-42500.0,1435.4083026513149,2280.6497612943072,-4002.6007942474403,3657.7267431773093,-4020.4069064745727,-5069.8344995220286,6637.4658132638542,3322.2108925213606,-2020.7193906872196,2020.7193906872196,-3322.2108925213606,11863.665419365636,0.0
698523.2936376977,3597751.2368613081,-42500.0,8.2864858868244795,2558.8462524872311,-3222.3715378495831,4189.5446165604135,-3661.529598832582,-4872.5797916373785,6302.2402154583979,2340.7702897296067,-1138.7154399162205,1138.7154399162205,-2340.7702897296067,11446.044242731794,0.0
703523.2936376977,3597751.2368613081,-42500.0,-1112.7840893284733,2621.3065049329616,-2558.1574763961648,4392.8671687722244,-3226.836468895553,-4479.2371705091227,5902.7927571976597,1483.4463772061283,-477.44287649641097,477.44287649641097,-1483.4463772061283,10876.54995576763,0.0
708523.2936376977,3597751.2368613081,-42500.0,-1941.1138567273081,2545.3254374011672,-2012.9444308339532,4369.333034938003,-2784.8188262999065,-4003.6792766795215,5468.778250831786,775.39319765079176,-3.6486632840434936,3.6486632840434936,-775.39319765079176,10202.258888506045,0.0
713523.2936376977,3597751.2368613081,-42500.0,-2517.1224658293072,2388.6651100952454,-1575.7876205182313,4200.1759885386837,-2371.0865262897078,-3513.0819302820341,5025.2548034363681,214.15778140165412,321.54041228736139,-321.54041228736139,-214.15778140165412,9472.2399604499005,0.0
718523.2936376977,3597751.2368613081,-42500.0,-2888.5625098432561,2191.2329040252898,-1230.5587130154477,3945.2445743875014,-2001.4105511494445,-3044.5944295501026,4590.1678286640235,-215.88428081147282,533.99841603108121,-533.99841603108121,215.88428081147282,8726.3008097687889,0.0
723523.2936376977,3597751.2368613081,-42500.0,-3100.9210964041258,1979.072040540241,-960.57605929277236,3646.4622971943941,-1680.3399254021226,-2616.7609165853178,4175.1268909763348,-535.01162561527121,663.56978384039326,-663.56978384039326,535.01162561527121,7993.1273725490955,0.0
728523.2936376977,3597751.2368613081,-42500.0,-3193.5577385798015,1768.2930472275577,-750.71958912466857,3332.0321100037927,-1406.4900778582621,-2236.9304100242066,3786.8923079919241,-763.68963182017353,733.72013661967128,-733.72013661967128,763.68963182017353,7291.6559301310936,0.0
733523.2936376977,3597751.2368613081,-42500.0,-3198.7400925190327,1568.2296187232525,-588.17299935883864,3020.1452781892258,-1175.6487776609213,-1905.9694673623103,3428.7701521572644,-920.49574007253511,762.26926228708896,-762.26926228708896,920.49574007253511,6633.2320210132975,0.0
738523.2936376977,3597751.2368613081,-42500.0,-3142.0109452913116,1383.7557229508338,-462.48535236942598,2721.9159009234972,-982.53268783450051,-1621.2184890133472,3101.7225585984252,-1021.3507947208793,762.43237370834709,-762.43237370834709,1021.3507947208793,6023.6695174589331,0.0
743523.2936376977,3597751.2368613081,-42500.0,-3043.0791732344619,1216.9071308353139,-365.33603433652348,2443.5865607605538,-821.73597969579191,-1378.3118950695527,2805.1935914937021,-1079.4181178645201,743.83555926030272,-743.83555926030272,1079.4181178645201,5464.9450177835997,0.0
748523.2936376977,3597751.2368613081,-42500.0,-2916.841383462126,1067.9810122587783,-290.20051984349141,2188.136244708212,-688.20627304080062,-1172.2666725653175,2537.7008331552661,-1105.3175624312385,713.38501374344742,-713.38501374344742,1105.3175624312385,4956.4974074103948,0.0
753523.2936376977,3597751.2368613081,-42500.0,-2774.3503015462607,936.26372230724621,-232.0127227859092,1956.4240309303657,-577.45042331438901,-998.10307956562656,2297.2455931635122,-1107.4632649767682,675.96430507343166,-675.96430507343166,1107.4632649767682,4496.1779001781224,0.0
548523.2936376977,3602751.2368613081,-42500.0,-1981.156543200339,-1276.7801940703669,-453.01540811169713,-1416.7715645907979,-689.4318790986423,-692.38666187024421,1943.5417503972603,-1916.6141977671414,-583.16975541176726,583.16975541176726,1916.6141977671414,3790.105249833106,0.0
553523.2936376977,3602751.2368613081,-42500.0,-2040.3032627199859,-1428.0342963900762,-541.0408008408873,-1559.3117103323248,-799.37611927052421,-797.09789655380814,2137.1227966849692,-2005.5968045678903,-712.77920467451054,712.77920467451054,2005.5968045678903,4154.3552808206005,0.0
558523.2936376977,3602751.2368613081,-42500.0,-2077.8607376213581,-1595.8160069090941,-649.54958433071965,-1710.9982913177812,-927.64281932111237,-916.88973915299584,2351.025024899091,-2079.669828238194,-870.07658269010585,870.07658269010585,2079.669828238194,4553.4266028182274,0.0
563523.2936376977,3602751.2368613081,-42500.0,-2084.3953389756325,-1780.2348796575939,-783.52009192051855,-1869.3990938919758,-1076.7036971551656,-1052.8749528605799,2586.5820050112552,-2130.0318130412861,-1060.5779614523208,1060.5779614523208,2130.0318130412861,4988.3836590247865,0.0
568523.2936376977,3602751.2368613081,-42500.0,-2047.705012967991,-1980.321649318377,-949.01350232978757,-2030.3417080746642,-1248.8813280461766,-1205.5736847166736,2844.7640497207162,-2144.8477911530836,-1290.5434788157713,1290.5434788157713,2144.8477911530836,5459.1266006501019,0.0
573523.2936376977,3602751.2368613081,-42500.0,-1952.238063538942,-2193.3861899402477,-1153.2655404751172,-2187.160331751681,-1445.9509300062352,-1374.4319245735865,3125.9160695114347,-2108.4368821298181,-1566.8072568041557,1566.8072568041557,2108.4368821298181,5963.7847009369752,0.0
578523.2936376977,3602751.2368613081,-42500.0,-1778.5461200024274,-2414.10014675404,-1404.6492373576898,-2329.6680810616849,-1668.4552229324606,-1557.0775775140721,3429.3863567151607,-2000.3689807804135,-1896.3600117129786,1896.3600117129786,2000.3689807804135,6497.9202787308395,0.0
583523.2936376977,3602751.2368613081,-42500.0,-1502.9490433413021,-2633.2336794221083,-1712.3678870346187,-2442.7789844123281,-1914.5601864108928,-1748.16869826232,3753.0181665119267,-1794.5858765046721,-2285.5163391135829,2285.5163391135829,1794.5858765046721,7053.5468927502279,0.0
588523.2936376977,3602751.2368613081,-42500.0,-1097.7783005770643,-2836.0177446280381,-2085.6388158913469,-2504.7299038293013,-2178.1908033106656,-1937.5957296822351,4092.5002426528736,-1458.8261486123431,-2738.4205531397656,2738.4205531397656,1458.8261486123431,7618.0765536641265,0.0
593523.2936376977,3602751.2368613081,-42500.0,-532.89081728513383,-3000.2543980260853,-2532.0056600003895,-2484.9686124416871,-2446.0815087933879,-2107.6490565478925,4440.6663094136184,-954.93672217270137,-3254.5851340650779,3254.5851340650779,954.93672217270137,8173.6119135153867,0.0
598523.2936376977,3602751.2368613081,-42500.0,220.36563708151448,-3094.66850030359,-3054.2996725553071,-2342.1200517267553,-2693.3081195319287,-2228.5659464401097,4787.1067868130849,-241.17049932217606,-3825.184639158691,3825.184639158691,241.17049932217606,8697.729115079499,0.0
603523.2936376977,3602751.2368613081,-42500.0,1181.0045876542688,-3078.7667212832798,-3645.8188874493781,-2023.2544116773367,-2877.0210469709045,-2251.7440900998522,5119.167154631723,721.7032932119464,-4428.1620493492674,4428.1620493492674,-721.7032932119464,9168.5089066881555,0.0
608523.2936376977,3602751.2368613081,-42500.0,2344.223199110078,-2906.7602845835017,-4283.8428195559145,-1467.2385176197276,-2928.895609847606,-2100.2404509690009,5427.0755957613474,1957.9977046191148,-5023.2066612840099,5023.2066612840099,-1957.9977046191148,9579.5479503677052,0.0
613523.2936376977,3602751.2368613081,-42500.0,3660.8531175788203,-2539.6132821719343,-4923.2158668750844,-617.24917842430204,-2749.0001519412622,-1657.8927607453707,5719.4127756446142,3456.2879477490251,-5549.7481572126972,5549.7481572126972,-3456.2879477490251,9974.0522626266247,0.0
618523.2936376977,3602751.2368613081,-42500.0,5015.1769593650624,-1969.4763938682256,-5494.8631396374467,550.68156568841437,-2208.1049508957208,-762.94158867597037,6059.4923398425362,5141.3375628719605,-5934.13085168418,5934.13085168418,-5141.3375628719605,10502.037134863203,0.0
623523.2936376977,3602751.2368613081,-42500.0,6215.6578291263468,-1256.1630484940185,-5917.818689002951,1978.7303561024362,-1171.2092703767464,779.70337415445351,6617.2307720446133,6848.3435708516081,-6113.8947339111346,6113.8947339111346,-6848.3435708516081,11463.375561510684,0.0
628523.2936376977,3602751.2368613081,-42500.0,7023.8056962812134,-561.76756638931738,-6133.2363917335297,3466.7406829940219,442.79939616943795,3144.3462587763338,7629.7323883940262,8321.6769610569118,-6081.9660580639729,6081.9660580639729,-8321.6769610569118,13217.62407303603,0.0
633523.2936376977,3602751.2368613081,-42500.0,7244.1163188436367,-148.88065162350597,-6156.831384031334,4636.0327449822316,2563.2390420513261,6366.9121121635808,9180.237618195315,9267.4625254905677,-5935.0015572631564,5935.0015572631564,-9267.4625254905677,15901.414943330063,0.0
638523.2936376977,3602751.2368613081,-42500.0,6863.4280065953535,-298.7852473122685,-6118.625090324279,4982.2145120388568,4867.7082571643359,10173.91078863968,11073.074349476414,9472.2941778246204,-5882.3377836031159,5882.3377836031159,-9472.2941778246204,19190.852387242572,0.0
643523.2936376977,3602751.2368613081,-42500.0,6161.5510724334299,-1142.3709684479998,-6234.4796960020058,4074.2778900671287,6767.5085248324795,13840.067825961773,12879.425849286916,8948.6293581384525,-6164.8602637719541,6164.8602637719541,-8948.6293581384525,22336.429850024499,0.0
648523.2936376977,3602751.2368613081,-42500.0,5666.6736468622576,-2488.0316014423129,-6678.7318192921266,1872.3916943293482,7572.9412416317346,16237.693898000198,14062.383089212024,8008.54728862302,-6888.8276503441994,6888.8276503441994,-8008.54728862302,24408.928885407469,0.0
653523.2936376977,3602751.2368613081,-42500.0,5877.8085257216253,-3806.0084574773864,-7423.4865021465575,-1016.6518005046225,6830.9593425816556,16236.903718411775,14190.985734194939,7162.159614146447,-7883.7236564821669,7883.7236564821669,-7162.159614146447,24669.182078353082,0.0
658523.2936376977,3602751.2368613081,-42500.0,6857.9015052444502,-4466.580903439637,-8193.8575482982924,-3444.499490268508,4646.4329266512732,13396.52339142551,13188.80767890103,6825.1982818654369,-8729.6624928241854,8729.6624928241854,-6825.1982818654369,22976.935607066327,0.0
663523.2936376977,3602751.2368613081,-42500.0,8041.4277152539617,-4116.1912078332507,-8619.6197490801915,-4336.7063589350682,1707.1825268773528,8453.8728783000315,11482.666153099828,7004.8292224255974,-8980.1092695892803,8980.1092695892803,-7004.8292224255974,20015.642755322697,0.0
668523.2936376977,3602751.2368613081,-42500.0,8581.1024888402826,-2892.2410664713784,-8469.2066004448297,-3416.1867348575242,-1085.8095444648454,2996.0836971052495,9813.286082253333,7283.2390680062044,-8426.7540561305559,8426.7540561305559,-7283.2390680062044,17038.846673357835,0.0
673523.2936376977,3602751.2368613081,-42500.0,7988.6587821984931,-1279.133617487907,-7763.5048784977089,-1302.8081746039124,-3102.6774690125731,-1524.0482300140254,8710.5125291598997,7182.6673322451361,-7197.301645270275,7197.301645270275,-7182.6673322451361,15088.301271670487,0.0
678523.2936376977,3602751.2368613081,-42500.0,6402.7500909472019,233.32224481840871,-6703.8232357622428,1074.1193404202263,-4185.2391760929258,-4474.6703170010169,8237.0068492456703,6522.276611973095,-5625.9614066378581,5625.9614066378581,-6522.276611973095,14272.63208672198,0.0
683523.2936376977,3602751.2368613081,-42500.0,4321.0257150298048,1371.5419510089835,-5525.8249526185527,3057.4466161497071,-4508.5474603395614,-5967.4081502659756,8042.0723127819092,5435.4293412722955,-4045.210996378567,4045.210996378567,-5435.4293412722955,14006.141138955432,0.0
688523.2936376977,3602751.2368613081,-42500.0,2223.1766617246567,2082.2125347546885,-4403.1051296905171,4407.1822792056782,-4348.6587066875163,-6425.4495395690419,7806.2318990745516,4172.9049323013705,-2665.0977698619713,2665.0977698619713,-4172.9049323013705,13762.528943417536,0.0
693523.2936376977,3602751.2368613081,-42500.0,398.16885604036474,2434.0773630200451,-3426.4707314068373,5157.7894780499873,-3940.6587351903377,-6264.868361046837,7444.7848899091632,2942.98100735566,-1566.3631360260906,1566.3631360260906,-2942.98100735566,13330.760126335512,0.0
698523.2936376977,3602751.2368613081,-42500.0,-1045.4231683359176,2530.4810094872805,-2624.0129805241459,5447.9457339498613,-3440.0772264316365,-5784.2074112247083,6981.924485543499,1862.9594549011604,-745.90462760037099,745.90462760037099,-1862.9594549011604,12697.250092739328,0.0
703523.2936376977,3602751.2368613081,-42500.0,-2108.8180414687276,2464.7448957495885,-1988.257721036915,5423.1911345414846,-2934.8401657250661,-5168.4064247885854,6462.6502470860751,975.53986656036045,-162.4599180640696,162.4599180640696,-975.53986656036045,11918.14791256717,0.0
708523.2936376977,3602751.2368613081,-42500.0,-2842.4693120613147,2306.7345173986928,-1496.3084900862816,5200.9406154954268,-2468.2054683766396,-4522.9718014674763,5924.9433750964299,279.46334100742166,234.79245448654075,-234.79245448654075,-279.46334100742166,11058.345316970788,0.0
713523.2936376977,3602751.2368613081,-42500.0,-3310.6225023498168,2103.7750856797406,-1121.4444320947841,4865.9847137229799,-2057.4706877091899,-3904.25820645063,5395.1212934946325,-246.84845528262878,492.76324908880616,-492.76324908880616,246.84845528262878,10171.28633290262,0.0
718523.2936376977,3602751.2368613081,-42500.0,-3574.7436912355656,1885.8364857412294,-838.65845036747817,4476.0647957263172,-1706.0895238952396,-3339.6391630564958,4889.5999730450985,-631.50536705136494,649.91260520482035,-649.91260520482035,631.50536705136494,9295.4290307101819,0.0
723523.2936376977,3602751.2368613081,-42500.0,-3687.3916153153996,1670.7903959606967,-626.73128896952051,4068.9163353969893,-1410.7461402138938,-2839.782800895257,4417.6241634353419,-902.34921835116688,735.89911789152325,-735.89911789152325,902.34921835116688,8456.0815840709383,0.0
728523.2936376977,3602751.2368613081,-42500.0,-3690.988240229964,1468.5304366657388,-468.58418965954564,3668.1902245373967,-1165.2542914142307,-2405.9772827316078,3983.5666275122662,-1084.1112567192529,772.79463760874501,-772.79463760874501,1084.1112567192529,7668.4009221576007,0.0
733523.2936376977,3602751.2368613081,-42500.0,-3618.5933031245254,1283.8888884790344,-350.89379584097833,3287.8841573344876,-962.61304687931863,-2034.5148248910803,3588.6155555886171,-1197.5566706461318,776.65313563922768,-776.65313563922768,1197.5566706461318,6940.2019132285795,0.0
738523.2936376977,3602751.2368613081,-42500.0,-3495.3408224603177,1118.5987680980988,-263.46539580749373,2935.5207598021634,-796.02972125091878,-1719.313016369679,3231.9573434111162,-1259.5419346079902,758.95945325737705,-758.95945325737705,1259.5419346079902,6274.2345250124054,0.0
743523.2936376977,3602751.2368613081,-42500.0,-3339.9589472626749,972.57467792813907,-198.5934631713429,2614.3816715541743,-659.3785843114407,-1453.4553810891648,2911.587845438929,-1283.443919813893,727.81675773922734,-727.81675773922734,1283.443919813893,5669.9113802505753,0.0
748523.2936376977,3602751.2368613081,-42500.0,-3166.1475900877836,844.72957574145892,-150.49889057998547,2325.0570137603659,-547.35825278468019,-1230.0611036972548,2624.8602359724559,-1279.702442435819,688.86634027311743,-688.86634027311743,1279.702442435819,5124.5671970995963,0.0
753523.2936376977,3602751.2368613081,-42500.0,-2983.7409373499818,733.4843466714384,-114.86833087245849,2066.5042836730527,-455.49566815925135,-1042.740002745923,2368.8474552900111,-1256.3568252352634,645.97814458927098,-645.97814458927098,1256.3568252352634,4634.34751446058,0.0
548523.2936376977,3607751.2368613081,-42500.0,-2356.0901738479192,-1175.6503355015832,-315.5128172395336,-1617.7126478513098,-623.44594528743949,-774.50458912209785,2081.6277536590337,-2287.3496355804286,-318.93801005390321,318.93801005390321,2287.3496355804286,4074.4962247645954,0.0
553523.2936376977,3607751.2368613081,-42500.0,-2473.8725277420062,-1325.1395838798801,-380.99542821408016,-1801.9797267443198,-727.43841469809104,-900.17219300269687,2300.2216751498986,-2440.2836398762975,-414.6056651760407,414.6056651760407,2440.2836398762975,4489.9870159963448,0.0
558523.2936376977,3607751.2368613081,-42500.0,-2579.4144521794024,-1494.2442548166509,-463.50890666660626,-2004.9934574025503,-850.42162644105463,-1046.858278322941,2544.4758660242674,-2590.0600011584711,-534.51963331297816,534.51963331297816,2590.0600011584711,4950.85703656239,0.0
563523.2936376977,3607751.2368613081,-42500.0,-2664.31688995898,-1684.6093977910846,-567.84285840532903,-2226.6119260425839,-995.70055887163642,-1217.4942506102623,2816.9562596816331,-2729.7760582772767,-684.58289602898674,684.58289602898674,2729.7760582772767,5460.4633785812994,0.0
568523.2936376977,3607751.2368613081,-42500.0,-2717.1531761342117,-1897.3617933936487,-700.12246289599534,-2465.4437027456738,-1166.8967068436489,-1415.008674151233,3120.1345760661716,-2849.5225948789703,-871.97449997302272,871.97449997302272,2849.5225948789703,6021.432952483925,0.0
573523.2936376977,3607751.2368613081,-42500.0,-2722.5600813971555,-2132.6149557508552,-868.11244631603529,-2718.1266977597825,-1367.7683952959108,-1642.0433857512735,3456.1479031021063,-2935.3244263218712,-1105.2813745469202,1105.2813745469202,2935.3244263218712,6635.0493414241082,0.0
578523.2936376977,3607751.2368613081,-42500.0,-2660.1430162826859,-2388.6871727158186,-1081.5132933657383,-2978.2480983745677,-1601.8279128362699,-1900.4647731523146,3826.4002409165428,-2967.7750946191691,-1394.5110430806305,1394.5110430806305,2967.7750946191691,7300.3324993752312,0.0
583523.2936376977,3607751.2368613081,-42500.0,-2503.2690212157736,-2660.9003269563423,-1352.1562818034645,-3234.7292846335649,-1871.5957058321801,-2190.5231901568932,4230.9138825911832,-2920.3523403949571,-1750.8417672344299,1750.8417672344299,2920.3523403949571,8012.6817312437579,0.0
588523.2936376977,3607751.2368613081,-42500.0,-2217.9997427404137,-2939.8040423152806,-1693.9038502809524,-3469.4358169773363,-2177.21228344976,-2509.3736311412963,4667.2935662741429,-2757.5153166546406,-2185.858307631408,2185.858307631408,2757.5153166546406,8761.9256543892552,0.0
593523.2936376977,3607751.2368613081,-42500.0,-1762.805935160445,-3208.7204352839217,-2121.8960983520346,-3653.7643331689974,-2513.9427044447834,-2848.4088776876115,5129.1418209247449,-2432.9804568067584,-2709.870767287629,2709.870767287629,2432.9804568067584,9529.6912763459623,0.0
598523.2936376977,3607751.2368613081,-42500.0,-1090.4479365553573,-3440.7639656412148,-2650.548325198632,-3744.1782728023463,-2867.8680208779829,-3188.4097922039086,5603.843292328379,-1889.2224557723503,-3328.7568392659059,3328.7568392659059,1889.2224557723503,10286.374960933008,0.0
603523.2936376977,3607751.2368613081,-42500.0,-154.55273637657521,-3596.2335507509915,-3289.4909270201242,-3677.4992768181278,-3208.9071264381214,-3490.9384203642917,6070.0513888017258,-1060.4319141797801,-4038.7873995097857,4038.7873995097857,1060.4319141797801,10989.17143728203,0.0
608523.2936376977,3607751.2368613081,-42500.0,1075.3700516268621,-3622.8738535091757,-4036.7614856797859,-3368.8978169322754,-3480.7371824833099,-3684.1438136551865,6496.5174938585797,117.10856765346534,-4819.5218874929596,4819.5218874929596,-117.10856765346534,11585.605574775136,0.0
613523.2936376977,3607751.2368613081,-42500.0,2587.0259881678912,-3464.0626146344803,-4869.7503868011345,-2719.5763989735242,-3589.3231513650539,-3642.6674579535907,6847.3322310362128,1681.9231634152247,-5626.8874605760675,5626.8874605760675,-1681.9231634152247,12033.13601042009,0.0
618523.2936376977,3607751.2368613081,-42500.0,4288.3648986818071,-3082.1398122568335,-5737.7032580871301,-1646.2110114487916,-3397.3356836517373,-3167.5700616059867,7106.9427513065075,3608.1311744527816,-6392.5857195218559,6392.5857195218559,-3608.1311744527816,12353.694003160261,0.0
623523.2936376977,3607751.2368613081,-42500.0,5976.8216270927696,-2501.0730993364377,-6564.9779364711239,-144.77077963161656,-2741.2270066805609,-1986.358024746612,7353.1108136667872,5757.0564253972361,-7040.4182099300679,7040.4182099300679,-5757.0564253972361,12736.102840551484,0.0
628523.2936376977,3607751.2368613081,-42500.0,7352.5342510473902,-1856.3550207323417,-7277.259881336312,1615.0781985089625,-1495.1038449903685,187.47821899618407,7861.1325114847623,7848.1742781141129,-7527.856325624085,7527.856325624085,-7848.1742781141129,13616.725405737803,0.0
633523.2936376977,3607751.2368613081,-42500.0,8120.5932658009478,-1408.4718077174011,-7852.0488787185577,3213.6769998642603,307.79919081845384,3491.7813777844672,8921.9744262757431,9499.2452745173541,-7900.4065949295427,7900.4065949295427,-9499.2452745173541,15486.626483302223,0.0
638523.2936376977,3607751.2368613081,-42500.0,8180.5651263708678,-1455.0725582270056,-8361.0938672951943,4028.0418631412235,2341.8552500333267,7657.90540553765,10457.826109144251,10371.621552210161,-8307.511972070768,8307.511972070768,-10371.621552210161,18350.311354684509,0.0
643523.2936376977,3607751.2368613081,-42500.0,7789.7490213202855,-2125.0703391360339,-8939.105562947434,3499.6696452322512,3972.8796400673618,11795.591527176412,12094.425091180958,10375.577739713133,-8914.0669581866332,8914.0669581866332,-10375.577739713133,21460.583852046904,0.0
648523.2936376977,3607751.2368613081,-42500.0,7505.1820206697821,-3179.1320507475048,-9647.0857256619056,1567.0428026766926,4493.2386103981671,14486.129572896652,13252.913847097227,9784.3632550771581,-9720.4927183841028,9720.4927183841028,-9784.3632550771581,23683.920493916114,0.0
653523.2936376977,3607751.2368613081,-42500.0,7820.4724446206701,-4044.5839201536505,-10328.937276751585,-1039.3143866644155,3551.9633714497959,14376.8854073397,13424.124990264158,9107.5840041414631,-10451.935571414389,10451.935571414389,-9107.5840041414631,24115.31631879825,0.0
658523.2936376977,3607751.2368613081,-42500.0,8710.9280800138094,-4159.7125518225675,-10645.502399015764,-3018.9905956481189,1450.4263814726385,11074.477675227143,12601.942696940307,8748.721362468088,-10685.550941592501,10685.550941592501,-8748.721362468088,22617.944187247569,0.0
663523.2936376977,3607751.2368613081,-42500.0,9518.2506493793699,-3361.8053289292998,-10313.527463247287,-3291.5441311632344,-1009.5482910710115,5630.2488983059484,11343.123299849078,8693.1235413355371,-10138.014807647132,10138.014807647132,-8693.1235413355371,20019.379347598824,0.0
668523.2936376977,3607751.2368613081,-42500.0,9423.3703852807594,-1959.322807792018,-9318.1038263783012,-1759.3800672120703,-3026.1082427972074,-36.22322977331708,10175.233364652726,8544.15657534809,-8844.2218743691665,8844.2218743691665,-8544.15657534809,17655.455891832145,0.0
673523.2936376977,3607751.2368613081,-42500.0,8109.0217366586376,-455.49565853907689,-7893.7475363548001,743.59426181120841,-4203.9622348737958,-4370.7370993461273,9438.6312185295792,7918.436410228398,-7098.6557848763714,7098.6557848763714,-7918.436410228398,16353.086111033654,0.0
678523.2936376977,3607751.2368613081,-42500.0,5911.5572511701921,771.42601616105901,-6345.9434232822814,3206.6235568694347,-4582.7388494356037,-6872.1505556446364,9175.6297485756168,6761.6549243349709,-5263.8148250043105,5263.8148250043105,-6761.6549243349709,15893.71842264121,0.0
683523.2936376977,3607751.2368613081,-42500.0,3434.2950909025758,1582.0320803193838,-4904.4484616272757,5036.4775160909921,-4416.0822576160081,-7842.1876161137625,8986.8276887709217,5296.0932210707524,-3610.6328325015947,3610.6328325015947,-5296.0932210707524,15645.259670136256,0.0
688523.2936376977,3607751.2368613081,-42500.0,1154.9462213495754,2009.6839080667676,-3683.8173643651439,6109.6048550649084,-3965.7282951949314,-7828.9458451451474,8640.1577105967881,3796.4174942395666,-2268.0000853333704,2268.0000853333704,-3796.4174942395666,15229.324519871987,0.0
693523.2936376977,3607751.2368613081,-42500.0,-695.1860320916029,2155.4581398121313,-2710.8316325073984,6554.7889197092973,-3415.4341555187193,-7293.4922454111884,8136.5069783988674,2449.4338152298665,-1253.6378238082593,1253.6378238082593,-2449.4338152298665,14564.682259406265,0.0
698523.2936376977,3607751.2368613081,-42500.0,-2071.7387430053163,2121.4922427044739,-1964.9311003101286,6562.9753866606925,-2868.6302473543892,-6532.681281414486,7539.0746107643281,1335.7313581561345,-526.69470459108584,526.69470459108584,-1335.7313581561345,13703.836077305876,0.0
703523.2936376977,3607751.2368613081,-42500.0,-3024.6897736871883,1986.3022012421675,-1407.6187624076078,6299.7127070729866,-2373.4265396491428,-5713.220107669249,6905.5322266591793,464.54733153066229,-27.531576525078776,27.531576525078776,-464.54733153066229,12727.350430257362,0.0
708523.2936376977,3607751.2368613081,-42500.0,-3634.9514488205496,1802.6915663936652,-998.39788866851745,5884.7789214480372,-1946.4165878337822,-4921.0295151326236,6275.2928747151855,-189.5346431939806,301.35763213767473,-301.35763213767473,189.5346431939806,11704.81940426033,0.0
713523.2936376977,3607751.2368613081,-42500.0,-3983.2925570557018,1603.3060525426552,-701.59281173105035,5397.8897760662367,-1588.3787588101491,-4196.5236643802182,5672.1182594929833,-663.37489338312014,507.55266818371331,-507.55266818371331,663.37489338312014,10686.769176722952,0.0
718523.2936376977,3607751.2368613081,-42500.0,-4138.8811657710148,1406.9599046635758,-488.31017673456694,4889.6408521341145,-1293.1276389068498,-3555.3239687260616,5108.949658978946,-993.86862391389195,627.5687566423162,-627.5687566423162,993.86862391389195,9706.585360173036,0.0
723523.2936376977,3607751.2368613081,-42500.0,-4156.9764940326058,1223.6185554998119,-336.21419201649184,4390.8641661853926,-1052.0762328654687,-2999.7406337491393,4591.7736738924323,-1213.4543463254781,688.30296742053076,-688.30296742053076,1213.4543463254781,8784.4909323401116,0.0
728523.2936376977,3607751.2368613081,-42500.0,-4080.1035149395466,1057.8391339691268,-228.51425182602583,3919.3311489709695,-856.42751443092584,-2525.1700766830927,4122.2456379904006,-1348.9570073970815,709.09609182638792,-709.09609182638792,1348.9570073970815,7931.2381153177821,0.0
733523.2936376977,3607751.2368613081,-42500.0,-3940.2103076120816,911.00229356344596,-152.80797981975931,3484.3046986295026,-698.13103233747836,-2123.7401659975735,3699.3930210621725,-1421.8242844332956,703.64024787377662,-703.64024787377662,1421.8242844332956,7151.0384543417149,0.0
738523.2936376977,3607751.2368613081,-42500.0,-3760.8526946057682,782.71208499814554,-100.03782317010045,3089.597117004344,-570.22274146568896,-1786.4061075594134,3320.7187999248722,-1448.8453940740233,681.51554104144918,-681.51554104144918,1448.8453940740233,6443.766678284821,0.0
743523.2936376977,3607751.2368613081,-42500.0,-3559.0985362098731,671.652427479474,-63.638279270597188,2735.6227579625192,-466.86823568490007,-1504.1301318740525,2982.9180298785277,-1442.9655484540176,649.35352213415308,-649.35352213415308,1442.9655484540176,5806.5671083849475,0.0
748523.2936376977,3607751.2368613081,-42500.0,-3347.0875202303105,576.09928108276711,-38.874194948544506,2420.7707576102102,-383.27441715469371,-1268.5031902065564,2682.3405453614746,-1414.0446856961617,611.69147487723967,-611.69147487723967,1414.0446856961617,5234.9928374846759,0.0
753523.2936376977,3607751.2368613081,-42500.0,-3133.2689010730664,494.21735303096989,-22.342342297937698,2142.3143414840852,-315.55201873663253,-1072.0284637542172,2415.2847155623226,-1369.5111025641688,571.58938126950738,-571.58938126950738,1369.5111025641688,4723.7921623349048,0.0
543523.2936376977,3612751.2368613081,-42500.0,-2527.9123403941576,-899.61265095557985,-152.54964926408289,-1602.6119227506663,-453.16366026701382,-726.22683677295379,1995.1986596273841,-2419.2394771888075,12.095200194771905,-12.095200194771905,2419.2394771888075,3918.9077101898342,0.0
548523.2936376977,3612751.2368613081,-42500.0,-2699.942587453012,-1017.8078458099372,-184.97702559315397,-1800.5041084161921,-529.3429438768004,-848.76386688982018,2210.4256986903547,-2621.1064628245226,-27.178456800048025,27.178456800048025,2621.1064628245226,4332.44955246877,0.0
553523.2936376977,3612751.2368613081,-42500.0,-2874.4753324660765,-1153.5351599256858,-226.93631806396246,-2024.1463807524663,-620.17884411757052,-993.91252450160198,2453.215540228291,-2834.6820905672662,-80.322054223811847,80.322054223811847,2834.6820905672662,4796.2920165611567,0.0
558523.2936376977,3612751.2368613081,-42500.0,-3046.9040128756528,-1309.2752861100496,-281.49808853313567,-2276.1783003377045,-728.66044554236441,-1165.8473410940931,2727.2238436389312,-3057.3861286195952,-151.51888400406915,151.51888400406915,3057.3861286195952,5316.2360076099158,0.0
563523.2936376977,3612751.2368613081,-42500.0,-3210.4408613612995,-1487.6524614507264,-352.76024821994497,-2559.0284660952261,-858.34867237335891,-1369.3957419940682,3036.4772241802857,-3284.8058186240819,-246.16491937505407,246.16491937505407,3284.8058186240819,5898.3187106046726,0.0
568523.2936376977,3612751.2368613081,-42500.0,-3355.2790964573505,-1691.2806507474143,-446.1870369643882,-2874.5733781719014,-1013.4377261149618,-1610.073995450344,3385.3230442406652,-3509.8750782416946,-371.19198162037878,371.19198162037878,3509.8750782416946,6548.5548227116924,0.0
573523.2936376977,3612751.2368613081,-42500.0,-3467.4456111670952,-1922.4682028757918,-569.04309889562512,-3223.5688352159891,-1198.7778994864645,-1894.0856835794596,3778.2970199489178,-3721.7091613339526,-535.44648554899391,535.44648554899391,3721.7091613339526,7272.4833210037177,0.0
578523.2936376977,3612751.2368613081,-42500.0,-3527.2486991472542,-2182.6822966880736,-730.92545282242975,-3604.6988471768304,-1419.8046792494833,-2228.239722135379,4219.8359020036787,-3903.9566617181977,-750.09784121903658,750.09784121903658,3903.9566617181977,8074.3917643180894,0.0
583523.2936376977,3612751.2368613081,-42500.0,-3507.2433205075217,-2471.6126090467628,-944.36478724303481,-4012.9727205552472,-1682.2579699659423,-2619.6811266763088,4713.6982002224277,-4032.4982680258668,-1029.0004080355125,1029.0004080355125,4032.4982680258668,8955.9941602582385,0.0
588523.2936376977,3612751.2368613081,-42500.0,-3369.758412237572,-2785.5963455800406,-1225.3914037160489,-4437.0328902680039,-1991.4547111655745,-3075.1706777273562,5261.8577559032783,-4072.3449992083115,-1388.8305485056264,1388.8305485056264,4072.3449992083115,9914.206311698279,0.0
593523.2936376977,3612751.2368613081,-42500.0,-3064.3935610794915,-3115.1029927158729,-1593.8066600980851,-4854.7250784424423,-2350.6488109494408,-3599.2838152921959,5862.4864594795399,-3973.7694775644813,-1848.6353713226674,1848.6353713226674,3973.7694775644813,10937.488388263904,0.0
598523.2936376977,3612751.2368613081,-42500.0,-2526.7863228669285,-3441.0505238927176,-2072.6185999305544,-5226.2133321186411,-2757.6250978519597,-4190.164473054966,6506.5118336612368,-3668.3245891915185,-2428.1302223291286,2428.1302223291286,3668.3245891915185,12000.184994458761,0.0
603523.2936376977,3612751.2368613081,-42500.0,-1681.6928334663025,-3730.2533274222978,-2685.6924206328463,-5484.4921917303855,-3198.1837079417783,-4830.2299432751352,7172.306293071465,-3066.8882562143735,-3143.7527381093541,3143.7527381093541,3066.8882562143735,13054.83212061228,0.0
608523.2936376977,3612751.2368613081,-42500.0,-456.06932779517297,-3931.8803146592886,-3452.3042803491981,-5525.5325556183734,-3634.9871377912568,-5467.8296661412869,7818.8717950851869,-2064.7363388937019,-4001.4592590145921,4001.4592590145921,2064.7363388937019,14024.682779017978,0.0
613523.2936376977,3612751.2368613081,-42500.0,1190.1096108155298,-3980.1030033177649,-4377.6541350594171,-5206.2015102670839,-3991.7467603330524,-5986.1966400421597,8380.5330377338341,-562.51912490022141,-4986.5008686207821,4986.5008686207821,562.51912490022141,14804.822714461159,0.0
618523.2936376977,3612751.2368613081,-42500.0,3211.1424780334069,-3812.5055911384152,-5440.8933912442162,-4368.0131677572845,-4138.7122838071873,-6163.1604523267742,8772.9724606170366,1486.4179877309971,-6054.3816173490204,6054.3816173490204,-1486.4179877309971,15292.465686192436,0.0
623523.2936376977,3612751.2368613081,-42500.0,5415.1131820566316,-3414.0484527710146,-6588.1061149720126,-2912.2065455133252,-3898.5481886942266,-5646.750030141935,8937.8420883475374,4001.5388467818038,-7133.8980001599548,7133.8980001599548,-4001.5388467818038,15481.284720323092,0.0
628523.2936376977,3612751.2368613081,-42500.0,7446.3599130909179,-2879.838359265806,-7743.8476183581633,-935.4160459131466,-3106.5333712666979,-4008.4039561644245,8996.0694137965729,6704.1631135691396,-8155.7620062556734,8155.7620062556734,-6704.1631135691396,15633.644647838502,0.0
633523.2936376977,3612751.2368613081,-42500.0,8888.9753173316076,-2447.3727398099759,-8848.1232623164269,1132.8964312324256,-1748.9065898685942,-954.86719307643807,9438.5575637855982,9125.7949506708646,-9102.0745904392461,9102.0745904392461,-9125.7949506708646,16367.650476439218,0.0
638523.2936376977,3612751.2368613081,-42500.0,9514.372209617035,-2410.8255877801575,-9891.5367442470761,2552.7200991174955,-127.38611726731608,3297.6901801059712,10438.985949212483,10773.268713363703,-10026.155770772109,10026.155770772109,-10773.268713363703,18210.71480606715,0.0
643523.2936376977,3612751.2368613081,-42500.0,9518.7958930880613,-2887.8719656367284,-10884.837036952445,2620.759308358824,1124.4646133716917,7708.9662658146935,11461.801185213872,11412.185219574812,-10970.381278792154,10970.381278792154,-11412.185219574812,20786.400221532993,0.0
648523.2936376977,3612751.2368613081,-42500.0,9457.4165164227252,-3606.0842986395273,-11743.320633048781,1244.6940334514775,1346.7910632518801,10584.333586752415,11933.330738100278,11246.139423045746,-11806.33403331612,11806.33403331612,-11246.139423045746,22885.225156927605,0.0
653523.2936376977,3612751.2368613081,-42500.0,9784.7862548214234,-4001.0070229510275,-12208.483564299471,-744.46747004127121,352.07031462814825,10435.581188963646,12087.129366470714,10766.200881495401,-12191.702589131959,12191.702589131959,-10766.200881495401,23420.061646390965,0.0
658523.2936376977,3612751.2368613081,-42500.0,10383.36483658352,-3648.2481732591173,-11970.709545366135,-1998.3017722323475,-1368.5754237530555,7036.5160475298035,12171.748412134652,10352.634121007628,-11791.321692064281,11791.321692064281,-10352.634121007628,22217.517901560768,0.0
663523.2936376977,3612751.2368613081,-42500.0,10587.123236455793,-2600.065963220884,-10925.498548612462,-1579.9459492546687,-3012.7679493125443,1726.263945854841,11519.237337532642,9990.1038556662588,-10559.911827445851,10559.911827445851,-9990.1038556662588,20141.684081079962,0.0
668523.2936376977,3612751.2368613081,-42500.0,9741.8427413797872,-1273.3820855204312,-9280.8326669927883,389.13416202485814,-4026.8557273933948,-3464.7731007208349,10622.276470164787,9366.3955162803977,-8764.8001050576131,8764.8001050576131,-9366.3955162803977,18412.419678815586,0.0
673523.2936376977,3612751.2368613081,-42500.0,7761.073784825222,-89.414408746784204,-7408.9786535257826,2980.0428808259348,-4318.3221363247631,-7107.2357512609742,10091.386679780862,8243.9891120400844,-6783.2779458526238,6783.2779458526238,-8243.9891120400844,17557.15677023205,0.0
678523.2936376977,3612751.2368613081,-42500.0,5123.4384852301382,743.7922092363068,-5632.7475516794284,5252.8181806459343,-4088.0283739418846,-8899.3662747926792,9932.6614989344052,6689.0375929202719,-4921.7157094900949,4921.7157094900949,-6689.0375929202719,17206.818406290502,0.0
683523.2936376977,3612751.2368613081,-42500.0,2444.8175996966729,1216.5318533923414,-4128.0411323146982,6753.5357353760583,-3591.3279344005014,-9273.6079485143346,9683.6454615924667,4969.6717742441106,-3351.8039625404326,3351.8039625404326,-4969.6717742441106,16836.386387379382,0.0
688523.2936376977,3612751.2368613081,-42500.0,140.35020022370031,1412.8327144334992,-2942.2807845477396,7473.6300312222666,-3015.8930400295681,-8815.385019520756,9214.1314519929783,3345.8463916975529,-2125.6110354716361,2125.6110354716361,-3345.8463916975529,16215.459879048462,0.0
693523.2936376977,3612751.2368613081,-42500.0,-1633.8247200929702,1430.5412670530775,-2050.4505852608477,7603.8961557109906,-2465.4123050053263,-7968.4752366310431,8586.8159512520724,1965.4548864761709,-1219.8432110951762,1219.8432110951762,-1965.4548864761709,15345.814534196741,0.0
698523.2936376977,3612751.2368613081,-42500.0,-2890.5574099482983,1347.6025498994479,-1400.1324720209946,7356.030210886096,-1983.9830998749871,-6996.1097861015633,7884.9804230679747,871.35354119300496,-578.20454572703852,578.20454572703852,-871.35354119300496,14310.35116843681,0.0
703523.2936376977,3612751.2368613081,-42500.0,-3714.3785599163275,1216.490107612022,-936.09916228881161,6894.5167570444382,-1582.5676577519739,-6034.0942903091827,7169.1700654253118,45.500130026448979,-138.96728901482919,138.96728901482919,-45.500130026448979,13194.730977271089,0.0
708523.2936376977,3612751.2368613081,-42500.0,-4203.6531078571861,1069.0952909171672,-610.42923601704933,6329.8745284722518,-1256.6862956898167,-5145.4180907167183,6475.9737966303564,-554.27485078867255,151.98053062661359,-151.98053062661359,554.27485078867255,12064.442038208361,0.0
713523.2936376977,3612751.2368613081,-42500.0,-4446.2035808959299,923.25796821460233,-385.08699315570396,5731.2211338346206,-996.09886150511875,-4354.9422823033474,5825.1417829919692,-973.93808648816344,337.32868581212352,-337.32868581212352,973.93808648816344,10963.800230683473,0.0
718523.2936376977,3612751.2368613081,-42500.0,-4512.7467542132035,788.03243797948699,-231.31170623339605,5139.8574373622996,-789.46490435615806,-3668.1058995858853,5225.9629300070974,-1254.7283718397559,448.91655537977073,-448.91655537977073,1254.7283718397559,9920.4325807999885,0.0
723523.2936376977,3612751.2368613081,-42500.0,-4457.5281194264098,667.28651938391306,-127.97664530995813,4579.2574916659141,-626.31639372314999,-3080.598701916947,4681.5097382851436,-1430.734911655949,509.76766974628629,-509.76766974628629,1430.734911655949,8949.9101613045968,0.0
728523.2936376977,3612751.2368613081,-42500.0,-4321.0760404732546,561.97697722908276,-59.847604609737012,4061.6305426799427,-497.72322152456269,-2583.4780304168398,4191.2301888762995,-1529.0277537840038,536.24453245374741,-536.24453245374741,1529.0277537840038,8059.4156212993639,0.0
733523.2936376977,3612751.2368613081,-42500.0,-4133.1365472105999,471.52390253384976,-16.075597948169609,3592.1226258321826,-396.37063585771733,-2165.9875965741107,3752.514093423255,-1570.6322805804107,539.85676295692645,-539.85676295692645,1570.6322805804107,7250.4732273020154,0.0
738523.2936376977,3612751.2368613081,-42500.0,-3915.2026988336474,394.61562145665874,10.996690507346283,3171.5236882939757,-316.40249437966185,-1817.1356124642709,3361.65548160654,-1571.6475082723832,528.64270858779662,-528.64270858779662,1571.6475082723832,6520.941728626286,0.0
743523.2936376977,3612751.2368613081,-42500.0,-3682.5467771493891,329.66443027646517,26.737361017058582,2798.0331877189487,-253.19182212869771,-1526.5507982093716,3014.4553006281299,-1544.2659196935724,508.18005173343556,-508.18005173343556,1544.2659196935724,5866.4494506560759,0.0
748523.2936376977,3612751.2368613081,-42500.0,-3445.8050577220197,275.05520436308245,34.888128604439878,2468.4148262040017,-203.11080661196323,-1284.8996496826474,2706.5989363863055,-1497.630417890025,482.31032830353689,-482.31032830353689,1497.630417890025,5281.4043462014097,0.0
753523.2936376977,3612751.2368613081,-42500.0,-3212.1957519530665,229.27157864159008,38.043169231225278,2178.7451222889986,-163.32681916415322,-1084.0379094294335,2433.8877806910709,-1438.5293718783441,453.65343167258209,-453.65343167258209,1438.5293718783441,4759.6850358894271,0.0
543523.2936376977,3617751.2368613081,-42500.0,-2780.4231656370507,-712.44873585243852,-57.961488312884917,-1730.9297480193475,-350.45357635112799,-776.27638810405222,2090.4920590157244,-2653.8952763226916,275.62764806665314,-275.62764806665314,2653.8952763226916,4105.0877215655682,0.0
548523.2936376977,3617751.2368613081,-42500.0,-2994.6409370543925,-807.64255911666146,-72.61126417460477,-1956.2851824059187,-409.54847836914348,-911.77384881353441,2323.258504979076,-2898.7331195428046,277.09743169136482,-277.09743169136482,2898.7331195428046,4553.1964379936699,0.0
553523.2936376977,3617751.2368613081,-42500.0,-3219.4249884669775,-917.79647954889583,-93.044859257941937,-2214.2341596224474,-480.30421665401303,-1073.7245361170508,2587.6493562091832,-3164.4314495865378,271.73532294294091,-271.73532294294091,3164.4314495865378,5059.4104579690738,0.0
558523.2936376977,3617751.2368613081,-42500.0,-3451.771087207615,-1045.3973794597712,-121.51678192349199,-2509.3440270991869,-565.26494983757402,-1267.5893398447613,2888.439446557225,-3450.5412643605187,256.54199228687844,-256.54199228687844,3450.5412643605187,5631.6006382024398,0.0
563523.2936376977,3617751.2368613081,-42500.0,-3686.745799823796,-1193.2786402660759,-161.1581846518776,-2846.5679229768798,-667.55883205134762,-1499.9708377994275,3231.1282051232292,-3755.269440041749,227.41591137679052,-227.41591137679052,3755.269440041749,6278.5013328474224,0.0
568523.2936376977,3617751.2368613081,-42500.0,-3916.6139145927696,-1364.5957884163583,-216.31826354675303,-3231.097830407829,-791.02971000619721,-1778.8665031236128,3622.0147999798601,-4074.7319704896463,178.76494795814233,-178.76494795814233,4074.7319704896463,7009.6635456579424,0.0
573523.2936376977,3617751.2368613081,-42500.0,-4129.5582640380026,-1562.7232933832049,-293.03218581372607,-3668.0374681594221,-940.38887079557571,-2113.994804113463,4068.2281475541176,-4401.8171377357103,102.98716067167925,-102.98716067167925,4401.8171377357103,7835.2708438841773,0.0
578523.2936376977,3617751.2368613081,-42500.0,-4307.8138011200363,-1790.9948826846878,-399.65206067892348,-4161.7334738405916,-1121.3711050869877,-2517.2170015912866,4577.6476895605738,-4724.4577968347949,-10.20688179460376,10.20688179460376,4724.4577968347949,8765.7006098025013,0.0
583523.2936376977,3617751.2368613081,-42500.0,-4424.969086045232,-2052.1418448878635,-547.66918108305015,-4714.4332982501483,-1340.8397196142841,-3003.0353789453352,5158.559161156858,-5022.9935834964972,-174.64464865730133,174.64464865730133,5022.9935834964972,9810.5628013718051,0.0
588523.2936376977,3617751.2368613081,-42500.0,-4442.2128059421357,-2347.1786159634389,-752.72205058721568,-5323.6605096943485,-1606.6909495415366,-3589.0082363087095,5818.7478749808997,-5266.2055217503948,-408.67239313784921,408.67239313784921,5266.2055217503948,10976.730075690355,0.0
593523.2936376977,3617751.2368613081,-42500.0,-4303.5526303976631,-2673.3416397300698,-1035.6836652807085,-5977.2523744433374,-1927.1915206737367,-4295.5039989111547,6563.480507231985,-5405.5948542509523,-736.07917829021289,736.07917829021289,5405.5948542509523,12264.494949412989,0.0
598523.2936376977,3617751.2368613081,-42500.0,-3930.9111861990541,-3020.5788618557294,-1423.4914841328703,-6644.4963958010912,-2308.9449715411638,-5143.2120831945267,7391.4801879984479,-5367.8737470957894,-1186.462579581686,1186.462579581686,5367.8737470957894,13660.52494853146,0.0
603523.2936376977,3617751.2368613081,-42500.0,-3222.176745475771,-3366.3014563918914,-1948.9416485217935,-7261.7815223361049,-2751.9580558155135,-6144.8168103887074,8287.7251050160994,-5047.1252396095879,-1793.983244942578,1793.983244942578,5047.1252396095879,15126.147857627513,0.0
608523.2936376977,3617751.2368613081,-42500.0,-2059.4298066524134,-3669.310123567524,-2648.0035283304269,-7713.2281760038204,-3239.4829280366926,-7284.1691728356445,9212.2049448121506,-4301.7982687287522,-2592.7486152623469,2592.7486152623469,4301.7982687287522,16580.865542365671,0.0
613523.2936376977,3617751.2368613081,-42500.0,-339.88487578886782,-3867.1595973804488,-3552.6828837269313,-7814.0457345213063,-3720.7458165203484,-8474.1055875263901,10085.857739505274,-2968.4368875284367,-3606.9264582752362,3606.9264582752362,2968.4368875284367,17886.546902634374,0.0
618523.2936376977,3617751.2368613081,-42500.0,1957.3053538729625,-3887.1698882210862,-4678.2801877546608,-7320.1273700060992,-4089.8160608412131,-9490.1577155399191,10780.847597274427,-911.24662336409438,-4835.8877064872422,4835.8877064872422,911.24662336409438,18851.462419867505,0.0
623523.2936376977,3617751.2368613081,-42500.0,4674.4403949539774,-3685.4252668612853,-6008.1464885127234,-6006.3568956256495,-4178.8907437772377,-9906.6246822281119,11135.049445988296,1877.9542875746256,-6241.3304944924248,6241.3304944924248,-1877.9542875746256,19295.778242361273,0.0
628523.2936376977,3617751.2368613081,-42500.0,7409.2552261669607,-3314.6871413619797,-7486.2854578084971,-3847.334423515762,-3806.6256749243585,-9123.2683215956968,11040.867513987905,5154.0405250389958,-7750.9219110421545,7750.9219110421545,-5154.0405250389958,19229.643421869103,0.0
633523.2936376977,3617751.2368613081,-42500.0,9601.3351517069805,-2972.3641088609456,-9027.8241938649498,-1240.9470137747269,-2919.3065254504327,-6621.2709793258982,10779.474710978662,8370.2473898779299,-9284.1962689193333,9284.1962689193333,-8370.2473898779299,19097.035330605842,0.0
638523.2936376977,3617751.2368613081,-42500.0,10841.60461209982,-2923.8365739661022,-10532.421344650731,958.05326484244563,-1772.0464271104229,-2483.2885230114985,11283.766658540582,10848.164411129568,-10765.693836357328,10765.693836357328,-10848.164411129568,19682.877219789338,0.0
643523.2936376977,3617751.2368613081,-42500.0,11213.833789965593,-3261.2026741055179,-11857.892194978798,1861.1775183714149,-938.09068068064653,2152.3180667495353,12200.513210172416,12156.518890396492,-12067.427298356844,12067.427298356844,-12156.518890396492,21220.01686231979,0.0
648523.2936376977,3617751.2368613081,-42500.0,11248.72456043332,-3702.528731703997,-12763.125490985984,1284.7336489067561,-954.54084500400006,5345.9889012731164,12727.231318131762,12392.619178130895,-12921.42165078078,12921.42165078078,-12392.619178130895,22770.306343138425,0.0
653523.2936376977,3617751.2368613081,-42500.0,11381.922732714194,-3752.5592948181338,-12941.323158132082,81.761946632769678,-1825.6214321554878,5518.0572504875172,12821.032964248843,12030.543231075897,-12982.978554600106,12982.978554600106,-12030.543231075897,23143.915112550432,0.0
658523.2936376977,3617751.2368613081,-42500.0,11480.136297952136,-3158.2060131727935,-12210.06985922869,-451.57621955786777,-2961.7112970867579,2611.4060614582945,12542.989692056744,11465.945485618957,-12094.746246891094,12094.746246891094,-11465.945485618957,22059.645429051488,0.0
663523.2936376977,3617751.2368613081,-42500.0,10988.247902153184,-2131.4243691975357,-10683.892718482366,426.640856778667,-3698.9752511721372,-1895.9974042669137,11713.873578264545,10744.504235835704,-10460.288601949926,10460.288601949926,-10744.504235835704,20289.862262674647,0.0
668523.2936376977,3617751.2368613081,-42500.0,9490.5877946742476,-1093.7749122214143,-8723.1777699248523,2461.3739800457624,-3791.7699856282748,-6103.1930524933596,10731.107607872736,9688.6625436541744,-8492.8558961610706,8492.8558961610706,-9688.6625436541744,18862.196682574093,0.0
673523.2936376977,3617751.2368613081,-42500.0,7088.1637054077555,-324.57488049567252,-6723.181625341088,4797.0893717119434,-3400.6078475909753,-8836.1375291635413,10307.133647534291,8203.6598488922864,-6552.1533911284932,6552.1533911284932,-8203.6598488922864,18123.058605876831,0.0
678523.2936376977,3617751.2368613081,-42500.0,4287.4732162753799,126.85000935309091,-4951.9997298865701,6676.1955564758027,-2800.7786250153122,-9945.5577519310391,10210.735461820026,6423.6696880871523,-4841.1084822607309,4841.1084822607309,-6423.6696880871523,17712.635126110432,0.0
683523.2936376977,3617751.2368613081,-42500.0,1626.8726495268495,335.24458318017372,-3520.688942212847,7790.3308211082776,-2189.2957466440198,-9873.1950534983971,9916.701843234905,4606.8758760535784,-3437.4314669173182,3437.4314669173182,-4606.8758760535784,17214.401470914487,0.0
688523.2936376977,3617751.2368613081,-42500.0,-570.14230718032866,394.28476472013466,-2431.4881620933356,8195.955709710106,-1657.573896331947,-9146.0657281270123,9380.8024940401847,2970.5503338078443,-2344.4983811415177,2344.4983811415177,-2970.5503338078443,16470.531760722744,0.0
693523.2936376977,3617751.2368613081,-42500.0,-2210.5159524239707,374.48429630797978,-1635.225970941317,8093.7806836912687,-1230.0205949557187,-8144.5624857915564,8697.0925539079635,1622.0341855287691,-1526.5279185989691,1526.5279185989691,-1622.0341855287691,15506.291918667601,0.0
698523.2936376977,3617751.2368613081,-42500.0,-3339.6180113077025,319.58917350788602,-1069.194210887224,7682.5710337813689,-900.54570225742202,-7085.5410551402265,7953.8791290972877,577.10636061542289,-932.29714971367332,932.29714971367332,-577.10636061542289,14404.743975142877,0.0
703523.2936376977,3617751.2368613081,-42500.0,-4054.6564385101769,254.02529076179235,-675.28534688420621,7109.2781527653578,-652.85534031894508,-6075.7389662991445,7209.5056209263012,-197.11882673582897,-510.25956537756508,510.25956537756508,197.11882673582897,13245.099690776244,0.0
708523.2936376977,3617751.2368613081,-42500.0,-4456.4742990028208,190.26511731257145,-406.10675026399542,6469.1912387592447,-469.43037356264091,-5161.1432275604839,6497.1980701161683,-749.67865441468336,-216.0640165609808,216.0640165609808,749.67865441468336,12086.240385743255,0.0
713523.2936376977,3617751.2368613081,-42500.0,-4631.0181766540891,133.90015386073497,-225.44485653998331,5819.9875023556287,-334.85711006969956,-4356.9604862506549,5833.8267668262506,-1128.987323770682,-14.70714128919883,14.70714128919883,1128.987323770682,10967.394487132695,0.0
718523.2936376977,3617751.2368613081,-42500.0,-4645.7372064328365,86.770117471735645,-106.64463678616386,5194.903879499243,-236.69145227850998,-3663.2060293113523,5226.5569034039627,-1376.5542492561206,120.11605264328568,-120.11605264328568,1376.5542492561206,9912.6516909770926,0.0
723523.2936376977,3617751.2368613081,-42500.0,-4551.5340605403762,48.803647082979708,-30.539199123109874,4611.8990114227181,-165.33755876624215,-3072.5292005745155,4676.9872312826246,-1525.8016976721929,207.65225997362165,-207.65225997362165,1525.8016976721929,8935.2262941939425,0.0
728523.2936376977,3617751.2368613081,-42500.0,-4386.0163507420775,19.061589849639486,16.439524257116087,4079.461802775701,-113.59272769961416,-2574.2811463012608,4183.5701095411005,-1602.8242204552466,261.79540939332082,-261.79540939332082,1602.8242204552466,8040.7551663069016,0.0
733523.2936376977,3617751.2368613081,-42500.0,-4176.5543005703648,-3.6969804906354056,43.788169584896146,3600.2421986519448,-76.138023795716151,-2156.747161225459,3743.0299155489402,-1627.6556378913249,292.51528059861198,-292.51528059861198,1627.6556378913249,7229.7508435425443,0.0
738523.2936376977,3617751.2368613081,-42500.0,-3942.7805104192757,-20.727046173667894,58.094554153143278,3173.3568726333024,-49.083052787323716,-1808.3976605250123,3351.2170846637264,-1615.5074135935793,306.94873323380455,-306.94873323380455,1615.5074135935793,6499.4069039148599,0.0
743523.2936376977,3617751.2368613081,-42500.0,-3698.5411122939931,-33.166153605119518,63.893357034080815,2795.8814853582121,-29.596638328062717,-1518.5614789506692,3003.6360751304292,-1577.8245653944682,310.19923540630555,-310.19923540630555,1577.8245653944682,5844.9107373507404,0.0
748523.2936376977,3617751.2368613081,-42500.0,-3453.3928398923417,-41.987214135635604,64.282462357798224,2463.8230577261065,-15.622771019491516,-1277.740312683477,2695.7736024742685,-1523.1412853236234,305.91170085207887,-305.91170085207887,1523.1412853236234,5260.3761710256304,0.0
753523.2936376977,3617751.2368613081,-42500.0,-3213.7424252090973,-47.993859643273197,61.360756748809202,2172.7468632839868,-5.6683850418671859,-1077.701980662483,2423.2972785851098,-1457.7596475827199,296.68351809448257,-296.68351809448257,1457.7596475827199,4739.4841697881884,0.0
543523.2936376977,3622751.2368613081,-42500.0,-2976.7844333768135,-489.84985153600479,12.352558661691488,-1830.4655300684212,-231.01278048214724,-815.00730345970487,2166.8496103151297,-2826.7779522016972,534.09801878790904,-534.09801878790904,2826.7779522016972,4251.8400539909053,0.0
548523.2936376977,3622751.2368613081,-42500.0,-3223.8522812352803,-553.94553938167155,11.252477927821763,-2077.1076287869819,-268.51531400916764,-960.51541848492911,2413.6120430343003,-3103.3875975042738,576.7468346715998,-576.7468346715998,3103.3875975042738,4727.2043967699919,0.0
553523.2936376977,3622751.2368613081,-42500.0,-3487.950019989662,-628.29455490395617,7.3888114994451053,-2361.7326434342726,-313.28532929746399,-1135.4725737607973,2695.2799578932973,-3407.8236800503673,620.16367222226927,-620.16367222226927,3407.8236800503673,5266.9617795213881,0.0
558523.2936376977,3622751.2368613081,-42500.0,-3767.4644521670343,-714.76541750325089,-0.75348825085303062,-2690.4868049116294,-366.93395130451086,-1346.3690273504517,3017.5689535266065,-3741.3730990267959,662.84949654585239,-662.84949654585239,3741.3730990267959,5880.7309054790612,0.0
563523.2936376977,3622751.2368613081,-42500.0,-4059.1344959242488,-815.58383833841333,-15.381559458980581,-3070.4295998584867,-431.47939534077267,-1601.2484539143579,3387.2382288969497,-4104.4408533175465,702.47390368220272,-702.47390368220272,4104.4408533175465,6579.5688223281659,0.0
568523.2936376977,3622751.2368613081,-42500.0,-4357.1927984322483,-933.38267922187777,-39.6975013499749,-3509.5821171373314,-509.4694104416813,-1910.1587968290596,3812.2903132656756,-4495.9142417542052,735.50013734473578,-735.50013734473578,4495.9142417542052,7376.1419509483076,0.0
573523.2936376977,3622751.2368613081,-42500.0,-4652.0428791644827,-1071.2311155955147,-78.331625548953909,-4016.8649026169323,-604.1491708503404,-2285.7906868349087,4302.1754682099581,-4912.1348445958574,756.63874682878304,-756.63874682878304,4912.1348445958574,8284.8438547028982,0.0
578523.2936376977,3622751.2368613081,-42500.0,-4928.2195368600269,-1232.5942194796435,-137.95579182071441,-4601.7708049570701,-719.68322001726108,-2744.3987444201725,4867.9483791312114,-5345.2324293574611,758.06133383454744,-758.06133383454744,5345.2324293574611,9321.7596728362387,0.0
583523.2936376977,3622751.2368613081,-42500.0,-5161.2463649050378,-1421.1318394834911,-228.1410585519522,-5273.4241390031584,-861.43178738568474,-3307.1067359572871,5522.2335254285645,-5780.4016629787011,728.26998205957534,-728.26998205957534,5780.4016629787011,10504.225027241278,0.0
588523.2936376977,3622751.2368613081,-42500.0,-5312.8975306261918,-1640.1408540187851,-362.5245798690072,-6038.2935293131832,-1036.2214249204326,-4001.5973646643788,6278.6679916723569,-6191.4672108610903,650.50968668533596,-650.50968668533596,6191.4672108610903,11849.417387822596,0.0
593523.2936376977,3622751.2368613081,-42500.0,-5324.4644953842953,-1891.2966106885635,-560.3208331072874,-6895.1642014930349,-1252.3999017436136,-4863.7823578516918,7150.1691876297646,-6533.8650007087217,500.64502825775662,-500.64502825775662,6533.8650007087217,13370.898632026472,0.0
598523.2936376977,3622751.2368613081,-42500.0,-5108.3524121841347,-2172.1581059497307,-848.09238724676027,-7824.9829684273409,-1519.1003228191462,-5937.8580551013829,8144.8403229071873,-6734.2284115856837,244.60703458633134,-244.60703458633134,6734.2284115856837,15071.187414245842,0.0
603523.2936376977,3622751.2368613081,-42500.0,-4540.6815121175405,-2471.8628047683028,-1261.3831474761732,-8772.3567410059841,-1843.4230601380432,-7270.4132848572672,9257.7140591043535,-6676.9756152734535,-163.9570826306649,163.9570826306649,6676.9756152734535,16927.625632109677,0.0
608523.2936376977,3622751.2368613081,-42500.0,-3462.9484830961651,-2765.1200758788254,-1845.1592685299067,-9616.632616456518,-2223.197328598058,-8889.2521275113486,10456.322637191652,-6192.3538397063203,-784.08355995596503,784.08355995596503,6192.3538397063203,18869.154287420624,0.0
613523.2936376977,3622751.2368613081,-42500.0,-1709.6729767301506,-3007.2438676569018,-2650.9294634995154,-10138.251778636897,-2632.5244376479723,-10751.785565201546,11659.66229970436,-5059.627559132985,-1682.4935216628223,1682.4935216628223,5059.627559132985,20746.285592189881,0.0
618523.2936376977,3622751.2368613081,-42500.0,814.28692117824505,-3138.7831944432023,-3727.3839038960027,-10007.426984943915,-3000.7304755122473,-12650.380447311925,12716.043841673496,-3052.9349210058331,-2918.5973043023873,2918.5973043023873,3052.9349210058331,22311.135534363209,0.0
623523.2936376977,3622751.2368613081,-42500.0,3999.114699115079,-3114.6178468105913,-5102.0387804843413,-8856.2346709452104,-3199.0609955853297,-14096.674052601258,13398.149677444186,-62.177478646424333,-4517.5380506201709,4517.5380506201709,62.177478646424333,23252.939574130938,0.0
628523.2936376977,3622751.2368613081,-42500.0,7401.7053597303884,-2963.8487494540004,-6755.7671879607178,-6503.2987220594478,-3074.6077984479944,-14299.524967228348,13451.865894885232,3720.0222576088722,-6438.4036638902671,6438.4036638902671,-3720.0222576088722,23360.958336807831,0.0
633523.2936376977,3622751.2368613081,-42500.0,10296.474876313254,-2838.146798976552,-8597.4321611997166,-3285.6868649268622,-2575.212057744945,-12452.404726955547,12766.923546355669,7672.2614564131009,-8551.9805917221165,8551.9805917221165,-7672.2614564131009,22828.132372627664,0.0
638523.2936376977,3622751.2368613081,-42500.0,12050.729762186938,-2941.8243054824575,-10442.128495033741,-183.69991970175775,-1914.9056952637111,-8424.2590036971687,12158.594622491011,10905.333186894617,-10628.880044589527,10628.880044589527,-10905.333186894617,22398.161455642316,0.0
643523.2936376977,3622751.2368613081,-42500.0,12606.336121194845,-3306.1984475885156,-11994.545624923785,1669.5129511166872,-1554.6050974945185,-3397.0069876476923,12937.412394494771,12757.442449543341,-12328.472011642054,12328.472011642054,-12757.442449543341,22716.053310741965,0.0
648523.2936376977,3622751.2368613081,-42500.0,12490.878884611599,-3640.0077862164608,-12882.943382015237,1914.2408346895695,-1832.9999251487829,460.49393993645066,13465.826042951892,13217.148034211876,-13243.232907154053,13243.232907154053,-13217.148034211876,23326.503362005624,0.0
653523.2936376977,3622751.2368613081,-42500.0,12207.30653134008,-3549.3195950165937,-12816.456999134543,1346.2840973787311,-2567.0425160146219,1442.1535726523475,13316.539829760704,12788.34401310304,-13089.740841658397,13089.740841658397,-12788.34401310304,23145.0251816198,0.0
658523.2936376977,3622751.2368613081,-42500.0,11727.480838372852,-2944.0388845290104,-11785.837600148256,1190.2321449953672,-3168.7851193025431,-464.55390460274788,12584.265396247649,11960.02654316623,-11937.013233657963,11937.013233657963,-11960.02654316623,21799.594257115423,0.0
663523.2936376977,3622751.2368613081,-42500.0,10675.840237064311,-2116.3780008025365,-10085.251748499717,2083.1842605393076,-3195.4635739772107,-3823.8071800125745,11384.328049213687,10897.391414690053,-10189.937659331641,10189.937659331641,-10897.391414690053,19932.970218790299,0.0
668523.2936376977,3622751.2368613081,-42500.0,8828.988883483009,-1424.7697733969339,-8124.7250884279565,3791.697557389416,-2668.2340763983416,-6973.9659340673961,10144.890419109952,9552.4479654182178,-8308.0342316296301,8308.0342316296301,-9552.4479654182178,18434.268621244017,0.0
673523.2936376977,3622751.2368613081,-42500.0,6353.678958137154,-1018.5969308301163,-6236.8601957091551,5645.2312901107543,-1894.4603397143296,-8963.8509133372972,9822.0756554874824,7911.8623218039656,-6574.5188647757432,6574.5188647757432,-7911.8623218039656,17600.508685157845,0.0
678523.2936376977,3622751.2368613081,-42500.0,3676.429792604607,-847.47422725717411,-4608.0588798131721,7081.9582625743924,-1155.3447103144051,-9679.4443090551667,9833.015588338998,6106.6314046332946,-5090.4437261096164,5090.4437261096164,-6106.6314046332946,17116.864148331999,0.0
683523.2936376977,3622751.2368613081,-42500.0,1212.7790641025733,-801.10937271354203,-3301.3784525352453,7884.9124006932479,-580.16064981183774,-9463.4123578454873,9577.3245270044154,4341.7502941795537,-3867.5929904038094,3867.5929904038094,-4341.7502941795537,16601.66528172345,0.0
688523.2936376977,3622751.2368613081,-42500.0,-797.5647981832484,-797.27275878794455,-2304.594115922474,8109.5069869748959,-183.15869305098926,-8726.6482367001427,9074.7557753241217,2782.4895183104927,-2887.9987712525362,2887.9987712525362,-2782.4895183104927,15889.997606244719,0.0
693523.2936376977,3622751.2368613081,-42500.0,-2294.5185089644051,-795.44406762226276,-1570.9347142124982,7919.4593740805012,68.801224739615051,-7771.1034472834572,8427.9531128891267,1506.4003805718608,-2122.1665165295776,2122.1665165295776,-1506.4003805718608,14984.833304360076,0.0
698523.2936376977,3622751.2368613081,-42500.0,-3325.9795785077335,-781.82563252457544,-1044.914150136598,7476.7165564655452,216.33587490922818,-6773.2599982724387,7721.9640046929217,518.42061377386005,-1535.0347814201859,1535.0347814201859,-518.42061377386005,13950.931974493409,0.0
703523.2936376977,3622751.2368613081,-42500.0,-3980.3011875360289,-754.83391951252759,-675.35415554504743,6902.4221492984134,293.37301496613162,-5822.6583181759324,7012.0918620218372,-215.19980502744181,-1091.1152113345047,1091.1152113345047,215.19980502744181,12857.047402460192,0.0
708523.2936376977,3622751.2368613081,-42500.0,-4347.8662759065937,-717.17249158103778,-420.16471527397988,6276.2647973246758,324.89055167022201,-4959.3572032876891,6330.1836608725289,-740.70521683571314,-758.51969506474938,758.51969506474938,740.70521683571314,11757.4097807127,0.0
713523.2936376977,3622751.2368613081,-42500.0,-4505.9386728564741,-672.45325536753171,-246.85036871847456,5647.179008756294,328.28232263909467,-4197.4301350569876,5692.8488166796651,-1103.083067659087,-510.84076479129772,510.84076479129772,1103.083067659087,10689.846858497083,0.0
718523.2936376977,3622751.2368613081,-42500.0,-4515.6082739909243,-623.97069015605291,-131.25702654051008,5043.7414334497953,315.26302942812231,-3537.5807250918442,5107.5351123056489,-1340.8681712507209,-327.28808968907185,327.28808968907185,1340.8681712507209,9678.5965400753048,0.0
723523.2936376977,3622751.2368613081,-42500.0,-4423.3820871127673,-574.34242423770229,-55.859196960704345,4481.5612538502401,293.49863982425029,-2973.7105548926302,4576.3285985587681,-1485.1971309973137,-191.94706254150901,191.94706254150901,1485.1971309973137,8737.6504838982528,0.0
728523.2936376977,3622751.2368613081,-42500.0,-4263.9258856811484,-525.47813223721823,-8.1456601301320877,3968.0559962384086,267.85176207992492,-2496.4805128202738,4098.2085613669578,-1560.5067007756352,-92.797592824222079,92.797592824222079,1560.5067007756352,7873.6071832580446,0.0
733523.2936376977,3622751.2368613081,-42500.0,-4062.686815007517,-478.66743559354285,20.712402683497061,3505.4968154727603,241.29119469876983,-2095.3538711401748,3670.3942337448962,-1585.6669848429005,-20.804103039528627,20.804103039528627,1585.6669848429005,7087.9262067701675,0.0
738523.2936376977,3622751.2368613081,-42500.0,-3838.0694409784201,-434.70383273465671,36.889641614903503,3092.984240631481,215.53762750085477,-1759.7911922393589,3289.1725907776045,-1575.0907173591693,30.822643629541972,-30.822643629541972,1575.0907173591693,6378.6543570270096,0.0
743523.2936376977,3622751.2368613081,-42500.0,-3603.1580814235899,-394.00774960050904,44.67200756245127,2727.7547701716185,191.51018452868411,-1479.9230638062436,2950.4205728106372,-1539.6850673043141,67.191168335724228,-67.191168335724228,1539.6850673043141,5741.7143560131526,0.0
748523.2936376977,3622751.2368613081,-42500.0,-3367.0558165141579,-356.73364437277559,47.013302867594845,2406.0500509003759,169.62806230147123,-1246.8859057690313,2649.9365165260833,-1487.6288707430469,92.151890202631193,-92.151890202631193,1487.6288707430469,5171.8381685996101,0.0
753523.2936376977,3622751.2368613081,-42500.0,-3135.9166736847124,-322.85639208502124,45.933998261906289,2123.6883888205921,150.00952691398555,-1052.9430046828568,2383.6459957192837,-1424.9946906560535,108.6107680395686,-108.6107680395686,1424.9946906560535,4663.2195185966839,0.0
543523.2936376977,3627751.2368613081,-42500.0,-3106.8593587401524,-242.17528383407532,52.040596996783229,-1896.4780406329485,-99.760371300723392,-840.6869818490843,2220.2090627529888,-2928.0430487458425,773.43496628986691,-773.43496628986691,2928.0430487458425,4353.3049773983157,0.0
548523.2936376977,3627751.2368613081,-42500.0,-3374.6693369833515,-269.40883683526914,58.419986672695075,-2156.7103275650456,-112.47922969611726,-992.62249715431767,2476.3551285655676,-3222.3688121584892,854.08587422238429,-854.08587422238429,3222.3688121584892,4846.892435735087,0.0
553523.2936376977,3627751.2368613081,-42500.0,-3663.5038386885681,-300.62280365074986,63.71542582346472,-2458.3007849431574,-127.06196672918762,-1175.8940765891953,2769.5663568045397,-3548.345249708379,942.60939439750859,-942.60939439750859,3548.345249708379,5409.046444106848,0.0
558523.2936376977,3627751.2368613081,-42500.0,-3972.6256782050782,-336.5790037833774,66.8464742663366,-2808.3910819410403,-143.81742024875243,-1397.6404532308275,3106.185502464496,-3908.2390448335641,1038.981570268053,-1038.981570268053,3908.2390448335641,6050.5694860865169,0.0
563523.2936376977,3627751.2368613081,-42500.0,-4299.8475544540497,-378.23778689429577,66.166847632440465,-3215.384166043998,-163.12960882265276,-1666.8214730126952,3493.8218393768157,-4303.7220370790783,1142.6622192901996,-1142.6622192901996,4303.7220370790783,6784.1130294241284,0.0
568523.2936376977,3627751.2368613081,-42500.0,-4640.6958853139395,-426.82206936055343,59.200363666458408,-3689.131547599201,-185.49717549523004,-1994.8056169364847,3941.6420853066338,-4735.3179450454227,1252.2718939949355,-1252.2718939949355,4735.3179450454227,7624.5120424469424,0.0
573523.2936376977,3627751.2368613081,-42500.0,-4987.0877126966625,-483.89684877492192,42.257593032550197,-4241.072166493449,-211.60222976267067,-2396.2336524512561,4460.7107956489854,-5201.4745268369252,1365.0892582418571,-1365.0892582418571,5201.4745268369252,8589.1451039045005,0.0
578523.2936376977,3627751.2368613081,-42500.0,-5325.2123530164026,-551.45510499038085,9.8813811435314154,-4884.1787868393831,-242.42586198150514,-2890.3139881376314,5064.3381047446073,-5696.9866719712827,1476.2640493834747,-1476.2640493834747,5696.9866719712827,9698.2354348277513,0.0
583523.2936376977,3627751.2368613081,-42500.0,-5632.1373883728684,-631.9767918022128,-45.951747503389896,-5632.3633746510368,-279.42938306537326,-3502.755615032574,5768.3055086868562,-6210.2946523333103,1577.5799736802796,-1577.5799736802796,6210.2946523333103,10974.861855784309,0.0
588523.2936376977,3627751.2368613081,-42500.0,-5870.4544646406512,-728.3808848662751,-136.97093710316486,-6498.5510586116598,-324.80579735972424,-4268.5022545469601,6590.64101969287,-6718.8605824929109,1655.5099045037891,-1655.5099045037891,6718.8605824929109,12444.112173150521,0.0
593523.2936376977,3627751.2368613081,-42500.0,-5980.2109376939552,-843.69608259207507,-280.20596111309186,-7489.7878467904829,-381.73543158181309,-5235.0597980302718,7550.2267658477167,-7181.4229105865652,1688.2072499379269,-1688.2072499379269,7181.4229105865652,14130.157209950299,0.0
598523.2936376977,3627751.2368613081,-42500.0,-5867.9395998400296,-980.1531381860143,-500.13645057688785,-8596.3779166237946,-454.39132786049674,-6464.9389087574082,8662.8763672416335,-7525.7183323971676,1641.0436244011325,-1641.0436244011325,7525.7183323971676,16048.954745099318,0.0
603523.2936376977,3627751.2368613081,-42500.0,-5394.94225685944,-1137.3190766630339,-831.35491334102733,-9770.4449976626001,-547.01211077439211,-8032.4491491327326,9932.6287735717724,-7631.1051087828328,1460.5882284082704,-1460.5882284082704,7631.1051087828328,18192.916266289154,0.0
608523.2936376977,3627751.2368613081,-42500.0,-4373.1901580837102,-1309.2031681034082,-1321.2473545220657,-10889.414677927014,-660.66973651515571,-10003.404701686572,11335.34898154732,-7309.6008994932927,1068.0812117334776,-1068.0812117334776,7309.6008994932927,20503.324409323945,0.0
613523.2936376977,3627751.2368613081,-42500.0,-2589.0356344609631,-1481.7444032546121,-2031.0338653432736,-11707.456784826352,-785.90057007705013,-12376.834498961938,12792.801881986392,-6299.7869527529274,356.41551631915581,-356.41551631915581,6299.7869527529274,22829.963498044093,0.0
618523.2936376977,3627751.2368613081,-42500.0,112.13856832180211,-1635.7369400123421,-3031.2036419076603,-11823.519345762492,-891.3549800861075,-14965.498184559587,14141.292737334721,-4307.6199775295427,-800.10409241498201,800.10409241498201,4307.6199775295427,24892.144032561904,0.0
623523.2936376977,3627751.2368613081,-42500.0,3657.7732038043805,-1764.4959513192548,-4384.1588209665297,-10743.476721457795,-917.82606850414015,-17228.916938684004,15113.71912990537,-1143.3320015140157,-2508.939291624109,2508.939291624109,1143.3320015140157,26288.620762742092,0.0
628523.2936376977,3627751.2368613081,-42500.0,7558.3835589609607,-1909.2810859626427,-6105.6490331411487,-8143.8671562552872,-805.06789215820152,-18195.136974104182,15375.032536442806,3035.5011222868552,-4785.8934736346073,4785.8934736346073,-3035.5011222868552,26643.964515526983,0.0
633523.2936376977,3627751.2368613081,-42500.0,10919.891531971612,-2178.1445274482294,-8104.4082880564811,-4316.3524525740695,-579.91767544428228,-16770.276573100939,14653.569539231907,7520.9872105899049,-7462.2322986595645,7462.2322986595645,-7520.9872105899049,25942.588209243549,0.0
638523.2936376977,3627751.2368613081,-42500.0,12893.724711010223,-2666.822620258311,-10123.919233794353,-395.16820007813601,-451.89403761768227,-12607.137233307596,12960.673149009781,11212.899726700683,-10130.95784167278,10130.95784167278,-11212.899726700683,24810.341779176662,0.0
643523.2936376977,3627751.2368613081,-42500.0,13322.957996746301,-3279.3423224675807,-11747.636772627624,2208.1578695036037,-725.30212024292041,-6938.2607076665627,13100.551573497414,13254.013708788641,-12212.158952314332,12212.158952314332,-13254.013708788641,24074.036492388095,0.0
648523.2936376977,3627751.2368613081,-42500.0,12815.907306258614,-3683.2872525669668,-12539.806288607555,2940.7899631051096,-1459.3591399292864,-2172.136256876433,13554.207063849277,13605.047934298618,-13183.800481021302,13183.800481021302,-13605.047934298618,23676.039805994507,0.0
653523.2936376977,3627751.2368613081,-42500.0,12040.67589921071,-3589.9334478159376,-12290.538031186572,2554.8906967787962,-2262.7072139271204,-180.94597608757181,13131.383920178843,12892.891641671205,-12884.187936505925,12884.187936505925,-12892.891641671205,22751.129947099336,0.0
658523.2936376977,3627751.2368613081,-42500.0,11132.230981243507,-3058.6076901909228,-11152.998335534017,2280.498384813895,-2592.7647633131446,-1033.2868635222637,12057.550430880563,11757.823917639918,-11617.619936246716,11617.619936246716,-11757.823917639918,20913.02140330894,0.0
663523.2936376977,3627751.2368613081,-42500.0,9850.2281974704019,-2426.1290325810123,-9513.9960935579766,2784.9887644312748,-2232.2205731145755,-3410.0182248522269,10580.351823553563,10474.635022458,-9924.2887852393415,9924.2887852393415,-10474.635022458,18705.832011999395,0.0
668523.2936376977,3627751.2368613081,-42500.0,8035.6659854960808,-1987.1321094565324,-7748.810326962227,3953.5067487270844,-1394.9661734282627,-5844.3446252167078,8936.3496628260164,9053.4061246076908,-8243.0970838825979,8243.0970838825979,-9053.4061246076908,16949.637432216925,0.0
673523.2936376977,3627751.2368613081,-42500.0,5805.6604185533961,-1811.1075968481607,-6094.1548966481587,5297.8307303725505,-458.06813317209594,-7495.1234333116754,8630.7818881969833,7478.7638940439465,-6767.5458036321015,6767.5458036321015,-7478.7638940439465,15965.914536735329,0.0
678523.2936376977,3627751.2368613081,-42500.0,3459.3902946420826,-1803.8736377598532,-4660.5461368196138,6388.3988902930032,309.78158377505804,-8194.2245258264738,8831.670780962344,5825.8520839205157,-5519.5939871880655,5519.5939871880655,-5825.8520839205157,15478.959584943788,0.0
683523.2936376977,3627751.2368613081,-42500.0,1295.8880676293093,-1845.5570298203993,-3482.3665250522072,7033.2170705159051,818.78332520340314,-8145.8594269739287,8707.8226620898276,4230.2209157239686,-4468.7354579306393,4468.7354579306393,-4230.2209157239686,15082.808992695722,0.0
688523.2936376977,3627751.2368613081,-42500.0,-501.0858407907881,-1863.3050122826248,-2552.2334062972727,7241.2312547314796,1094.2355091223312,-7639.2831615478772,8335.6742907542175,2811.1883516327525,-3587.7981842387753,3587.7981842387753,-2811.1883516327525,14554.505566220245,0.0
693523.2936376977,3627751.2368613081,-42500.0,-1875.151541137772,-1833.4345885094751,-1840.7198533020021,7114.9233452806911,1200.0564380887736,-6907.6117920466686,7812.0846838830867,1630.9135403638456,-2857.8121409307678,2857.8121409307678,-1630.9135403638456,13848.154172343498,0.0
698523.2936376977,3627751.2368613081,-42500.0,-2853.9294292135446,-1759.4911115275427,-1309.5378426741222,6769.8077120031912,1197.414558946457,-6100.6049974017242,7214.7221080427553,698.01811442416567,-2261.2505022375626,2261.2505022375626,-698.01811442416567,13000.765639547335,0.0
703523.2936376977,3627751.2368613081,-42500.0,-3501.8719326729774,-1654.288079748864,-920.27136055956748,6299.8436618996375,1132.1970422071065,-5303.224441498166,6596.3924241468194,-10.816508780298477,-1779.4130576371826,1779.4130576371826,10.816508780298477,12069.780988693396,0.0
708523.2936376977,3627751.2368613081,-42500.0,-3890.1791271980369,-1531.0141068168289,-639.05452068487421,5771.4978859704606,1035.2868690739442,-4559.5542903445312,5989.7311890666551,-531.46722899824022,-1393.4311444559287,1393.4311444559287,531.46722899824022,11107.300716778083,0.0
713523.2936376977,3627751.2368613081,-42500.0,-4082.9962922557997,-1400.224435073156,-438.22710419035224,5228.5281049902669,926.19755112885866,-3889.8276242949719,5413.5036608454029,-900.92885820930553,-1085.8659723146816,1085.8659723146816,900.92885820930553,10153.104496180871,0.0
718523.2936376977,3627751.2368613081,-42500.0,-4133.1968908931667,-1269.4351386779715,-296.24784745510766,4698.3887899917827,816.60778188362565,-3300.6179025706601,4877.5798214917004,-1152.2590026586104,-841.613885565342,841.613885565342,1152.2590026586104,9234.7342013128182,0.0
723523.2936376977,3627751.2368613081,-42500.0,-4082.4479764913212,-1143.5766731136373,-196.84590927383766,4197.3973551615363,713.03598264518007,-2790.7345736771308,4386.2634641211771,-1313.0877397793272,-648.10177403038711,648.10177403038711,1313.0877397793272,8369.6081211970522,0.0
728523.2936376977,3627751.2368613081,-42500.0,-3962.7361582647104,-1025.6091724096036,-127.97569455240327,3734.3861771122743,618.71065846472641,-2354.7415244294225,3940.4068408955773,-1405.7164709898939,-495.0874246817923,495.0874246817923,1405.7164709898939,7567.4111708369819,0.0
733523.2936376977,3627751.2368613081,-42500.0,-3798.1579322597481,-917.07760243696316,-80.839752233221319,3313.2111548588418,534.83614930285114,-1985.1360700163204,3538.7548368901498,-1447.7797174808236,-374.31914393040029,374.31914393040029,1447.7797174808236,6832.2230036604051,0.0
738523.2936376977,3627751.2368613081,-42500.0,-3606.561475991718,-818.55536825755178,-49.073513629472707,2934.4864601624936,461.42990560134103,-1673.7097034497849,3178.8174462336451,-1453.0256599560826,-279.18532475627717,279.18532475627717,1453.0256599560826,6164.2536745183425,0.0
743523.2936376977,3627751.2368613081,-42500.0,-3400.9343463814366,-729.97985545886775,-28.104104786825701,2596.7941157193304,397.86265878530628,-1412.3706188291758,2857.4453162749901,-1432.049802032433,-204.40416393313944,204.40416393313944,1432.049802032433,5561.1866136395156,0.0
748523.2936376977,3627751.2368613081,-42500.0,-3190.5366122491464,-650.89638422006919,-14.663498919168942,2297.5260091301875,343.19650619663497,-1193.6045450127704,2571.2102758057622,-1392.9315906428196,-145.76438048514854,145.76438048514854,1392.9315906428196,5019.1764238871683,0.0
753523.2936376977,3627751.2368613081,-42500.0,-2981.8069856413949,-580.6297829525522,-6.4265370437357072,2033.460232881466,296.38821509355807,-1010.6954619541727,2316.6518027448847,-1341.7667963893041,-99.913401030708087,99.913401030708087,1341.7667963893041,4533.5609707987742,0.0
543523.2936376977,3632751.2368613081,-42500.0,-3164.3107483924027,18.0933822622004,57.247737307246766,-1925.9923734894987,37.447050903988526,-852.23066607097383,2247.9647197969903,-2952.2038996898077,980.60747987594777,-980.60747987594777,2952.2038996898077,4405.585205118562,0.0
548523.2936376977,3632751.2368613081,-42500.0,-3439.0282523726432,30.432330218861253,63.910919492901627,-2191.167414804223,51.027694491307123,-1006.6156080898851,2508.1807044416164,-3248.5929111448895,1092.6885277006959,-1092.6885277006959,3248.5929111448895,4907.224710173763,0.0
553523.2936376977,3632751.2368613081,-42500.0,-3735.7418544227653,45.780180190846494,69.442874954155144,-2498.7049627647925,68.613841725933298,-1192.9488683745908,2806.2767458703183,-3576.76384434192,1218.2243790058485,-1218.2243790058485,3576.76384434192,5479.0893841460693,0.0
558523.2936376977,3632751.2368613081,-42500.0,-4053.8713039882414,64.709834937035268,72.739855267935809,-2856.002759610381,91.370943311117045,-1418.5557158609618,3148.8189108176971,-3938.9861417811899,1358.2873968062611,-1358.2873968062611,3938.9861417811899,6132.4341430919767,0.0
563523.2936376977,3632751.2368613081,-42500.0,-4391.4159668240272,87.839837480015561,72.130564295481463,-3271.8093212919844,120.7979665575771,-1692.6595967584592,3543.722102155592,-4336.9446172835187,1513.65673187371,-1513.65673187371,4336.9446172835187,6880.5262595599397,0.0
568523.2936376977,3632751.2368613081,-42500.0,-4744.1179949073885,115.79272575230254,65.117405377447,-3756.4514198600441,158.81247377321094,-2027.0146632215778,4000.5769120085547,-4771.1942755270411,1684.5325335439088,-1684.5325335439088,4771.1942755270411,7739.0487789023891,0.0
573523.2936376977,3632751.2368613081,-42500.0,-5104.1275230797974,149.11393365364307,48.004044104839672,-4322.033023594644,207.84697416332114,-2436.8485115509952,4531.0437141041084,-5240.2428625727971,1870.0635616592522,-1870.0635616592522,5240.2428625727971,8726.561692780233,0.0
578523.2936376977,3632751.2368613081,-42500.0,-5457.8467336917511,188.12928190953022,15.360559077858754,-4982.4708678191828,270.95078508461063,-2942.3012328571635,5149.2826314505928,-5738.9839288325657,2067.5648575798982,-2067.5648575798982,5738.9839288325657,9864.9548385121288,0.0
583523.2936376977,3632751.2368613081,-42500.0,-5782.4262660697959,232.70329944165044,-40.743291154869205,-5753.0111981744849,351.88042354813228,-3570.6133124595976,5872.2922478142445,-6255.9789001154149,2271.2056327830614,-2271.2056327830614,6255.9789001154149,11179.661741745656,0.0
588523.2936376977,3632751.2368613081,-42500.0,-6040.152794092176,281.85109440752478,-131.83296435119325,-6648.4082415985658,455.1532445051854,-4359.3045033055114,6719.8321780639917,-6768.7424454980155,2469.8050887108834,-2469.8050887108834,6768.7424454980155,12699.067480999684,0.0
593523.2936376977,3632751.2368613081,-42500.0,-6169.8327916400158,333.12040294902238,-274.58070261295865,-7678.0224202664067,586.0124000566816,-5360.241542406362,7713.1986329312103,-7235.7217129304554,2643.1459151019039,-2643.1459151019039,7235.7217129304554,14451.848142943352,0.0
598523.2936376977,3632751.2368613081,-42500.0,-6074.7550756106166,381.63213976715923,-492.95933652922457,-8834.5089263383397,750.22867165366449,-6643.1623633444433,8871.398427356211,-7583.3185288638706,2755.9867599385811,-2755.9867599385811,7583.3185288638706,16459.749884265875,0.0
603523.2936376977,3632751.2368613081,-42500.0,-5609.2188934257792,418.56858473511187,-821.07853757156624,-10070.812928279131,953.59040520822725,-8293.6761561030362,10202.28707987812,-7687.068090039289,2748.9744503014604,-2748.9744503014604,7687.068090039289,18721.740813497297,0.0
608523.2936376977,3632751.2368613081,-42500.0,-4572.2676297294183,428.74731737323918,-1306.4270206351162,-11259.709331769664,1200.7525590162807,-10393.129809966305,11685.323583155578,-7350.2239596335985,2526.7469971250848,-2526.7469971250848,7350.2239596335985,21184.38611599871,0.0
613523.2936376977,3632751.2368613081,-42500.0,-2730.8047038538602,386.67530426639865,-2012.080858426616,-12137.608410946417,1492.5403462104957,-12956.156045249911,13243.41635179398,-6294.964880563286,1947.479664071077,-1947.479664071077,6294.964880563286,23696.408485218311,0.0
618523.2936376977,3632751.2368613081,-42500.0,89.238249656151339,250.57351650643193,-3013.534605198703,-12262.55783614764,1819.2718986408247,-15796.45751065034,14707.261223671514,-4204.2048861003959,827.32822777438287,-827.32822777438287,4204.2048861003959,25959.996333434949,0.0
623523.2936376977,3632751.2368613081,-42500.0,3812.5802612135312,-43.807801745542449,-4380.5102520942064,-11074.719994139643,2144.8845687310036,-18329.676566364113,15791.764183650914,-872.58077280016369,-1013.3423937415364,1013.3423937415364,872.58077280016369,27527.229625885422,0.0
628523.2936376977,3632751.2368613081,-42500.0,7888.5286516174683,-578.48529253236575,-6129.6457594135099,-8191.9854182741892,2376.4457203196994,-19464.887927105799,16130.140487433293,3514.7686500737641,-3633.2473318528605,3633.2473318528605,-3514.7686500737641,27938.252303511839,0.0
633523.2936376977,3632751.2368613081,-42500.0,11293.326493258075,-1409.0729165345376,-8144.6750032393347,-3932.9667580168752,2332.5937240283483,-17942.494453842195,15422.987001033278,8143.4199140644278,-6802.4969141835891,6802.4969141835891,-8143.4199140644278,27073.369198589528,0.0
638523.2936376977,3632751.2368613081,-42500.0,13062.414168765657,-2458.8709059823068,-10108.29446123932,402.64748139207671,1780.8824807952294,-13337.342247301225,13759.711528896811,11765.461572062941,-9916.1684625455418,9916.1684625455418,-11765.461572062941,25500.332429898728,0.0
643523.2936376977,3632751.2368613081,-42500.0,13067.594729618952,-3430.4696866957493,-11552.011501718296,3199.6170205380367,635.14948846511629,-7001.7233601080861,13121.558204168607,13473.295248198012,-12176.410655188907,12176.410655188907,-13473.295248198012,24125.320506444459,0.0
648523.2936376977,3632751.2368613081,-42500.0,12089.311570260714,-3930.4939890662472,-12083.538685103338,3835.3593947001868,-799.43803979086181,-1535.5315713995599,13213.209724854521,13354.993529099715,-13029.96826220181,13029.96826220181,-13354.993529099715,23086.908512815666,0.0
653523.2936376977,3632751.2368613081,-42500.0,10973.050164750195,-3798.1103028174216,-11636.906414934205,3123.2218601431118,-1902.7861290526041,1115.5570254974841,12501.749775612174,12233.988618348163,-12510.472660570036,12510.472660570036,-12233.988618348163,21654.216005237038,0.0
658523.2936376977,3632751.2368613081,-42500.0,9952.9744956948689,-3256.7586194649848,-10487.497290603991,2371.4079007167393,-2192.6948420985932,871.44966334181947,11217.998025215573,10872.190233007088,-11144.646045196732,11144.646045196732,-10872.190233007088,19436.311801307922,0.0
663523.2936376977,3632751.2368613081,-42500.0,8809.1881166678122,-2696.3761385187358,-9025.03778584871,2323.3474482593251,-1657.9208275732806,-1028.8257401358724,9718.5343095313656,9565.2930665604181,-9543.1482673500432,9543.1482673500432,-9565.2930665604181,16901.006951745527,0.0
668523.2936376977,3632751.2368613081,-42500.0,7335.596182194231,-2373.0978720836051,-7536.6373426061327,2968.1218786273766,-659.63465642059259,-3232.8684993273991,8202.9979056715129,8287.2136836599839,-8082.8314117441478,8082.8314117441478,-8287.2136836599839,14843.465822679284,0.0
673523.2936376977,3632751.2368613081,-42500.0,5549.425327225862,-2311.8922262968299,-6159.6252867939265,3926.8922839279307,380.8515757230366,-4937.4683109345196,7315.3292316576717,6960.3236559672578,-6867.5385482907577,6867.5385482907577,-6960.3236559672578,13675.392713251382,0.0
678523.2936376977,3632751.2368613081,-42500.0,3634.1898103423318,-2398.9125843977872,-4941.7588313959741,4827.9010735621196,1197.0983621338939,-5905.6784744991683,7467.6248642873534,5586.4237893279278,-5856.1600215201761,5856.1600215201761,-5586.4237893279278,13199.694166723444,0.0
683523.2936376977,3632751.2368613081,-42500.0,1805.6914501109959,-2508.0369497103743,-3897.5401712183379,5463.9419288602394,1708.2463820119153,-6226.8898879174685,7490.1588778833375,4238.5184964267901,-4985.6672642470458,4985.6672642470458,-4238.5184964267901,12977.927081194799,0.0
688523.2936376977,3632751.2368613081,-42500.0,218.94276523152183,-2564.0460512765003,-3028.2217878481597,5785.2832837989336,1948.7704330430265,-6096.3617341275058,7296.0191857696409,3002.5017955455828,-4219.3959885056811,4219.3959885056811,-3002.5017955455828,12706.098485565748,0.0
693523.2936376977,3632751.2368613081,-42500.0,-1056.5879064767182,-2544.0562311273666,-2324.4693063628838,5832.3667625336193,1993.3625112081641,-5697.0239769240834,6945.3413986822761,1936.015392973447,-3544.1963083805913,3544.1963083805913,-1936.015392973447,12273.724062802214,0.0
698523.2936376977,3632751.2368613081,-42500.0,-2018.066602296002,-2455.7906946679313,-1768.2577014691615,5676.1397463489493,1914.3426197581935,-5162.8765667820453,6501.1696268524502,1059.7758249951034,-2955.8976869856997,2955.8976869856997,-1059.7758249951034,11682.481319735471,0.0
703523.2936376977,3632751.2368613081,-42500.0,-2699.5225002891393,-2318.2113497633577,-1336.8856332409916,5385.5783934310984,1767.0404911827998,-4581.1299305785078,6012.1874623303274,367.248800067096,-2450.4889311290231,2450.4889311290231,-367.248800067096,10975.615936306822,0.0
708523.2936376977,3632751.2368613081,-42500.0,-3148.7952071719656,-2150.8572553305162,-1007.0078564222185,5016.156710805798,1589.0782467636086,-4004.6435853549292,5512.0010205952276,-162.4840775098105,-2021.6962885834701,2021.6962885834701,162.4840775098105,10202.564824412717,0.0
713523.2936376977,3632751.2368613081,-42500.0,-3414.424659170083,-1969.7149768144327,-757.28653781866535,4608.6434919791191,1404.1101782177134,-3463.3486691486378,5022.3250414480717,-555.31931263909757,-1661.4893516038869,1661.4893516038869,555.31931263909757,9405.60823990262,0.0
718523.2936376977,3632751.2368613081,-42500.0,-3539.7791457612934,-1786.417702137488,-569.58963402311235,4191.4106226619524,1225.9496416118429,-2972.3834808398678,4556.3839999318789,-836.88705369084232,-1361.1713852890255,1361.1713852890255,836.88705369084232,8616.5644045281369,0.0
723523.2936376977,3632751.2368613081,-42500.0,-3561.1860727271082,-1608.7451431819331,-429.20959989496714,3783.29041347987,1061.8882211067835,-2537.5259435516832,4121.5788274462229,-1030.1845622490591,-1112.2152361231388,1112.2152361231388,1030.1845622490591,7857.349355436615,0.0
728523.2936376977,3632751.2368613081,-42500.0,-3507.9292132516161,-1441.4679569930415,-324.57268570033358,3396.0682364049576,915.0888750613974,-2158.8154946685127,3721.3947771136395,-1154.7974691126369,-906.73742313201899,906.73742313201899,1154.7974691126369,7141.7538185353706,0.0
733523.2936376977,3632751.2368613081,-42500.0,-3402.9922146703075,-1287.1644174766575,-246.75287845667256,3036.4597559433178,786.22280070426973,-1832.9822402819505,3356.7326730367804,-1226.8854835488096,-737.70986961612414,737.70986961612414,1226.8854835488096,6477.3860442322621,0.0
738523.2936376977,3632751.2368613081,-42500.0,-3264.0283597691155,-1146.8955072365789,-188.95897373119632,2707.6309122409507,674.55087014498338,-1555.0605277400832,3026.8372894535132,-1259.4942319385354,-599.01603182316808,599.01603182316808,1259.4942319385354,5867.4004577349478,0.0
743523.2936376977,3632751.2368613081,-42500.0,-3104.3324661121915,-1020.7222449523665,-146.07167288954193,2410.3453657351815,578.61453086918755,-1319.4294138254052,2729.9445658550781,-1262.9810007512006,-485.42246486506855,485.42246486506855,1262.9810007512006,5311.8996116155531,0.0
748523.2936376977,3632751.2368613081,-42500.0,-2933.7209210332899,-908.0839724139438,-114.25619543748073,2143.8128051114418,496.66121733835115,-1120.4493586118217,2463.7284327834391,-1245.4544710952212,-392.50780148176358,392.50780148176358,1245.4544710952212,4809.0068119270509,0.0
753523.2936376977,3632751.2368613081,-42500.0,-2759.288605371255,-808.06500914412095,-90.652200081437456,1906.3020379884358,426.89421946110764,-952.82342482589672,2225.6046836001301,-1213.1841383734015,-316.57324823539648,316.57324823539648,1213.1841383734015,4355.6542042984684,0.0
543523.2936376977,3637751.2368613081,-42500.0,-3147.2476628496115,277.46372436754342,27.099349518004693,-1918.0860143059961,174.30228117188614,-849.30085511922584,2248.9743487720039,-2898.7341054027233,1144.8873632723912,-1144.8873632723912,2898.7341054027233,4407.019626448302,0.0
548523.2936376977,3637751.2368613081,-42500.0,-3414.6090582069351,328.69128638271013,26.640073883505138,-2179.3007288100021,213.85167875328131,-1002.049521860572,2507.6656640955771,-3181.4450477306145,1279.1141818610295,-1279.1141818610295,3181.4450477306145,4906.0969417128836,0.0
553523.2936376977,3637751.2368613081,-42500.0,-3701.7900923210327,389.64683498384522,23.208496960542764,-2481.4216843206327,263.12043948997052,-1186.041766074276,2803.6260723665901,-3492.3481730183394,1430.0531066994561,-1430.0531066994561,3492.3481730183394,5474.3928390486681,0.0
558523.2936376977,3637751.2368613081,-42500.0,-4007.6041053813069,462.14195563603465,15.190993057201522,-2831.324864598756,324.68288088341507,-1408.3072291771848,3143.2113686042435,-3832.723724441199,1599.2210889972077,-1599.2210889972077,3832.723724441199,6122.8236843195127,0.0
563523.2936376977,3637751.2368613081,-42500.0,-4329.2835599237324,548.24562136796987,0.26111112845222362,-3237.0447641570145,401.82941984513792,-1677.646313747982,3534.0508417054107,-4202.9867411287632,1787.8659025337861,-1787.8659025337861,4202.9867411287632,6864.2007606621501,0.0
568523.2936376977,3637751.2368613081,-42500.0,-4661.607974064621,650.25437476906109,-24.918110986662136,-3707.9272474793074,498.7664080680367,-2005.204316892512,3985.3439626038112,-4602.0643990601875,1996.6548058598903,-1996.6548058598903,4602.0643990601875,7713.5868977877399,0.0
573523.2936376977,3637751.2368613081,-42500.0,-4995.5388959758375,770.59824179893735,-65.112533299790428,-4254.727172664514,620.86675196297085,-2405.3282688565819,4508.2151455898638,-5026.3896091784645,2225.1551740201071,-2225.1551740201071,5026.3896091784645,8688.6969053523462,0.0
578523.2936376977,3637751.2368613081,-42500.0,-5316.0426701689521,911.62445972776231,-127.10200063525632,-4889.4994686997816,774.97463739431009,-2896.8734014810893,5116.084527127945,-5468.2319737259786,2470.9596494056,-2470.9596494056,5468.2319737259786,9810.2553031766492,0.0
583523.2936376977,3637751.2368613081,-42500.0,-5598.6066022207506,1075.1550343851161,-220.49299947328376,-5624.9192892675865,969.75489944822107,-3505.1857354679023,5824.9272306472094,-5912.8890042883477,2728.2013184199577,-2728.2013184199577,5912.8890042883477,11102.079146758089,0.0
588523.2936376977,3637751.2368613081,-42500.0,-5803.740895351566,1261.6300084601423,-358.83547277005277,-6472.2007872966451,1216.0367759138617,-4264.9572030741274,6653.0919037109679,-6333.9406179290518,2985.018744634669,-2985.018744634669,6333.9406179290518,12590.30718018156,0.0
593523.2936376977,3637751.2368613081,-42500.0,-5868.6781662263929,1468.4958359499215,-561.12362783288165,-7435.8722620507979,1526.9882235862442,-5223.7686951220721,7619.9440452364888,-6685.3692565551319,3219.2449838850698,-3219.2449838850698,6685.3692565551319,14300.498567247872,0.0
598523.2936376977,3637751.2368613081,-42500.0,-5696.0883072460083,1687.2786176134898,-853.72580938488272,-8502.1673620585134,1917.693804744787,-6444.7892711877766,8741.9271565489926,-6889.1758954846537,3391.2852322540621,-3391.2852322540621,6889.1758954846537,16250.182605373977,0.0
603523.2936376977,3637751.2368613081,-42500.0,-5142.1627949195818,1898.5033215980607,-1272.6096956267147,-9615.9657749842263,2403.0930030106924,-8003.5092409077679,10023.667507382286,-6818.1136897404158,3433.1107553993988,-3433.1107553993988,6818.1136897404158,18432.872336322333,0.0
608523.2936376977,3637751.2368613081,-42500.0,-4013.3099405318144,2063.6110196122777,-1865.1794599303569,-10641.180765452549,2992.0473004578394,-9965.9170574818927,11440.998533487071,-6277.7605167812644,3233.6278798940812,-3233.6278798940812,6277.7605167812644,20788.739008219305,0.0
613523.2936376977,3637751.2368613081,-42500.0,-2094.187439154005,2114.1945594097165,-2689.5965919519399,-11307.679469657152,3673.4699678891052,-12324.486312543568,12913.753165932683,-5004.4596673219567,2625.7680223868747,-2625.7680223868747,5004.4596673219567,23160.435211770466,0.0
618523.2936376977,3637751.2368613081,-42500.0,754.69289354562261,1943.3987400084543,-3806.4174601888612,-11177.043351670007,4389.3182343858371,-14864.702845207235,14272.429602919432,-2717.9119876416507,1392.9687605465988,-1392.9687605465988,2717.9119876416507,25247.4770464512,0.0
623523.2936376977,3637751.2368613081,-42500.0,4402.8060505882377,1414.820698243022,-5252.9747141688931,-9717.7192676828035,4994.2090447789533,-16976.358624710156,15239.551028145561,716.05450043850817,-668.82244904564948,668.82244904564948,-716.05450043850817,26608.344281862534,0.0
628523.2936376977,3637751.2368613081,-42500.0,8234.236966110404,417.23325813163228,-6990.5269180625437,-6618.8380627811312,5223.9463657206052,-17569.601109062522,15474.386521824086,5007.5750916549141,-3595.8897202647322,3595.8897202647322,-5007.5750916549141,26806.571998549734,0.0
633523.2936376977,3637751.2368613081,-42500.0,11192.337764239943,-1016.7944893695314,-8833.9321189399961,-2313.5684030868006,4739.4646486918864,-15453.590713481075,14753.051801521018,9244.770287180063,-7044.70050688638,7044.70050688638,-9244.770287180063,25767.914539747977,0.0
638523.2936376977,3637751.2368613081,-42500.0,12377.033418216082,-2589.7630744035541,-10426.91922320704,1796.95699368278,3326.1411580192907,-10355.164756188977,13419.197915039738,12182.02872541639,-10227.992676608736,10227.992676608736,-12182.02872541639,24111.958567760408,0.0
643523.2936376977,3637751.2368613081,-42500.0,11832.629416623204,-3790.7540897331464,-11360.437490698772,4110.0140187200777,1186.8381228433805,-3770.4902121495716,12849.040642794878,13083.633344983555,-12245.037475788689,12245.037475788689,-13083.633344983555,22748.69989257514,0.0
648523.2936376977,3637751.2368613081,-42500.0,10514.364435456739,-4213.4748560340513,-11416.926262644643,4141.1683029870619,-986.41968293119169,1723.1054510748286,12556.956879167341,12298.235673843894,-12661.688627921296,12661.688627921296,-12298.235673843894,21750.657392990161,0.0
653523.2936376977,3637751.2368613081,-42500.0,9337.3345853403298,-3877.7463723797223,-10716.574006464016,2833.3223182237462,-2395.7933529472625,4350.6572432053626,11597.610342992884,10816.723678826711,-11769.935979636037,11769.935979636037,-10816.723678826711,20333.155273086257,0.0
658523.2936376977,3637751.2368613081,-42500.0,8512.9803402964408,-3184.8237383927153,-9597.5148059695948,1534.6611690170387,-2660.924354123842,4134.197828723738,10150.906408799317,9406.5115707999121,-10269.072792140754,10269.072792140754,-9406.5115707999121,18072.029991239277,0.0
663523.2936376977,3637751.2368613081,-42500.0,7758.2540885797434,-2577.7506843243837,-8374.7711250102275,1001.3247405119669,-1963.8759368183544,2254.6959318662762,8749.6910302107062,8279.0703175868639,-8765.8565259747211,8765.8565259747211,-8279.0703175868639,15371.642332069505,0.0
668523.2936376977,3637751.2368613081,-42500.0,6783.4264477219012,-2281.6274401124624,-7212.4864035043865,1261.6652524047752,-786.68707037748334,-42.395382764135299,7509.4124261407505,7312.806719344796,-7539.2181857360638,7539.2181857360638,-7312.806719344796,13007.432925718926,0.0
673523.2936376977,3637751.2368613081,-42500.0,5513.3839458046205,-2283.988962002426,-6150.4676425138305,1984.4855102893471,413.12542594008153,-1997.3335050088958,6541.6521263355744,6350.0985354509867,-6599.9796752860693,6599.9796752860693,-6350.0985354509867,11525.137727687135,0.0
678523.2936376977,3637751.2368613081,-42500.0,4049.1859990512171,-2451.7913691499566,-5182.9432043732668,2816.8463545885929,1363.9168097129716,-3337.1867345501455,6198.7153245756517,5328.280887948762,-5849.8870925460305,5849.8870925460305,-5328.280887948762,10909.504318171288,0.0
683523.2936376977,3637751.2368613081,-42500.0,2554.5663679409713,-2647.4498091696755,-4306.6607454381019,3528.7049279278785,1980.2250926667386,-4079.6149176427652,6204.3147873551152,4274.2118455109376,-5196.0117494168462,5196.0117494168462,-4274.2118455109376,10757.150898536498,0.0
688523.2936376977,3637751.2368613081,-42500.0,1171.3937168167226,-2784.3886330817368,-3528.1776734170057,4021.8269155171856,2291.9084578483466,-4357.0861122163979,6148.2064227761057,3251.8550208389242,-4589.1286325515575,4589.1286325515575,-3251.8550208389242,10686.947336289788,0.0
693523.2936376977,3637751.2368613081,-42500.0,-14.114880550426786,-2830.1991172901203,-2854.8402801890843,4286.5238561543192,2374.0273787550682,-4316.8219024241607,5964.4111200096777,2319.4581640260358,-4016.0212187074376,4016.0212187074376,-2319.4581640260358,10508.14725876541,0.0
698523.2936376977,3637751.2368613081,-42500.0,-969.19148422673368,-2787.7433530170524,-2287.8157412396772,4356.3481613652775,2304.3635281100924,-4080.9807480912159,5679.4260972063194,1511.8663303390126,-3480.5882684711282,3480.5882684711282,-1511.8663303390126,10173.339779681854,0.0
703523.2936376977,3637751.2368613081,-42500.0,-1697.8922313440548,-2675.8287758459969,-1821.065628154224,4278.1757534498729,2145.9774942855861,-3738.8511976632876,5330.4143096912039,840.76415530727309,-2990.3784490132134,2990.3784490132134,-840.76415530727309,9702.2416895450187,0.0
708523.2936376977,3637751.2368613081,-42500.0,-2224.205787907933,-2516.8277818501974,-1443.615153133361,4097.2020095067946,1943.9703775996936,-3351.1720862703828,4948.6954233058041,301.76757613439804,-2550.6432327921079,2550.6432327921079,-301.76757613439804,9135.6770834188592,0.0
713523.2936376977,3637751.2368613081,-42500.0,-2580.0524265004724,-2330.736488813699,-1142.3521818617512,3851.2381090789818,1727.9989016559023,-2957.0255634961027,4557.3506063656359,-118.31331702097145,-2163.0147971071146,2163.0147971071146,118.31331702097145,8514.8169905426075,0.0
718523.2936376977,3637751.2368613081,-42500.0,-2798.2478363318428,-2133.1807753406906,-904.11658066864641,3569.5718452105302,1516.1614842844513,-2580.0184612444878,4172.2165237433501,-436.27129093492795,-1826.0851517794199,1826.0851517794199,436.27129093492795,7873.6998462010115,0.0
723523.2936376977,3637751.2368613081,-42500.0,-2908.9512858515304,-1935.3444387674197,-716.8948956935302,3273.6900963341054,1318.5459746727965,-2233.0974172775591,3803.502201680918,-669.37482846957289,-1536.4318075755918,1536.4318075755918,669.37482846957289,7237.6712532670208,0.0
728523.2936376977,3637751.2368613081,-42500.0,-2938.1942169521967,-1744.6457169944042,-570.33397720905089,2978.5990161640007,1139.9836761140109,-1922.1193860426429,3457.2769864686707,-833.71671164910379,-1289.5340862110147,1289.5340862110147,833.71671164910379,6624.1571283016319,0.0
733523.2936376977,3637751.2368613081,-42500.0,-2907.5427856514439,-1565.5922516397893,-455.83664475924525,2694.2141120493243,982.02653449510376,-1648.4295954852812,3136.6692780763101,-943.47216220338862,-1080.4453661055099,1080.4453661055099,943.47216220338862,6044.1697667891804,0.0
738523.2936376977,3637751.2368613081,-42500.0,-2834.3339705034709,-1400.5747879563894,-366.43888898483374,2426.615169377651,844.29812475855078,-1410.6727154614377,2842.7833491837978,-1010.6766942050672,-904.2365264270336,904.2365264270336,1010.6766942050672,5503.8715114522511,0.0
743523.2936376977,3637751.2368613081,-42500.0,-2732.1705572540536,-1250.519109679854,-296.59467866753448,2179.0970146564214,725.38081468899088,-1206.0248334764053,2575.3807486373335,-1045.2838849630509,-756.26290499629408,756.26290499629408,1045.2838849630509,5005.9389155632061,0.0
748523.2936376977,3637751.2368613081,-42500.0,-2611.5015953382663,-1115.3865920409219,-241.93887557620627,1953.0066067441824,623.37648238883264,-1030.9987938136517,2333.3755970404727,-1055.3612777644357,-632.30652051924608,632.30652051924608,1055.3612777644357,4550.6567608424166,0.0
753523.2936376977,3637751.2368613081,-42500.0,-2480.1953164641341,-994.54042186469053,-199.06326121679959,1748.3845155699805,536.24565142517849,-881.9457971200253,2115.186512487147,-1047.3419351999519,-528.63431541924092,528.63431541924092,1047.3419351999519,4136.7501930550961,0.0
543523.2936376977,3642751.2368613081,-42500.0,-3058.3824715493979,522.68831294583174,-36.193945708465982,-1873.9617843555113,304.59539438018305,-832.33239960163837,2223.4909872996536,-2772.1091009362881,1258.8528819919084,-1258.8528819919084,2772.1091009362881,4358.270529824109,0.0
548523.2936376977,3642751.2368613081,-42500.0,-3305.0512732026982,608.83304169458404,-50.435420369205737,-2122.7835537784517,367.98398246420959,-979.54999655185588,2475.2063225841771,-3026.8393809812824,1404.2752379758758,-1404.2752379758758,3026.8393809812824,4844.4573397907143,0.0
553523.2936376977,3642751.2368613081,-42500.0,-3566.5507597820915,710.21359687323252,-71.010035003653996,-2408.7910565439347,446.05188316578932,-1156.0787338749458,2762.225314768255,-3302.9622972548823,1566.9188264908425,-1566.9188264908425,3302.9622972548823,5396.3132954827688,0.0
558523.2936376977,3642751.2368613081,-42500.0,-3840.4514218264262,829.47892644059823,-100.41861153807878,-2737.6472610218384,542.48988108301614,-1368.2144677761194,3090.2917066277155,-3599.9737260182328,1747.973105611326,-1747.973105611326,3599.9737260182328,6023.6768600955438,0.0
563523.2936376977,3642751.2368613081,-42500.0,-4122.4455356544768,969.60430512628011,-142.11653087694242,-3115.7425235393212,661.96281101291277,-1623.7160513993892,3466.2061243673747,-3916.0178014682838,1948.1465564883315,-1948.1465564883315,3916.0178014682838,6737.9105674170169,0.0
568523.2936376977,3642751.2368613081,-42500.0,-4405.4286451079306,1133.820602617702,-200.87295407789549,-3550.1813834369486,810.36609037012317,-1932.2323472743221,3898.0359831158858,-4247.1405451189939,2167.2559884539896,-2167.2559884539896,4247.1405451189939,7552.1114637850433,0.0
573523.2936376977,3642751.2368613081,-42500.0,-4678.1127561382764,1325.4354746320516,-283.25977903541133,-4048.6494305597398,995.1414186723855,-2305.9300000345488,4395.3476930206334,-4586.1476055973953,2403.5657387778228,-2403.5657387778228,4586.1476055973953,8481.3049012069787,0.0
578523.2936376977,3642751.2368613081,-42500.0,-4922.8918195998776,1547.4492680000444,-398.30883414517251,-4618.985318413098,1225.6481286245673,-2760.4322871858003,4969.4016356812062,-4920.8085460065204,2652.7091479945884,-2652.7091479945884,4920.8085460065204,9542.5032693917019,0.0
583523.2936376977,3642751.2368613081,-42500.0,-5112.5629759185385,1801.7962213422018,-558.37847927207417,-5268.0855935121417,1513.5608691400253,-3316.2062561711032,5633.1737636092957,-5231.0028508290707,2905.9190097620176,-2905.9190097620176,5231.0028508290707,10754.38235398814,0.0
588523.2936376977,3642751.2368613081,-42500.0,-5205.3771037410888,2087.8978038783994,-780.25466787280811,-5999.3353958490707,1873.1794832305168,-4000.4447412660415,6400.8668639300331,-5484.1669674612112,3147.102653021675,-3147.102653021675,5484.1669674612112,12135.980749937069,0.0
593523.2936376977,3642751.2368613081,-42500.0,-5137.9903870897906,2399.9906506856451,-1086.4518426548836,-6806.9856888172644,2321.3313127088991,-4849.0569181809624,7286.2249386646208,-5628.2064067069196,3348.0482284868604,-3348.0482284868604,5628.2064067069196,13703.232724578127,0.0
598523.2936376977,3642751.2368613081,-42500.0,-4816.7204252568963,2722.3728079898729,-1506.5050950851885,-7664.7074945087079,2876.056685434653,-5907.0363956849151,8298.3821895678302,-5581.2061199797217,3460.8293958535369,-3460.8293958535369,5581.2061199797217,15461.16959700004,0.0
603523.2936376977,3642751.2368613081,-42500.0,-4110.2722437510047,3021.4610252098105,-2077.6134689923247,-8504.4356338772777,3552.2389342907268,-7222.2177962213036,9433.2595822542917,-5218.8152282301362,3406.7391898557948,-3406.7391898557948,5218.8152282301362,17388.518945605636,0.0
608523.2936376977,3642751.2368613081,-42500.0,-2853.7060205770385,3234.0155889304574,-2843.0500940659922,-9182.7707359158703,4350.527975379975,-8821.2022044043752,10658.202929655952,-4365.2453693523375,3063.0881178023828,-3063.0881178023828,4365.2453693523375,19411.398715722655,0.0
613523.2936376977,3642751.2368613081,-42500.0,-884.89089001850618,3253.7872192898399,-3844.9922848407291,-9441.5752223005311,5233.7590991294073,-10648.403484788658,11889.162134922344,-2805.3633507298914,2255.5106366424848,-2255.5106366424848,2805.3633507298914,21367.159754380067,0.0
618523.2936376977,3642751.2368613081,-42500.0,1855.5524613927469,2927.3112969299709,-5106.1178376348835,-8897.043071806178,6085.9041280058091,-12451.142521316053,12966.492388935481,-352.68926798848929,776.9406052131917,-776.9406052131917,352.68926798848929,22974.815534846326,0.0
623523.2936376977,3642751.2368613081,-42500.0,5150.4338947606484,2084.9951107578531,-6594.1746263099412,-7138.6773728305188,6662.0988715207759,-13638.27731904603,13651.675906532557,2987.9978003259785,-1529.1054015522623,1529.1054015522623,-2987.9978003259785,23861.263219387929,0.0
628523.2936376977,3642751.2368613081,-42500.0,8350.9717077458681,642.60678379512876,-8173.8143433425976,-4032.6569515776359,6577.9857514420273,-13266.729827314532,13693.234808370997,6790.9339425145154,-4594.0116217682826,4594.0116217682826,-6790.9339425145154,23727.645632291988,0.0
633523.2936376977,3642751.2368613081,-42500.0,10500.835100869912,-1235.161345050132,-9579.840768333288,-151.35881521074219,5436.7421830009034,-10443.798968630028,13037.285244109959,10123.875723853287,-7930.3239541034463,7930.3239541034463,-10123.875723853287,22685.875066471795,0.0
638523.2936376977,3642751.2368613081,-42500.0,10936.814349038392,-3048.8046855476182,-10478.244790586286,3153.3393723962845,3144.2400772607334,-5200.2762506394074,12232.615504482103,11937.500087123884,-10662.17514078716,10662.17514078716,-11937.500087123884,21466.455600703495,0.0
643523.2936376977,3642751.2368613081,-42500.0,9933.2599933037854,-4169.2750879921405,-10640.901244683622,4544.1490852572761,202.32201252310878,940.66173321578924,12001.67746613155,11843.344245528746,-11978.403207581299,11978.403207581299,-11843.344245528746,20817.468798054921,0.0
648523.2936376977,3642751.2368613081,-42500.0,8511.6345167900909,-4277.8613793456025,-10112.059171482459,3809.5251980735243,-2427.7495551121501,5736.4073091235359,11725.226775789062,10456.225742358771,-11705.106142466097,11705.106142466097,-10456.225742358771,20468.964692231912,0.0
653523.2936376977,3642751.2368613081,-42500.0,7508.997917611543,-3599.3526803727236,-9180.5847550365143,1963.4250120887903,-3911.509453122444,7807.1635002251605,10802.219455396013,8804.6603313001233,-10379.697946483049,10379.697946483049,-8804.6603313001233,19492.003045761678,0.0
658523.2936376977,3642751.2368613081,-42500.0,7038.7092075236778,-2675.8376912474546,-8171.3037124491457,269.28657485377545,-4017.8246197898902,7308.1878785751724,9192.2612795744626,7538.1366679901039,-8773.2581842634136,8773.2581842634136,-7538.1366679901039,17482.634175155141,0.0
663523.2936376977,3642751.2368613081,-42500.0,6749.2546645758657,-1970.811943624708,-7268.7949078732699,-589.47224357864877,-3085.5785063760859,5304.1810392016159,7655.8676442853557,6731.4038067686579,-7412.8207249913448,7412.8207249913448,-6731.4038067686579,14818.702836899696,0.0
668523.2936376977,3642751.2368613081,-42500.0,6290.3807469805088,-1670.5357474289717,-6499.0754098254629,-584.02212033155661,-1672.7589157422765,2878.036683747478,6780.8113263565519,6164.4925114108901,-6457.4331640420205,6457.4331640420205,-6164.4925114108901,12221.372170754707,0.0
673523.2936376977,3642751.2368613081,-42500.0,5522.7944046015837,-1725.297196988415,-5810.2070680113056,-13.191013509876603,-252.81421602916055,706.47052852583181,5928.0725494456856,5614.7126199135164,-5828.6022662583,5828.6022662583,-5614.7126199135164,10304.014306237939,0.0
678523.2936376977,3642751.2368613081,-42500.0,4490.379340780958,-1981.2549040238653,-5150.4634306797261,788.10601340732148,901.70699978555012,-936.72390149662726,5354.8816474435635,4973.1472301634194,-5377.8811187962501,5377.8811187962501,-4973.1472301634194,9282.0322490676517,0.0
683523.2936376977,3642751.2368613081,-42500.0,3320.4933843746812,-2286.8867491989809,-4500.6020457766454,1578.8100315417685,1699.5274054706963,-2027.6088770480785,5155.7979282253527,4234.8908290794752,-4986.052072855744,4986.052072855744,-4234.8908290794752,8931.7618605338903,0.0
688523.2936376977,3642751.2368613081,-42500.0,2145.1836381617145,-2541.4342101741718,-3869.3090619327313,2229.3422528133774,2162.027714532735,-2654.0651839663446,5106.5060740459921,3448.682580335103,-4590.7161184582355,4590.7161184582355,-3448.682580335103,8868.5692408218656,0.0
693523.2936376977,3642751.2368613081,-42500.0,1062.6853971597507,-2699.0548513516896,-3276.3084638277692,2693.897964859696,2359.5541956550242,-2933.1376528970213,5021.7605569753932,2673.6260494601711,-4174.9646190766953,4174.9646190766953,-2673.6260494601711,8819.526965943478,0.0
698523.2936376977,3642751.2368613081,-42500.0,129.2404678900694,-2753.0785037628179,-2739.2143337842331,2976.1446420318939,2370.8973480139275,-2972.9252280427927,4859.8900299773741,1956.3125248821257,-3746.3636052332945,3746.3636052332945,-1956.3125248821257,8667.5913671082653,0.0
703523.2936376977,3642751.2368613081,-42500.0,-633.78501290521524,-2717.8253914439847,-2268.0523879990774,3103.0482107182029,2264.142291881004,-2859.9656905735351,4631.8637439323757,1324.5124182163895,-3320.5913236324755,3320.5913236324755,-1324.5124182163895,8391.3053771896575,0.0
708523.2936376977,3642751.2368613081,-42500.0,-1228.5202043778231,-2615.3089198810594,-1865.1501245001041,3108.8758823955959,2090.951552488008,-2658.308022272377,4359.4222953024428,789.46986168782018,-2912.5675834193516,2912.5675834193516,-789.46986168782018,8010.64481395249,0.0
713523.2936376977,3642751.2368613081,-42500.0,-1670.4404476407128,-2467.6593372446619,-1527.2536793095171,3026.8757463172083,1887.3348278191579,-2412.8101941881496,4062.8995445078713,350.85069466695245,-2533.0944935415991,2533.0944935415991,-350.85069466695245,7557.6431007311312,0.0
718523.2936376977,3642751.2368613081,-42500.0,-1981.0792850598134,-2293.7086333180155,-1247.9106437112259,2885.6569484492361,1676.711620318642,-2153.3530901694535,3758.288107985873,1.4192142866108952,-2188.4374977159646,2188.4374977159646,-1.4192142866108952,7063.4235184805157,0.0
723523.2936376977,3642751.2368613081,-42500.0,-2183.4250927072972,-2107.997404736419,-1019.3343444622328,2708.1192925907044,1473.2559180042938,-1898.7398748923549,3457.120010426609,-269.47089216781376,-1881.0986319580511,1881.0986319580511,269.47089216781376,6553.5404171186738,0.0
728523.2936376977,3642751.2368613081,-42500.0,-2299.3084051690171,-1920.971951977383,-833.61668158760563,2511.6408741229584,1284.7554794290584,-1659.91661058878,3167.1586509726094,-473.57804590070111,-1610.8757719971281,1610.8757719971281,473.57804590070111,6047.0763284768655,0.0
733523.2936376977,3642751.2368613081,-42500.0,-2348.1091674703825,-1739.6525665569393,-683.40831348245911,2308.8099713707702,1114.8028695550931,-1442.47454706283,2893.2363316560477,-622.39713712911669,-1375.8277324031083,1375.8277324031083,622.39713712911669,5557.259414095035,0.0
738523.2936376977,3642751.2368613081,-42500.0,-2346.2795717893432,-1568.4045914879559,-562.23282085796234,2108.3251684712482,964.37024107985212,-1248.5106346905504,2638.0184380825845,-726.42135903078906,-1173.0285282419572,1173.0285282419572,726.42135903078906,5092.5693087805912,0.0
743523.2936376977,3642751.2368613081,-42500.0,-2307.3386331889506,-1409.6448481079635,-464.5766374004495,1915.8724857506566,832.88939336378223,-1077.9580919266402,2402.6312609898746,-794.81562669156665,-999.10598875079859,999.10598875079859,794.81562669156665,4657.8755577678967,0.0
748523.2936376977,3642751.2368613081,-42500.0,-2242.115137821052,-1264.4241622446657,-385.85400261601563,1734.8933502671036,718.96442009083353,-929.50364893279004,2187.1505421356896,-835.34029980437685,-850.59983479197308,850.59983479197308,835.34029980437685,4255.4323328028986,0.0
543523.2936376977,3647751.2368613081,-42500.0,-2904.671183820034,741.97838271149249,-127.63120123293888,-1796.7954813382503,422.74535666081675,-802.47945389670963,2173.0443809343124,-2581.2752065340028,1318.9802198119339,-1318.9802198119339,2581.2752065340028,4262.2117879600182,0.0
548523.2936376977,3647751.2368613081,-42500.0,-3119.4461742958238,856.31675879397881,-160.73658330872433,-2025.9184495222291,506.30357056129162,-940.73394092022909,2412.8670892137516,-2796.4708861350446,1464.2197758010589,-1464.2197758010589,2796.4708861350446,4726.1479496496413,0.0
553523.2936376977,3647751.2368613081,-42500.0,-3341.9740857387624,989.46423257326546,-204.49960177831531,-2286.6863642135618,608.26651221767656,-1105.3440987004244,2684.8817205296941,-3023.9963721311346,1624.4656162160713,-1624.4656162160713,3023.9963721311346,5250.0263579482062,0.0
558523.2936376977,3647751.2368613081,-42500.0,-3568.2157631619857,1144.2986094129762,-262.4683884217273,-2583.052803428202,732.98159884461654,-1301.534344231872,2993.9083195936992,-3261.131057766032,1799.8711703185022,-1799.8711703185022,3261.131057766032,5842.0256385663988,0.0
563523.2936376977,3647751.2368613081,-42500.0,-3791.9259071438787,1323.888461448058,-339.39079037425591,-2919.1230000708697,885.83883508914516,-1535.5588611488984,3345.5084447791646,-3503.2614858886755,1989.7076156401026,-1989.7076156401026,3503.2614858886755,6511.2990320757535,0.0
568523.2936376977,3647751.2368613081,-42500.0,-4003.7233619280505,1531.3121465501197,-441.61387828388882,-3298.9360822474691,1073.4976729167411,-1814.9284857928005,3746.0769018072783,-3743.03657993557,2191.8114177131406,-2191.8114177131406,3743.03657993557,7267.9846073916597,0.0
573523.2936376977,3647751.2368613081,-42500.0,-4189.7509550222976,1769.3049045706921,-577.602892764633,-3726.0536351719811,1304.1378472449769,-2148.7264036256001,4202.9061989143383,-3969.1437018373749,2401.7381563641734,-2401.7381563641734,3969.1437018373749,8123.1142520050189,0.0
578523.2936376977,3647751.2368613081,-42500.0,-4329.7234600005404,2039.5989286829313,-758.59469105851929,-4202.7682739098464,1587.6998991422536,-2548.0521251580267,4724.1493960431681,-4164.506333563274,2611.4522356522752,-2611.4522356522752,4164.506333563274,9088.2772537220444,0.0
583523.2936376977,3647751.2368613081,-42500.0,-4394.1248826885121,2341.7374563584658,-999.38045277798801,-4728.5815124631627,1936.0332247921629,-3026.618751183637,5318.5437620322828,-4303.6320359997599,2807.2999823711489,-2807.2999823711489,4303.6320359997599,10174.790179034491,0.0
588523.2936376977,3647751.2368613081,-42500.0,-4340.3102459951033,2670.9807556718038,-1319.1484100546493,-5297.2463331680701,2362.7360577261557,-3601.3823272817808,5994.5778408328288,-4348.7370037934334,2966.8694579965386,-2966.8694579965386,4348.7370037934334,11391.814967344006,0.0
593523.2936376977,3647751.2368613081,-42500.0,-4107.5647408095183,3014.6941330026202,-1742.1593467335952,-5891.1154793802198,2882.1765235487696,-4292.6169759786862,6758.504961823237,-4244.3353114476449,3054.2130539326799,-3054.2130539326799,4244.3353114476449,12742.401736833894,0.0
598523.2936376977,3647751.2368613081,-42500.0,-3612.2579907187783,3346.3855773380224,-2297.6939255150428,-6470.8673078246811,3506.5734071892202,-5121.6570022253582,7610.2255202980177,-3910.5832855773506,3012.9766893446276,-3012.9766893446276,3910.5832855773506,14215.836147801248,0.0
603523.2936376977,3647751.2368613081,-42500.0,-2746.9754810446693,3616.6224467120587,-3018.0261786881015,-6958.5042040924045,4238.8599070675255,-6101.9592240900402,8535.6901954459372,-3237.6619554239423,2757.7627134636841,-2757.7627134636841,3237.6619554239423,15774.220414625563,0.0
608523.2936376977,3647751.2368613081,-42500.0,-1393.0681142046503,3741.3577193775309,-3932.005561271963,-7213.988222931318,5057.3772471921748,-7214.971763649939,9494.7626042791217,-2088.4323528569844,2166.8390302612102,-2166.8390302612102,2088.4323528569844,17332.301091627,0.0
613523.2936376977,3647751.2368613081,-42500.0,536.29484600110118,3592.7372284366411,-5050.3930356863848,-7015.6007041402272,5887.4682022338475,-8358.9481221643073,10405.857959721954,-325.56513271816476,1086.0766550326712,-1086.0766550326712,325.56513271816476,18735.196034461464,0.0
618523.2936376977,3647751.2368613081,-42500.0,3004.0832692908571,3007.693110420646,-6339.032234295325,-6076.4975017032666,6559.402129945729,-9266.7026329327018,11135.654286175395,2111.8725020473516,-634.62602380466308,634.62602380466308,-2111.8725020473516,19753.632883050966,0.0
623523.2936376977,3647751.2368613081,-42500.0,5719.1446831450457,1843.1976812048717,-7682.1667632924418,-4158.1955975827505,6771.9190306385844,-9430.1816497147338,11516.536769289145,5069.1485504157163,-3044.0022542866291,3044.0022542866291,-5069.1485504157163,20142.417021434314,0.0
628523.2936376977,3647751.2368613081,-42500.0,8067.7382078808532,102.38579143356525,-8857.7588872380329,-1324.4731666263988,6122.5869728627913,-8158.8210321928382,11434.546273634371,8033.1151074580275,-5931.4382379491572,5931.4382379491572,-8033.1151074580275,19821.287677289452,0.0
633523.2936376977,3647751.2368613081,-42500.0,9305.4056805459059,-1913.2644146698096,-9574.1400050460998,1782.2175154663364,4293.779698656891,-4948.4231655392941,11035.017213462124,10177.383429352245,-8712.6724262767566,8712.6724262767566,-10177.383429352245,19139.575268380329,0.0
638523.2936376977,3647751.2368613081,-42500.0,9075.4920212311845,-3599.8601912058607,-9606.7397939551029,4021.8674456470267,1380.9628670435009,-96.758800787814891,10859.782737844285,10787.14315310768,-10576.467416287169,10576.467416287169,-10787.14315310768,18839.380652627766,0.0
643523.2936376977,3647751.2368613081,-42500.0,7822.8275332185822,-4358.3343581180643,-8969.3817857849444,4457.7144296771439,-1916.3524489533265,5044.447930856918,11105.322702339205,9843.8168528873466,-10963.323353434607,10963.323353434607,-9843.8168528873466,19252.497610556467,0.0
648523.2936376977,3647751.2368613081,-42500.0,6494.5327284760742,-4027.9340486043884,-7946.6923714203167,3130.4780654586807,-4580.7805569756983,8773.7911167676593,11249.68400231423,8106.9564097555276,-9988.7969340080363,9988.7969340080363,-8106.9564097555276,19689.651419484151,0.0
653523.2936376977,3647751.2368613081,-42500.0,5760.7055437123745,-2990.9441834377417,-6916.8234854837301,994.25520942200126,-5884.4953028099881,10158.35611624806,10852.781508543027,6501.3404634463277,-8331.6034629477963,8331.6034629477963,-6501.3404634463277,19222.256426702403,0.0
658523.2936376977,3647751.2368613081,-42500.0,5639.7083443638785,-1849.3288214824406,-6128.549542473027,-880.67147440237227,-5742.2453347125465,9415.4611343898559,9817.2619699455026,5501.1633076241078,-6722.5572222639648,6722.5572222639648,-5501.1633076241078,17569.552579161405,0.0
663523.2936376977,3647751.2368613081,-42500.0,5756.1757528733033,-1046.3546911003123,-5622.1780729064185,-1923.8158939609714,-4573.0364932639513,7411.8788552537408,8379.3267744972472,5059.586923858933,-5565.9258247694415,5565.9258247694415,-5059.586923858933,15105.403992733825,0.0
668523.2936376977,3647751.2368613081,-42500.0,5740.6967179165977,-728.81550138373211,-5299.4746172332661,-2104.7860741316545,-2945.8574848907565,5018.3660035527691,6944.152044883871,4893.9335020425069,-4909.7654146474169,4909.7654146474169,-4893.9335020425069,12463.972410342074,0.0
673523.2936376977,3647751.2368613081,-42500.0,5415.0480546429981,-820.50873283032183,-5032.5030009162929,-1675.6925376364168,-1320.1295691492037,2801.1328783358604,5797.8976342410224,4744.4594280779256,-4606.8285495244654,4606.8285495244654,-4744.4594280779256,10215.01981251757,0.0
678523.2936376977,3647751.2368613081,-42500.0,4778.0615931404991,-1154.1432504698164,-4732.2833216389972,-936.60552121275498,39.201996241666869,1016.0062857455366,4999.8995535878548,4472.7155409654515,-4472.4983228480069,4472.4983228480069,-4472.7155409654515,8686.4099026358344,0.0
683523.2936376977,3647751.2368613081,-42500.0,3923.5292448044888,-1567.8774514925115,-4365.4893410427903,-122.16214622661198,1035.6331350186524,-285.08537810312134,4550.4319535246832,4050.2866066944921,-4367.7861087968531,4367.7861087968531,-4050.2866066944921,7884.9273414773552,0.0
688523.2936376977,3647751.2368613081,-42500.0,2969.2573415573802,-1948.4212098812975,-3940.348767447751,622.83810130963673,1679.4159511944813,-1152.2016530425401,4359.8053487940906,3512.2382815129376,-4218.4377136658959,4218.4377136658959,-3512.2382815129376,7567.4007376854406,0.0
693523.2936376977,3647751.2368613081,-42500.0,2017.0148659458016,-2236.2568801754014,-3484.6273861475597,1228.3210404696647,2031.6241703019073,-1672.01645086132,4259.9210229558776,2915.4411507664604,-4001.7209556307675,4001.7209556307675,-2915.4411507664604,7449.3376558189793,0.0
698523.2936376977,3647751.2368613081,-42500.0,1137.8235964221124,-2413.1211494086569,-3028.5866118170761,1674.3555946865224,2167.0058532896205,-1933.9197123681133,4148.0677572043978,2313.3966016830891,-3725.0764923311408,3725.0764923311408,-2313.3966016830891,7346.0222176155949,0.0
703523.2936376977,3647751.2368613081,-42500.0,372.06633088244718,-2485.7936814505442,-2596.144978677105,1969.6844829854795,2154.4375169169148,-2015.5782683545751,3994.9765967657158,1745.7027727230238,-3408.517448962351,3408.517448962351,-1745.7027727230238,7178.1178604461384,0.0
708523.2936376977,3647751.2368613081,-42500.0,-264.06739782329868,-2472.8779074284412,-2202.3983517080487,2136.6146542338538,2049.3287764009683,-1978.6923071851595,3802.8502943156973,1236.5361663082676,-3073.8153117096144,3073.8153117096144,-1236.5361663082676,6929.1804861060464,0.0
713523.2936376977,3647751.2368613081,-42500.0,-770.87093839769238,-2396.2155378286161,-1854.5447367319837,2201.6967664445597,1892.594926700026,-1869.4496828146187,3583.0945418337819,797.23681495708695,-2739.342964503448,2739.342964503448,-797.23681495708695,6610.9320442107473,0.0
718523.2936376977,3647751.2368613081,-42500.0,-1158.4647991374682,-2276.2388959857931,-1553.9998757409521,2190.5996145866311,1712.5419717572563,-1720.8168102084499,3347.9584860265936,429.99265810320742,-2418.4584291296856,2418.4584291296856,-429.99265810320742,6244.0874753297676,0.0
723523.2936376977,3647751.2368613081,-42500.0,-1441.8683299375095,-2129.9720593797547,-1298.5200212332813,2125.6858697434609,1527.6210669386571,-1555.2891325506596,3107.7917565208495,131.21460280061194,-2119.6893150832311,2119.6893150832311,-131.21460280061194,5849.4883742478705,0.0
728523.2936376977,3647751.2368613081,-42500.0,-1637.7079903327249,-1970.5610541798294,-1083.8790045235262,2025.1888748776241,1349.0891736355613,-1387.4847225656194,2870.427288342898,-105.86182810603123,-1847.6307026537188,1847.6307026537188,105.86182810603123,5444.6657075929324,0.0
733523.2936376977,3647751.2368613081,-42500.0,-1762.2129287765988,-1807.5668073765189,-905.02926325353792,1903.2615216687411,1183.2139256400799,-1226.3384104793911,2641.3451945870002,-289.36735326878022,-1603.9862893912268,1603.9862893912268,289.36735326878022,5042.9827069318508,0.0
738523.2936376977,3647751.2368613081,-42500.0,-1830.1281622187939,-1647.5622392800051,-756.82805616507721,1770.4456607583311,1032.9554012173796,-1076.8388290705159,2424.0854058892014,-427.64171206282083,-1388.4995698026846,1388.4995698026846,427.64171206282083,4653.8930486897998,0.0
743523.2936376977,3647751.2368613081,-42500.0,-1854.2345362811543,-1494.7871231636725,-634.44662845788821,1634.2938881399248,899.17971519853711,-941.33743000167476,2220.6935926951401,-528.55724395000755,-1199.6919531855015,1199.6919531855015,528.55724395000755,4283.5978412118284,0.0
748523.2936376977,3647751.2368613081,-42500.0,-1845.2431495521664,-1351.7450418006129,-533.56820553516684,1499.9978399667407,781.49947736133186,-820.49697658523905,2032.11938847492,-599.17204490155802,-1035.4054121766435,1035.4054121766435,599.17204490155802,3935.7732190606098,0.0
543523.2936376977,3652751.2368613081,-42500.0,-2696.5016997948396,925.99728596399734,-240.06129785214978,-1691.3846718635934,524.24105693811691,-761.4931362539711,2100.2679142272641,-2338.637345854102,1325.746275909939,-1325.746275909939,2338.637345854102,4123.63549292468,0.0
548523.2936376977,3652751.2368613081,-42500.0,-2871.1973259594561,1059.9147402028914,-294.96760925012745,-1895.1271849729808,623.18252876706822,-888.02606932742754,2324.1417863891879,-2506.3916226802826,1460.2166930244798,-1460.2166930244798,2506.3916226802826,4557.4852018826105,0.0
553523.2936376977,3652751.2368613081,-42500.0,-3045.4471691562799,1213.8938238629198,-365.10376664034419,-2123.7664214955184,742.72564261885066,-1037.2229972051127,2576.2656720542768,-2676.3469858371782,1605.1967244056832,-1605.1967244056832,2676.3469858371782,5043.9235617544145,0.0
558523.2936376977,3652751.2368613081,-42500.0,-3213.5709184843631,1390.3717211308649,-454.96349870663238,-2379.3060755375373,887.33883842033447,-1213.0344782381526,2860.3525421712538,-2843.5647960029692,1759.3163241266129,-1759.3163241266129,2843.5647960029692,5589.1117086836775,0.0
563523.2936376977,3652751.2368613081,-42500.0,-3367.4508070012571,1591.6444956972498,-570.38526232601009,-2663.3028347080881,1062.397954885635,-1419.9554704738196,3180.5051400374268,-3000.7897635360832,1919.8458519552244,-1919.8458519552244,3000.7897635360832,6199.5687314979386,0.0
568523.2936376977,3652751.2368613081,-42500.0,-3495.6628437641798,1819.5260702550727,-718.92886051629409,-2976.4627946314595,1274.3003522273966,-1663.0413549505593,3541.1855795228362,-3137.5934772383143,2082.0159523546254,-2082.0159523546254,3137.5934772383143,6881.9759223725987,0.0
573523.2936376977,3652751.2368613081,-42500.0,-3582.3019851978825,2074.765884619092,-910.32286878017726,-3317.9956697585667,1530.530130925931,-1947.9029063412056,3947.1129490176204,-3239.2129579852103,2238.0294192515953,-2238.0294192515953,3239.2129579852103,7642.8048651988074,0.0
578523.2936376977,3652751.2368613081,-42500.0,-3605.4143305653906,2356.0774665742792,-1156.9574284923451,-3684.5654349829333,1839.6018068778778,-2280.6629650054829,4403.0225636561381,-3284.9872861253803,2375.6317656851447,-2375.6317656851447,3284.9872861253803,8487.6431122215163,0.0
583523.2936376977,3652751.2368613081,-42500.0,-3534.9669148102289,2658.5415699120986,-1474.3420742901562,-4068.5406926599412,2210.7306573580927,-2667.8038364412309,4913.1496533136587,-3246.2839813934752,2476.054391073857,-2476.054391073857,3246.2839813934752,9419.9702131310405,0.0
588523.2936376977,3652751.2368613081,-42500.0,-3330.4227771906044,2971.0205092742708,-1881.3268412991772,-4455.0311224684765,2652.9134405549207,-3115.6738931869845,5480.1805630775834,-3083.8724043514367,2511.1055510356409,-2511.1055510356409,3083.8724043514367,10438.939077073639,0.0
593523.2936376977,3652751.2368613081,-42500.0,-2938.4481227249357,3272.0993901373213,-2399.6505188587716,-4816.9218818692498,3172.7861593391353,-3629.0136209640254,6103.2520633623453,-2745.0018634706066,2439.2508304262319,-2439.2508304262319,2745.0018634706066,11535.470824575801,0.0
598523.2936376977,3652751.2368613081,-42500.0,-2292.4063797817216,3524.0750479563903,-3051.933410063637,-5106.9636286304731,3770.0374492543365,-4206.9548240200129,6774.4005501689335,-2161.3026954216698,2200.9152102977009,-2200.9152102977009,2161.3026954216698,12685.752646594186,0.0
603523.2936376977,3652751.2368613081,-42500.0,-1317.6391296574984,3665.0845218745053,-3856.5067252660597,-5246.6343151075625,4428.2578090201223,-4833.322092875469,7472.9027468078257,-1250.6690205600094,1714.4957393134296,-1714.4957393134296,1250.6690205600094,13841.548759096037,0.0
608523.2936376977,3652751.2368613081,-42500.0,49.740473357369659,3601.5646709569769,-4816.5767279970541,-5114.627227694029,5098.2725995086385,-5456.1175549211648,8157.7913699444143,69.869543228621239,877.62014041060502,-877.62014041060502,-69.869543228621239,14918.828837053376,0.0
613523.2936376977,3652751.2368613081,-42500.0,1819.7923058111646,3208.4019524212426,-5901.0272870210765,-4546.129464964054,5671.9970759027919,-5951.4925541808698,8761.6468450410466,1848.4258294704327,-416.20998473864518,416.20998473864518,-1848.4258294704327,15792.444276944289,0.0
618523.2936376977,3652751.2368613081,-42500.0,3876.5310491614468,2352.8565172480185,-7017.2597615216519,-3368.4026676558665,5952.2149878577366,-6077.9272963355324,9195.1740374249348,4028.0805089725145,-2229.3539976361508,2229.3539976361508,-4028.0805089725145,16317.381318133524,0.0
623523.2936376977,3652751.2368613081,-42500.0,5902.4734690975483,964.21810408538965,-7987.5166674114316,-1507.2125393570186,5643.8975185070576,-5458.0015602834528,9382.5716520829501,6352.3529218636595,-4488.4848582508766,4488.4848582508766,-6352.3529218636595,16412.199394130614,0.0
628523.2936376977,3652751.2368613081,-42500.0,7387.5624346260247,-848.24938111483129,-8560.340595956186,835.94715304834085,4421.9113565488169,-3672.1326101380537,9354.657407331395,8316.8716413595903,-6876.9368944804028,6876.9368944804028,-8316.8716413595903,16223.083108201232,0.0
633523.2936376977,3652751.2368613081,-42500.0,7840.0903513742896,-2698.6640541773809,-8498.7818485171629,3056.3861337424014,2125.0183731529451,-539.37375181963193,9374.2188050217992,9302.1458157008637,-8818.4886260337043,8818.4886260337043,-9302.1458157008637,16238.322918998625,0.0
638523.2936376977,3652751.2368613081,-42500.0,7165.8118656660326,-4001.2717311911133,-7738.7435691877745,4310.033654712428,-990.3309297708023,3527.7609510993011,9794.9382854910764,8943.2544085269164,-9692.1469234002343,9692.1469234002343,-8943.2544085269164,16966.426211867962,0.0
643523.2936376977,3652751.2368613081,-42500.0,5867.2119000687244,-4291.3795305605963,-6499.5476760035353,4037.6289213774012,-4186.8091106615911,7483.2249353482021,10520.844898624699,7480.9519386930515,-9231.085924811865,9231.085924811865,-7480.9519386930515,18228.449016721035,0.0
648523.2936376977,3652751.2368613081,-42500.0,4727.6765186737957,-3560.4305076488663,-5200.8766447687121,2421.4191172922692,-6570.0001632044596,10173.907151484609,11053.287791715868,5668.953498318906,-7753.6113086381993,7753.6113086381993,-5668.953498318906,19168.341103522172,0.0
653523.2936376977,3652751.2368613081,-42500.0,4240.2288117660028,-2257.5479469563902,-4222.3226526507297,255.62561547167837,-7583.0939725865564,11023.445997854813,10980.111001263524,4251.4731245027888,-5950.25215723785,5950.25215723785,-4251.4731245027888,19053.232832479032,0.0
658523.2936376977,3652751.2368613081,-42500.0,4370.804911665783,-964.9550695143954,-3718.3590452842382,-1621.7184070167289,-7233.239267959163,10227.606915068602,10218.917106035697,3541.0930382921324,-4441.4184373951784,4441.4184373951784,-3541.0930382921324,17741.361629101517,0.0
663523.2936376977,3652751.2368613081,-42500.0,4769.5587589426332,-81.479959361441644,-3615.9175732984354,-2751.444396115714,-5933.7162159649697,8420.4642107987984,8967.272617505625,3420.3869854919185,-3512.1536238018853,3512.1536238018853,-3420.3869854919185,15576.203816580526,0.0
668523.2936376977,3652751.2368613081,-42500.0,5083.365311165725,273.06407395783543,-3730.4362323363566,-3087.7036556858657,-4205.0285131672554,6252.6642032046502,7532.6588837328181,3589.2156805186164,-3134.5599253739269,3134.5599253739269,-3589.2156805186164,13085.432888435407,0.0
673523.2936376977,3652751.2368613081,-42500.0,5114.244126136562,181.3183530131754,-3881.6121718419045,-2819.9649050820622,-2466.4201438282175,4174.7239290451753,6194.3567246127814,3778.0427074266677,-3124.3432534757726,3124.3432534757726,-3778.0427074266677,10749.942337672588,0.0
678523.2936376977,3652751.2368613081,-42500.0,4822.5718955992279,-190.41958858572639,-3952.2272324626165,-2197.3006963955572,-968.39093937345592,2416.6105291764611,5131.7513267962295,3831.5919685277986,-3278.9970292807739,3278.9970292807739,-3831.5919685277986,8892.7180928550351,0.0
683523.2936376977,3652751.2368613081,-42500.0,4266.9141555527158,-678.23698906373272,-3895.1901309768682,-1432.3886136091139,186.58449892922394,1050.6853067270004,4410.2240449136043,3701.7556709182895,-3447.5513550578366,3447.5513550578366,-3701.7556709182895,7638.8839568132444,0.0
688523.2936376977,3652751.2368613081,-42500.0,3544.0922359794863,-1160.6895148731428,-3714.3681213789823,-671.71137611499728,994.06297852393038,60.636054110462958,3994.5006468653551,3408.3401049155536,-3545.5441478965004,3545.5441478965004,-3408.3401049155536,6920.6110793546377,0.0
693523.2936376977,3652751.2368613081,-42500.0,2750.279279114261,-1566.2509680629885,-3440.1344003094036,0.38452284641209045,1500.8459916875179,-609.63894464627242,3770.1773993271772,3001.2171711984588,-3542.5216663977958,3542.5216663977958,-3001.2171711984588,6551.9486459665886,0.0
698523.2936376977,3652751.2368613081,-42500.0,1962.3127395441043,-1864.5074089743634,-3110.2336296183812,546.15162845326734,1772.1356542567091,-1027.4896453748395,3620.3974415155144,2534.9230378146749,-3442.0554671099771,3442.0554671099771,-2534.9230378146749,6344.220716955514,0.0
703523.2936376977,3652751.2368613081,-42500.0,1232.5526098417592,-2052.618172544187,-2758.6340147436949,958.21611246505699,1872.5496121040785,-1256.9982865792194,3480.1348349452733,2055.5908460714454,-3264.3109073291398,3264.3109073291398,-2055.5908460714454,6172.9050446149276,0.0
708523.2936376977,3652751.2368613081,-42500.0,590.98518293864208,-2143.0606137873742,-2410.9665960893835,1246.5646540026114,1857.2729468948658,-1352.7771922649281,3325.8845637552613,1596.4927365969784,-3034.2772518703491,3034.2772518703491,-1596.4927365969784,5978.555914712615,0.0
713523.2936376977,3652751.2368613081,-42500.0,50.209349748391617,-2154.7614852034812,-2084.0259441790017,1429.4268959360681,1769.4001614833369,-1358.284868403819,3154.1851470216297,1178.3684947323568,-2775.2634684175969,2775.2634684175969,-1178.3684947323568,5743.1580077460367,0.0
718523.2936376977,3652751.2368613081,-42500.0,-389.1880924245616,-2107.6165453254275,-1787.1824069324366,1527.5017708091609,1640.4890076713764,-1306.3990161696508,2969.2120875714804,811.80173090127471,-2506.1080843364257,2506.1080843364257,-811.80173090127471,5469.2731111336161,0.0
723523.2936376977,3652751.2368613081,-42500.0,-734.02217923935063,-2019.6024283592792,-1524.3457763339582,1560.6617727500077,1492.4471150710249,-1220.9606021730947,2777.1384291559975,500.05562326473159,-2240.5779976397207,2240.5779976397207,-500.05562326473159,5167.4417342048828,0.0
728523.2936376977,3652751.2368613081,-42500.0,-995.02113656373638,-1905.5889250076602,-1295.7991416108111,1546.3292048208261,1339.7194491669868,-1118.586822158464,2583.8197622659632,241.61550283789131,-1987.8524984868895,1987.8524984868895,-241.61550283789131,4849.7756789753666,0.0
733523.2936376977,3652751.2368613081,-42500.0,-1184.4175695936897,-1777.1374734106521,-1099.6492926968829,1498.8956755040033,1191.2894551209638,-1010.3935237983239,2393.9875548252339,32.1781769775464,-1753.4167130735134,1753.4167130735134,-32.1781769775464,4527.134584344114,0.0
738523.2936376977,3652751.2368613081,-42500.0,-1314.4214406468379,-1642.7972305148046,-932.8646887759777,1429.7365129302098,1052.3149765670676,-903.46815958849641,2211.1026021752141,-133.92554160748534,-1540.0039522452253,1540.0039522452253,133.92554160748534,4208.153311812729,0.0
743523.2936376977,3652751.2368613081,-42500.0,-1396.3446450943327,-1508.6009734047632,-791.96307072476054,1347.5253671149519,925.37836775115852,-802.04841258277031,2037.4784458836637,-262.7859756633743,-1348.4242627254475,1348.4242627254475,262.7859756633743,3899.1490498827175,0.0
543523.2936376977,3657751.2368613081,-42500.0,-2446.5696859290692,1068.5026367261191,-365.05087196917424,-1563.6569635892108,605.93626402997313,-711.54957209364784,2008.6875307563257,-2058.7368731344941,1283.2579857276248,-1283.2579857276248,2058.7368731344941,3948.8197705580487,0.0
548523.2936376977,3657751.2368613081,-42500.0,-2576.4634820533247,1212.5208011918221,-442.32682376592697,-1738.2444941181463,714.87231737481886,-824.40371884843933,2213.6587369313625,-2175.1734801951548,1398.1757099416832,-1398.1757099416832,2175.1734801951548,4346.6477722876325,0.0
553523.2936376977,3657751.2368613081,-42500.0,-2697.6186813052736,1375.5225007368815,-538.92738839211563,-1930.4511584492955,844.99926751475175,-955.81876006760035,2442.4905935040506,-2283.8413403992135,1517.5686473324465,-1517.5686473324465,2283.8413403992135,4788.7356892635507,0.0
558523.2936376977,3657751.2368613081,-42500.0,-2803.0029026024235,1558.9236596445212,-659.95613780759891,-2140.3545497538803,1000.3941391152247,-1108.4140768398227,2697.7519375803108,-2377.9791615640434,1638.3686983728053,-1638.3686983728053,2377.9791615640434,5279.1234736717515,0.0
563523.2936376977,3657751.2368613081,-42500.0,-2883.1042881706467,1763.541819244318,-811.83151878817955,-2367.0723767307086,1185.7376220868523,-1284.8865825633143,2982.0729720192844,-2448.32794351659,1755.7285808293086,-1755.7285808293086,2448.32794351659,5821.6304577450301,0.0
568523.2936376977,3657751.2368613081,-42500.0,-2925.2172028889595,1989.0892723305965,-1002.5569210238218,-2608.2403872013283,1406.26187096179,-1487.8450942050802,3298.0183417442672,-2482.3860675639271,1862.2859657815741,-1862.2859657815741,2482.3860675639271,6419.5001655896922,0.0
573523.2936376977,3657751.2368613081,-42500.0,-2912.5700945750227,2233.3831391804979,-1241.9771625472677,-2859.2502204123139,1667.5664662261972,-1719.5435440926224,3647.8698823741224,-2463.4949725787887,1947.1622071213453,-1947.1622071213453,2463.4949725787887,7074.8428489611606,0.0
578523.2936376977,3657751.2368613081,-42500.0,-2823.3159416622707,2491.1370760750938,-1541.9442071433186,-3112.1309012467796,1975.1951341637919,-1981.4610673883635,4033.2658054025169,-2369.7662176542899,1994.6261081915288,-1994.6261081915288,2369.7662176542899,7787.7762936442523,0.0
583523.2936376977,3657751.2368613081,-42500.0,-2629.4809563448334,2752.1363736022645,-1916.2273823236521,-3353.8778602894349,2333.7712590108217,-2273.6119947939364,4454.5882563784235,-2172.9195301826549,1982.3558384184796,-1982.3558384184796,2172.9195301826549,8555.0726122007582,0.0
588523.2936376977,3657751.2368613081,-42500.0,-2296.2004215491734,2998.561593563104,-2379.8542732026513,-3563.967377713002,2745.3410238975171,-2593.3439094144883,4909.9535555646935,-1837.2933234037923,1879.316046245694,-1879.316046245694,1837.2933234037923,9368.0751669641377,0.0
593523.2936376977,3657751.2368613081,-42500.0,-1782.0406153466586,3201.2457982693804,-2947.3013640437071,-3710.7469493741032,3206.2978689652591,-2933.0828684367698,5393.5888797164789,-1319.6861543186985,1643.4937440281321,-1643.4937440281321,1319.6861543186985,10209.571849323958,0.0
598523.2936376977,3657751.2368613081,-42500.0,-1042.1777227440177,3314.9528179712656,-3628.5514016674565,-3746.6479972096686,3701.8725036990313,-3275.9588207143388,5893.4335491476331,-571.56471422730328,1220.3638353809806,-1220.3638353809806,571.56471422730328,11049.53141388591,0.0
603523.2936376977,3657751.2368613081,-42500.0,-37.746646518546612,3273.7340732641087,-4421.5528186486981,-3603.2186161386244,4196.771120160096,-3587.5125559676576,6388.1460278863933,453.28873573097815,544.31002420368054,-544.31002420368054,-453.28873573097815,11840.495340258267,0.0
608523.2936376977,3657751.2368613081,-42500.0,1243.7026320418822,2989.7898971020895,-5299.4656599120826,-3189.8495317114362,4620.7644413476737,-3801.4109243182538,6844.8539362216306,1780.5666326468199,-452.30392420569524,452.30392420569524,-1780.5666326468199,12516.051218363846,0.0
613523.2936376977,3657751.2368613081,-42500.0,2752.5169867164141,2363.5817177029926,-6192.4770359989361,-2405.6114129278212,4850.5576407342469,-3799.4021931050688,7221.654065347022,3380.8494657645451,-1814.6451280838819,1814.6451280838819,-3380.8494657645451,13001.456372328837,0.0
618523.2936376977,3657751.2368613081,-42500.0,4331.1305831442469,1317.6946730716227,-6969.277832013122,-1179.9032091849854,4697.1275900786623,-3394.7915775045553,7483.4266312556756,5119.0134756345142,-3517.597339386266,3517.597339386266,-5119.0134756345142,13253.585291482852,0.0
623523.2936376977,3657751.2368613081,-42500.0,5687.7972186985717,-135.65147014791324,-7434.6120641760535,445.93023059889447,3922.5165364776617,-2347.2861019985298,7643.1582597936558,6709.9040599583586,-5398.8214871823566,5398.8214871823566,-6709.9040599583586,13346.561752533884,0.0
628523.2936376977,3657751.2368613081,-42500.0,6450.8601211020532,-1809.3510129674619,-7371.442736700461,2218.3317524406675,2321.7940874188698,-452.93120318155565,7826.3453246004974,7739.2971753445854,-7111.7107226482804,7111.7107226482804,-7739.2971753445854,13566.448330344592,0.0
633523.2936376977,3657751.2368613081,-42500.0,6351.7488930061891,-3308.525949292462,-6646.690920385382,3645.1557793012757,-118.94941033143778,2277.0405959894133,8271.094127067292,7819.5292027366104,-8179.7088649956131,8179.7088649956131,-7819.5292027366104,14329.717214810651,0.0
638523.2936376977,3657751.2368613081,-42500.0,5461.6068203086643,-4149.0822799425432,-5340.4164849041008,4165.4877976302723,-3069.7889449857712,5448.666971620305,9090.8724643520472,6853.1602145367078,-8209.3662421906156,8209.3662421906156,-6853.1602145367078,15764.308673488878,0.0
643523.2936376977,3657751.2368613081,-42500.0,4249.3338661862444,-4025.4874328684941,-3783.2261545075085,3491.2342730193791,-5879.9049560295325,8333.529579015094,10032.077528576494,5195.8598002096951,-7162.6966928148704,7162.6966928148704,-5195.8598002096951,17404.277251468353,0.0
648523.2936376977,3657751.2368613081,-42500.0,3314.2307712111779,-3027.8217050544326,-2418.5233066061651,1843.2879965640811,-7854.3765263843097,10206.992872138686,10666.259526845326,3497.7012432537931,-5439.7628670146614,5439.7628670146614,-3497.7012432537931,18511.053058659552,0.0
653523.2936376977,3657751.2368613081,-42500.0,3004.3542151940906,-1591.7439755725138,-1574.9303169467726,-173.19991565182991,-8598.8087261566488,10726.350096608843,10706.844207845956,2315.9758968491283,-3653.9689693995383,3653.9689693995383,-2315.9758968491283,18586.816815330458,0.0
658523.2936376977,3657751.2368613081,-42500.0,3272.1338028847063,-229.89625551410538,-1332.6945837710164,-1935.7784063289882,-8154.3799607692999,10028.806562754791,10122.036487072557,1847.290009645259,-2297.8048271376988,2297.8048271376988,-1847.290009645259,17574.196948720819,0.0
663523.2936376977,3657751.2368613081,-42500.0,3823.5640031124899,711.12681852908213,-1557.6755675126938,-3080.8622028226814,-6870.7177698323294,8538.6990747927248,9073.0200655271656,1953.7675152332677,-1567.5766154833891,1567.5766154833891,-1953.7675152332677,15753.603946453879,0.0
668523.2936376977,3657751.2368613081,-42500.0,4345.228257749749,1123.3072852158441,-2024.6603273902247,-3542.382458690347,-5183.8169781728666,6713.7996931696371,7797.169549609418,2353.8306761966392,-1400.3955722178598,1400.3955722178598,-2353.8306761966392,13539.56797659738,0.0
673523.2936376977,3657751.2368613081,-42500.0,4635.8237720988745,1076.4134434904104,-2526.5523234406946,-3444.022966151424,-3456.1344948821334,4897.8451428326371,6516.7999718550182,2789.4211914196503,-1606.0112235521235,1606.0112235521235,-2789.4211914196503,11319.870112028686,0.0
678523.2936376977,3657751.2368613081,-42500.0,4625.3153310206353,720.55764950237381,-2926.7839074728267,-2976.6016264824802,-1918.0707093147853,3290.0712520621701,5394.6194821444178,3098.7389939352324,-1981.7786559743527,1981.7786559743527,-3098.7389939352324,9375.9400228158302,0.0
683523.2936376977,3657751.2368613081,-42500.0,4337.4271636087096,211.62456327366735,-3163.9346397778168,-2320.282847641296,-677.50426409049112,1974.513144842231,4522.3645117875794,3216.92498570609,-2372.6829527395489,2372.6829527395489,-3216.92498570609,7860.7408703269111,0.0
688523.2936376977,3657751.2368613081,-42500.0,3843.0542406377049,-327.01669159524198,-3232.6552610691269,-1612.2792916803903,244.44634372328423,961.85108874382649,3920.0593976063465,3146.7272002376276,-2686.0774917014842,2686.0774917014842,-3146.7272002376276,6802.8564129043134,0.0
693523.2936376977,3657751.2368613081,-42500.0,3225.1281745439073,-815.1406877394536,-3159.6118826177653,-942.16779777378338,876.73868941267631,223.510797721545,3538.8110623538623,2926.4371692534287,-2882.3683766752338,2882.3683766752338,-2926.4371692534287,6129.6395865292398,0.0
698523.2936376977,3657751.2368613081,-42500.0,2558.2326605650192,-1211.1193868193047,-2983.8645084385166,-359.43960350493649,1270.58892342019,-285.69515893389024,3293.5445705935917,2605.9465705711218,-2957.9385397587521,2957.9385397587521,-2605.9465705711218,5715.9996313810016,0.0
703523.2936376977,3657751.2368613081,-42500.0,1899.7917050505039,-1501.647263581099,-2744.3403952378476,115.5602431069598,1481.8244200864397,-614.22652166013745,3112.2467732768596,2232.5074081077992,-2929.0598663699575,2929.0598663699575,-2232.5074081077992,5441.0591542181664,0.0
708523.2936376977,3657751.2368613081,-42500.0,1288.5570151899326,-1691.1788215356175,-2473.5773871805218,481.39375047501352,1561.4091962782525,-806.79313629845831,2953.3541937310329,1844.1524508353932,-2820.0544810032952,2820.0544810032952,-1844.1524508353932,5220.2137802778725,0.0
713523.2936376977,3657751.2368613081,-42500.0,746.89672240803691,-1793.4595038389866,-2195.7578297020304,747.45271257496881,1551.4752664775631,-901.2772817939142,2798.182099822332,1468.0246775636933,-2655.9669652368575,2655.9669652368575,-1468.0246775636933,5007.2408351166705,0.0
718523.2936376977,3657751.2368613081,-42500.0,284.52848873758904,-1825.6940523997284,-1927.1330227759183,928.24257421958714,1484.5882242770494,-927.96300182732864,2640.6177663770081,1121.3188325022115,-2458.779860737407,2458.779860737407,-1121.3188325022115,4782.9224569454773,0.0
723523.2936376977,3657751.2368613081,-42500.0,-97.660681168037385,-1805.0207525506564,-1677.4776608675729,1039.6952650193091,1384.6444334997859,-910.00085450726351,2480.4429669310603,813.28533253741375,-2245.9755898703042,2245.9755898703042,-813.28533253741375,4543.2684878649379,0.0
728523.2936376977,3657751.2368613081,-42500.0,-404.35109446221799,-1746.6808152067576,-1451.7678306459909,1097.0201094893432,1268.4038370041153,-864.43352768545412,2319.7471178230235,547.4057946606473,-2030.4452301108586,2030.4452301108586,-547.4057946606473,4291.4386256478911,0.0
733523.2936376977,3657751.2368613081,-42500.0,-643.29141906525979,-1663.2931871744195,-1251.6889270513079,1113.622010311449,1147.109298259885,-803.38233011377361,2161.1660131379999,323.31050296002741,-1821.0505718783866,1821.0505718783866,-323.31050296002741,4033.1193346721793,0.0
738523.2936376977,3657751.2368613081,-42500.0,-823.53686446970562,-1564.77630465927,-1076.8327208038318,1100.7020963641473,1027.9324136740238,-735.17692529446867,2007.0972871575282,138.28880496827514,-1623.4171154690403,1623.4171154690403,-138.28880496827514,3774.1876719476836,0.0
743523.2936376977,3657751.2368613081,-42500.0,-954.3005058407565,-1458.6016728455775,-925.5738006444592,1067.2589654694802,915.15268912924421,-665.32870468133171,1859.4132125933158,-11.611640145747401,-1440.7293261270547,1440.7293261270547,11.611640145747401,3519.6908485241975,0.0
543523.2936376977,3662751.2368613081,-42500.0,-2168.6215090042915,1166.5767390742947,-493.82991787182527,-1420.1121494427255,666.17113349384192,-655.05316172382072,1902.5056376521577,-1756.8282937000886,1198.5039168378762,-1198.5039168378762,1756.8282937000886,3745.0121265119187,0.0
548523.2936376977,3662751.2368613081,-42500.0,-2252.4527421685889,1311.3720615056429,-591.798385731949,-1563.7331191882681,779.63476920307357,-753.11089717654852,2086.8769914199447,-1821.9714069031177,1287.5572023671687,-1287.5572023671687,1821.9714069031177,4102.959330569196,0.0
553523.2936376977,3662751.2368613081,-42500.0,-2320.070863379804,1472.0660271345068,-712.11167643144495,-1717.8074527454853,913.3920407576768,-865.53290382741079,2290.6732250980713,-1870.5856063758588,1374.394305661036,-1374.394305661036,1870.5856063758588,4496.5268048857461,0.0
558523.2936376977,3662751.2368613081,-42500.0,-2363.6107651341176,1648.6725899987177,-859.99867298185552,-1880.7308873327324,1070.7202224003968,-993.6792912464033,2515.4156153461236,-1894.7576521575161,1454.3926414879684,-1454.3926414879684,1894.7576521575161,4927.7633222355489,0.0
563523.2936376977,3662751.2368613081,-42500.0,-2372.913906323,1840.1296521508941,-1041.7764489724766,-2049.5870436907767,1255.0970956390804,-1138.5950294950924,2762.4309391536099,-1884.1907006828956,1520.8999793991916,-1520.8999793991916,1884.1907006828956,5398.0441500982606,0.0
568523.2936376977,3662751.2368613081,-42500.0,-2335.0513115901394,2043.6717105307846,-1264.9420042641984,-2219.5979152305285,1469.9723411289763,-1300.7180006728574,3032.675704321483,-1825.6863588019871,1564.5483564425301,-1564.5483564425301,1825.6863588019871,5907.640186489024,0.0
573523.2936376977,3662751.2368613081,-42500.0,-2233.848516035358,2253.9251739745291,-1538.1507727352039,-2383.3826652660341,1718.3415329861025,-1479.4459343366075,3326.4800317975332,-1702.6207266152321,1572.3987834173347,-1572.3987834173347,1702.6207266152321,6455.1103910416859,0.0
578523.2936376977,3662751.2368613081,-42500.0,-2049.5184913060771,2461.6299917405872,-1870.9569723268821,-2529.9672891420773,2001.9972221671153,-1672.5006372767998,3643.1788036763442,-1494.5201068777951,1526.9265588587359,-1526.9265588587359,1494.5201068777951,7036.4589483212949,0.0
583523.2936376977,3662751.2368613081,-42500.0,-1758.6213830685347,2651.8861723511991,-2273.0977272163905,-2643.4768580022132,2320.2561637657868,-1874.9835524041971,3980.5854601612182,-1176.950002135211,1404.9225457413872,-1404.9225457413872,1176.950002135211,7643.9869823178633,0.0
588523.2936376977,3662751.2368613081,-42500.0,-1334.7978796676803,2801.8700794430065,-2752.9578152843455,-2701.4710540789338,2667.8498998591731,-2077.9368591723737,4334.2718832379687,-722.14746759781542,1176.5418659721724,-1176.5418659721724,722.14746759781542,8264.8096092630985,0.0
593523.2936376977,3662751.2368613081,-42500.0,-751.11397048130209,2878.1383726682575,-3314.6407891680169,-2673.0081034212253,3031.5089326816378,-2266.073064524694,4696.6601883470776,-101.20368259286232,805.05375163924464,-805.05375163924464,101.20368259286232,8879.1458038645778,0.0
598523.2936376977,3662751.2368613081,-42500.0,14.534800318380434,2834.1281768627864,-3952.8519128499815,-2516.9406520990851,3384.6410616606772,-2414.1363797332983,5056.1286681108668,710.78237724263533,248.47819103686925,-248.47819103686925,-710.78237724263533,9458.9812833261713,0.0
603523.2936376977,3662751.2368613081,-42500.0,968.86422970048579,2609.5331237876007,-4644.7395775018576,-2181.9505889193201,3679.6009098537693,-2481.2502765438276,5396.8228433094764,1724.4055384604073,-534.65797822259788,534.65797822259788,-1724.4055384604073,9968.869792517964,0.0
608523.2936376977,3662751.2368613081,-42500.0,2085.4776769451482,2135.1930351133242,-5338.4987841086249,-1611.7992397295711,3837.9890120015721,-2403.1615581152987,5700.9489873195816,2918.0530437286097,-1571.898874675976,1571.898874675976,-2918.0530437286097,10373.093746874916,0.0
613523.2936376977,3662751.2368613081,-42500.0,3280.7970731701839,1349.6161500039741,-5940.9499331878587,-761.9028020033744,3742.3159981381491,-2084.7232858695675,5957.0498066487617,4211.9576780173174,-2851.8239596995854,2851.8239596995854,-4211.9576780173174,10656.951780407666,0.0
618523.2936376977,3662751.2368613081,-42500.0,4393.1029206430039,233.85425628426424,-6311.7368155482982,365.93238078763034,3238.3887230174,-1400.7650723723373,6178.9204182920457,5441.4098170464385,-4287.2099398965638,4287.2099398965638,-5441.4098170464385,10870.480178249842,0.0
623523.2936376977,3662751.2368613081,-42500.0,5188.9488099971413,-1136.0415803566973,-6279.420007454567,1671.805347564107,2165.2890499144814,-221.51766642987079,6434.3321455678897,6351.6696181976486,-5679.1436688148742,5679.1436688148742,-6351.6696181976486,11183.443413630903,0.0
628523.2936376977,3662751.2368613081,-42500.0,5430.1393025350026,-2542.3385043934973,-5696.9215793631274,2914.6061342692969,429.05626967110305,1520.8489134009992,6855.8591513858128,6651.4739285598025,-6717.0408313758417,6717.0408313758417,-6651.4739285598025,11875.295064346321,0.0
633523.2936376977,3662751.2368613081,-42500.0,5007.3462945878582,-3637.9390304418707,-4534.3329891121393,3734.2989563087463,-1891.0267039652515,3734.4844251487721,7564.2276477509895,6145.9692897195291,-7060.7092769994724,7060.7092769994724,-6145.9692897195291,13144.782021747453,0.0
638523.2936376977,3662751.2368613081,-42500.0,4067.5696455938728,-4066.2345365901533,-2959.90381509585,3787.3770580873411,-4470.2713054463411,6104.5375232932574,8507.5831822866621,4895.7660238928065,-6508.519844147816,6508.519844147816,-4895.7660238928065,14847.046863576377,0.0
643523.2936376977,3662751.2368613081,-42500.0,3002.4303998921037,-3653.4814674692011,-1326.3934271497153,2948.322519678678,-6795.3873865665128,8156.1304767268812,9426.6261524533493,3265.702591834865,-5155.418610589817,5155.418610589817,-3265.702591834865,16500.37171210513,0.0
648523.2936376977,3662751.2368613081,-42500.0,2249.6257856986845,-2532.6167120197865,-31.314581999171555,1420.0698100012521,-8365.7009804432073,9451.2886331577847,10018.931155024791,1770.1957660542016,-3393.8470272321051,3393.8470272321051,-1770.1957660542016,17571.007254599474,0.0
653523.2936376977,3662751.2368613081,-42500.0,2051.7409632873732,-1081.2596655168513,662.98293713450755,-360.35155614099199,-8911.5231822756559,9786.4951094625721,10101.688027653905,810.66215783078985,-1725.5339928338612,1725.5339928338612,-810.66215783078985,17738.078697180485,0.0
658523.2936376977,3662751.2368613081,-42500.0,2367.9193072167004,276.40994895344949,719.62539882998476,-1944.9443807184377,-8473.4541042962919,9243.6182798277059,9661.827322525849,511.47992381700618,-528.61467261625694,528.61467261625694,-511.47992381700618,16979.43428349711,0.0
663523.2936376977,3662751.2368613081,-42500.0,2968.7741187101255,1246.2398060841708,287.22683034498255,-3049.8992816438508,-7317.5337080386853,8089.3571051688468,8816.4406861272928,745.97937184710429,57.084747023740078,-57.084747023740078,-745.97937184710429,15503.098011536425,0.0
668523.2936376977,3662751.2368613081,-42500.0,3592.0658075914112,1723.5539946117697,-407.07596902401286,-3595.4647558519141,-5784.7384453232744,6631.7232743271752,7740.3410941218144,1271.8068826061015,98.61157789656977,-98.61157789656977,-1271.8068826061015,13618.82101422614,0.0
673523.2936376977,3662751.2368613081,-42500.0,4047.3758318833261,1754.2139856768165,-1152.4522931083281,-3649.0941334970389,-4173.729557586923,5123.5281138019309,6605.050035433087,1856.7305714339323,-230.40566326390274,230.40566326390274,-1856.7305714339323,11628.914073689391,0.0
678523.2936376977,3662751.2368613081,-42500.0,4245.2943225083827,1461.4533097582305,-1802.5791354959165,-3345.8176668294082,-2689.3540203560437,3730.0977554251199,5545.6186375999405,2341.7338283560975,-741.41841176150592,741.41841176150592,-2341.7338283560975,9768.0733654225969,0.0
683523.2936376977,3662751.2368613081,-42500.0,4179.4227066676149,984.04406549268276,-2282.7447429752569,-2828.7956824410103,-1441.1632617086507,2537.231323134753,4650.2865110128805,2649.6053415012366,-1283.1410954635676,1283.1410954635676,-2649.6053415012366,8184.5233722437561,0.0
688523.2936376977,3662751.2368613081,-42500.0,3893.6499724501336,440.28314361632215,-2574.8925902543911,-2218.2079032885595,-465.33973634590296,1573.324693238598,3959.3985099013885,2766.2115889261804,-1757.953231692187,1757.953231692187,-2766.2115889261804,6943.2945577679411,0.0
693523.2936376977,3662751.2368613081,-42500.0,3452.914114422555,-85.653844281910253,-2696.5211678894639,-1601.0226388275607,248.76316097515502,831.24998718975507,3465.1393504619182,2715.4651911166275,-2117.1920222473891,2117.1920222473891,-2715.4651911166275,6038.5762186956808,0.0
698523.2936376977,3662751.2368613081,-42500.0,2923.321741869478,-543.48233462671681,-2682.1395595760164,-1032.2831614078641,736.33311790389621,285.10883097210177,3122.4998367000721,2538.2523057782419,-2348.0821285487573,2348.0821285487573,-2538.2523057782419,5413.1753610905989,0.0
703523.2936376977,3662751.2368613081,-42500.0,2361.3005399287827,-910.11873498937757,-2570.3202152829135,-541.26561361722497,1041.5192817340373,-98.490026859230284,2876.8671477509579,2278.2550024376328,-2459.9372922433554,2459.9372922433554,-2278.2550024376328,4985.8639837553746,0.0
708523.2936376977,3662751.2368613081,-42500.0,1809.397544083607,-1181.3412033354566,-2396.255192627631,-138.73400786272958,1208.0093462528819,-353.55110695894859,2685.412639072626,1974.0978739211923,-2473.0459666911065,2473.0459666911065,-1974.0978739211923,4678.8410026459142,0.0
713523.2936376977,3662751.2368613081,-42500.0,1296.1855767468437,-1364.3027034544996,-2188.4641633431029,176.52870804549198,1274.2137069965725,-510.95921783902924,2521.4532357201788,1656.0874659229748,-2411.0781736490662,2411.0781736490662,-1656.0874659229748,4433.9151941027731,0.0
718523.2936376977,3662751.2368613081,-42500.0,838.2719478725719,-1471.8363115134484,-1968.1254758366531,412.59159170983293,1271.4675121746291,-596.83431157712619,2370.6583495209497,1345.7855228150138,-2296.6066830102041,2296.6066830102041,-1345.7855228150138,4215.1404150169155,0.0
723523.2936376977,3662751.2368613081,-42500.0,443.05738023810989,-1518.6192716974842,-1749.7918318053787,580.72380487701878,1223.9815612730752,-632.16968177289323,2226.3854770311832,1057.0472953633512,-2148.9175672441397,2148.9175672441397,-1057.0472953633512,4003.950119908694,0.0
728523.2936376977,3662751.2368613081,-42500.0,111.46310478301497,-1518.8728139161908,-1542.6609467151491,693.01348589109909,1149.6606985982478,-633.18016140892939,2086.2466703170057,797.62146399915082,-1983.2960726956162,1983.2960726956162,-797.62146399915082,3792.8582560361469,0.0
733523.2936376977,3662751.2368613081,-42500.0,-159.75207142181623,-1485.174260813583,-1351.920562512759,760.96202076971269,1061.2410454593121,-611.97932594075439,1949.9626531961412,570.78973990248551,-1811.14783159744,1811.14783159744,-570.78973990248551,3580.4691219229585,0.0
738523.2936376977,3662751.2368613081,-42500.0,-376.20246054528576,-1427.996696275681,-1179.9366381398365,794.76387399577902,967.44074806332628,-577.35056828660379,1818.1371327183626,376.79576810737683,-1640.519342683881,1640.519342683881,-376.79576810737683,3368.2453775698164,0.0
543523.2936376977,3667751.2368613081,-42500.0,-1876.2496399103168,1220.4631047000701,-618.1669247893185,-1267.2784331841231,704.72475758647442,-594.44272660533966,1786.4020543572747,-1447.5615097917139,1080.3804709071933,-1080.3804709071933,1447.5615097917139,3519.8959306548022,0.0
548523.2936376977,3667751.2368613081,-42500.0,-1915.8319314660007,1357.7264315552227,-733.30995640524793,-1379.9364249964744,817.63115573057382,-677.38220716837577,1949.7737436309328,-1464.7817336903345,1140.0035331109507,-1140.0035331109507,1464.7817336903345,3836.1596483352596,0.0
553523.2936376977,3667751.2368613081,-42500.0,-1933.2174082557358,1506.3510581758776,-872.36573230860495,-1496.5184674992556,948.72054441354953,-770.67017395544224,2128.4345412834973,-1458.6618138722122,1190.911790104419,-1190.911790104419,1458.6618138722122,4179.6922476113805,0.0
558523.2936376977,3667751.2368613081,-42500.0,-1920.3316010086055,1664.8182979279231,-1040.1666669827812,-1614.1278872955518,1100.2142543437221,-874.57564985928752,2323.0449618267867,-1420.9216442209311,1227.3225915025916,-1227.3225915025916,1420.9216442209311,4550.8635141111708,0.0
563523.2936376977,3667751.2368613081,-42500.0,-1867.2000465972619,1830.1374573230446,-1242.24201299775,-1728.394629760727,1274.1107703297837,-988.76669006788961,2533.917940394851,-1341.281867126683,1241.4003770923039,-1241.4003770923039,1341.281867126683,4949.0970706117705,0.0
568523.2936376977,3667751.2368613081,-42500.0,-1761.7498408542344,1997.1790683631868,-1484.6977934315671,-1832.9821854057534,1471.8116803850644,-1111.9551615880434,2760.8479140317404,-1207.2391244077287,1222.7213054351212,-1222.7213054351212,1207.2391244077287,5372.4572267083804,0.0
573523.2936376977,3667751.2368613081,-42500.0,-1589.7539585051306,2157.7843513280832,-1773.8942662701731,-1918.9808324078526,1693.5173971905594,-1241.3975340406764,3002.8915615494434,-1003.9894726256721,1157.6958038629814,-1157.6958038629814,1003.9894726256721,5817.1274749947515,0.0
578523.2936376977,3667751.2368613081,-42500.0,-1335.0724547694749,2299.6172327405852,-2115.7749971514208,-1974.1895482483924,1937.2776670938795,-1372.202445217531,3258.0981342056325,-714.6635400048151,1029.0339800432721,-1029.0339800432721,714.6635400048151,6276.7836719760362,0.0
583523.2936376977,3667751.2368613081,-42500.0,-980.45520012878649,2404.771078878628,-2514.6233679957531,-1982.3269864966464,2197.5382226259694,-1496.3789998624507,3523.209398375308,-321.15230486170128,815.440513451534,-815.440513451534,321.15230486170128,6741.9204128460087,0.0
588523.2936376977,3667751.2368613081,-42500.0,-509.33748956773786,2448.2561171738657,-2970.9244966085339,-1922.2914608838316,2462.9724566346972,-1601.5299230162279,3793.3929224406979,194.02651449795923,491.90134227276786,-491.90134227276786,-194.02651449795923,7199.3024381235036,0.0
593523.2936376977,3667751.2368613081,-42500.0,90.710974960763664,2396.747503921863,-3477.9116433443505,-1767.775311026046,2713.3583755747459,-1669.0595208715083,4062.1771430957829,844.12923050246604,31.226106712268631,-31.226106712268631,-844.12923050246604,7631.9806250945858,0.0
598523.2936376977,3667751.2368613081,-42500.0,821.99836265559202,2208.4955239392571,-4016.3944243392948,-1487.9325246386445,2915.3545500737469,-1671.7807273246315,4322.002127700649,1631.9088224365237,-592.0350068604738,592.0350068604738,-1631.9088224365237,8020.9201242043655,0.0
603523.2936376977,3667751.2368613081,-42500.0,1667.369768520575,1836.1540066789287,-4547.7893582072747,-1050.4744408863196,3017.4213254488473,-1570.984447270393,4566.1995120008742,2539.6963426333728,-1393.6693310428209,1393.6693310428209,-2539.6963426333728,8350.3067527513467,0.0
608523.2936376977,3667751.2368613081,-42500.0,2577.703917511717,1235.4350527012557,-5006.4024867379021,-429.53093240474499,2945.2676882972487,-1313.7463940202315,4793.8044510162399,3515.7101459480214,-2366.077518820161,2366.077518820161,-3515.7101459480214,8620.039285860792,0.0
613523.2936376977,3667751.2368613081,-42500.0,3459.5252546008164,383.12319001698626,-5294.4716036464461,378.84222611917369,2601.5081396096484,-832.93791711172832,5018.6977197476863,4459.3208333630046,-3458.2857956438725,3458.2857956438725,-4459.3208333630046,8868.8184212905599,0.0
618523.2936376977,3667751.2368613081,-42500.0,4171.903724333325,-694.03487902472466,-5287.3529110508143,1332.4138154940906,1876.5898563121007,-55.205313316111017,5282.0623133789013,5213.9690835399651,-4554.001058184047,4554.001058184047,-5213.9690835399651,9203.0690060906454,0.0
623523.2936376977,3667751.2368613081,-42500.0,4548.154978508911,-1886.1086420935492,-4859.2689060767698,2315.9543480659786,680.02099216288593,1075.7822974041369,5657.9383646685446,5583.9984786324012,-5461.4427899577358,5461.4427899577358,-5583.9984786324012,9800.0689380234198,0.0
628523.2936376977,3667751.2368613081,-42500.0,4455.3119754022018,-2983.8184026062877,-3935.8339359633987,3131.3647662600583,-1004.8668495931042,2557.6732966443874,6227.8826687412911,5392.2874398854974,-5938.3924837668192,5938.3924837668192,-5392.2874398854974,10827.932584477592,0.0
633523.2936376977,3667751.2368613081,-42500.0,3879.8870625071031,-3711.9726988352645,-2560.5892175196545,3533.6820275487867,-3059.5473855136802,4282.6378562741866,7011.6066072749218,4574.574055507057,-5770.867848161839,5770.867848161839,-4574.574055507057,12292.895933353369,0.0
638523.2936376977,3667751.2368613081,-42500.0,2986.5841972365956,-3828.4177214629904,-934.16496779333499,3324.7817880130306,-5206.2325638517923,6021.2606457026031,7905.1326421309923,3262.0223231689311,-4887.3872702861081,4887.3872702861081,-3262.0223231689311,13961.632476322169,0.0
643523.2936376977,3667751.2368613081,-42500.0,2082.3812611756853,-3249.3995368555602,622.47352791643686,2464.786576185099,-7066.1494362823641,7473.3437532106318,8707.1943381965211,1775.7359315486688,-3438.4536075881756,3438.4536075881756,-1775.7359315486688,15451.7581274232,0.0
648523.2936376977,3667751.2368613081,-42500.0,1479.6955011502369,-2113.7806319848628,1783.9418063425521,1119.5384700209715,-8292.8092967577904,8376.7438899968711,9216.4979877200021,503.34847503453898,-1765.1260462822231,1765.1260462822231,-503.34847503453898,16402.432860356028,0.0
653523.2936376977,3667751.2368613081,-42500.0,1347.9426384791575,-728.05696358618718,2349.2537617856433,-403.38489954432913,-8703.5586891976163,8608.4594552488816,9314.6725494446218,-270.48278470447332,-258.97167707592581,258.97167707592581,270.48278470447332,16606.6809654973,0.0
658523.2936376977,3667751.2368613081,-42500.0,1658.5494356019103,570.41199590019687,2301.5174269277454,-1786.5008400392092,-8326.7479976549421,8212.4401734165349,8993.0517400071767,-463.75665007525834,793.27979273668632,-793.27979273668632,463.75665007525834,16053.28662975139,0.0
663523.2936376977,3667751.2368613081,-42500.0,2241.3193659352792,1537.1793376678886,1775.5659283086027,-2811.6995818452697,-7351.1745480355203,7350.4170717821653,8331.003640249095,-178.89759587845583,1285.8775975650676,-1285.8775975650676,178.89759587845583,14887.055172981029,0.0
668523.2936376977,3667751.2368613081,-42500.0,2886.7232746610571,2070.0897808304735,975.80423172461371,-3396.0231047803145,-6030.411633230392,6223.8652220891527,7452.6480202746934,387.86031637738347,1273.8494156673121,-1273.8494156673121,-387.86031637738347,13331.071350329137,0.0
673523.2936376977,3667751.2368613081,-42500.0,3425.3288959109282,2189.4722956241371,99.333522042408759,-3566.2670523583661,-4600.5769049187284,5013.2670153751769,6486.7642846005783,1037.7130702162733,902.31910276606004,-902.31910276606004,-1037.7130702162733,11614.531414478684,0.0
678523.2936376977,3667751.2368613081,-42500.0,3760.1149424388395,1987.6302094245241,-707.72947255022245,-3410.7622721503935,-3236.93670596218,3850.0123215015524,5541.8415273730934,1622.3833797679565,336.45991098728132,-336.45991098728132,-1622.3833797679565,9927.5656559460258,0.0
683523.2936376977,3667751.2368613081,-42500.0,3862.5401172751126,1580.36894113483,-1361.2288279820284,-3036.7450251371783,-2045.0439074643311,2813.5074672268802,4695.8619791452838,2058.2359007618697,-283.09711545410676,283.09711545410676,-2058.2359007618697,8403.1601245118145,0.0
688523.2936376977,3667751.2368613081,-42500.0,3752.2516153657039,1074.7241603345049,-1829.991342650309,-2543.3872567274416,-1071.4835633995685,1940.6752230726299,3993.9279586355624,2316.9484725162888,-858.1689782367298,858.1689782367298,-2316.9484725162888,7116.6262557495575,0.0
693523.2936376977,3667751.2368613081,-42500.0,3474.7996393329231,553.5249661954382,-2119.3761505641269,-2009.2593992618238,-321.31635610911843,1238.6722825115105,3447.6796012322211,2407.744134611517,-1332.9974860808284,1332.9974860808284,-2407.744134611517,6093.1150546185509,0.0
698523.2936376977,3667751.2368613081,-42500.0,3084.0465313273221,71.963485588225026,-2255.1577212973252,-1489.4545412404239,225.21538189118746,696.37531713749763,3039.4132711831285,2360.151491343202,-1685.5896647304953,1685.5896647304953,-2360.151491343202,5318.1705692281475,0.0
703523.2936376977,3667751.2368613081,-42500.0,2630.8593854821693,-339.18094344297197,-2271.1541023978712,-1017.9262645787433,599.73650547009402,293.17922281011136,2735.9640581234935,2210.9669403929188,-1916.825674670413,1916.825674670413,-2210.9669403929188,4750.5630714751096,0.0
708523.2936376977,3667751.2368613081,-42500.0,2157.2747666157725,-667.6741159712393,-2201.2428879364852,-611.96263403169928,837.02480938367592,5.0519746280222009,2504.0121286274934,1995.9858185765688,-2040.7243936108416,2040.7243936108416,-1995.9858185765688,4337.1569746004361,0.0
713523.2936376977,3667751.2368613081,-42500.0,1694.56768831623,-913.73938065889797,-2075.0759003842591,-276.98526713671112,969.8846685375853,-191.69598005684233,2317.6103303035143,1745.6845459780498,-2077.1386101971257,2077.1386101971257,-1745.6845459780498,4026.7371358333794,0.0
718523.2936376977,3667751.2368613081,-42500.0,1263.6942800778727,-1084.9263836345092,-1916.3985335353918,-10.763592843362277,1026.6334634161269,-318.35054854637343,2159.163762192336,1483.6569558674387,-2046.9580926636336,2046.9580926636336,-1483.6569558674387,3778.6609924387603,0.0
723523.2936376977,3667751.2368613081,-42500.0,876.91976927183669,-1192.3071232602081,-1742.9522722993772,193.29369287029053,1030.2824257980274,-392.9033197740186,2017.8227026080156,1226.7103897451748,-1969.3682405485556,1969.3682405485556,-1226.7103897451748,3565.210792830328,0.0
728523.2936376977,3667751.2368613081,-42500.0,539.83311780894587,-1247.9365089031144,-1567.1878796152375,343.789614038293,998.69539739570257,-429.89586026211828,1887.4332208678848,985.7977068050327,-1860.5749632313964,1860.5749632313964,-985.7977068050327,3369.7864076452211,0.0
733523.2936376977,3667751.2368613081,-42500.0,253.28558483730558,-1263.3299708624399,-1397.2828659483164,449.79685020994066,945.22719717162465,-440.6749338991537,1764.8099677998875,767.24537411017343,-1733.4619330132637,1733.4619330132637,-767.24537411017343,3183.6851135138349,0.0
738523.2936376977,3667751.2368613081,-42500.0,15.031888552858977,-1248.6746330940427,-1238.1740172646009,519.93658354705747,879.53029032797338,-433.83862998243563,1648.4971117027883,573.96767151583879,-1597.7736757372036,1597.7736757372036,-573.96767151583879,3003.126764815755,0.0
548523.2936376977,3672751.2368613081,-42500.0,-1581.4542088571973,1356.1288152761326,-858.59817734569526,-1194.4620099765493,830.62221668545351,-600.21046485438501,1808.3144888010445,-1119.1111429379596,967.93810407103206,-967.93810407103206,1119.1111429379596,3555.7469735562759,0.0
553523.2936376977,3672751.2368613081,-42500.0,-1554.706919455039,1485.196290050422,-1010.0399002726346,-1276.0714230469744,953.83393641895577,-675.11951002573755,1963.0386460083839,-1066.467616466522,982.88437238535664,-982.88437238535664,1066.467616466522,3850.0844594749874,0.0
558523.2936376977,3672751.2368613081,-42500.0,-1493.9639203603381,1617.3470569714045,-1189.3637159510313,-1352.3361274693114,1093.3361694185121,-756.15181282323374,2129.4348554013832,-978.09390475876251,977.09107230414509,-977.09107230414509,978.09390475876251,4163.2241980125909,0.0
563523.2936376977,3672751.2368613081,-42500.0,-1390.1783518940183,1747.9211750485742,-1400.7607101722267,-1418.061998110245,1249.603244642007,-841.93811761298457,2307.1415522523585,-844.66103711616779,942.29918602842804,-942.29918602842804,844.66103711616779,4493.2605774020367,0.0
568523.2936376977,3672751.2368613081,-42500.0,-1233.0086338910344,1869.9262140156275,-1648.3132051048642,-1466.2200330765124,1422.0481362106793,-929.97511851743059,2495.2838682712168,-655.48434240050597,868.07920014620072,-868.07920014620072,655.48434240050597,4836.9511886466616,0.0
573523.2936376977,3672751.2368613081,-42500.0,-1011.1304907164729,1973.2847391568207,-1935.4175668605851,-1487.5393573865133,1608.3332447343082,-1016.1424220944137,2692.3443213427508,-398.85645639647083,741.5977536426094,-741.5977536426094,398.85645639647083,5189.3915576130894,0.0
578523.2936376977,3672751.2368613081,-42500.0,-712.9486032581774,2043.9783760200844,-2263.8138937716726,-1470.1205238277166,1803.3726863119184,-1094.0727060911374,2896.0576623578386,-62.815737882856183,547.60357624633752,-547.60357624633752,62.815737882856183,5543.7470716544367,0.0
583523.2936376977,3672751.2368613081,-42500.0,-327.94612020815833,2063.1972369061859,-2632.0409768824943,-1399.1744390103304,1997.9313259690675,-1154.3533870367251,3103.3965262716797,363.38818569752175,268.87061214471862,-268.87061214471862,-363.38818569752175,5891.2041166080244,0.0
588523.2936376977,3672751.2368613081,-42500.0,151.00707223461913,2006.7473553426264,-3033.1047575915509,-1257.0864247766344,2176.7349697110317,-1183.5490343592887,3310.7779281529843,886.77817132712335,-112.51639328893117,112.51639328893117,-886.77817132712335,6221.4677791980293,0.0
593523.2936376977,3672751.2368613081,-42500.0,724.00710884775515,1845.2204178253166,-3451.1713467830218,-1024.1639911956147,2316.068994639204,-1163.0656869211414,3514.7242902401131,1506.6569907958119,-612.44978368282773,612.44978368282773,-1506.6569907958119,6524.4211060632697,0.0
598523.2936376977,3672751.2368613081,-42500.0,1378.8240875918555,1545.837606257056,-3857.3009715995472,-680.68989525612039,2381.0559660861163,-1067.9814344321185,3713.3890264826177,2208.7726618910092,-1239.8779338039515,1239.8779338039515,-2208.7726618910092,6794.0579660046642,0.0
603523.2936376977,3672751.2368613081,-42500.0,2084.1083952785066,1077.3681244857548,-4204.7598425492406,-211.21352948341115,2323.2624770487309,-866.20085064172952,3909.4805825835228,2957.6967770769133,-1988.8712402925594,1988.8712402925594,-2957.6967770769133,7036.2438527069316,0.0
608523.2936376977,3672751.2368613081,-42500.0,2782.4449968371009,419.87842145365909,-4425.6091766719328,387.77232999155439,2080.2210427047812,-518.82341134065496,4114.9838422793255,3688.6720527989701,-2827.4423350579282,2827.4423350579282,-3688.6720527989701,7281.5280751568971,0.0
613523.2936376977,3672751.2368613081,-42500.0,3386.9266308718711,-419.52897894376451,-4432.0679612694266,1096.1160669175613,1579.8121175122467,16.520572309456146,4356.7762249843727,4302.5758397294512,-3684.7689723733124,3684.7689723733124,-4302.5758397294512,7600.195435329947,0.0
618523.2936376977,3672751.2368613081,-42500.0,3787.9260173714224,-1386.6377920958098,-4128.0645875835853,1855.7872948484603,753.69895739317678,776.70607220654551,4678.8071590735199,4671.0194639267002,-4442.3250603720981,4442.3250603720981,-4671.0194639267002,8105.4230565844591,0.0
623523.2936376977,3672751.2368613081,-42500.0,3877.858128013961,-2363.495534010779,-3436.1193104416229,2560.427662602031,-436.84290861987319,1776.2367072324189,5132.0622639812818,4660.5802707013181,-4939.4526813737475,4939.4526813737475,-4660.5802707013181,8918.4115713117917,0.0
628523.2936376977,3672751.2368613081,-42500.0,3595.7728112716095,-3170.6031367858686,-2338.5926525133045,3060.6710137698669,-1965.292934471684,2984.0615748142968,5746.0123041131437,4180.4278699328779,-5005.6742107539239,5005.6742107539239,-4180.4278699328779,10090.053960736052,0.0
633523.2936376977,3672751.2368613081,-42500.0,2977.0638717933334,-3604.322986529935,-918.61614426034771,3197.4704506742355,-3708.9735150334318,4303.9843616891249,6492.5264214832796,3241.2408744941263,-4522.5109518260379,4522.5109518260379,-3241.2408744941263,11533.457263002794,0.0
638523.2936376977,3672751.2368613081,-42500.0,2174.7909636364748,-3509.6520999754121,627.75253087118938,2861.877451382823,-5447.925959385836,5576.0442737671192,7271.7892224092629,1991.3956937181356,-3493.5305314727802,3493.5305314727802,-1991.3956937181356,13030.249981796425,0.0
643523.2936376977,3672751.2368613081,-42500.0,1421.5248812734803,-2857.0673970849034,2032.5048956689984,2054.4044459933784,-6912.1695220114771,6611.4310753069449,7940.2463134667341,692.35468939683892,-2078.3828647501878,2078.3828647501878,-692.35468939683892,14304.614347838853,0.0
648523.2936376977,3672751.2368613081,-42500.0,938.59106143683789,-1773.1432061518335,3042.3339528977344,903.51039050715667,-7865.8035974510485,7251.6560266949173,8364.362590000399,-370.850265489099,-555.06341646591181,555.06341646591181,370.850265489099,15115.990213406507,0.0
653523.2936376977,3672751.2368613081,-42500.0,845.29014229495704,-497.83445168093914,3506.1153625697425,-375.80148236369081,-8184.6828829027772,7420.575445830721,8465.3495013136289,-996.68812816249294,778.09251779223757,-778.09251779223757,996.68812816249294,15328.176084483126,0.0
658523.2936376977,3672751.2368613081,-42500.0,1124.031329709029,706.77813699325884,3414.2915423583804,-1559.460995950607,-7885.0466703261645,7140.1775887507956,8235.1983749298015,-1128.2107224038539,1704.1006552891829,-1704.1006552891829,1128.2107224038539,14932.414808710562,0.0
663523.2936376977,3672751.2368613081,-42500.0,1652.4325691761269,1641.3612082705556,2876.7022536391892,-2482.1271534045604,-7095.3794222019287,6507.330611917072,7725.6125173869859,-842.30020759858758,2138.7889055002142,-2138.7889055002142,842.30020759858758,14025.814046638747,0.0
668523.2936376977,3672751.2368613081,-42500.0,2268.6674209952375,2209.2619565004893,2064.1838545397554,-3066.0690036110104,-5998.0069301564117,5652.126436166418,7022.6967469617775,-291.26106997552756,2120.4006405942346,-2120.4006405942346,291.26106997552756,12765.366590400699,0.0
673523.2936376977,3672751.2368613081,-42500.0,2829.2232507042659,2409.8088172832354,1149.7197403229807,-3312.6832978190955,-4773.5716271904912,4700.7744860975499,6221.1367857479572,361.33453018369846,1762.5905740637695,-1762.5905740637695,-361.33453018369846,11321.255172464651,0.0
678523.2936376977,3672751.2368613081,-42500.0,3239.1904479914642,2306.0773931452745,270.62920319807705,-3275.1563981555719,-3566.5963457352259,3753.9635152294109,5405.9586671114039,983.48427996101191,1203.0327643433479,-1203.0327643433479,-983.48427996101191,9843.8426520850935,0.0
683523.2936376977,3672751.2368613081,-42500.0,3456.7218484902801,1989.0565905418598,-485.15870310891285,-3029.6535851993403,-2473.4230145981737,2880.0112650444944,4643.2066148234571,1491.2554661030631,566.66143075313084,-566.66143075313084,-1491.2554661030631,8447.2834849345145,0.0
688523.2936376977,3672751.2368613081,-42500.0,3482.4444353335962,1550.4444692699306,-1075.8916863241195,-2653.8892762300702,-1545.3209007021751,2117.3234177951981,3976.4676018513246,1846.503034921358,-52.443015401555954,52.443015401555954,-1846.503034921358,7205.8568007303711,0.0
693523.2936376977,3672751.2368613081,-42500.0,3343.9680862913397,1067.0707401890868,-1494.7110383173404,-2214.7711656525412,-798.68760845788881,1480.9266611745443,3425.6426734903807,2045.6221519644671,-594.74219794187661,594.74219794187661,-2045.6221519644671,6157.4620502821244,0.0
698523.2936376977,3672751.2368613081,-42500.0,3081.6284780809897,594.9760947307625,-1756.804771377095,-1763.3567199834545,-226.67707417844673,969.73999002999653,2988.5555391813259,2106.4849051009478,-1030.6747867637846,1030.6747867637846,-2106.4849051009478,5310.0560947319618,0.0
703523.2936376977,3672751.2368613081,-42500.0,2737.9827512480388,169.72757265612344,-1888.4675901408771,-1334.5404252022242,190.70452976897815,572.94427911985645,2648.2874859399935,2057.3108088904546,-1352.8562851102445,1352.8562851102445,-2057.3108088904546,4649.0335348236031,0.0
708523.2936376977,3672751.2368613081,-42500.0,2351.3613703019028,-190.10407348403714,-1919.268369398565,-949.24906050952882,479.08695003649046,274.87102178557251,2382.9291960845449,1928.7477949451916,-1568.155236864812,1568.155236864812,-1928.7477949451916,4145.163692124459,0.0
713523.2936376977,3672751.2368613081,-42500.0,1952.7540930868531,-478.45166118253735,-1877.2309721067634,-617.59392621313634,664.79477296769687,58.388902296114154,2172.0636149796546,1749.0678694260234,-1691.1456875137335,1691.1456875137335,-1749.0678694260234,3762.8294814914443,0.0
718523.2936376977,3672751.2368613081,-42500.0,1565.0180542878895,-697.48478477962897,-1786.3831395926877,-342.04831355954616,772.00119719215911,-92.983630559610873,1999.3009124008991,1541.808355675669,-1739.3813316786861,1739.3813316786861,-1541.808355675669,3467.3670832592557,0.0
723523.2936376977,3672751.2368613081,-42500.0,1203.4692653216916,-854.13532342296662,-1665.9170238865381,-120.17928673927103,821.38787628148532,-193.93359379637235,1852.6269861844357,1325.0725946677564,-1730.3662639414213,1730.3662639414213,-1325.0725946677564,3229.9270251602338,0.0
728523.2936376977,3672751.2368613081,-42500.0,877.1427094720699,-957.55512591960655,-1530.3099935125767,53.233091147166405,829.77728500645503,-256.87843710711326,1723.8220459138356,1111.8117383621091,-1679.8631959919292,1679.8631959919292,-1111.8117383621091,3029.2834094988684,0.0
733523.2936376977,3672751.2368613081,-42500.0,590.24556433486475,-1017.4213745108879,-1389.9282743953502,184.68081233868054,810.32553882166314,-291.91305989490093,1607.5790962758649,910.58760695876936,-1601.1409085472137,1601.1409085472137,-910.58760695876936,2851.3342568800044,0.0
548523.2936376977,3677751.2368613081,-42500.0,-1261.5154006903858,1313.4468071411952,-961.70688150658111,-1013.7506150865286,821.55418439421999,-524.17851858419783,1667.4515367383917,-797.16019269929973,783.33727692479545,-783.33727692479545,797.16019269929973,3270.4500080486637,0.0
553523.2936376977,3677751.2368613081,-42500.0,-1198.4597534476418,1418.0362790800721,-1118.6587034587803,-1064.2316272473529,932.99718996255388,-582.13801737186429,1800.1136470123447,-707.81242243987788,765.01571553681276,-765.01571553681276,707.81242243987788,3518.3428447730134,0.0
558523.2936376977,3677751.2368613081,-42500.0,-1100.1231037910393,1519.0776443348987,-1300.8333481629113,-1104.6234476603427,1056.192675277319,-642.48877522460361,1940.9695298273809,-581.57078348940229,721.60792248337987,-721.60792248337987,581.57078348940229,3777.7723770290127,0.0
563523.2936376977,3677751.2368613081,-42500.0,-958.92780982253885,1610.7068083570427,-1510.7529854439426,-1129.4837444851892,1190.2332714832874,-703.1706743207418,2089.3220296152303,-410.72948236107243,645.16526778586956,-645.16526778586956,410.72948236107243,4046.152683635883,0.0
568523.2936376977,3677751.2368613081,-42500.0,-766.80948001664058,1684.786096757382,-1750.1829658989761,-1131.8305772867636,1332.84218156574,-760.95710262925661,2244.0792810480561,-187.12532610307565,526.17866349774022,-526.17866349774022,187.12532610307565,4319.8207742008408,0.0
573523.2936376977,3677751.2368613081,-42500.0,-515.79191237584223,1730.3737967034767,-2019.3934852429122,-1102.9477680936332,1479.6911975973162,-811.04126000022814,2403.7385600242055,97.228041694052877,353.68034164620178,-353.68034164620178,-97.228041694052877,4593.9713071424458,0.0
578523.2936376977,3677751.2368613081,-42500.0,-198.97794767120172,1733.2419993501735,-2316.0523693153341,-1032.3096059063464,1623.4854967373731,-846.53492857718743,2566.4611866855826,449.04342686405471,115.67960054527143,-115.67960054527143,-449.04342686405471,4862.8074356373882,0.0
583523.2936376977,3677751.2368613081,-42500.0,187.87847393707901,1675.6091851554652,-2633.6403246159293,-907.75175825991573,1752.7865184380194,-857.89332086634488,2730.325479588817,872.01257124507981,-199.83906517079492,199.83906517079492,-872.01257124507981,5120.1330182933953,0.0
588523.2936376977,3677751.2368613081,-42500.0,644.04556441135333,1536.3882101959709,-2959.3106384099638,-716.09319485662354,1850.5930196188999,-832.31141195034945,2893.8985625999439,1364.2062976686425,-603.03614239595083,603.03614239595083,-1364.2062976686425,5360.7726998022699,0.0
593523.2936376977,3677751.2368613081,-42500.0,1160.6274471775191,1292.4413096459616,-3271.2310809566834,-444.51422217602277,1892.8106763673525,-753.19358869678445,3057.3259751900705,1914.4875521185511,-1099.0642969010767,1099.0642969010767,-1914.4875521185511,5583.4116773786036,0.0
598523.2936376977,3677751.2368613081,-42500.0,1716.6416622555378,921.55937148693965,-3535.7230045981951,-83.106961172354289,1846.9622952749885,-599.90303867522209,3224.1517108528524,2498.0365739086906,-1683.2723914816349,1683.2723914816349,-2498.0365739086906,5795.5777016344446,0.0
603523.2936376977,3677751.2368613081,-42500.0,2275.0173771507134,408.03771305561554,-3705.0585455112268,370.9336853320566,1671.8829106018918,-348.18223738878521,3403.9069955776076,3071.6464654351084,-2334.6800405489175,2334.6800405489175,-3071.6464654351084,6021.0786845991679,0.0
608523.2936376977,3677751.2368613081,-42500.0,2780.1444869688921,-248.47981530430025,-3717.6370556889983,907.20059207810789,1319.7131703501291,28.086676341265523,3614.8350905237858,3570.4867337178084,-3008.4567414717403,3008.4567414717403,-3570.4867337178084,6308.0829637495035,0.0
613523.2936376977,3677751.2368613081,-42500.0,3159.9284935542241,-1021.2725037006153,-3503.2507537543565,1494.5229534700059,742.08222206526739,552.80862840640771,3884.6851946878242,3909.5065963509323,-3629.7710324544551,3629.7710324544551,-3909.5065963509323,6730.9116708674883,0.0
618523.2936376977,3677751.2368613081,-42500.0,3336.2630218903814,-1844.7697365213965,-2996.5358056619275,2074.125606135035,-97.612361723946847,1240.2951649604611,4245.9790454362646,3993.8918416221313,-4093.7148802504771,4093.7148802504771,-3993.8918416221313,7373.4782302854073,0.0
623523.2936376977,3677751.2368613081,-42500.0,3246.6493226056114,-2609.2775713487317,-2159.9656254864658,2558.1124680241264,-1205.5669649899223,2084.4927116106674,4723.1217114209276,3742.1868814662762,-4277.7774490900547,4277.7774490900547,-3742.1868814662762,8289.4958551060099,0.0
628523.2936376977,3677751.2368613081,-42500.0,2874.2315390746103,-3171.5209365779256,-1012.384735638506,2839.5704033758266,-2536.6044744973201,3047.2346013231236,5314.3726830153983,3120.4112438841589,-4071.6017844907187,4071.6017844907187,-3120.4112438841589,9459.1920799020754,0.0
633523.2936376977,3677751.2368613081,-42500.0,2274.0720774629431,-3387.5597061704138,349.08529396684764,2818.2512808289739,-3980.901615747252,4051.5220162930477,5978.1153531358359,2175.3567336896567,-3420.3488468343476,3420.3488468343476,-2175.3567336896567,10774.205594814102,0.0
638523.2936376977,3677751.2368613081,-42500.0,1576.5657854072392,-3162.7696146342496,1750.9927010718466,2437.0531024319712,-5371.3923364627744,4987.6008186572762,6633.6974377521055,1046.2395853267512,-2364.4904784341024,2364.4904784341024,-1046.2395853267512,12060.397742259896,0.0
643523.2936376977,3677751.2368613081,-42500.0,955.07923191329178,-2497.247644632424,2979.8616295379434,1713.0614793597263,-6518.3159286426799,5735.4482530866144,7180.8664206294634,-62.525428402239811,-1050.6230975838853,1050.6230975838853,62.525428402239811,13124.414981893766,0.0
648523.2936376977,3677751.2368613081,-42500.0,566.67374890154076,-1498.9602066820294,3843.5268058189063,743.51475352621731,-7261.2773881357707,6197.1986873820269,7529.9275382928408,-943.29782835929336,302.11328434080338,-302.11328434080338,943.29782835929336,13804.626390268877,0.0
653523.2936376977,3677751.2368613081,-42500.0,496.24366806288845,-352.50654611785177,4229.0872957587189,-320.63727440282611,-7515.0954454578232,6324.5422486385078,7627.106476291694,-1452.5759929304049,1468.671138117551,-1468.671138117551,1452.5759929304049,14009.219989698177,0.0
658523.2936376977,3677751.2368613081,-42500.0,734.05810567601998,740.9814904830215,4129.0436477143321,-1320.7323054858887,-7287.5103050488988,6127.9260668719289,7464.6921772289916,-1549.0231451760646,2284.4307141404579,-2284.4307141404579,1549.0231451760646,13729.938681002917,0.0
663523.2936376977,3677751.2368613081,-42500.0,1193.6327359875418,1621.3998664717731,3627.4635093567131,-2132.5941093872057,-6664.1104494625615,5665.6548341232456,7075.6727333899616,-1287.8657770235081,2680.4827419977155,-2680.4827419977155,1287.8657770235081,13030.738989522228,0.0
668523.2936376977,3677751.2368613081,-42500.0,1752.8400314098833,2200.8485570208391,2860.4128441281632,-2688.2898208905781,-5773.4257167489086,5021.6551687574101,6519.0839401345565,-784.05833496527214,2679.7272149950536,-2679.7272149950536,784.05833496527214,12020.84282728476,0.0
673523.2936376977,3677751.2368613081,-42500.0,2294.5719732936909,2464.3626641810233,1972.8446645167896,-2975.573564918353,-4750.4427632848356,4283.1730753437696,5863.6167041675562,-168.20879179601593,2366.9436832719603,-2366.9436832719603,168.20879179601593,10824.939425667371,0.0
678523.2936376977,3677751.2368613081,-42500.0,2732.3663374548792,2450.8339694173051,1087.5247706549039,-3023.3534540521564,-3710.6987985318437,3525.3286316631052,5174.6726897838553,446.60510642663428,1852.3969727961867,-1852.3969727961867,-446.60510642663428,9559.7179249150176,0.0
683523.2936376977,3677751.2368613081,-42500.0,3018.7449894094598,2227.9168682056461,290.50426996074134,-2883.1766538181196,-2738.0818088464944,2803.9058399735941,4506.5320836098872,981.13153157059924,1242.7506749819668,-1242.7506749819668,-981.13153157059924,8320.0697058285114,0.0
688523.2936376977,3677751.2368613081,-42500.0,3141.2736616876432,1870.420548980889,-370.00151337605291,-2613.3295154102234,-1883.5518947867354,2154.4775914457296,3898.4975360505719,1392.1296527222364,624.16544993375851,-624.16544993375851,-1392.1296527222364,7173.9182511741301,0.0
693523.2936376977,3677751.2368613081,-42500.0,3112.8179221352339,1445.9984607619604,-877.00281075919145,-2268.0983344730039,-1170.2003457781279,1595.1785682109794,3373.0799694884017,1666.2875093951327,56.324134943843092,-56.324134943843092,-1666.2875093951327,6162.8273615073485,0.0
698523.2936376977,3677751.2368613081,-42500.0,2960.881022215679,1008.0286560213906,-1235.3655492885571,-1892.0885474388874,-600.71868621662361,1130.9336102299751,2936.2936325362225,1811.0892323232886,-426.27535784113729,426.27535784113729,-1811.0892323232886,5305.5851339842529,0.0
703523.2936376977,3677751.2368613081,-42500.0,2718.6843047636203,593.84016669291771,-1462.8361498598592,-1518.3669530935131,-164.77598977693879,757.76140849142462,2581.7011469961012,1845.9567531257658,-809.38149664471268,809.38149664471268,-1845.9567531257658,4602.8685773929446,0.0
708523.2936376977,3677751.2368613081,-42500.0,2418.9237627785424,226.15933085704813,-1582.9429299795283,-1169.0101232506747,154.91498791422819,466.45066321382427,2296.649843486382,1795.2377693788574,-1093.0233615710333,1093.0233615710333,-1795.2377693788574,4042.1213810951181,0.0
713523.2936376977,3677751.2368613081,-42500.0,2090.1111729408053,-83.958698757350746,-1620.1243009355776,-856.87975043044503,378.20273528609715,245.35531239864238,2067.0999192030822,1683.4291811886553,-1286.0335831424611,1286.0335831424611,-1683.4291811886553,3602.4270511015834,0.0
718523.2936376977,3677751.2368613081,-42500.0,1754.9520722374195,-333.87129165505036,-1596.830901520917,-587.80614857600028,524.65515201869937,82.318969021513553,1880.1032222107272,1532.39459937993,-1401.7225047742265,1401.7225047742265,-1532.39459937993,3259.2322490352062,0.0
723523.2936376977,3677751.2368613081,-42500.0,1430.1079116889462,-526.4093434141339,-1532.1203728567255,-362.68745829467213,611.95410599647698,-34.135422844582685,1724.8174300534333,1360.0913753993837,-1454.8304526134389,1454.8304526134389,-1360.0913753993837,2988.4431369405816,0.0
728523.2936376977,3677751.2368613081,-42500.0,1126.7661827335291,-667.53212509831189,-1441.2495574810025,-179.26218920184246,655.17020135851988,-114.17234679384006,1592.7688182119891,1180.3017818751905,-1459.6046013679293,1459.6046013679293,-1180.3017818751905,2769.265207484068,0.0
553523.2936376977,3682751.2368613081,-42500.0,-874.32665536596335,1315.5469538289801,-1194.9502168739375,-866.80823312485836,891.25325310905771,-494.242867515157,1643.1857965653835,-391.72489271713857,549.84168998191421,-549.84168998191421,391.72489271713857,3193.4597159618161,0.0
558523.2936376977,3682751.2368613081,-42500.0,-749.05426080138773,1383.8180499830112,-1371.9815615172599,-877.53749636852547,995.64036471094903,-536.59235596584426,1761.5015770630116,-240.37094970869401,475.47479995472082,-475.47479995472082,240.37094970869401,3405.0696571975586,0.0
563523.2936376977,3682751.2368613081,-42500.0,-583.52587755079833,1436.1515179888111,-1570.9765086743189,-869.80086941289994,1105.2442747155992,-575.97128824305196,1884.6209119287516,-47.73816535211418,366.6577838530967,-366.6577838530967,47.73816535211418,3620.0172002684608,0.0
568523.2936376977,3682751.2368613081,-42500.0,-372.14816216261175,1464.023991996326,-1791.4198922397995,-837.20368070386678,1216.5288101397882,-608.84686431625391,2011.5847004917259,191.55542255996698,215.46480645141895,-215.46480645141895,-191.55542255996698,3834.9803828651011,0.0
573523.2936376977,3682751.2368613081,-42500.0,-110.26270648399282,1456.6289701779901,-2030.7298288139523,-772.1800940735435,1323.8424754597766,-630.27311347136686,2141.3185938314609,481.75541430264605,13.46336792891762,-13.46336792891762,-481.75541430264605,4046.1968271781948,0.0
578523.2936376977,3682751.2368613081,-42500.0,204.77466495813803,1400.7658784209777,-2283.1736332048654,-666.15880853977012,1418.6695200309032,-633.53766314895813,2272.8611410168351,824.76176684912161,-247.53963906338123,247.53963906338123,-824.76176684912161,4250.0098821026768,0.0
583523.2936376977,3682751.2368613081,-42500.0,572.06894342162502,1281.0772370553998,-2538.4601160890456,-510.02142778055747,1488.7607141893257,-609.81048135397998,2405.805299637691,1218.4115616857659,-574.19770969288584,574.19770969288584,-1218.4115616857659,4443.9877738127225,0.0
588523.2936376977,3682751.2368613081,-42500.0,985.18113281294018,1080.9124003602924,-2780.0482085889421,-295.01673439290869,1517.2302051882709,-547.86392905806088,2541.0526364551715,1654.2048816375582,-969.56498416787235,969.56498416787235,-1654.2048816375582,4628.941009076827,0.0
593523.2936376977,3682751.2368613081,-42500.0,1429.7365857509392,784.20499727630693,-2983.3647495109099,-14.336857707306649,1481.8201053048938,-433.98812416392724,2681.9636585361122,2114.5604126749581,-1430.0978380773345,1430.0978380773345,-2114.5604126749581,4812.1771296300958,0.0
598523.2936376977,3682751.2368613081,-42500.0,1881.001990540384,378.81489626344683,-3114.3937008283078,334.43690049505113,1354.7114394756181,-252.2995858145743,2835.8512624022842,2569.9703997357055,-1941.6929994472896,1941.6929994472896,-2569.9703997357055,5011.9900016839256,0.0
603523.2936376977,3682751.2368613081,-42500.0,2302.2282115860448,-138.29566742563529,-3129.5241409832984,745.90303682616013,1103.5143199393542,14.25510306209295,3015.4083708019257,2976.9116399564705,-2475.1263495595326,2475.1263495595326,-2976.9116399564705,5262.202381987051,0.0
608523.2936376977,3682751.2368613081,-42500.0,2645.160881186363,-754.12009071863315,-2978.0394284850718,1202.6171876752221,694.32862771735063,381.80308151173415,3239.0080865000518,3278.0483579575321,-2981.9944174618286,2981.9944174618286,-3278.0483579575321,5613.1175237798843,0.0
613523.2936376977,3682751.2368613081,-42500.0,2854.6519509201044,-1431.9904731246068,-2608.9552529860507,1670.9177699036475,97.854648567122638,861.9439591298742,3528.2233476453293,3406.9120634017172,-3393.3456435200787,3393.3456435200787,-3406.9120634017172,6122.9837827100482,0.0
618523.2936376977,3682751.2368613081,-42500.0,2879.1733964509613,-2106.0615827150427,-1983.4815991390503,2098.6492479341205,-700.9336122992994,1456.4880165610018,3901.3771889632744,3299.2477449454855,-3624.2431804002135,3624.2431804002135,-3299.2477449454855,6837.0179962681859,0.0
623523.2936376977,3682751.2368613081,-42500.0,2687.3169064012645,-2682.4670511090067,-1092.4304614369598,2417.6348258536264,-1690.5219473655293,2151.1424882660995,4364.1980201507195,2911.5664703487364,-3587.4984330268899,3587.4984330268899,-2911.5664703487364,7761.6187476366558,0.0
628523.2936376977,3682751.2368613081,-42500.0,2286.5225583412725,-3052.0355761828714,25.863513614570696,2553.7401343881861,-2821.5481795353708,2910.0880655276451,4901.2441803448619,2243.4100452432767,-3217.2570454986426,3217.2570454986426,-2243.4100452432767,8848.8425314946417,0.0
633523.2936376977,3682751.2368613081,-42500.0,1735.5562970466731,-3116.1229452839175,1275.7035442760766,2445.01297560995,-4002.6005197042659,3674.7219023323514,5472.1494514900951,1354.4328420420679,-2497.3116168695133,2497.3116168695133,-1354.4328420420679,9999.546148936497,0.0
638523.2936376977,3682751.2368613081,-42500.0,1140.5527436798511,-2819.5934385070241,2511.8028933153009,2063.4637359645903,-5109.3662150015944,4369.8159419222084,6015.4759925863918,364.59796706933355,-1482.2688032359174,1482.2688032359174,-364.59796706933355,11082.471688839687,0.0
643523.2936376977,3682751.2368613081,-42500.0,630.00804384126036,-2177.072905145194,3568.2985595836958,1431.1569846295765,-6008.6748068036541,4917.6795203753163,6461.1063145874714,-569.50038623135765,-297.77508179905465,297.77508179905465,569.50038623135765,11962.246547372746,0.0
648523.2936376977,3682751.2368613081,-42500.0,316.12725575263818,-1277.5551356149706,4301.0300328766652,621.11738561206528,-6590.680674848697,5256.3291819635069,6747.7224806080585,-1296.6756024232282,886.1759761476236,-886.1759761476236,1296.6756024232282,12528.520978422255,0.0
653523.2936376977,3682751.2368613081,-42500.0,259.991472638098,-262.15467961458506,4625.6406127427817,-259.63481207110823,-6796.2399650445113,5354.3941315313541,6837.8021568550148,-1713.8140888620592,1900.115067524056,-1900.115067524056,1713.8140888620592,12717.959553353869,0.0
658523.2936376977,3682751.2368613081,-42500.0,456.89395781121169,715.48218010232154,4535.0679374118572,-1097.9143824701957,-6628.0410044905229,5216.5863616099523,6724.2414418477429,-1789.9838594719051,2618.6079748774609,-2618.6079748774609,1789.9838594719051,12522.783076060059,0.0
663523.2936376977,3682751.2368613081,-42500.0,846.19208688053925,1528.1099047612045,4091.3833575015992,-1800.8911771757266,-6142.6778998396285,4878.5395962340308,6427.9031643171402,-1563.867702681765,2984.6931667054041,-2984.6931667054041,1563.867702681765,11984.899497465582,0.0
668523.2936376977,3682751.2368613081,-42500.0,1337.0353642367411,2098.5193245463711,3399.7135442089116,-2311.8160727997461,-5429.9270477525934,4394.7796734558024,5989.144133687706,-1120.7588955399485,3009.5950509312888,-3009.5950509312888,1120.7588955399485,11180.091816694952,0.0
673523.2936376977,3682751.2368613081,-42500.0,1836.3821429988857,2403.6960674836182,2577.6116832639759,-2612.5532821278416,-4589.1497759653221,3825.3678885490622,5457.4684524492413,-562.73526659639265,2754.2672666849226,-2754.2672666849226,562.73526659639265,10199.100246918973,0.0
678523.2936376977,3682751.2368613081,-42500.0,2269.2959360415575,2464.4018283573732,1730.6405370621219,-2716.397100391102,-3710.5662185286069,3225.3649101337214,4882.547025086511,16.213650035206911,2304.3310658747241,-2304.3310658747241,-16.213650035206911,9131.2859422368911,0.0
683523.2936376977,3682751.2368613081,-42500.0,2588.2318679564919,2328.4087752152318,938.67193958176506,-2656.6539322349345,-2864.5415361021223,2638.7008911262365,4308.0242502934743,544.71618687316709,1747.8986108576917,-1747.8986108576917,-544.71618687316709,8053.6658742763375,0.0
688523.2936376977,3682751.2368613081,-42500.0,2773.0948234366342,2054.1994402020196,252.15647362872235,-2475.4471261647154,-2098.2968901243457,2096.088985700238,3767.8594742957598,978.5032805678502,1160.8494217257958,-1160.8494217257958,-978.5032805678502,7025.5283110578011,0.0
693523.2936376977,3682751.2368613081,-42500.0,2825.8222730235266,1698.7603267896868,-304.8918239428732,-2215.1256123401304,-1437.7008820896417,1615.7429649877133,3284.236771050254,1297.9767625038173,599.91594058140345,-599.91594058140345,-1297.9767625038173,6087.3562569155647,0.0
698523.2936376977,3682751.2368613081,-42500.0,2762.9913281755544,1310.3396043658217,-728.67848826503439,-1912.900243663579,-891.64106205842688,1205.5980320942738,2867.078937408116,1502.3666997007322,101.71900700815468,-101.71900700815468,-1502.3666997007322,5262.4074181924134,0.0
703523.2936376977,3682751.2368613081,-42500.0,2608.7900869100472,925.44302929138757,-1028.7742967176039,-1598.3114363074228,-457.08453636424264,866.03679963465777,2516.2322060046645,1603.1340492508746,-314.64162358244334,314.64162358244334,-1603.1340492508746,4559.5611567274673,0.0
708523.2936376977,3682751.2368613081,-42500.0,2389.5083557848061,568.75905123437542,-1222.1212662537257,-1292.7375048047863,-123.69204865120982,592.49097468509922,2225.527619730633,1618.1668552561619,-643.47092548631326,643.47092548631326,-1618.1668552561619,3976.5373508407051,0.0
713523.2936376977,3682751.2368613081,-42500.0,2129.8478663763804,254.73907279186915,-1328.5041179324371,-1010.1406926629024,122.52475750744519,377.60129598811187,1986.2918643113446,1567.4113493566863,-888.19766219834332,888.19766219834332,-1567.4113493566863,3503.0767445571919,0.0
718523.2936376977,3682751.2368613081,-42500.0,1850.8654947968596,-10.144395065231931,-1367.5310849633142,-758.40718806807092,296.60612552235636,212.83464547794256,1789.3780901301598,1470.0005551027461,-1057.6697138637924,1057.6697138637924,-1470.0005551027461,3123.9666165035433,0.0
723523.2936376977,3682751.2368613081,-42500.0,1569.159294951583,-225.09335804626051,-1356.8852769837845,-540.83908012265215,412.98968464015525,89.583720096989595,1626.2062001360196,1342.6477640574742,-1163.3122631167382,1163.3122631167382,-1342.6477640574742,2821.8398021890252,0.0
553523.2936376977,3687751.2368613081,-42500.0,-588.25486298616829,1188.4644991394532,-1238.4914769033794,-687.66785514165736,833.853969870627,-413.19779203677331,1494.467043814803,-122.81596109521689,347.13357821446112,-347.13357821446112,122.81596109521689,2882.5723429883042,0.0
558523.2936376977,3687751.2368613081,-42500.0,-446.09495476298486,1224.8791003710621,-1403.7183357059096,-675.04548555169754,918.53074043687309,-440.42063686624965,1593.4201217318509,42.011624792732192,249.4301266587,-249.4301266587,-42.011624792732192,3053.1377981925639,0.0
563523.2936376977,3687751.2368613081,-42500.0,-267.9865469734745,1240.5216652874099,-1584.4004743368544,-642.76537249805438,1003.4816261910886,-462.40154479841044,1695.494616346258,242.84772050880923,118.13986989517565,-118.13986989517565,-242.84772050880923,3223.641157047392,0.0
568523.2936376977,3687751.2368613081,-42500.0,-50.703634432506142,1227.1505734512195,-1778.0327289104787,-585.34761700345541,1084.3748691709859,-475.61845817974364,1800.0956953379339,482.4033148698536,-52.72539952396491,52.72539952396491,-482.4033148698536,3391.673381822794,0.0
573523.2936376977,3687751.2368613081,-42500.0,207.47559535766226,1174.8812986484738,-1979.7450017925592,-496.66769351445413,1154.8855373316765,-475.36939965815981,1906.8096927469928,761.60759670033633,-268.83609684771557,268.83609684771557,-761.60759670033633,3555.1420497857866,0.0
578523.2936376977,3687751.2368613081,-42500.0,505.75141957206483,1072.3825638157962,-2181.3617804229893,-370.2758685591308,1206.1468423285257,-455.55573847788219,2015.7293835468465,1078.4608417925954,-534.64552437595785,534.64552437595785,-1078.4608417925954,3713.117828709087,0.0
583523.2936376977,3687751.2368613081,-42500.0,839.50217689257374,907.4719688539069,-2370.303047474074,-199.99801002394844,1226.1950930750706,-408.51575680410656,2127.9716315641772,1426.55973162347,-852.02430546863593,852.02430546863593,-1426.55973162347,3867.2575310119437,0.0
588523.2936376977,3687751.2368613081,-42500.0,1198.7650538177356,668.32694562447591,-2528.4445931590635,19.074082372320678,1199.5235009241667,-324.98014266431596,2246.4143718832288,1793.3580198041791,-1218.3382516418928,1218.3382516418928,-1793.3580198041791,4023.955448170736,0.0
593523.2936376977,3687751.2368613081,-42500.0,1566.6990254864129,345.55859709533814,-2631.2012730994129,289.0979961743501,1106.9515904220102,-194.25908867384319,2376.595120898884,2158.3760658661249,-1623.9646633273317,1623.9646633273317,-2158.3760658661249,4197.1424160173965,0.0
598523.2936376977,3687751.2368613081,-42500.0,1918.4495794611419,-64.645891741468816,-2647.3093245427372,607.4490209818573,926.13499663872153,-4.8134711710783789,2527.5132743423956,2491.8167923008359,-2049.4390481728615,2049.4390481728615,-2491.8167923008359,4410.9679258051465,0.0
603523.2936376977,3687751.2368613081,-42500.0,2221.1268728342511,-556.30404206502499,-2540.0398577822343,964.23062402762503,633.16282678187326,254.60176269602934,2711.7624467831815,2754.3778163181746,-2462.7808468946482,2462.7808468946482,-2754.3778163181746,4700.3516743397377,0.0
608523.2936376977,3687751.2368613081,-42500.0,2435.8914739734414,-1108.7880659002724,-2270.7801953045614,1339.6954154707507,205.75103422939804,593.03325223855245,2944.1646145420718,2899.388751311732,-2818.0713757300232,2818.0713757300232,-2899.388751311732,5106.3431977563432,0.0
613523.2936376977,3687751.2368613081,-42500.0,2523.1910792628164,-1682.5653647282122,-1805.831871634909,1702.3794784759598,-371.6039870737423,1014.5688562274581,3238.2950425638605,2878.5097674337621,-3056.9200176060722,3056.9200176060722,-2878.5097674337621,5664.5525285820631,0.0
618523.2936376977,3687751.2368613081,-42500.0,2451.6617802495161,-2217.7115184954991,-1126.5868484428879,2009.2532693262335,-1100.6744167573788,1514.8940385794021,3601.3166517724121,2651.729895246945,-3114.7136240050299,3114.7136240050299,-2651.729895246945,6389.8271429944261,0.0
623523.2936376977,3687751.2368613081,-42500.0,2209.7084242398864,-2637.9999934071375,-241.63411602949935,2209.4381374102445,-1961.9649648883817,2077.8280337844026,4028.7774505712546,2200.8348650333842,-2932.8363311635917,2932.8363311635917,-2200.8348650333842,7264.5089848451053,0.0
628523.2936376977,3687751.2368613081,-42500.0,1816.46295831457,-2862.7432645167792,802.91559250430475,2252.5289100043728,-2909.173451532818,2673.132919600584,4501.3365232406013,1542.9555765428317,-2475.8498204988787,2475.8498204988787,-1542.9555765428317,8235.7066635520787,0.0
633523.2936376977,3687751.2368613081,-42500.0,1326.7296832719219,-2825.8228285109153,1920.4093349708016,2100.8341578138979,-3869.1479976319583,3257.2673090724461,4984.5840156407485,738.26652556940212,-1749.0862819220354,1749.0862819220354,-738.26652556940212,9221.7441561370251,0.0
638523.2936376977,3687751.2368613081,-42500.0,824.78266688725239,-2496.9715879141213,2992.8354194679928,1742.270046529675,-4750.150342224184,3778.3547494473364,5432.6453691166744,-114.34198996478011,-809.10558529560808,809.10558529560808,114.34198996478011,10125.385997588612,0.0
643523.2936376977,3687751.2368613081,-42500.0,405.88088937822812,-1896.7474602873506,3892.8225331056797,1198.6566303755983,-5458.2295326527837,4185.0890817237951,5795.9757645481923,-895.96933570149872,240.20844170170841,-240.20844170170841,895.96933570149872,10850.96276797435,0.0
648523.2936376977,3687751.2368613081,-42500.0,150.9122558436689,-1097.2199509287238,4512.496372425755,524.79590642937103,-5917.2971003249932,4437.212273588164,6031.8449834418398,-1496.0595368491558,1267.7975978055824,-1267.7975978055824,1496.0595368491558,11321.742259243692,0.0
653523.2936376977,3687751.2368613081,-42500.0,104.31036841086235,-206.26110690317972,4788.5895926910307,-202.55241175331608,-6085.7623229906803,4513.9119593983105,6113.5363586691337,-1839.7565240352251,2145.6827851875719,-2145.6827851875719,1839.7565240352251,11493.105561562965,0.0
658523.2936376977,3687751.2368613081,-42500.0,264.35835832044137,658.73556459242332,4714.259071677413,-901.89168300288406,-5963.6388698358414,4417.1369277084787,6034.7861232058985,-1903.4725226079177,2777.8024699469966,-2777.8024699469966,1903.4725226079177,11358.024610468448,0.0
663523.2936376977,3687751.2368613081,-42500.0,588.60469216636727,1397.2720827732708,4334.4423018703255,-1503.8809465926777,-5588.3980320297205,4169.0948494790118,5808.7615034909686,-1713.9375493929449,3117.0708473098912,-3117.0708473098912,1713.9375493929449,10944.036444114028,0.0
668523.2936376977,3687751.2368613081,-42500.0,1009.9963553946316,1943.3070992989074,3728.9000391201989,-1962.4466149223822,-5022.6233540768962,3805.6008287072727,5463.1296229172303,-1333.850470166994,3166.7892861773184,-3166.7892861773184,1333.850470166994,10303.883538667656,0.0
673523.2936376977,3687751.2368613081,-42500.0,1455.9454862051384,2270.4838342600692,2990.873537153509,-2258.0955962959824,-4338.8499198711161,3368.0377484323758,5033.52083657189,-841.85578803521207,2969.5387496379853,-2969.5387496379853,841.85578803521207,9503.4893835897528,0.0
678523.2936376977,3687751.2368613081,-42500.0,1863.7308569460192,2387.0123133843813,2208.5340364874883,-2394.7193046390125,-3606.3783544770449,2896.3404644793695,4557.3778052494845,-314.33949270358221,2590.2680121003959,-2590.2680121003959,314.33949270358221,8610.7226329727673,0.0
683523.2936376977,3687751.2368613081,-42500.0,2189.1592051209268,2324.9165631603914,1453.0465854454012,-2392.7931805801941,-2882.6040193651988,2424.274105546639,4069.261019464263,186.69012256753535,2099.8867944740114,-2099.8867944740114,-186.69012256753535,7687.0357316700383,0.0
688523.2936376977,3687751.2368613081,-42500.0,2408.6790154207356,2128.2447915483312,773.67556466857855,-2281.7965243671915,-2209.1734095931984,1977.1815566947932,3597.6848031106274,618.87390297098511,1563.1068751129219,-1563.1068751129219,-618.87390297098511,6782.5756008991193,0.0
693523.2936376977,3687751.2368613081,-42500.0,2516.9120072519318,1843.2403190185069,198.30509368536943,-2093.725527030876,-1611.9280296366119,1571.7131786278781,3163.0391309808274,959.37429432499789,1031.5838024945867,-1031.5838024945867,-959.37429432499789,5934.3402829043453,0.0
698523.2936376977,3687751.2368613081,-42500.0,2521.9063446877826,1511.6919556494397,-262.87981883486418,-1858.5117610765453,-1103.1600516613512,1216.8271520303649,2776.6801106485582,1201.5331972632455,541.63885776294387,-541.63885776294387,-1201.5331972632455,5166.4902110514495,0.0
703523.2936376977,3687751.2368613081,-42500.0,2439.9433110661116,1167.4198396575084,-612.51353789375742,-1601.3934819927474,-684.86466850023317,915.40473925478068,2441.9845469639304,1350.2680674270377,115.12108444828289,-115.12108444828289,-1350.2680674270377,4491.9073685615776,0.0
708523.2936376977,3687751.2368613081,-42500.0,2291.0118640400688,835.21006917066904,-861.29764089524474,-1341.875573878307,-352.06422828544243,665.99640713570943,2157.0042198688179,1417.5446704494989,-238.0421251363797,238.0421251363797,-1417.5446704494989,3914.2871877747784,0.0
713523.2936376977,3687751.2368613081,-42500.0,2095.4348888820864,531.34761318469145,-1024.0717112171531,-1093.786379105559,-95.684936146167715,464.40489614946671,1917.0228630576657,1418.638433425843,-516.72227422364222,516.72227422364222,-1418.638433425843,3430.3257930471441,0.0
718523.2936376977,3687751.2368613081,-42500.0,1871.7007113668055,264.99229631430836,-1116.9376843783837,-865.97002146835723,95.22481883737295,304.96380857656402,1716.1516119775356,1369.4267124259916,-725.60655196150469,725.60655196150469,-1369.4267124259916,3031.7968604952198,0.0
723523.2936376977,3687751.2368613081,-42500.0,1635.3189858764076,39.845057198561548,-1155.3840729693059,-663.25700564352439,231.94509399012,181.47780865224445,1548.2131641903998,1284.6645652579066,-872.71449658791778,872.71449658791778,-1284.6645652579066,2707.4576161265036,0.0
558523.2936376977,3692751.2368613081,-42500.0,-192.53129487795891,1054.0528024280543,-1399.5534494728752,-498.89466711037596,831.15893525074682,-355.00467806695235,1438.3130568305774,266.46317195431811,50.389579042642737,-50.389579042642737,-266.46317195431811,2727.5329940004412,0.0
563523.2936376977,3692751.2368613081,-42500.0,-11.608867556121913,1037.573180434008,-1556.8599316929544,-449.36182044537503,892.73763860436497,-363.30377190903818,1523.3771808424331,464.60078869571504,-93.946780747266587,93.946780747266587,-464.60078869571504,2862.5909867100195,0.0
568523.2936376977,3692751.2368613081,-42500.0,201.1342311096696,989.80353412831823,-1718.9873529441907,-375.90516681621096,945.84837622585042,-361.67182095692215,1610.6082269584697,692.81701016166608,-273.23316541956541,273.23316541956541,-692.81701016166608,2994.9784883779075,0.0
573523.2936376977,3692751.2368613081,-42500.0,445.06255020870032,902.29086188186693,-1879.470548369248,-273.89150632421109,984.0389231353156,-345.88243067380904,1700.3235338918541,949.39910939964125,-490.5070399876501,490.5070399876501,-949.39910939964125,3124.564638266309,0.0
578523.2936376977,3692751.2368613081,-42500.0,716.87687280219563,765.99897650585388,-2028.7029138494893,-138.87086923540792,998.75298298121788,-310.67213154783798,1793.622285737544,1229.5466154604542,-746.95001390443792,746.95001390443792,-1229.5466154604542,3253.2274373467699,0.0
583523.2936376977,3692751.2368613081,-42500.0,1009.6203079974396,572.10245331722365,-2153.189737433157,32.794759532916707,979.04582480005786,-249.7064249846681,1892.8657171839945,1524.2412036756623,-1040.6310169666099,1040.6310169666099,-1524.2412036756623,3386.2932955568808,0.0
588523.2936376977,3692751.2368613081,-42500.0,1311.6684182283896,313.30631771937959,-2234.9385989772368,243.00900869590288,911.48542694359514,-155.68086583963967,2002.2365410637503,1819.0849989296516,-1364.9090899456146,1364.9090899456146,-1819.0849989296516,3534.3293168665255,0.0
593523.2936376977,3692751.2368613081,-42500.0,1605.9348586006877,-14.190140055441539,-2251.252550663929,490.69680549751905,780.41403030933873,-20.639452360531756,2128.2169899292167,2093.3611848268501,-1706.6008447739703,1706.6008447739703,-2093.3611848268501,3714.7986577885154,0.0
598523.2936376977,3692751.2368613081,-42500.0,1869.6742389964957,-408.0602782197036,-2175.3303356048705,770.27887033652291,568.80854884673477,163.39002036006505,2279.6650678133037,2319.7431454461789,-2044.1990177005023,2044.1990177005023,-2319.7431454461789,3952.4293865071859,0.0
603523.2936376977,3692751.2368613081,-42500.0,2075.4157694514133,-856.73956935441595,-1978.1944549887776,1070.0385272222229,260.01328637595259,403.34564155949636,2467.0430743215989,2465.2586099819582,-2346.6933838211662,2346.6933838211662,-2465.2586099819582,4276.614308475735,0.0
608523.2936376977,3692751.2368613081,-42500.0,2193.6276342285337,-1336.3993934512655,-1632.4734715590055,1370.7557403468122,-159.42654935061822,703.60768795863009,2700.4587091703961,2494.2108744544576,-2573.8479743623511,2573.8479743623511,-2494.2108744544576,4714.7954926345947,0.0
613523.2936376977,3692751.2368613081,-42500.0,2197.5462080303514,-1809.0615126889591,-1118.3151187244089,1645.2297801622265,-695.80291846947864,1064.050519195044,2986.6654600694164,2373.6104325322231,-2678.9971514395393,2678.9971514395393,-2373.6104325322231,5283.191569397336,0.0
618523.2936376977,3692751.2368613081,-42500.0,2070.0233617785134,-2223.356484461407,-431.03538782707119,1859.499165699887,-1343.5585013163625,1477.9168499014472,3325.8168169164119,2081.0650812617846,-2615.2752892679259,2615.2752892679259,-2081.0650812617846,5978.5946317041089,0.0
623523.2936376977,3692751.2368613081,-42500.0,1811.1927100247788,-2519.4683380808819,410.9939931169726,1976.5071887709125,-2080.9251760346638,1930.0390611644934,3709.0501257446899,1613.9281719755481,-2345.399249858478,2345.399249858478,-1613.9281719755481,6774.5658382448828,0.0
628523.2936376977,3692751.2368613081,-42500.0,1444.4753005185937,-2638.968119874145,1360.9572727557365,1962.4135465876793,-2867.5839235572798,2396.1864767157908,4117.6063330067273,997.03180346615352,-1853.5289590675989,1853.5289590675989,-997.03180346615352,7622.7938537557939,0.0
633523.2936376977,3692751.2368613081,-42500.0,1017.706448350509,-2538.3329346183914,2344.0265119750743,1794.6608141104955,-3646.2440453872077,2844.3606902152178,4523.6774697480505,285.34226433343861,-1155.7927628976861,1155.7927628976861,-285.34226433343861,8458.7335901887163,0.0
638523.2936376977,3692751.2368613081,-42500.0,596.92204683052705,-2202.51779389287,3265.9577282576306,1469.5969297308106,-4349.2980249499951,3238.4758286629531,4893.151896071251,-441.5651191317753,-304.88520825184571,304.88520825184571,441.5651191317753,9210.4688147397464,0.0
643523.2936376977,3692751.2368613081,-42500.0,252.98545942212084,-1653.4020122844979,4029.3252734207749,1006.7178306133194,-4909.8954625697352,3544.0023000582819,5190.5507794300138,-1093.6229440174334,614.93421619409992,-614.93421619409992,1093.6229440174334,9809.5062916795268,0.0
648523.2936376977,3692751.2368613081,-42500.0,44.788106362212744,-948.84308336511572,4553.2113947008747,447.25621033234222,-5274.6429333214855,3734.1880486520236,5385.521464524867,-1589.4435405993331,1502.6884022638228,-1502.6884022638228,1589.4435405993331,10201.508419194417,0.0
653523.2936376977,3692751.2368613081,-42500.0,5.0020951232757174,-171.58025311817931,4789.8931171454406,-153.09242502664921,-5413.9204954494244,3794.9560840503641,5458.6829769621218,-1874.1184574205211,2261.2264875280675,-2261.2264875280675,1874.1184574205211,10354.450885007971,0.0
658523.2936376977,3692751.2368613081,-42500.0,133.58758409790508,588.41818734381968,4732.9024940455647,-735.07174416456951,-5326.4816678157886,3726.9470789169213,5404.6688896318028,-1929.4481550337687,2816.5808144692646,-2816.5808144692646,1929.4481550337687,10262.205336480118,0.0
663523.2936376977,3692751.2368613081,-42500.0,400.77056705359922,1252.0055665251298,4414.459423439388,-1246.7902726177574,-5037.2877964298332,3544.2749564840192,5231.7931028136791,-1773.782382239448,3129.9611956545818,-3129.9611956545818,1773.782382239448,9942.9918205780687,0.0
668523.2936376977,3692751.2368613081,-42500.0,757.22509307152097,1763.7479194492919,3894.4847723564667,-1651.4892055968635,-4590.0761755834519,3270.7507949920287,4959.1417801694452,-1453.029456155404,3199.7653678867655,-3199.7653678867655,1453.029456155404,9433.7529522280201,0.0
673523.2936376977,3692751.2368613081,-42500.0,1146.9796821619136,2097.0286090214195,3245.8848155220085,-1930.6731902866325,-4037.619643900392,2934.994595184543,4612.4183160654202,-1027.2460237026037,3055.0295376948125,-3055.0295376948125,1027.2460237026037,8782.4670474324921,0.0
678523.2936376977,3692751.2368613081,-42500.0,1518.7912499417248,2251.9759560353523,2540.7841575681591,-2082.9652955928582,-3432.5859449976215,2565.8150584712903,4219.7539191387905,-557.52287526233181,2744.1724313020713,-2744.1724313020713,557.52287526233181,8040.4624648981271,0.0
683523.2936376977,3692751.2368613081,-42500.0,1833.5236238978839,2248.8183068916487,1840.6717403814005,-2120.183566221704,-2820.8598934613478,2188.7567827239695,3808.2432480429152,-96.315158550417664,2323.125596678311,-2323.125596678311,96.315158550417664,7256.2070295699132,0.0
688523.2936376977,3692751.2368613081,-42500.0,2067.0696642180883,2119.6404528738335,1191.3261261658467,-2062.3589520815985,-2237.9049551522749,1824.1135678981013,3401.3665472146736,317.71383178555902,1845.688868079965,-1845.688868079965,-317.71383178555902,6471.2010657027877,0.0
693523.2936376977,3692751.2368613081,-42500.0,2209.7125320271598,1900.8099604587578,621.8677482010894,-1933.0342526288509,-1707.807368379219,1486.2722807232233,3017.102376979597,660.84250066923937,1357.3183503880209,-1357.3183503880209,-660.84250066923937,5717.938774646459,0.0
698523.2936376977,3692751.2368613081,-42500.0,2263.3372724973683,1627.2830795047246,146.59056198321886,-1755.5965020310359,-1244.1969937681754,1184.0274292327483,2666.8424519551113,922.6948227557175,892.26798562324484,-892.26798562324484,-922.6948227557175,5019.5106522596125,0.0
703523.2936376977,3692751.2368613081,-42500.0,2237.813287198635,1329.0917289878764,-231.80846503624528,-1550.8757385039223,-852.19037906289498,921.46632002248975,2355.7517329578673,1103.2406660967167,473.31257222186645,-473.31257222186645,-1103.2406660967167,4390.2970629574938,0.0
708523.2936376977,3692751.2368613081,-42500.0,2147.4874268425388,1029.7445646223755,-518.67283535765671,-1335.902903071403,-530.66587061440714,699.08445806499628,2084.4807019337472,1209.4490235653254,113.08966383094844,-113.08966383094844,-1209.4490235653254,3837.2460655798668,0.0
713523.2936376977,3692751.2368613081,-42500.0,2008.3118549880658,746.03188952783364,-724.17111169786472,-1123.5603136643604,-274.41869825994024,514.89478327143206,1851.0315140577311,1252.2618889644127,-183.78931645581292,183.78931645581292,-1252.2618889644127,3361.3675705679466,0.0
718523.2936376977,3692751.2368613081,-42500.0,1835.788158927043,488.69645396238775,-860.73974526382426,-922.81937258211838,-75.955486746819687,365.39084661770198,1651.9991096244635,1244.2064931902044,-418.47402978954659,418.47402978954659,-1244.2064931902044,2959.2111744048902,0.0
563523.2936376977,3697751.2368613081,-42500.0,189.58939659650076,838.06369477004773,-1495.7630143400581,-288.5196549795233,779.40814800027533,-278.57802538851661,1368.8381217788301,624.37406000906526,-267.25345679665247,267.25345679665247,-624.37406000906526,2539.641828605837,0.0
568523.2936376977,3697751.2368613081,-42500.0,390.3083604124929,763.46604047390599,-1624.5015454891609,-206.20096139942601,808.32907923141056,-266.26583929051537,1443.0454040229124,833.37940919376717,-445.69475479629125,445.69475479629125,-833.37940919376717,2646.5188135405638,0.0
573523.2936376977,3697751.2368613081,-42500.0,613.19310242515655,650.4768718969558,-1743.4939210132727,-98.871712945462306,819.51425502485029,-240.04287153158899,1520.7108745352994,1060.4024402279358,-654.19864163229147,654.19864163229147,-1060.4024402279358,2754.0285724715973,0.0
578523.2936376977,3697751.2368613081,-42500.0,853.35281233902026,492.43147120044551,-1842.6055284338186,36.2042195891906,805.15260427718408,-195.54406739097843,1603.7337830708193,1298.9078759561878,-891.35595111548048,891.35595111548048,-1298.9078759561878,2866.4968854907825,0.0
583523.2936376977,3697751.2368613081,-42500.0,1102.677637605203,283.63570480928422,-1908.5218560614198,200.66363768466718,755.71778523434739,-127.72957019230353,1695.2812241481802,1538.6550436079863,-1152.5340591946976,1152.5340591946976,-1538.6550436079863,2991.9385295970897,0.0
588523.2936376977,3697751.2368613081,-42500.0,1349.2746548371179,20.621965695194248,-1924.5727318812644,394.2646951704948,660.0986358646968,-31.058834207384965,1800.0873889795639,1765.0492138563279,-1428.6742608811517,1428.6742608811517,-1765.0492138563279,3143.1189032209231,0.0
593523.2936376977,3697751.2368613081,-42500.0,1577.2327614277019,-296.170522353519,-1871.0259934015742,613.92833588625126,506.07026232320658,100.15504921607666,1924.5085918380482,1958.8537650719379,-1705.0900395395508,1705.0900395395508,-1958.8537650719379,3337.8282050521184,0.0
598523.2936376977,3697751.2368613081,-42500.0,1767.0137855092107,-660.37476240486421,-1726.147866565721,852.68426941396615,281.25861608024087,271.15513840668302,2076.0820933696755,2096.6002371978952,-1960.5600160147899,1960.5600160147899,-2096.6002371978952,3597.403293265168,0.0
603523.2936376977,3697751.2368613081,-42500.0,1896.819946117,-1057.6023468316355,-1468.3517198656464,1098.7053715180068,-25.26003558890817,485.87582732412346,2262.3887299108978,2152.102310438901,-2167.1760380820701,2167.1760380820701,-2152.102310438901,3942.8438134821877,0.0
608523.2936376977,3697751.2368613081,-42500.0,1945.2394892833552,-1463.8029978399893,-1079.6637455089362,1334.7400450997632,-420.66586578235848,745.81182103022684,2489.2555226469135,2099.4408321237761,-2291.5430640863069,2291.5430640863069,-2099.4408321237761,4389.0937108892731,0.0
613523.2936376977,3697751.2368613081,-42500.0,1895.2449428423406,-1844.8740856389943,-550.45310054504159,1538.3679003275358,-905.53257334415105,1048.7161177948813,2758.6855025254026,1917.5526208224005,-2297.9314459132597,2297.9314459132597,-1917.5526208224005,4939.4404915940386,0.0
618523.2936376977,3697751.2368613081,-42500.0,1739.146274778006,-2158.4613897901158,115.14781873984288,1683.5355937403708,-1470.8188552464576,1387.3492045530022,3067.1137825826859,1596.0438606636676,-2153.7045054196487,2153.7045054196487,-1596.0438606636676,5582.0678587429247,0.0
623523.2936376977,3697751.2368613081,-42500.0,1483.4290867836335,-2358.693651290158,894.39978558925293,1743.6733239202642,-2095.4988007651932,1748.6408121492057,3404.4810703562353,1141.0927707090518,-1836.6681605055064,1836.6681605055064,-1141.0927707090518,6289.543157478578,0.0
628523.2936376977,3697751.2368613081,-42500.0,1151.778808067193,-2403.8613302951867,1743.5499760080129,1696.2671331796403,-2745.8818918962652,2113.7114887548319,3754.2935996347987,579.55354049775701,-1342.9699496074534,1342.9699496074534,-579.55354049775701,7020.9315700527577,0.0
633523.2936376977,3697751.2368613081,-42500.0,784.44244886468596,-2265.8189067207059,2599.7722830224711,1528.1115642155321,-3377.6117995256454,2459.1425440249882,4094.610111956059,-40.901567167026258,-693.17486221283366,693.17486221283366,40.901567167026258,7726.0517074773261,0.0
638523.2936376977,3697751.2368613081,-42500.0,432.82949835177146,-1938.5895620574563,3388.4610302040746,1239.824351792382,-3940.7433226373601,2759.5992791725816,4399.9951719867904,-657.06983502049013,66.196301766729107,-66.196301766729107,657.06983502049013,8351.4547701849424,0.0
643523.2936376977,3697751.2368613081,-42500.0,149.92868728542214,-1443.0703141677695,4035.0572324281388,847.98037851071729,-4387.2417702049424,2991.4505941026778,4644.684259197692,-1200.6342105413228,867.47342474445702,-867.47342474445702,1200.6342105413228,8847.4307965639564,0.0
648523.2936376977,3697751.2368613081,-42500.0,-20.952856185422196,-825.54032287519738,4478.5538180653875,383.72900099122802,-4679.1477915256337,3136.5647126363074,4806.7232387501108,-1611.214130744565,1632.6678202041667,-1632.6678202041667,1611.214130744565,9174.8445551720051,0.0
653523.2936376977,3697751.2368613081,-42500.0,-55.542166399569183,-149.78131383479445,4682.7068699919082,-112.08053678360362,-4795.1051128248027,3185.2524157777648,4871.8046776767351,-1848.126737005832,2287.5632684490811,-2287.5632684490811,1848.126737005832,9310.3249268650798,0.0
658523.2936376977,3697751.2368613081,-42500.0,46.998299935795785,514.93667705690018,4641.5911202245388,-595.94938415297418,-4733.3818627390801,3137.5498977886082,4835.4058282196856,-1897.2182186302171,2774.8837475196442,-2774.8837475196442,1897.2182186302171,9248.6552593383567,0.0
663523.2936376977,3697751.2368613081,-42500.0,265.70556287167773,1106.302140531642,4378.2204833319665,-1028.9054952577526,-4510.7397722668129,3002.5825031273321,4702.7702020110664,-1771.0512670683852,3062.7880875582273,-3062.7880875582273,1771.0512670683852,9001.9886590200185,0.0
668523.2936376977,3697751.2368613081,-42500.0,564.30242588028102,1578.3729416618289,3937.4126881666316,-1381.9192803850103,-4157.9004173311059,2796.3668730820154,4487.1673485397578,-1503.2269129507413,3146.9255017175319,-3146.9255017175319,1503.2269129507413,8596.4108096227828,0.0
673523.2936376977,3697751.2368613081,-42500.0,899.92804040208659,1906.053768680227,3375.6833734445299,-1638.5302182113596,-3713.2547111290469,2538.7972986808054,4207.2205043697795,-1139.3882509455943,3046.6484991213511,-3046.6484991213511,1139.3882509455943,8066.9737815935732,0.0
678523.2936376977,3697751.2368613081,-42500.0,1231.4013653148165,2084.6658456194045,2751.1838438614172,-1794.6945480829072,-3216.5809511738994,2250.6164101608833,3884.058034532814,-727.86191973828386,2797.5898358064751,-2797.5898358064751,727.86191973828386,7452.4501068779928,0.0
683523.2936376977,3697751.2368613081,-42500.0,1525.1814561973085,2125.991500362692,2115.8560404259847,-1856.5965274007465,-2704.0543533916016,1950.9586154516337,3538.7952429661368,-312.16739922746024,2443.2075973380088,-2443.2075973380088,312.16739922746024,6790.7870177970335,0.0
688523.2936376977,3697751.2368613081,-42500.0,1758.3864364675403,2052.6660183063968,1510.7347464956736,-1837.4490069917563,-2205.1297557114449,1655.7520548695613,3190.5153316591632,73.576273264675592,2027.3570195529885,-2027.3570195529885,-73.576273264675592,6115.8163170885446,0.0
693523.2936376977,3697751.2368613081,-42500.0,1919.1791547630444,1892.5357761173896,964.26506946496295,-1754.1870690943854,-1741.2555321957896,1376.9829708553591,2854.6542915995524,406.37929549276646,1588.9884569433059,-1588.9884569433059,-406.37929549276646,5455.326858780355,0.0
698523.2936376977,3697751.2368613081,-42500.0,2005.3253020527811,1674.0194747535788,492.89857980833654,-1624.6598060483202,-1326.0202820676502,1122.6599684411026,2541.8984659400048,673.91027569520338,1159.2011292917036,-1159.2011292917036,-673.91027569520338,4830.335130305114,0.0
703523.2936376977,3697751.2368613081,-42500.0,2021.8162515796039,1422.9018663571667,103.05383172082983,-1465.5974141477632,-966.20615420353499,897.24657086648199,2258.1274086041435,872.69553176798195,760.30827406334356,-760.30827406334356,-872.69553176798195,4255.239552711093,0.0
708523.2936376977,3697751.2368613081,-42500.0,1978.2848360794335,1160.5424677043525,-206.36568631238436,-1291.3809735082232,-663.26754053005823,702.33838023421231,2005.4873642533885,1005.769476204548,406.3211671252846,-406.3211671252846,-1005.769476204548,3738.5267923448141,0.0
713523.2936376977,3697751.2368613081,-42500.0,1886.6911846249996,903.23419323342114,-441.47051280486835,-1113.4936582596463,-414.87639087357707,537.40928417170142,1783.7521803895411,1080.3391599944384,104.24729972009357,-104.24729972009357,-1080.3391599944384,3283.7508675513027,0.0
563523.2936376977,3702751.2368613081,-42500.0,341.57183849180052,649.74421247106534,-1409.0178339522397,-157.79562426632219,668.39935623408655,-207.45970273962385,1231.6782848459054,730.77252188102523,-402.5151035536627,402.5151035536627,-730.77252188102523,2255.2926614705857,0.0
568523.2936376977,3702751.2368613081,-42500.0,525.45632612030454,555.7553450155724,-1504.7471538270822,-72.169926928239406,677.14116311638782,-187.91973603556005,1296.4460130290984,915.95369746674339,-573.0754209465839,573.0754209465839,-915.95369746674339,2345.2315412568423,0.0
573523.2936376977,3702751.2368613081,-42500.0,723.64776045345877,426.26947127823911,-1584.4791316107603,34.614304906815399,666.77719613188674,-155.32233400729632,1365.8821715591569,1110.2885858262416,-765.89595298309223,765.89595298309223,-1110.2885858262416,2440.0308582208181,0.0
578523.2936376977,3702751.2368613081,-42500.0,930.4334018641581,256.82480459641948,-1638.2614739437272,163.9296001658781,630.47639933043172,-106.16278284949004,1442.3965266601067,1306.4111294225127,-977.70909323065769,977.70909323065769,-1306.4111294225127,2545.7853129724467,0.0
583523.2936376977,3702751.2368613081,-42500.0,1137.4470952858851,44.397416272343094,-1653.7204924958196,315.95083430054325,560.2697624693634,-36.557289930631036,1529.4897907631585,1493.9146354553354,-1202.2068253192924,1202.2068253192924,-1493.9146354553354,2671.9196493670729,0.0
588523.2936376977,3702751.2368613081,-42500.0,1333.4493425699739,-211.50648320090446,-1616.1979082683415,489.04238289141648,447.30982288393557,57.559405078079635,1631.7974019364201,1659.1027364723334,-1429.2202705410593,1429.2202705410593,-1659.1027364723334,2831.4023658818996,0.0
593523.2936376977,3702751.2368613081,-42500.0,1504.462896021862,-507.51974068186911,-1509.3430190417755,679.06934392005542,282.41764210287266,180.09927217749504,1754.8363414861544,1785.1386783461862,-1644.0442558236373,1644.0442558236373,-1785.1386783461862,3039.9019285844975,0.0
598523.2936376977,3702751.2368613081,-42500.0,1634.4704830793034,-834.97672522772473,-1316.3554090959562,878.72550184168119,57.003543283987561,334.32317979583229,1904.3304071832877,1852.8302872281247,-1827.1613135516268,1827.1613135516268,-1852.8302872281247,3313.4619749763328,0.0
603523.2936376977,3702751.2368613081,-42500.0,1706.8739770054067,-1178.637177485075,-1022.0427160860597,1077.0371087590743,-235.58486845892648,522.17498116534625,2085.1103548944061,1842.2866815051482,-1954.7052887126576,1954.7052887126576,-1842.2866815051482,3664.9198412330616,0.0
608523.2936376977,3702751.2368613081,-42500.0,1706.8244619343479,-1515.9976314206538,-615.7371564736319,1259.2704688247854,-598.31537724730674,743.48297649506583,2299.7768394520494,1735.5916215980326,-2000.0393550194383,2000.0393550194383,-1735.5916215980326,4100.1068275963607,0.0
613523.2936376977,3702751.2368613081,-42500.0,1624.3196587709881,-1817.7382798233214,-94.867561501965,1407.5099504745722,-1028.4937053361448,995.12442901399424,2547.4576093319133,1520.4085057594964,-1936.7334718147492,1936.7334718147492,-1520.4085057594964,4615.0790878436774,0.0
618523.2936376977,3702751.2368613081,-42500.0,1457.6292195916124,-2049.8444430913773,531.37785126930316,1502.1398245621078,-1515.9131656191507,1270.3227007267562,2822.9851786411082,1194.0590514324047,-1742.9479530381179,1742.9479530381179,-1194.0590514324047,5195.0331536238173,0.0
623523.2936376977,3702751.2368613081,-42500.0,1216.2157682297479,-2177.6904026434149,1239.260100553814,1524.3073513452894,-2041.674225477695,1558.3104384691226,3116.6723798515145,767.16463608297886,-1406.7349983847078,1406.7349983847078,-767.16463608297886,5814.8536149865886,0.0
628523.2936376977,3702751.2368613081,-42500.0,922.04545327738424,-2171.8215808657642,1989.7724125189429,1459.1498548243021,-2578.2986493968237,1844.6054272577837,3414.6792720178419,265.59389386866746,-931.15866185221307,931.15866185221307,-265.59389386866746,6441.0223737877595,0.0
633523.2936376977,3702751.2368613081,-42500.0,608.26127024285302,-2014.4136048387436,2731.0502551266541,1299.1966614845085,-3091.6323075638106,2112.074428443304,3699.8718022336398,-270.5153747409372,-337.65763362373707,337.65763362373707,270.5153747409372,7034.7212074681629,0.0
638523.2936376977,3702751.2368613081,-42500.0,314.79133210021013,-1704.7166122628607,3404.2580015052517,1047.051906344077,-3544.6151513120853,2342.7716526935783,3953.1750652579144,-791.29280135083729,333.92155865850361,-333.92155865850361,791.29280135083729,7555.9347440433085,0.0
643523.2936376977,3702751.2368613081,-42500.0,81.49873823865066,-1261.6255270657462,3952.1635224343868,716.43118505487348,-3902.387915414798,2520.2896159904781,4155.6249591543792,-1244.7426414275797,1029.476727017819,-1029.476727017819,1244.7426414275797,7968.1125128854801,0.0
648523.2936376977,3702751.2368613081,-42500.0,-59.458891407468798,-722.13070766483929,4328.4724732435325,330.97702442144612,-4137.6242963585155,2632.1286727276647,4291.0719465182601,-1585.7057558089123,1688.5298130156793,-1688.5298130156793,1585.7057558089123,8242.6296705185596,0.0
653523.2936376977,3702751.2368613081,-42500.0,-89.869931186923068,-135.68406904737816,4505.4578042423655,-79.053793042036574,-4234.7452601412087,2671.5154169939747,4348.7815808027844,-1783.749837410762,2254.0007230016945,-2254.0007230016945,1783.749837410762,8362.1765479854676,0.0
658523.2936376977,3702751.2368613081,-42500.0,-8.4893155939044274,444.08974932736407,4477.8264836126673,-481.43868536507671,-4191.9296020740085,2638.2210755176047,4324.9714075360671,-1827.7993743555139,2681.2839641573123,-2681.2839641573123,1827.7993743555139,8322.3761514945109,0.0
663523.2936376977,3702751.2368613081,-42500.0,169.85343255619779,968.06363430922454,4262.0076369778162,-846.77403986147772,-4020.5269762083649,2538.2298302353997,4222.9285419642865,-1726.4467132474124,2944.3106201304413,-2944.3106201304413,1726.4467132474124,8131.3961460291148,0.0
668523.2936376977,3702751.2368613081,-42500.0,418.42915737409987,1398.4685282658472,3891.4917790230065,-1152.2567922134151,-3742.2522830554394,2382.4295193261305,4051.9520526939446,-1504.331564824352,3037.4049807139104,-3037.4049807139104,1504.331564824352,7807.8134851569603,0.0
673523.2936376977,3702751.2368613081,-42500.0,704.53227800880074,1712.6114183318916,3409.8868582917517,-1383.7694692082725,-3385.0921792795266,2184.7289117779796,3825.6111020835956,-1196.0784764110986,2973.1478918534876,-2973.1478918534876,1196.0784764110986,7377.3696779944612,0.0
678523.2936376977,3702751.2368613081,-42500.0,995.42676098170136,1903.2533234516457,2863.6270731963432,-1536.1590939426794,-2978.9970036890313,1960.0662645172981,3559.7978781718061,-839.64936585385874,2777.5052033739662,-2777.5052033739662,839.64936585385874,6869.3744493965942,0.0
683523.2936376977,3702751.2368613081,-42500.0,1263.0077876757675,1976.361470354776,2295.880894193288,-1612.0714392334141,-2552.2245362843287,1722.6913899174403,3270.9188388149514,-470.65302719545878,2483.8711755511904,-2483.8711755511904,470.65302719545878,6313.4165274433399,0.0
688523.2936376977,3702751.2368613081,-42500.0,1486.5632134017358,1947.3792289534729,1742.4765424836837,-1619.934399847953,-2128.8110924878902,1484.9397334848666,2974.3509720059096,-118.47324425559157,2127.4637441871846,-2127.4637441871846,118.47324425559157,5736.7969899455247,0.0
693523.2936376977,3702751.2368613081,-42500.0,1653.6541810210085,1837.1315648617219,1229.9658219246835,-1571.6835930863419,-1727.2656082257447,1256.5558817552271,2683.1170630403967,195.60923546839103,1740.9801265885976,-1740.9801265885976,-195.60923546839103,5162.8497472171548,0.0
698523.2936376977,3702751.2368613081,-42500.0,1759.5387421070729,1668.1821265947544,775.46633340301526,-1480.6791347454075,-1360.3110869200621,1044.5026716988236,2406.8552806865382,458.61005257229226,1351.8501336298186,-1351.8501336298186,-458.61005257229226,4610.1077538074196,0.0
703523.2936376977,3702751.2368613081,-42500.0,1805.7090172080641,1462.0770435711822,387.71053744391304,-1360.0690218126845,-1035.3681060817141,853.12904642243336,2151.5233371373206,664.88242812431645,980.99229047945255,-980.99229047945255,-664.88242812431645,4092.1514830829997,0.0
708523.2936376977,3702751.2368613081,-42500.0,1798.072347990334,1237.585640143785,68.729047565441931,-1221.6835168144946,-755.46193932054848,684.55717706243809,1920.0369039633702,814.55328654637924,642.74009423867687,-642.74009423867687,-814.55328654637924,3617.934356365563,0.0
568523.2936376977,3707751.2368613081,-42500.0,615.68465029774222,371.02517797340198,-1368.9925198306662,30.904749704001059,555.78343759099903,-124.74591237111132,1169.2014008843487,952.32146087218291,-660.35520603058819,660.35520603058819,-952.32146087218291,2088.1080674149998,0.0
573523.2936376977,3707751.2368613081,-42500.0,787.95042258969272,232.72512875212101,-1413.3205189529081,133.13792476299594,529.0076925530484,-88.86717564995034,1233.1587590021086,1113.6715406401104,-833.26352733694353,833.26352733694353,-1113.6715406401104,2177.0386428940706,0.0
578523.2936376977,3707751.2368613081,-42500.0,962.08484532733303,60.190637184341988,-1427.9558370362677,253.09989864512099,477.11085335906012,-38.391444147534742,1305.5679272543223,1269.5081431883825,-1016.8328962141547,1016.8328962141547,-1269.5081431883825,2282.108662891595,0.0
583523.2936376977,3707751.2368613081,-42500.0,1130.0763234039382,-147.48602146193548,-1401.9148617018643,389.97853454190528,393.64325514886372,29.591894816024894,1389.8559919075751,1409.9733202993673,-1203.9298662522776,1203.9298662522776,-1409.9733202993673,2412.8820226546736,0.0
588523.2936376977,3707751.2368613081,-42500.0,1281.864214976124,-388.66427481480378,-1322.8384467229691,541.33859754974094,271.79023728601692,117.97464279184761,1490.113826087701,1522.8876090083279,-1384.2416112177573,1384.2416112177573,-1522.8876090083279,2580.9805524073045,0.0
593523.2936376977,3707751.2368613081,-42500.0,1405.68685894438,-658.16808088529922,-1177.7211119802828,702.65778101339811,104.91039831711653,229.34071857817213,1610.689077990608,1594.1526006604001,-1543.9946515392592,1543.9946515392592,-1594.1526006604001,2798.671668019123,0.0
598523.2936376977,3707751.2368613081,-42500.0,1488.8882590920282,-946.33851873298431,-954.14957548438679,866.93689315712982,-112.66117881429571,365.5711395875357,1755.5028608672819,1608.6772020756503,-1666.0857992957267,1666.0857992957267,-1608.6772020756503,3076.597978102815,0.0
603523.2936376977,3707751.2368613081,-42500.0,1519.2770034229861,-1238.357020819733,-642.10892376137576,1024.5075065570572,-384.54180120160402,527.35418595906231,1927.1787387789318,1551.9419849523617,-1730.8542923018297,1730.8542923018297,-1551.9419849523617,3421.2016017981991,0.0
608523.2936376977,3707751.2368613081,-42500.0,1487.0358112609199,-1514.1540624908539,-236.2992463495851,1163.1916131259968,-711.0261172754615,713.64162466410301,2126.1677770159472,1412.2145935493247,-1717.70339051727,1717.70339051727,-1412.2145935493247,3832.6115317486601,0.0
613523.2936376977,3707751.2368613081,-42500.0,1387.0139451335031,-1749.2536648528169,261.28107470025975,1268.9692513205086,-1087.768564779285,921.13088435293594,2350.0760734971918,1183.2457886766722,-1607.667395581311,1607.667395581311,-1183.2457886766722,4303.4982319686387,0.0
618523.2936376977,3707751.2368613081,-42500.0,1221.0120580951432,-1916.8319290733887,838.96390329078383,1327.2566893138207,-1504.6949390411783,1143.891820814245,2593.3399822719148,867.02361058498991,-1386.7872793385668,1386.7872793385668,-867.02361058498991,4818.9552964200975,0.0
623523.2936376977,3707751.2368613081,-42500.0,999.45900073071107,-1991.04194711842,1473.9359830109829,1324.7740268217105,-1945.5004263299641,1373.282690224137,2847.2986049688407,475.91494887007008,-1049.8280944968715,1049.8280944968715,-475.91494887007008,5357.260523810126,0.0
628523.2936376977,3707751.2368613081,-42500.0,741.78461697724549,-1951.2720359450186,2132.4112805439809,1251.78917600861,-2388.0953193894238,1598.2884818920279,3100.6163148926898,33.390147597606301,-603.52142385252046,603.52142385252046,-33.390147597606301,5891.4071441216238,0.0
633523.2936376977,3707751.2368613081,-42500.0,474.93854925383721,-1786.5538488210757,2772.0032372462283,1104.317740252018,-2806.2292834766718,1806.351871856335,3339.9609909700507,-427.34675808942563,-68.316353841541172,68.316353841541172,427.34675808942563,6391.359044897752,0.0
638523.2936376977,3707751.2368613081,-42500.0,229.93865923914666,-1499.0047674878497,3346.3470581250454,885.72184122376689,-3172.2545935226703,1984.6540345701135,3550.9290446455066,-867.04835572270099,522.25951302321027,-522.25951302321027,867.04835572270099,6826.9151643349978,0.0
643523.2936376977,3707751.2368613081,-42500.0,36.968045392990334,-1105.1845570815899,3811.3151092570483,607.17772304406401,-3460.6275157405107,2121.6588790717042,3719.3828343021751,-1245.9596390870202,1125.0071368931576,-1125.0071368931576,1245.9596390870202,7170.8720801017344,0.0
648523.2936376977,3707751.2368613081,-42500.0,-79.87143664961107,-634.69019371129968,4131.5305550964231,286.72092887332116,-3651.4467146429397,2208.6235384807401,3833.2588383403559,-1530.0326229813925,1692.7978617084289,-1692.7978617084289,1530.0326229813925,7402.0034193241536,0.0
653523.2936376977,3707751.2368613081,-42500.0,-106.78740208854943,-126.09398325523071,4285.6212601307871,-53.034853148993534,-3733.2200806285909,2240.7456841814464,3884.3792741489078,-1696.2947395933725,2181.4288149285126,-2181.4288149285126,1696.2947395933725,7507.3147303216092,0.0
658523.2936376977,3707751.2368613081,-42500.0,-42.395073865945371,378.84910540712048,4268.9446865649625,-388.01508312056427,-3704.2253631662456,2217.6969871367714,3869.5888362631736,-1736.0323948790624,2555.9618004085564,-2555.9618004085564,1736.0323948790624,7483.1641409772255,0.0
663523.2936376977,3707751.2368613081,-42500.0,102.76180109432018,841.30545583816433,4093.2426196015176,-695.92019422692772,-3572.208512948203,2143.4468591321584,3790.9192890530844,-1655.1191791690917,2795.0823998626211,-2795.0823998626211,1655.1191791690917,7335.0758979348802,0.0
668523.2936376977,3707751.2368613081,-42500.0,308.92746142073827,1230.3727287928416,3783.5714249558364,-958.87767860271924,-3352.6210596790243,2025.4661691847239,3654.9348148717645,-1471.6827051262467,2892.676513772712,-2892.676513772712,1471.6827051262467,7076.3895611904636,0.0
673523.2936376977,3707751.2368613081,-42500.0,551.17200823989299,1526.0708199795044,3373.5167890915186,-1165.0486466863342,-3065.9338253698056,1873.5361007169815,3471.5807601386364,-1211.9947097567317,2856.6672470321273,-2856.6672470321273,1211.9947097567317,6726.1171276703744,0.0
678523.2936376977,3707751.2368613081,-42500.0,803.65154710605577,1720.0645952378245,2899.9326687517919,-1309.0585854522917,-2734.6800652808188,1698.4338822165153,3252.8443400747874,-905.75454908180279,2705.828309910904,-2705.828309910904,905.75454908180279,6306.4656984133217,0.0
683523.2936376977,3707751.2368613081,-42500.0,1043.1794835579919,1814.4662605653698,2398.2842165272391,-1391.4183374964871,-2380.804202714653,1510.7394593482022,3011.4595666378605,-581.81887364954309,2465.6134379355753,-2465.6134379355753,581.81887364954309,5840.4634053371374,0.0
688523.2936376977,3707751.2368613081,-42500.0,1251.5926683654591,1819.4061249312447,1899.2594838793809,-1417.2759661329417,-2023.6807939934383,1319.922700187379,2759.7506082452928,-265.05141698890566,2163.9901292429558,-2163.9901292429558,265.05141698890566,5349.9969631610602,0.0
693523.2936376977,3707751.2368613081,-42500.0,1416.806115809133,1750.1205695826329,1426.8596325965038,-1394.878031525478,-1678.9327650036785,1133.7739313154009,2508.5768989419644,25.468552142163958,1827.9786252573067,-1827.9786252573067,-25.468552142163958,4854.4123887873229,0.0
698523.2936376977,3707751.2368613081,-42500.0,1532.7550742895544,1624.169173386595,997.83077748968287,-1334.0597875724268,-1357.9951576135122,958.16406118917064,2266.4202296371732,276.98741765919942,1481.2428436574955,-1481.2428436574955,-276.98741765919942,4369.7038513048929,0.0
703523.2936376977,3707751.2368613081,-42500.0,1598.5699435187971,1459.1625414462414,622.09940625292643,-1244.9726640789352,-1068.2554800505154,797.06787400548797,2038.9626763415374,482.67536447370048,1142.7671668756693,-1142.7671668756693,-482.67536447370048,3908.2097184145432,0.0
573523.2936376977,3712751.2368613081,-42500.0,816.56909318025839,70.160015094563548,-1238.7943967632443,203.02822278508398,407.61985008778498,-37.802842810444425,1119.6035998533071,1083.3177706153792,-864.43272514242551,864.43272514242551,-1083.3177706153792,1958.3963041699149,0.0
578523.2936376977,3712751.2368613081,-42500.0,960.32640544129856,-99.203976832365427,-1220.9697732065827,311.72847293971518,345.46975895821942,11.692444855293576,1189.2368968594883,1202.6656929234493,-1019.2328892780596,1019.2328892780596,-1202.6656929234493,2065.8664162150171,0.0
583523.2936376977,3712751.2368613081,-42500.0,1093.7271901694096,-296.34983016530941,-1162.2634240840134,432.54161689289629,254.73125497105553,75.909253537107389,1271.2710412552626,1302.4785609590872,-1170.5608329291376,1170.5608329291376,-1302.4785609590872,2201.9695150015323,0.0
588523.2936376977,3712751.2368613081,-42500.0,1208.119460624936,-518.23500280227631,-1052.6190322529619,562.66671343324583,130.31455040558367,156.84107531439236,1369.0275170100299,1372.3551996697124,-1308.6039691320284,1308.6039691320284,-1372.3551996697124,2376.1079428230678,0.0
593523.2936376977,3712751.2368613081,-42500.0,1293.9333055621262,-758.74571599188607,-882.07280241360581,697.62713182139839,-32.403704297904483,256.1133273802684,1485.6516876452754,1400.8994856596187,-1421.0426651228654,1421.0426651228654,-1400.8994856596187,2596.932095277612,0.0
598523.2936376977,3712751.2368613081,-42500.0,1341.4743148086843,-1008.1275517482245,-641.88051168585355,831.07467235325691,-236.91950632176082,374.68286613669022,1623.5415736139548,1376.6407604506967,-1493.4112738618801,1493.4112738618801,-1376.6407604506967,2870.5927888429756,0.0
603523.2936376977,3712751.2368613081,-42500.0,1342.0938326178089,-1252.7159452812296,-326.01360954496357,954.77836331983474,-484.78523224492875,512.4894798992849,1783.7375812352602,1289.3929752245303,-1509.9740120046536,1509.9740120046536,-1289.3929752245303,3199.1723426400313,0.0
608523.2936376977,3712751.2368613081,-42500.0,1289.6806786086338,-1475.1838268368269,67.076117171915371,1058.8959457183123,-774.70939220204991,668.0962053201597,1965.3992925582586,1131.9991294182926,-1455.2128857599794,1455.2128857599794,-1131.9991294182926,3579.6626833090768,0.0
613523.2936376977,3712751.2368613081,-42500.0,1182.3002150617103,-1655.5151952807953,532.65406766869955,1132.6122951655684,-1101.7065657339188,838.37888177926993,2165.4763536777996,902.27466036904184,-1315.9205836118056,1315.9205836118056,-902.27466036904184,4003.5971851545328,0.0
618523.2936376977,3712751.2368613081,-42500.0,1023.670061192179,-1772.8271682993102,1058.2341336740676,1165.1779290404331,-1456.4920641651327,1018.3447494993296,2378.6312433540647,604.806230683987,-1083.7183797530556,1083.7183797530556,-604.806230683987,4457.2616955242638,0.0
623523.2936376977,3712751.2368613081,-42500.0,824.05657665025331,-1807.9833333926042,1622.9115987488888,1147.2899023472278,-1825.348248611316,1201.1659609746089,2597.4179668035367,252.13464488899496,-757.60738741126647,757.60738741126647,-252.13464488899496,4922.4025999723863,0.0
628523.2936376977,3712751.2368613081,-42500.0,600.16778641577434,-1746.6873280513316,2197.9528219968424,1072.6393658266702,-2190.6665195802948,1378.4988983113474,2812.669957854419,-135.17640818941058,-345.97521298049708,345.97521298049708,135.17640818941058,5377.4143814361196,0.0
633523.2936376977,3712751.2368613081,-42500.0,373.75960690587846,-1582.4820911178717,2748.9139028137292,939.3353631553216,-2532.2625703790432,1541.1118445797456,3014.0143604779009,-529.94528079385907,132.58738274183364,-132.58738274183364,529.94528079385907,5798.9904422752606,0.0
638523.2936376977,3712751.2368613081,-42500.0,168.97396793381444,-1318.9245002925438,3239.214098605406,750.85803873052419,-2829.3884057247183,1679.775074055862,3190.4953886180742,-901.28879329329004,650.16635504161366,-650.16635504161366,901.28879329329004,6164.1493657689625,0.0
643523.2936376977,3712751.2368613081,-42500.0,8.816533214298417,-970.25810474788739,3634.653566313073,516.23615008748868,-3063.1538079840893,1786.2873010370943,3331.4485480792255,-1218.6522597500064,1172.243935686806,-1172.243935686806,1218.6522597500064,6452.4191275360654,0.0
648523.2936376977,3712751.2368613081,-42500.0,-88.487634537894493,-560.21464621705127,3908.0008200439875,249.29986995202978,-3218.9058312900952,1854.4539501432635,3427.7313523937646,-1456.1609993760489,1661.8981391274324,-1661.8981391274324,1456.1609993760489,6647.8594476046983,0.0
653523.2936376977,3712751.2368613081,-42500.0,-112.40009570825016,-119.06307529409129,4042.6618968680964,-32.907567469292346,-3288.081312065307,1880.8285477999868,3473.0280491653775,-1596.3245942787805,2084.6666434134831,-2084.6666434134831,1596.3245942787805,6740.6027122389905,0.0
658523.2936376977,3712751.2368613081,-42500.0,-61.543237873235967,320.49100441484831,4034.6144173080284,-312.25370024996903,-3269.1339048083773,1865.0626776109295,3464.7037532919776,-1632.2520952130792,2413.0259164671147,-2413.0259164671147,1632.2520952130792,6727.6293265046661,0.0
663523.2936376977,3712751.2368613081,-42500.0,56.548544170538726,727.64635411406357,3892.2630097214983,-571.73297853408849,-3167.3857383663335,1809.8127286650408,3403.9783260052764,-1567.953210235341,2629.5504406746063,-2629.5504406746063,1567.953210235341,6612.6893667014356,0.0
668523.2936376977,3712751.2368613081,-42500.0,227.21552864811369,1077.1784193510223,3634.4021981291344,-797.33847397465979,-2993.9064052521608,1720.2482739503396,3295.5156427874467,-1416.8199597678567,2728.2087160361825,-2728.2087160361825,1416.8199597678567,6405.4382496561957,0.0
673523.2936376977,3712751.2368613081,-42500.0,431.44226233043548,1351.8018610996482,3286.9001049934491,-979.280029262124,-2763.7319848992934,1603.2884898395798,3146.6485623291928,-1198.8196846355581,2713.7656307509646,-2713.7656307509646,1198.8196846355581,6120.0017946595053,0.0
678523.2936376977,3712751.2368613081,-42500.0,648.90678833980166,1542.9901465218311,2878.9060037013178,-1112.4336515609129,-2493.829146752666,1466.7298046300805,2966.4498609729503,-937.14426099254104,2599.7022018703765,-2599.7022018703765,937.14426099254104,5773.2589934629132,0.0
683523.2936376977,3712751.2368613081,-42500.0,860.68196910731638,1650.4062630321373,2439.326609904937,-1196.090422495048,-2201.1839406249524,1318.419770263921,2764.8062485141691,-655.02916391680719,2405.3063144810872,-2405.3063144810872,655.02916391680719,5383.1300454991997,0.0
688523.2936376977,3712751.2368613081,-42500.0,1051.1841537012776,1680.3534197632634,1994.0828334187649,-1233.1986038667696,-1901.2818384728207,1165.5883024313814,2551.5627654512505,-373.24850839348403,2152.6054912723584,-2152.6054912723584,373.24850839348403,4967.0908822221809,0.0
693523.2936376977,3712751.2368613081,-42500.0,1209.2243053726718,1643.7380485073095,1564.3717962359879,-1229.336801088514,-1607.1039470834373,1014.3918891729501,2335.7046624749896,-108.52140349420756,1863.6644721856985,-1863.6644721856985,108.52140349420756,4541.0421901230866,0.0
698523.2936376977,3712751.2368613081,-42500.0,1328.2333305590046,1553.9877889662309,1165.915328829404,-1191.6381712190066,-1328.6427699918631,869.67745863888422,2124.5788899595918,127.1745026467911,1558.5554019820834,-1558.5554019820834,-127.1745026467911,4118.5801336611639,0.0
583523.2936376977,3717751.2368613081,-42500.0,1038.6836030649713,-407.71214024282966,-940.58140336138524,451.76303707293482,141.21883641623907,106.84798496820268,1169.3863734792294,1183.1466501723125,-1112.9752360052257,1112.9752360052257,-1183.1466501723125,2027.8666934376201,0.0
588523.2936376977,3717751.2368613081,-42500.0,1122.2584940609099,-608.06763169445082,-809.85752140996021,562.1551862663074,18.750032805250459,179.62154956127628,1263.8224191941958,1218.686945150012,-1214.1398776510641,1214.1398776510641,-1218.686945150012,2204.246255481627,0.0
593523.2936376977,3717751.2368613081,-42500.0,1178.1875415735421,-819.36066037513945,-624.31432703921848,673.76305034584561,-135.82450520680294,266.88330333269249,1375.1050929927912,1215.0111899044161,-1287.1938820297598,1287.1938820297598,-1215.0111899044161,2422.4226131444448,0.0
598523.2936376977,3717751.2368613081,-42500.0,1199.2510900708573,-1032.3065322004272,-378.13828440265803,781.03398963939844,-324.44927142226084,368.9952944499035,1504.4737193043625,1163.6743057095948,-1320.2314025365538,1320.2314025365538,-1163.6743057095948,2685.2671844944994,0.0
603523.2936376977,3717751.2368613081,-42500.0,1179.540589857856,-1234.7453126759224,-68.24352215030936,877.12545722948551,-547.33402333966058,485.48468417923169,1651.9281227123399,1057.8452500602316,-1300.9502422805795,1300.9502422805795,-1057.8452500602316,2992.1907730686685,0.0
608523.2936376977,3717751.2368613081,-42500.0,1115.5843502147536,-1412.0552426160264,304.42736533297136,954.20709686612167,-802.33549238622857,614.81200559002502,1815.9382554896779,893.63116322532767,-1217.930534816323,1217.930534816323,-893.63116322532767,3338.7129126117838,0.0
613523.2936376977,3717751.2368613081,-42500.0,1007.4870770908157,-1548.1062169651154,733.68569280282725,1004.0187452069891,-1084.4264887845864,754.19198884469017,1993.3057349124767,671.43734770154003,-1062.2790561931565,1062.2790561931565,-671.43734770154003,3716.4196455600472,0.0
618523.2936376977,3717751.2368613081,-42500.0,859.85098079215516,-1626.7897058680114,1207.2362281920391,1018.6843666339504,-1385.3868478234647,899.51941103816591,2179.199899919372,397.10260720124325,-829.46461599442978,829.46461599442978,-397.10260720124325,4113.2527006261871,0.0
623523.2936376977,3717751.2368613081,-42500.0,682.19947624163262,-1634.0279845932612,1706.4842468970517,991.71777534989837,-1693.8568805308944,1045.4500191146385,2367.3599539995689,82.490038734405346,-521.03899780524944,521.03899780524944,-82.490038734405346,4514.1052763088273,0.0
628523.2936376977,3717751.2368613081,-42500.0,488.65019465169286,-1560.0027316368585,2207.2774712347295,919.08514824313465,-1995.8643269096899,1185.6719864256065,2550.4218909664582,-254.7683191254379,-145.8451110578213,145.8451110578213,254.7683191254379,4901.7343626420861,0.0
633523.2936376977,3717751.2368613081,-42500.0,296.70126849556914,-1401.1938514387655,2681.7045920998307,800.12833576078583,-2275.8591465471923,1313.371659063625,2720.3003697213862,-592.55389258404489,279.69218976375009,-279.69218976375009,592.55389258404489,5257.979700408252,0.0
638523.2936376977,3717751.2368613081,-42500.0,125.19964110744212,-1161.7505979272303,3100.8341612400341,638.13187721104578,-2518.1753715545069,1421.8526027374196,2868.6009970691134,-906.52898832452092,732.47325829060537,-732.47325829060537,906.52898832452092,5565.2130441028703,0.0
643523.2936376977,3717751.2368613081,-42500.0,-8.2024823557006421,-853.78367020206201,3438.0127518126146,440.35684852517795,-2708.7203037565123,1505.2252063840449,2987.1889258389206,-1173.0789885496233,1184.8619649232933,-1184.8619649232933,1173.0789885496233,5807.8691818169718,0.0
648523.2936376977,3717751.2368613081,-42500.0,-89.607157334179959,-496.37696608726469,3672.1296412727474,217.46588448932076,-2836.5980592984265,1559.050972122197,3069.0442370775409,-1372.3899992925678,1607.7737298203426,-1607.7737298203426,1372.3899992925678,5973.8454596767524,0.0
653523.2936376977,3717751.2368613081,-42500.0,-110.89438937371516,-113.42520443811104,3790.2064984553645,-17.59524305741045,-2895.3653205454948,1580.8280330019372,3109.2241371855721,-1491.0359848743301,1974.1622011928921,-1974.1622011928921,1491.0359848743301,6055.5659252040305,0.0
658523.2936376977,3717751.2368613081,-42500.0,-70.76958454212982,269.3019290222166,3788.7852251850245,-251.06412757183989,-2883.6725198749564,1570.2247560812971,3105.521682472161,-1523.5390956291672,2262.2204430321567,-2262.2204430321567,1523.5390956291672,6050.5280708537648,0.0
663523.2936376977,3717751.2368613081,-42500.0,25.357304014688033,627.27872165217252,3673.8930173094764,-469.89848281011297,-2805.198879891223,1529.0324845832208,3058.6324485707728,-1472.6298681736666,2457.6910400949964,-2457.6910400949964,1472.6298681736666,5961.284350366911,0.0
668523.2936376977,3717751.2368613081,-42500.0,166.55899255134119,939.9283043300436,3459.6741609653154,-663.10578527894961,-2667.9272841011666,1460.8557379911997,2971.8880603224488,-1348.2475109424754,2554.9081505587742,-2554.9081505587742,1348.2475109424754,5794.8748745650519,0.0
673523.2936376977,3717751.2368613081,-42500.0,338.30397347688398,1192.4696587295916,3166.0793631476954,-822.65988851746374,-2482.9532349880924,1370.6177630752231,2850.7263188594716,-1165.6084736915234,2556.5249308618804,-2556.5249308618804,1165.6084736915234,5561.8579382155194,0.0
678523.2936376977,3717751.2368613081,-42500.0,524.64146571002732,1376.7102463364072,2816.1283705799278,-943.9108369414879,-2263.0766235171882,1263.9778964249786,2702.0398843682624,-942.81876774566388,2472.1573334901032,-2472.1573334901032,942.81876774566388,5275.1108582489132,0.0
683523.2936376977,3717751.2368613081,-42500.0,710.22974319394893,1490.8412524305363,2433.2594168960281,-1025.5114208225477,-2021.4270507042063,1146.7596175790754,2533.5133172824553,-698.51342064265282,2316.3583952631298,-2316.3583952631298,698.51342064265282,4948.5938979855755,0.0
688523.2936376977,3717751.2368613081,-42500.0,881.90122592025864,1538.4724929965284,2039.1479647232645,-1068.9673526640481,-1770.3129647073254,1024.4654160187222,2352.9963750750676,-449.89445705007472,2106.3740959285319,-2106.3740959285319,449.89445705007472,4596.2324828108103,0.0
693523.2936376977,3717751.2368613081,-42500.0,1029.6215142846709,1527.2274378729073,1652.1993291151248,-1077.9599661956354,-1520.400727781973,901.92264962985303,2167.8843108031538,-211.37247288988078,1860.0627228837072,-1860.0627228837072,211.37247288988078,4231.0201774422212,0.0
588523.2936376977,3722751.2368613081,-42500.0,1031.4175388377403,-665.6728418522905,-596.10105215068472,546.83119024049654,-67.285998304944485,190.67086960936624,1170.946539041327,1069.30279050478,-1109.8552220974473,1109.8552220974473,-1069.30279050478,2056.0537826265854,0.0
593523.2936376977,3722751.2368613081,-42500.0,1064.3525074361019,-848.98292977542042,-403.70669308782965,638.26438819986879,-211.37410062088091,266.59721220174345,1275.8275982843957,1042.1684778493272,-1150.9894679942008,1150.9894679942008,-1042.1684778493272,2266.9267060283228,0.0
598523.2936376977,3722751.2368613081,-42500.0,1066.2720014593533,-1028.8405214108543,-159.31601281747291,723.72801115738503,-382.94127274067262,353.87680307102681,1395.7451317471132,972.95256829144523,-1153.7598461493842,1153.7598461493842,-972.95256829144523,2514.6147012713004,0.0
603523.2936376977,3722751.2368613081,-42500.0,1033.3229999451435,-1194.6923268686223,138.06849425938944,797.62930256584718,-581.3714031281944,451.83845908784775,1530.0703564824817,857.33773241029473,-1108.7414607622825,1108.7414607622825,-857.33773241029473,2797.0543705324394,0.0
608523.2936376977,3722751.2368613081,-42500.0,963.85539713121216,-1334.4005149582993,485.95084425482503,853.80743783303853,-804.14549902461692,558.99728463565509,1676.9723900331921,693.68115341352416,-1007.7241123345528,1007.7241123345528,-693.68115341352416,3109.2772301850973,0.0
613523.2936376977,3722751.2368613081,-42500.0,859.19499731201176,-1435.1037137605676,877.54575468848293,885.99741386462165,-1046.5228960039854,672.95679563825206,1833.3804013862873,483.94203543139542,-844.97155403154761,844.97155403154761,-483.94203543139542,3443.4883193596493,0.0
618523.2936376977,3722751.2368613081,-42500.0,724.1949423899157,-1484.4597428850786,1301.3148077592487,888.45325303350182,-1301.4075906080811,790.39180043090926,1995.06494056716,234.36967015485197,-618.536091784326,618.536091784326,-234.36967015485197,3789.345685617986,0.0
623523.2936376977,3722751.2368613081,-42500.0,567.38297036557265,-1472.1684882658421,1741.035837420098,856.67383774318432,-1559.4860689687107,907.14132335088607,2156.8295515132627,-44.259287750802798,-331.40112465365172,331.40112465365172,44.259287750802798,4134.4454513215951,0.0
628523.2936376977,3722751.2368613081,-42500.0,400.55716444246491,-1391.5698514669934,2176.5572190290591,788.13127475026067,-1809.6938630605839,1018.4279425948899,2312.776237147305,-337.0324583943115,7.8182461531700369,-7.8182461531700369,337.0324583943115,4465.0229858211869,0.0
633523.2936376977,3722751.2368613081,-42500.0,237.77238472677965,-1241.0295705510691,2585.2796584052826,682.87071776415803,-2040.0156160531369,1119.1994580146129,2456.5841302788526,-626.00561064744556,384.86789976320097,-384.86789976320097,626.00561064744556,4766.8584201175518,0.0
638523.2936376977,3722751.2368613081,-42500.0,93.797025506846836,-1024.800739246816,2944.2481694206176,543.84575374449173,-2238.5493309855478,1204.5616821881845,2581.7756392766451,-891.95044976056693,780.6925870626219,-780.6925870626219,891.95044976056693,5026.3260000683567,0.0
643523.2936376977,3722751.2368613081,-42500.0,-17.734516089042039,-753.10866581038465,3232.5718224831362,376.8853083307273,-2394.6938486534673,1270.2455423708334,2682.0796082221696,-1116.5112599840847,1173.1034656504123,-1173.1034656504123,1116.5112599840847,5231.4792992408065,0.0
648523.2936376977,3722751.2368613081,-42500.0,-86.138493383368569,-441.35142651681997,3433.770559937027,190.25508625604292,-2500.27143702787,1313.0379512191962,2752.0379678211179,-1284.4028737274707,1539.0624894470143,-1539.0624894470143,1284.4028737274707,5373.0360735141858,0.0
653523.2936376977,3722751.2368613081,-42500.0,-105.10844051184155,-108.50207826338151,3537.6215046085158,-6.1382941929864021,-2550.3891552445148,1331.1034704306521,2787.7338176959311,-1385.2382623971157,1857.2065052707894,-1857.2065052707894,1385.2382623971157,5445.1207185127323,0.0
658523.2936376977,3722751.2368613081,-42500.0,-73.467487032084179,225.01550752701084,3541.1686595439414,-201.77219219807617,-2543.890585263684,1324.1441798193543,2787.3138143820916,-1414.6414470988097,2110.1613605997836,-2110.1613605997836,1414.6414470988097,5445.6611271241882,0.0
663523.2936376977,3722751.2368613081,-42500.0,4.88231281659702,539.58994980045156,3448.7383284172206,-386.58592268546249,-2483.3305057263497,1293.3748400495831,2751.1341686172004,-1374.4623797756158,2286.242225298231,-2286.242225298231,1374.4623797756158,5376.3913249132074,0.0
668523.2936376977,3722751.2368613081,-42500.0,121.75658072329024,818.42566361415322,3271.0152529297275,-551.93226446952394,-2374.50267270424,1241.3265682616461,2681.5855267356565,-1272.1135808167546,2380.2840359354113,-2380.2840359354113,1272.1135808167546,5242.4793610828629,0.0
673523.2936376977,3722751.2368613081,-42500.0,266.01960271307979,1048.9789158796698,3023.4210786578055,-691.26462000941353,-2225.6354864629493,1171.5230977396709,2582.7230794123811,-1119.2303382016678,2393.5502148374844,-2393.5502148374844,1119.2303382016678,5051.8643473185366,0.0
678523.2936376977,3722751.2368613081,-42500.0,425.1548290069116,1223.6695749005487,2724.1321187948247,-800.48796662853113,-2046.4115480504281,1088.0885477729828,2459.8036261381953,-929.96168422676953,2332.8499459163445,-2332.8499459163445,929.96168422676953,4814.411017155192,0.0
683523.2936376977,3722751.2368613081,-42500.0,586.78170677866683,1339.8783715401892,2392.0928270454187,-877.97611708153477,-1846.9799391338979,995.35125035473618,2318.810217256445,-719.22150082311396,2209.1289558420558,-2209.1289558420558,719.22150082311396,4541.01697830189,0.0
688523.2936376977,3722751.2368613081,-42500.0,739.89238007402139,1399.3632927085689,2045.3001819111228,-924.31289585907575,-1637.0905607507962,897.49305776429969,2165.9947401811801,-501.16606127525097,2035.8323356131357,-2035.8323356131357,501.16606127525097,4242.7711137965762,0.0
598523.2936376977,3727751.2368613081,-42500.0,944.56575004106105,-1005.741432277455,19.293306367548844,663.84221188987635,-418.93099851910529,333.16717889334552,1295.7145643310646,805.20150979365201,-998.33105060142032,998.33105060142032,-805.20150979365201,2355.279927112354,0.0
603523.2936376977,3727751.2368613081,-42500.0,903.58775283551313,-1140.3803611149044,300.11525031313653,720.1067271314181,-594.31764531830493,415.27527186970616,1417.1390971097021,686.09076039099853,-935.60698217805373,935.60698217805373,-686.09076039099853,2612.4028356105009,0.0
608523.2936376977,3727751.2368613081,-42500.0,832.70701653032586,-1249.1769642735583,621.19916226849614,760.27582169947493,-788.03198842304664,503.92725442419851,1547.9897936373231,527.79307568472962,-824.28348462837778,824.28348462837778,-527.79307568472962,2891.6539706729623,0.0
613523.2936376977,3727751.2368613081,-42500.0,733.9182750927414,-1321.9552477922514,975.71058860351525,779.62072254361749,-995.7786583654248,597.10726765303787,1685.4566928472898,333.11669622830351,-660.88739050876643,660.88739050876643,-333.11669622830351,3186.0804256256611,0.0
618523.2936376977,3727751.2368613081,-42500.0,611.95585825542696,-1349.3067647060902,1353.1463013657578,773.96314604617601,-1211.5324538813202,692.14747377754134,1825.910162185739,108.22000356898988,-445.1539308320946,445.1539308320946,-108.22000356898988,3486.9374040404819,0.0
623523.2936376977,3727751.2368613081,-42500.0,474.28723252188655,-1323.7341422153647,1739.5355920070506,740.19622042658739,-1427.7040322905198,785.81631828419086,1965.0696276039312,-137.35309589785436,-180.77293929203017,180.77293929203017,137.35309589785436,3784.0779724023018,0.0
628523.2936376977,3727751.2368613081,-42500.0,330.70525724725405,-1240.7942255200182,2118.1397618506539,676.78386791709192,-1635.5337878027494,874.4910430294857,2098.2156797468165,-391.09981927844029,124.22842611607228,-124.22842611607228,391.09981927844029,4066.4943215807793,0.0
633523.2936376977,3727751.2368613081,-42500.0,192.50234272097023,-1100.040437075123,2470.6506162733212,584.15118738523017,-1825.7039298256009,954.40679699442319,2220.390048878246,-638.47730175929792,457.62027651850184,-457.62027651850184,638.47730175929792,4322.9938553657821,0.0
638523.2936376977,3727751.2368613081,-42500.0,71.299841587227988,-905.56041868805767,2778.7870447643077,464.88042968243934,-1989.1156473504545,1021.960567152962,2326.559228758219,-864.24441710198971,803.70236563091794,-803.70236563091794,864.24441710198971,4542.9665037792729,0.0
643523.2936376977,3727751.2368613081,-42500.0,-22.302236531820757,-665.95296656412779,3026.081092603943,323.65090907543311,-2117.7314900455922,1074.031054873147,2411.8393910817908,-1054.0505487430044,1144.5996237914426,-1144.5996237914426,1054.0505487430044,4717.1636885055359,0.0
648523.2936376977,3727751.2368613081,-42500.0,-80.027722100888013,-393.68798584977907,3199.5796079056331,166.90565907507769,-2205.3594655152092,1108.269614302644,2471.9343778901816,-1196.0195918859401,1461.9621924891073,-1461.9621924891073,1196.0195918859401,4838.3985416823416,0.0
653523.2936376977,3727751.2368613081,-42500.0,-96.941709244737993,-103.91680169002068,3291.1763863802394,2.2797579338633467,-2248.2529918757973,1123.3172208503906,2503.704797997807,-1282.0560143970297,1738.8111523380958,-1738.8111523380958,1282.0560143970297,4902.0741495125976,0.0
658523.2936376977,3727751.2368613081,-42500.0,-71.996173623076913,187.08042140848045,3298.3517579987606,-162.12417045467015,-2245.4309168073401,1118.9141455988552,2505.5881440387088,-1308.6462337103003,1961.227299753793,-1961.227299753793,1308.6462337103003,4906.4712814917038,0.0
663523.2936376977,3727751.2368613081,-42500.0,-8.0172090315875177,463.55245540612367,3224.2126876498623,-318.50028869423659,-2198.673954059087,1095.8883731298524,2477.7243157469275,-1277.0335454219826,2119.6133500880073,-2119.6133500880073,1277.0335454219826,4852.7633798445559,0.0
668523.2936376977,3727751.2368613081,-42500.0,88.834533955900852,711.76969214173459,3076.8624610380944,-460.025409828975,-2112.2128474263559,1056.0291336717203,2421.8350336612689,-1192.7734379971669,2209.3508389332269,-2209.3508389332269,1192.7734379971669,4744.7675988805859,0.0
673523.2936376977,3727751.2368613081,-42500.0,209.99675373170834,921.13816330171665,2868.255840215526,-581.37406155000133,-1992.1808783201136,1001.8732677523833,2340.9607511011245,-1064.7971766214118,2230.8069691307501,-2230.8069691307501,1064.7971766214118,4588.4882856336935,0.0
678523.2936376977,3727751.2368613081,-42500.0,345.63891599168051,1084.8130608129513,2612.7581622487455,-679.00856105127696,-1845.9271701205423,936.43929697050373,2239.1273449615896,-904.18235733078257,2188.7620032256496,-2188.7620032256496,904.18235733078257,4391.5165049607167,0.0
608523.2936376977,3732751.2368613081,-42500.0,719.96944402381951,-1161.2732865116775,718.69667693778717,674.82011431065291,-759.95776017572496,451.55040861190832,1428.5687126241176,391.39720051202232,-666.0342747805372,666.0342747805372,-391.39720051202232,2686.2854750155507,0.0
613523.2936376977,3732751.2368613081,-42500.0,628.32632304184574,-1212.1885690354411,1037.8799854932636,684.91476148027004,-937.79836201083356,527.81059647797815,1549.1595356868611,212.84129690469081,-506.34911459548903,506.34911459548903,-212.84129690469081,2944.9837984637752,0.0
618523.2936376977,3732751.2368613081,-42500.0,519.05904990705255,-1223.236549967178,1372.9899525717406,674.06377707135152,-1120.4915249759515,604.89278521343658,1671.1463091781357,11.519150773189494,-303.76622273897436,303.76622273897436,-11.519150773189494,3206.5217929101645,0.0
623523.2936376977,3732751.2368613081,-42500.0,398.6118352250233,-1188.989880091784,1712.0984307264087,640.1371099929712,-1301.8745797722966,680.28889881826649,1791.0182112410921,-204.25665238994549,-62.224398114212008,62.224398114212008,204.25665238994549,3462.6087831937907,0.0
628523.2936376977,3732751.2368613081,-42500.0,275.08121914779605,-1106.5541682653143,2041.3345684906903,582.24743588662818,-1475.0053049490677,751.24383312184523,1904.9975302385378,-424.0595613202139,211.00019930815606,-211.00019930815606,424.0595613202139,3704.4166177466359,0.0
633523.2936376977,3732751.2368613081,-42500.0,157.55289456538139,-976.20930824803793,2345.8445137969397,501.00454847283947,-1632.6286019187937,814.93729996212824,2009.1812300999425,-636.09912482628715,505.49042879103064,-505.49042879103064,636.09912482628715,3923.088662141909,0.0
638523.2936376977,3732751.2368613081,-42500.0,55.213401830153593,-801.74090608249981,2611.0101355095589,398.6273939861822,-1767.7454880994196,868.6979308362246,2099.6310667861303,-828.24930764441513,808.3081278443259,-808.3081278443259,828.24930764441513,4110.3043794760824,0.0
643523.2936376977,3732751.2368613081,-42500.0,-23.643439975877271,-590.36562056036541,2823.7761258337123,278.87720418471298,-1874.2162276968122,910.22463859572713,2172.504786332549,-989.2257590748311,1104.9997167332897,-1104.9997167332897,989.2257590748311,4258.8455149802294,0.0
648523.2936376977,3732751.2368613081,-42500.0,-72.559400817014946,-352.22134059413412,2973.8947137057753,146.80406071324813,-1947.3137345784266,937.78523194194963,2224.3801231639841,-1109.7375957947895,1380.8696801117096,-1380.8696801117096,1109.7375957947895,4363.0994307890714,0.0
653523.2936376977,3732751.2368613081,-42500.0,-87.645170295128935,-99.475125076061659,3054.8964101193615,8.332920767854878,-1984.1462384188469,950.36444937476142,2252.7132383173762,-1183.430270183336,1622.3421479886945,-1622.3421479886945,1183.430270183336,4419.4395872107607,0.0
658523.2936376977,3732751.2368613081,-42500.0,-67.979839029276505,154.82302287299237,3064.6367999357108,-130.2544718972793,-1983.8866488023564,947.74033972834741,2256.1824265771284,-1207.4685659739921,1818.2055939740762,-1818.2055939740762,1207.4685659739921,4426.436540742241,0.0
663523.2936376977,3732751.2368613081,-42500.0,-15.6177983865651,397.96457702709444,3005.3456003470042,-262.8664899673114,-1947.7790965789113,930.47943087022588,2234.7923855854851,-1182.6773060709438,1960.5564106302272,-1960.5564106302272,1182.6773060709438,4384.8772774189247,0.0
668523.2936376977,3732751.2368613081,-42500.0,64.780022955172996,618.7024818107725,2883.1938276441469,-384.10025194981648,-1878.9316077231761,899.85480592030149,2189.7875186320857,-1113.2410736829449,2045.3180083291084,-2045.3180083291084,1113.2410736829449,4297.5980761924229,0.0
628523.2936376977,3737751.2368613081,-42500.0,230.58109490360002,-987.47077098522107,1953.0756672144469,502.01328459462093,-1328.5832017798214,646.04758718966502,1731.2943597299882,-441.37388420396496,274.34661813645948,-274.34661813645948,441.37388420396496,3376.4935564052957,0.0
633523.2936376977,3737751.2368613081,-42500.0,130.42738395055909,-867.57941347568328,2216.6244373522868,430.89649673832724,-1459.7418331391859,697.06677187073069,1820.4779873249415,-623.43726684878698,534.41680445928318,-534.41680445928318,623.43726684878698,3563.5394016564992,0.0
638523.2936376977,3737751.2368613081,-42500.0,43.740762220147104,-711.29887127621123,2445.4228625331411,342.91863145884042,-1571.966306946098,740.08672907717107,1897.8867743216174,-787.43111690335422,799.69696195050574,-799.69696195050574,787.43111690335422,3723.4963406801867,0.0
643523.2936376977,3737751.2368613081,-42500.0,-22.948751605896508,-524.68231286655225,2629.0628063899076,241.10941515077525,-1660.5323993130705,773.39739617004568,1960.4660715241107,-924.43129331574494,1058.4538247400878,-1058.4538247400878,924.43129331574494,3850.6873008317589,0.0
648523.2936376977,3737751.2368613081,-42500.0,-64.566119218030082,-316.00498824085389,2759.3857853281343,129.44903666235109,-1721.803331340207,795.71044932664165,2005.4570607935802,-1027.1211929518977,1298.8553390705206,-1298.8553390705206,1027.1211929518977,3940.6940038398279,0.0
633523.2936376977,3517751.2368613081,-47500.0,19.406001374172636,492.19352495090442,2634.6106203083818,340.05403813245283,1877.6310119153286,968.967524079481,2100.3197148777231,-519.7554764670175,2043.6595768502889,-2043.6595768502889,519.7554764670175,4111.9135325826119,0.0
638523.2936376977,3517751.2368613081,-47500.0,-47.140980744089241,276.40360542100581,2727.9467891093695,210.96172363438433,1929.5644797455582,990.40757506525506,2132.9345313097224,-655.9722809599856,1993.0916433436173,-1993.0916433436173,655.9722809599856,4175.0089195676537,0.0
643523.2936376977,3517751.2368613081,-47500.0,-84.8359782590219,43.206967763436808,2761.448959831971,72.583561856323541,1946.886626899714,996.13667020003538,2142.2403229504739,-760.46621166399643,1887.1751971214303,-1887.1751971214303,760.46621166399643,4193.5178440386908,0.0
648523.2936376977,3517751.2368613081,-47500.0,-90.071480539807922,-196.29171324399454,2730.5329604318331,-69.181112389913196,1927.2023740611323,985.1817499008248,2127.3945753530943,-826.42986803047484,1728.7532490011042,-1728.7532490011042,826.42986803047484,4165.500119530896,0.0
653523.2936376977,3517751.2368613081,-47500.0,-61.877289530260725,-429.94587539516289,2634.3845152438066,-207.91107273768688,1870.1137208000121,957.42578447493963,2088.8139289348628,-849.66353459923891,1524.2713491354652,-1524.2713491354652,849.66353459923891,4091.0531561705575,0.0
658523.2936376977,3517751.2368613081,-47500.0,-2.1595494427305897,-645.65697117901846,2476.2274137779818,-337.20523026990179,1777.3555746805714,913.66138751243966,2028.2916495147301,-829.09904428861569,1283.3508636595259,-1283.3508636595259,829.09904428861569,3972.4162230358215,0.0
663523.2936376977,3517751.2368613081,-47500.0,84.427338987741791,-832.51111626374848,2263.1428117277501,-451.24827358340247,1652.7066858453652,855.55182644862998,1948.947246337204,-766.95528786285604,1017.9701457102228,-1017.9701457102228,766.95528786285604,3813.8944258771562,0.0
668523.2936376977,3517751.2368613081,-47500.0,190.97082596765389,-981.79193351955098,2005.4467703634602,-545.31842287421398,1501.6784354396098,785.50041082695202,1854.8435942481397,-668.48795842527556,741.36115111375193,-741.36115111375193,668.48795842527556,3621.6026658992423,0.0
673523.2936376977,3517751.2368613081,-47500.0,309.07639220587004,-1087.7160324740846,1715.7148623518244,-616.16343472847598,1331.0234416483522,706.44529973662929,1750.2854836245247,-541.37243813659325,466.78577226357049,-466.78577226357049,541.37243813659325,3403.0574907925152,0.0
678523.2936376977,3517751.2368613081,-47500.0,429.79978056914575,-1147.790838822928,1407.6040025402876,-662.19537718646484,1148.136881156732,621.60927283886303,1639.2766786272196,-394.82644568316158,206.37468552030924,-206.37468552030924,394.82644568316158,3166.6661209937643,0.0
683523.2936376977,3517751.2368613081,-47500.0,544.58177816757757,-1162.7666515642211,1094.6479163414917,-683.48824915167688,960.43640453399053,534.23912008221419,1525.4596913311361,-238.62058484304362,-29.810105621510544,29.810105621510544,238.62058484304362,2921.1693810100642,0.0
618523.2936376977,3522751.2368613081,-47500.0,401.25601206589505,1071.4330229382138,2150.039805161296,735.78104274268946,1713.1779492764717,954.5891087248865,2059.9716354039779,82.30923100982784,1985.4484695956135,-1985.4484695956135,-82.30923100982784,4033.5748131649111,0.0
623523.2936376977,3522751.2368613081,-47500.0,268.71727429351932,947.70894500616328,2403.9084059136972,651.59902211041629,1867.3896584675549,1025.9974587084832,2165.2336883745679,-119.31514560111759,2109.2673341152577,-2109.2673341152577,119.31514560111759,4236.1786449791107,0.0
628523.2936376977,3522751.2368613081,-47500.0,144.1148573329198,779.3062988163158,2624.6843828430824,542.21582564249707,1999.8653773085873,1086.472728752505,2253.3126289484235,-319.28372041610476,2183.3864552250325,-2183.3864552250325,319.28372041610476,4405.2256264210619,0.0
633523.2936376977,3522751.2368613081,-47500.0,36.937645748498532,570.21587742211443,2798.5857158735575,410.09499219390062,2102.886637249931,1132.5820200704532,2319.8964732174945,-506.0020452749327,2199.1952430524989,-2199.1952430524989,506.0020452749327,4532.9594375145844,0.0
638523.2936376977,3522751.2368613081,-47500.0,-43.816713487251207,328.00445835517786,2913.0731569851368,259.58122565062314,2169.5015375134053,1161.267254299979,2361.3789351719788,-667.58617899399883,2151.1131305041763,-2151.1131305041763,667.58617899399883,4612.7262301326591,0.0
643523.2936376977,3522751.2368613081,-47500.0,-90.722087044153611,63.574725992628814,2958.2016931352555,96.759970699184208,2194.2414896099372,1170.1541621018346,2375.1835855151498,-793.05743555195716,2037.5452356132228,-2037.5452356132228,793.05743555195716,4639.5828918600528,0.0
648523.2936376977,3522751.2368613081,-47500.0,-98.94649395839383,-209.55085934550513,2927.8624185151539,-70.922103549406131,2173.7750131906087,1157.8314531309306,2360.0737273370964,-873.59154650214123,1861.4717835441006,-1861.4717835441006,873.59154650214123,4610.8301048572184,0.0
653523.2936376977,3522751.2368613081,-47500.0,-67.028056497289782,-476.38007155415323,2820.6996341826552,-235.25350447797109,2107.389582177073,1124.0547404090091,2316.4116363189501,-903.619548233253,1630.5189486352322,-1630.5189486352322,903.619548233253,4526.3943459581287,0.0
658523.2936376977,3522751.2368613081,-47500.0,2.7630765552831611,-721.89804707983842,2640.5155721560491,-388.00311006386073,1997.2058890435476,1069.8351843531193,2246.3152369886138,-881.57643715844199,1356.4374182422598,-1356.4374182422598,881.57643715844199,4388.9922188402106,0.0
663523.2936376977,3522751.2368613081,-47500.0,104.57635577733373,-932.59615000056795,2396.0546416700481,-521.70822013715303,1848.0690791280047,997.38983044260601,2153.6063860501436,-810.14296985844578,1054.0270270855062,-1054.0270270855062,810.14296985844578,4204.0396104538031,0.0
668523.2936376977,3522751.2368613081,-47500.0,229.64383772768863,-1097.8335591155917,2100.1738750376221,-630.38206776859954,1667.1191577079419,909.9547404622308,2043.3685654138135,-695.91962338233498,739.6603549380518,-739.6603549380518,695.91962338233498,3979.3068051141991,0.0
673523.2936376977,3522751.2368613081,-47500.0,367.34422876359531,-1210.8075713399969,1768.5250719472583,-710.02935237944678,1463.1018976454839,811.48636887733937,1921.0969399897026,-548.58636700232489,429.64173175629378,-429.64173175629378,548.58636700232489,3724.3573934837527,0.0
678523.2936376977,3522751.2368613081,-47500.0,506.47526532108003,-1268.9892644669324,1417.9689706771062,-758.89595172650729,1245.5308767174638,706.29772844310344,1791.9511439756575,-379.70538006463318,138.66773177379542,-138.66773177379542,379.70538006463318,3449.8441740975331,0.0
683523.2936376977,3522751.2368613081,-47500.0,636.50816391564047,-1273.9922848706701,1064.9797688938468,-777.43293206513658,1023.8320172773716,598.68471022990286,1660.5657119482319,-201.38596270277355,-121.37962461405101,121.37962461405101,201.38596270277355,3166.7484462683128,0.0
688523.2936376977,3522751.2368613081,-47500.0,748.62228952019495,-1230.9539703419523,724.27486883754148,-768.00930913709306,806.59234650462702,492.59435683877888,1531.1171555678636,-25.035725195918076,-342.16207635867266,342.16207635867266,25.035725195918076,2885.6439572145041,0.0
693523.2936376977,3522751.2368613081,-47500.0,836.38532461359512,-1147.5880648113173,407.83564118090351,-734.44874358271375,601.00260789254412,391.3741914405494,1407.2661059697671,139.62284727270261,-519.09721963775019,519.09721963775019,-139.62284727270261,2616.0490694932764,0.0
698523.2936376977,3522751.2368613081,-47500.0,896.03309902519447,-1033.1005647562033,124.38757358049361,-681.48348588833369,412.53478543288588,297.62155037974338,1291.98206795274,285.17111781714425,-651.11366182518805,651.11366182518805,-285.17111781714425,2365.8985623849467,0.0
613523.2936376977,3527751.2368613081,-47500.0,639.41865204742078,1270.5157648329048,1886.9280797858614,920.65604574423196,1673.898761271975,999.06741709164748,2110.7232385745278,416.96609171722343,1878.1981991451705,-1878.1981991451705,-416.96609171722343,4126.5271791366595,0.0
618523.2936376977,3527751.2368613081,-47500.0,490.35123759423254,1197.3362734058583,2198.7881499745736,861.29392867248407,1875.5199910450381,1097.7882475406373,2250.1220045323157,202.43205447761306,2074.6297235196962,-2074.6297235196962,-202.43205447761306,4396.4779602394447,0.0
623523.2936376977,3527751.2368613081,-47500.0,337.03675947570042,1070.7626246669863,2492.7398689207721,770.13026998461498,2062.8486731680982,1188.3114355220102,2376.3036251138578,-26.311996007005064,2228.8141401237499,-2228.8141401237499,26.311996007005064,4639.1338246022942,0.0
628523.2936376977,3527751.2368613081,-47500.0,190.38385363949587,890.44836573215753,2752.1404361122422,647.39625895525683,2225.9967364262725,1265.9928731011114,2483.3216510386665,-257.11495907559356,2327.3737956746618,-2327.3737956746618,257.11495907559356,4844.102404057021,0.0
633523.2936376977,3527751.2368613081,-47500.0,62.219890418450916,660.28123195209776,2959.9221885762968,495.67166870839594,2354.9679662237841,1326.1958080605489,2565.6141986544562,-475.87077445268221,2358.9648678741883,-2358.9648678741883,475.87077445268221,5001.4293255894727,0.0
638523.2936376977,3527751.2368613081,-47500.0,-35.96103606468202,388.76349602913922,3100.2165919450404,320.06090317621369,2440.5685942399505,1364.7046639132161,2618.4315321427143,-667.73855013837613,2315.8163349879414,-2315.8163349879414,667.73855013837613,5102.4103507326217,0.0
643523.2936376977,3527751.2368613081,-47500.0,-94.45035895874291,88.820705697468867,3160.1556164793824,128.06748802600325,2475.4041381132283,1378.1725779095002,2638.2816446769552,-818.70616338128798,2195.0859725711935,-2195.0859725711935,818.70616338128798,5140.4298554073621,0.0
648523.2936376977,3527751.2368613081,-47500.0,-106.74690076870587,-223.05377755486995,3131.5795743562489,-70.877743993200141,2454.8177161883636,1364.5386909685285,2623.3593896483189,-917.28601432810899,1999.7558415290418,-1999.7558415290418,917.28601432810899,5111.7175737435055,0.0
653523.2936376977,3527751.2368613081,-47500.0,-70.671357239901155,-528.28371574535811,3012.3382359509619,-266.21562647184442,2377.6036405803643,1323.3430144985691,2573.9040979618549,-956.05441606637805,1738.8287907926488,-1738.8287907926488,956.05441606637805,5015.9072047443451,0.0
658523.2936376977,3527751.2368613081,-47500.0,11.083183383482091,-808.14223637501675,2806.9019738952834,-447.29060234516083,2246.3464438755759,1255.873352662154,2492.4160991356021,-932.729638950501,1426.6985676010604,-1426.6985676010604,932.729638950501,4856.2951762237326,0.0
663523.2936376977,3527751.2368613081,-47500.0,131.12466591646466,-1045.8242009653147,2526.1108659054776,-604.45902449918697,2067.2927196962037,1165.1045248771804,2383.6105354236001,-850.5489851850316,1081.7318400818413,-1081.7318400818413,850.5489851850316,4639.7370868609823,0.0
668523.2936376977,3527751.2368613081,-47500.0,278.26579983641409,-1228.2922370586327,2186.0604771497915,-730.08561984766413,1849.7524442817214,1055.4279748571273,2253.9025998786533,-717.84304928019969,724.2769212003418,-724.2769212003418,717.84304928019969,4376.1773875510971,0.0
673523.2936376977,3527751.2368613081,-47500.0,438.99590504687302,-1347.5655626779014,1806.3089209209513,-819.25677661478687,1605.1240427110131,932.21289889842694,2110.3652523823803,-546.88261880389337,374.44698453527036,-374.44698453527036,546.88261880389337,4077.871906247171,0.0
678523.2936376977,3527751.2368613081,-47500.0,599.23166298475485,-1401.2442636740977,1407.7277044865273,-870.09959127345314,1345.7107508142888,801.27150298155061,1959.6942798422624,-352.23153418501443,50.066846567757267,-50.066846567757267,352.23153418501443,3758.4073974783196,0.0
683523.2936376977,3527751.2368613081,-47500.0,746.01007914508443,-1392.2353768074283,1010.3778571067062,-883.68244128412073,1083.5308364312275,668.31754070671525,1807.813952971027,-148.93298050803315,-234.88273081039364,234.88273081039364,148.93298050803315,3431.6504893710444,0.0
688523.2936376977,3527751.2368613081,-47500.0,868.83180590185384,-1327.8154441646666,631.74611098119476,-863.55896251218144,829.30340711989606,538.49880222646084,1659.8934752515204,49.14310883491919,-471.12798025084442,471.12798025084442,-49.14310883491919,3110.7440460435823,0.0
693523.2936376977,3527751.2368613081,-47500.0,960.47536878366907,-1218.2781997011014,285.5602751862159,-815.07766975607331,591.73449451913928,416.0603500397695,1520.2818536200248,230.5431919638967,-654.24145969067536,654.24145969067536,-230.5431919638967,2807.2359105863347,0.0
698523.2936376977,3527751.2368613081,-47500.0,1017.2408717106471,-1075.4527501141113,-18.744776994739283,-744.60235101314129,377.15193415031979,304.16265738154249,1392.3123266095895,386.94095981684865,-784.1713327282946,784.1713327282946,-386.94095981684865,2530.3819056640004,0.0
703523.2936376977,3527751.2368613081,-47500.0,1038.7001577575145,-911.34050172685966,-275.97255318780685,-658.77353371565459,189.46606612058682,204.84703751338708,1278.1256462132999,513.32026009641334,-864.36191261725583,864.36191261725583,-513.32026009641334,2286.6341701271722,0.0
708523.2936376977,3527751.2368613081,-47500.0,1027.1045688092931,-737.03891155616873,-484.66935022980618,-563.90392869998561,30.385550267827313,119.11929576290106,1178.6112081640608,607.72921729442476,-900.68924662820166,900.68924662820166,-607.72921729442476,2079.3366784966815,0.0
603523.2936376977,3532751.2368613081,-47500.0,1038.7871568521261,1362.6342245052876,1179.2641774001568,1078.7095249437602,1321.099203523187,884.86580054302965,1948.1978592371674,962.25764984418868,1374.0749130926192,-1374.0749130926192,-962.25764984418868,3789.7382646304818,0.0
608523.2936376977,3532751.2368613081,-47500.0,916.73482253791963,1403.7762398160316,1514.9203617524295,1088.1056942638925,1559.0856079667494,1010.3686208695609,2119.819532033202,796.42323978283605,1648.7852112297451,-1648.7852112297451,-796.42323978283605,4131.163497413705,0.0
613523.2936376977,3532751.2368613081,-47500.0,768.1364958876743,1396.7850943521883,1866.8906325519811,1066.0564867493249,1803.4456946667983,1137.352727614677,2291.3574799853259,592.15447889772565,1911.692584013842,-1911.692584013842,-592.15447889772565,4467.3938303830882,0.0
618523.2936376977,3532751.2368613081,-47500.0,600.28504962429872,1333.0322078429951,2221.2132146167301,1007.9273578963792,2044.9932223013052,1261.1288127316802,2456.4846566526735,355.8453672502892,2147.0147759590918,-2147.0147759590918,-355.8453672502892,4787.2342163953463,0.0
623523.2936376977,3532751.2368613081,-47500.0,423.6433026184028,1206.6035112517636,2560.4503051935662,910.7667558397419,2272.6019795480088,1376.1384873443726,2607.9620776423258,97.8700170863317,2337.6332284178552,-2337.6332284178552,-97.8700170863317,5078.2099686404499,0.0
628523.2936376977,3532751.2368613081,-47500.0,251.33326738969538,1015.6719236332949,2864.5802640199609,774.04855186461873,2473.7736941073758,1476.240919718445,2738.2834004592155,-167.63107251980819,2466.5910496345609,-2466.5910496345609,167.63107251980819,5327.2284631699495,0.0
633523.2936376977,3532751.2368613081,-47500.0,98.063279311588957,763.66967294944573,3112.5161790980987,600.29141444806339,2635.5538841673319,1555.1570502748382,2840.2613364908525,-423.58696256215285,2518.9959730014825,-2518.9959730014825,423.58696256215285,5521.4820730712336,0.0
638523.2936376977,3532751.2368613081,-47500.0,-21.471348238767686,459.97504854006542,3284.1767961581759,395.40439290655848,2745.748619704138,1607.0472977307445,2907.6164841354898,-651.4873184606829,2484.1038902052915,-2484.1038902052915,651.4873184606829,5649.5348906002546,0.0
643523.2936376977,3532751.2368613081,-47500.0,-94.538436915761608,119.84264043307434,3362.8842598686056,168.61651196187159,2794.3129431375123,1627.1619508303609,2935.5950676298576,-833.41835509495024,2357.2404324034419,-2357.2404324034419,833.41835509495024,5702.4831226425322,0.0
648523.2936376977,3532751.2368613081,-47500.0,-112.35298483875211,-236.593475665737,3337.718409975299,-68.096738768179236,2774.7042494739753,1612.4695488038326,2921.570960130337,-954.36772538757873,2141.1548406863558,-2141.1548406863558,954.36772538757873,5675.0362509191591,0.0
653523.2936376977,3532751.2368613081,-47500.0,-71.688326438195858,-586.23390473086863,3205.3720611046961,-301.08332541113396,2684.9481840738367,1562.1481494058639,2865.5503710755002,-1004.3882051792154,1846.4336313271367,-1846.4336313271367,1004.3882051792154,5566.3426010140765,0.0
658523.2936376977,3532751.2368613081,-47500.0,24.281667660324274,-905.60729359120307,2971.0753015126875,-516.45382549288297,2528.1770610413364,1477.8305440583495,2770.4798584710184,-980.16215116733258,1490.753918817577,-1490.753918817577,980.16215116733258,5380.3971609231667,0.0
663523.2936376977,3532751.2368613081,-47500.0,166.16944044992576,-1173.7014458857007,2648.3148250847712,-701.65553198798239,2312.4877018759971,1363.5344228551071,2642.2162200666835,-885.59132781709889,1097.0062679559242,-1097.0062679559242,885.59132781709889,5125.9320586277363,0.0
668523.2936376977,3532751.2368613081,-47500.0,339.61475861014776,-1374.4884104963919,2257.3286821091792,-846.8917462720791,2050.1011311720745,1225.2682477749579,2488.9226090701059,-731.24158807798915,690.58924024100463,-690.58924024100463,731.24158807798915,4815.7714619012049,0.0
673523.2936376977,3532751.2368613081,-47500.0,527.3399345560241,-1498.6476937570205,1822.6459406488798,-946.11848031681222,1755.96766743639,1070.3775822843759,2319.7746020202958,-532.74647840134639,296.3902194953082,-296.3902194953082,532.74647840134639,4465.7396054047058,0.0
678523.2936376977,3532751.2368613081,-47500.0,711.57898103091111,-1544.1854524243511,1370.1564903348437,-997.44887450816077,1446.0801517802797,906.75080328930073,2143.5239941763466,-308.52279966314615,-63.967418496871105,63.967418496871105,308.52279966314615,4093.2826589063952,0.0
683523.2936376977,3532751.2368613081,-47500.0,876.37418854017085,-1515.920870041208,924.2725494874004,-1002.9385339974863,1135.8068671578148,742.02678100103412,1967.7829443253308,-77.290922926041077,-374.12877090676682,374.12877090676682,77.290922926041077,3715.9999434299857,0.0
688523.2936376977,3532751.2368613081,-47500.0,1009.3154745490878,-1424.0685151248717,505.66445490104383,-967.86200974981921,838.51986802193028,582.93256168158962,1798.9452504642295,144.11624001132847,-624.00038412029403,624.00038412029403,-144.11624001132847,3350.2610754111329,0.0
693523.2936376977,3532751.2368613081,-47500.0,1102.4874972701962,-1282.3079580788842,129.85663233659557,-899.68159318726646,564.69120208619495,434.83428385164189,1642.1193732834006,342.3116285467612,-809.72908878894634,809.72908878894634,-342.3116285467612,3010.0235807921049,0.0
698523.2936376977,3532751.2368613081,-47500.0,1152.604702048289,-1105.7641272987332,-193.25851658814756,-806.93394786449642,321.50693690092783,301.52842491365686,1500.9254311009388,508.13627464165222,-932.87301991978723,932.87301991978723,-508.13627464165222,2705.9040283918466,0.0
703523.2936376977,3532751.2368613081,-47500.0,1160.4890973860956,-909.24393698183098,-459.12320095925827,-698.22556734123339,112.93984661468227,185.25094600520615,1377.3301831066415,636.71399165823573,-999.08430093420088,999.08430093420088,-636.71399165823573,2444.5290776364113,0.0
708523.2936376977,3532751.2368613081,-47500.0,1130.1362468708533,-705.93493720805463,-667.67812455930618,-581.45842382943783,-59.84532530675888,86.848992019504152,1271.656477252079,726.95599024804483,-1016.6302557695585,1016.6302557695585,-726.95599024804483,2228.2294499169252,0.0
713523.2936376977,3532751.2368613081,-47500.0,1067.6239240992688,-506.62975054651446,-822.25591476651607,-463.33271476938086,-197.89981152866147,6.0489021018126738,1182.8061663905796,780.74321835269609,-995.01381846182892,995.01381846182892,-780.74321835269609,2055.2089513030487,0.0
598523.2936376977,3537751.2368613081,-47500.0,1296.2596193990078,1333.8932153614965,722.54866603517428,1161.5462566811873,1109.1225231370117,835.93824601957544,1895.5968802502109,1302.8075216180519,993.17946612161461,-993.17946612161461,-1302.8075216180519,3654.1468736226598,0.0
603523.2936376977,3537751.2368613081,-47500.0,1208.6355189983335,1441.8356174933731,1052.2169660813408,1216.2719812904359,1365.277505754033,980.57327193718868,2085.2922098788554,1186.75048603765,1296.6470018432672,-1296.6470018432672,-1186.75048603765,4038.2392734654495,0.0
608523.2936376977,3537751.2368613081,-47500.0,1082.9429290701025,1509.9057011910211,1417.429721369653,1242.1588896753169,1641.109534862225,1133.5897665040095,2282.9663187163387,1020.8228659470203,1608.537373116865,-1608.537373116865,-1020.8228659470203,4432.3299894620141,0.0
613523.2936376977,3537751.2368613081,-47500.0,922.70764713231711,1525.3156070837947,1807.7107292339379,1231.6831461521963,1928.8239559844931,1290.6296531139167,2483.2811407374038,806.40021916956039,1913.7057267018995,-1913.7057267018995,-806.40021916956039,4825.4495883050649,0.0
618523.2936376977,3537751.2368613081,-47500.0,735.50900283939995,1476.4142519191669,2207.7069241477357,1178.2115681218806,2217.6569219328671,1445.8950874627235,2678.8633935451162,549.39613104562864,2193.62350947916,-2193.62350947916,-549.39613104562864,5204.2422589067928,0.0
623523.2936376977,3537751.2368613081,-47500.0,533.1731490525957,1354.4115374562712,2597.338573155746,1077.0014323728274,2494.0472455373183,1592.2658770402677,2860.8905563144567,260.86413627859338,2427.4499655643608,-2427.4499655643608,-260.86413627859338,5553.3968701874928,0.0
628523.2936376977,3537751.2368613081,-47500.0,331.33296090839383,1155.262025682993,2952.7027414610984,926.26995728524491,2742.2581793136624,1721.6344316530381,3019.9051078055727,-43.004816785638695,2593.8198142246138,-2593.8198142246138,43.004816785638695,5856.4308547085939,0.0
633523.2936376977,3537751.2368613081,-47500.0,148.20394532891396,881.39310403250852,3247.8521684168627,728.15557554683551,2945.511026413139,1825.4835356556043,3146.6085548834926,-341.71740200794807,2673.2719638137678,-2673.2719638137678,341.71740200794807,6096.8358914696964,0.0
638523.2936376977,3537751.2368613081,-47500.0,2.5679446858010979,542.86863263332418,3457.4072654795691,489.34499669131128,3087.5983302219574,1895.6881126127353,3232.6707976804601,-612.25494653706744,2651.0526100553602,-2651.0526100553602,612.25494653706744,6259.5269540271956,0.0
643523.2936376977,3537751.2368613081,-47500.0,-88.836935488235412,157.56569982427607,3559.7371990127363,221.13427874091244,3154.817319402443,1925.4625236856846,3271.5923603329211,-831.7016018371487,2519.8320719659678,-2519.8320719659678,831.7016018371487,6332.4539898595085,0.0
648523.2936376977,3537751.2368613081,-47500.0,-114.09153158366526,-249.94190159760544,3540.2087237022974,-61.242753449184129,3137.9302964847147,1910.3126829666976,3259.5589425385542,-980.37567384020599,2281.74200543605,-2281.74200543605,980.37567384020599,6308.1555517838688,0.0
653523.2936376977,3537751.2368613081,-47500.0,-68.438785781565272,-650.84029182128177,3393.8417416016964,-340.04290683393157,3033.7681218698667,1848.8105028213574,3196.167248443373,-1044.8834932179923,1949.1543404832212,-1949.1543404832212,1044.8834932179923,6184.9891067435274,0.0
658523.2936376977,3537751.2368613081,-47500.0,44.419790569548034,-1015.5714225510134,3126.7116917254343,-597.0331381248576,2846.0925302345941,1743.0082972632872,3084.8770270275427,-1020.4069607740055,1543.824688085884,-1543.824688085884,1020.4069607740055,5967.7810281846459,0.0
663523.2936376977,3537751.2368613081,-47500.0,212.50226026569848,-1317.7318499913665,2755.6544371568639,-815.75015164641025,2585.4541915419504,1598.3673748625504,2933.0119111952754,-911.63017339716339,1094.3975468421413,-1094.3975468421413,911.63017339716339,5667.7240557813193,0.0
668523.2936376977,3537751.2368613081,-47500.0,417.26339046733654,-1537.557539268809,2306.2205081468669,-983.54589103112596,2268.005110177236,1423.1792823086237,2751.0429806153115,-732.01713710164404,632.70335691218179,-632.70335691218179,732.01713710164404,5301.4877580317298,0.0
673523.2936376977,3537751.2368613081,-47500.0,636.49253259663692,-1664.2430502659661,1809.2730882549783,-1092.9945964311394,1913.4811920549619,1227.5798786795742,2550.9643757439876,-501.5829032170758,189.61455969746331,-189.61455969746331,501.5829032170758,4889.6666458819918,0.0
678523.2936376977,3537751.2368613081,-47500.0,847.71295906809996,-1696.6496982907468,1296.9660972320228,-1142.3986368510912,1542.7737685400091,1022.3538899104047,2344.2979162088268,-243.69812866893821,-208.66522861828244,208.66522861828244,243.69812866893821,4454.8184122247012,0.0
683523.2936376977,3537751.2368613081,-47500.0,1031.3109697374873,-1642.3941428800144,798.94224119371142,-1135.3681745314241,1175.5787486528282,817.7645635916773,2140.877520530893,18.320747120339774,-543.17465827489821,543.17465827489821,-18.320747120339774,4019.3892827729796,0.0
688523.2936376977,3537751.2368613081,-47500.0,1172.7753912793335,-1515.706829161099,339.44229619195113,-1079.6722303598649,828.5404733032999,622.61148399191632,1948.5951383723689,264.11813409980397,-803.2854233081448,803.2854233081448,-264.11813409980397,3603.7855761985838,0.0
693523.2936376977,3537751.2368613081,-47500.0,1263.7465722727241,-1334.678460181739,-64.305845117294012,-985.69483417156312,514.12975791921554,443.63905802980224,1773.3426629237038,478.22646505735969,-986.37102889301968,986.37102889301968,-478.22646505735969,3224.7518834685816,0.0
698523.2936376977,3537751.2368613081,-47500.0,1301.9147614067228,-1118.5223451112561,-402.41018797788513,-864.84776218623631,240.28969367082766,285.31950859444623,1618.8362924361509,650.86426333586712,-1096.4208318912411,1096.4208318912411,-650.86426333586712,2894.1250601537281,0.0
703523.2936376977,3537751.2368613081,-47500.0,1290.0577040054027,-885.32460458839205,-671.61166134567225,-728.2159432038186,10.720634222878196,149.95592742027094,1486.5163150984195,777.74098752373789,-1142.1002448552281,1142.1002448552281,-777.74098752373789,2618.0365111457013,0.0
708523.2936376977,3537751.2368613081,-47500.0,1234.6109847097262,-650.52039869209625,-873.94972780866703,-585.58841674040661,-174.41247924857541,38.004846642173256,1375.7104994447163,859.17452553186126,-1134.7282789322078,1134.7282789322078,-859.17452553186126,2396.7287548881072,0.0
713523.2936376977,3537751.2368613081,-47500.0,1144.1404873438607,-426.12040628314071,-1015.1864979909063,-444.90857790957,-317.57699742175424,-51.49041100773713,1284.0954508894661,898.86836513347782,-1086.5116024221488,1086.5116024221488,-898.86836513347782,2225.2191778107722,0.0
718523.2936376977,3537751.2368613081,-47500.0,1027.9841964492396,-220.56478182173663,-1103.2922092269644,-312.09145212863075,-422.95915391008111,-120.4476918033729,1208.3563511853692,902.6432410953322,-1009.2125618703272,1009.2125618703272,-902.6432410953322,2094.8608933370856,0.0
593523.2936376977,3542751.2368613081,-47500.0,1513.1851782962251,1196.5316126038001,238.19346450161331,1181.4255670372715,841.51343064663115,748.00260496480087,1811.0922089012163,1587.2663185616143,535.67200696259715,-535.67200696259715,-1587.2663185616143,3441.264908916804,0.0
598523.2936376977,3542751.2368613081,-47500.0,1479.7119083047633,1363.40550928629,532.86511047817044,1283.020984661051,1098.5690755084761,904.95420521675874,2010.0405956301065,1542.6217552829128,839.32998931030011,-839.32998931030011,-1542.6217552829128,3849.4508849454787,0.0
603523.2936376977,3542751.2368613081,-47500.0,1401.3178921366521,1504.9694238851055,878.69928011634715,1362.8270822872728,1388.3293610466194,1077.9855661408683,2224.5941246208554,1443.2280862858488,1172.0194232328604,-1172.0194232328604,-1443.2280862858488,4284.5958535895916,0.0
608523.2936376977,3542751.2368613081,-47500.0,1276.3282032154034,1606.1441264264902,1270.8023646103275,1411.1886666353146,1705.9840893811197,1263.9423543249384,2451.4328965837999,1284.3387565285427,1522.0584282762486,-1522.0584282762486,-1284.3387565285427,4737.5856577681516,0.0
613523.2936376977,3542751.2368613081,-47500.0,1107.1026488513423,1650.8613334794854,1698.9083572731854,1418.1079183970219,2043.1436767475348,1457.7976521198934,2684.805908146559,1065.2136881387225,1872.7985196461357,-1872.7985196461357,-1065.2136881387225,5195.970126962161,0.0
618523.2936376977,3542751.2368613081,-47500.0,901.05269558597831,1623.6852289529211,2146.5929660331553,1374.2658757200761,2387.4360955134252,1652.4885578462063,2916.2375814885195,790.54344869043223,2202.8451102555955,-2202.8451102555955,-790.54344869043223,5643.9806328016348,0.0
623523.2936376977,3542751.2368613081,-47500.0,671.19180753652768,1511.9947719697068,2591.1227704148032,1272.3539867401087,2722.5197299705264,1838.9697764352263,3135.0584046979106,471.53987275258237,2487.1188371005674,-2487.1188371005674,-471.53987275258237,6062.9338459986557,0.0
628523.2936376977,3542751.2368613081,-47500.0,435.890968846318,1308.5263838363364,3004.2623803789056,1108.5922104558454,3028.7013772362347,2006.5745232791185,3329.3900228618731,126.31752412839069,2698.9185266690438,-2698.9185266690438,-126.31752412839069,6432.1248319843326,0.0
633523.2936376977,3542751.2368613081,-47500.0,217.56158722795465,1013.8783340183775,3354.2821772146217,884.19761886226479,3284.2960005150112,2143.7451538167052,3487.1988202892262,-220.81014826018509,2812.9677127270338,-2812.9677127270338,220.81014826018509,6730.2573733555937,0.0
638523.2936376977,3542751.2368613081,-47500.0,40.163094099393525,638.40127050847025,3609.20242834291,606.46999304724784,3467.7400365889325,2239.1349118895309,3597.4030292452721,-541.36862896293678,2809.1524555027227,-2809.1524555027227,541.36862896293678,6937.3662798120167,0.0
643523.2936376977,3542751.2368613081,-47500.0,-74.26775891004516,202.82590687113176,3740.9863010278459,289.12034615699815,3560.275199741307,2282.9859901850909,3651.0792146437643,-806.06897284637125,2676.3438122496445,-2676.3438122496445,806.06897284637125,7037.0556418018914,0.0
648523.2936376977,3542751.2368613081,-47500.0,-109.5019513285237,-262.90168394911524,3730.0201553801826,-48.461670165715816,3548.7971984928649,2268.5811309155779,3642.6884663541473,-989.04816794989415,2415.4499643579229,-2415.4499643579229,989.04816794989415,7018.7455248699698,0.0
653523.2936376977,3542751.2368613081,-47500.0,-58.544558088888202,-722.74968477818231,3568.9248290102205,-383.10287780286404,3428.2845946067118,2193.4773819744164,3571.1385307921742,-1072.1931530522475,2040.7970977237587,-2040.7970977237587,1072.1931530522475,6879.5208319002095,0.0
658523.2936376977,3542751.2368613081,-47500.0,74.357392766923255,-1139.3289024069104,3264.687059935502,-690.69622002682866,3203.1887313280258,2060.2136018705087,3440.4636773971993,-1048.5085328792238,1579.1991608527519,-1579.1991608527519,1048.5085328792238,6625.1748115800647,0.0
663523.2936376977,3542751.2368613081,-47500.0,273.83551010149569,-1479.303304550253,2838.3869591770313,-949.47883294256053,2887.3293890578798,1876.2612090382011,3259.883469010314,-923.57961730423483,1066.6340136546414,-1066.6340136546414,923.57961730423483,6270.1472927877885,0.0
668523.2936376977,3542751.2368613081,-47500.0,515.79432704060935,-1718.2431834122608,2322.3992632485815,-1143.0177739193487,2502.2019258096871,1653.1662411799348,3042.9367911156605,-714.63858958148649,543.13649929873372,-543.13649929873372,714.63858958148649,5836.2869867157351,0.0
673523.2936376977,3542751.2368613081,-47500.0,771.53794438019236,-1843.7651644810385,1755.654936318201,-1262.218145630578,2074.0280363753759,1405.0420033014782,2805.4178725596853,-447.42683888312229,47.068694776260514,-47.068694776260514,447.42683888312229,5350.6207407549146,0.0
678523.2936376977,3542751.2368613081,-47500.0,1012.5686661261085,-1856.2971349898683,1178.0875517811801,-1305.9404481410156,1630.2222320927494,1146.7448832466491,2562.6026268021928,-151.68675167949411,-389.90547403293476,389.90547403293476,151.68675167949411,4842.5223965641617,0.0
683523.2936376977,3542751.2368613081,-47500.0,1214.8649161597516,-1767.5118836061677,625.53649249901287,-1280.2170080221472,1196.0566848502788,892.12776634969123,2327.2623858645393,143.55194186549227,-746.10099132752543,746.10099132752543,-143.55194186549227,4340.7471018394244,0.0
688523.2936376977,3542751.2368613081,-47500.0,1361.7339594054902,-1597.0947030933828,126.09524319681547,-1196.4240272491957,792.1565984243224,652.69694626150476,2109.0947133411682,413.82099920302818,-1010.9096141595398,1010.9096141595398,-413.82099920302818,3870.7085912662369,0.0
693523.2936376977,3542751.2368613081,-47500.0,1444.8734722260331,-1368.8240436927622,-301.64101232439339,-1068.966148592616,433.15035549357822,436.84936735621108,1914.6932839114115,641.5468315568653,-1183.9117169112717,1183.9117169112717,-641.5468315568653,3452.225094122568,0.0
698523.2936376977,3542751.2368613081,-47500.0,1463.8146587259703,-1106.8933930965486,-648.5352807168166,-913.02271325371476,127.45654067821891,249.69545929610325,1747.4804539530292,816.7468662686872,-1272.6406050580115,1272.6406050580115,-816.7468662686872,3097.8490868302524,0.0
703523.2936376977,3542751.2368613081,-47500.0,1424.2685577699083,-833.09979322845754,-913.55872077369872,-742.74662288575689,-122.0528815013199,93.347263299354637,1607.7884253051866,936.39026046120011,-1289.7756179405599,1289.7756179405599,-936.39026046120011,2811.9740254978815,0.0
708523.2936376977,3542751.2368613081,-47500.0,1335.9947990256398,-565.14479368436275,-1101.7495007054044,-570.09344758842167,-316.87711174537856,-32.507335161246424,1493.3350173192007,1002.9339289930865,-1250.4288080427216,1250.4288080427216,-1002.9339289930865,2591.0916478660251,0.0
713523.2936376977,3542751.2368613081,-47500.0,1210.7137290671797,-315.97899447841712,-1222.0320484148049,-404.27201210949835,-461.54310403230357,-129.91954955617655,1400.0830166284345,1022.5496064130845,-1169.9457666329808,1169.9457666329808,-1022.5496064130845,2425.4961394950351,0.0
718523.2936376977,3542751.2368613081,-47500.0,1060.3919293933893,-93.941343114299769,-1285.2764829852456,-251.69269603373903,-562.34638410889124,-202.01762873295712,1323.2564828336372,1003.4346155531141,-1062.3887980805896,1062.3887980805896,-1003.4346155531141,2302.1439798603833,0.0
723523.2936376977,3542751.2368613081,-47500.0,896.03772376499819,96.60938112148213,-1302.7907979103243,-116.24663019934819,-626.31955641008039,-252.44832318634093,1258.2277967422779,954.4346053678031,-939.68067321364981,939.68067321364981,-954.4346053678031,2207.693752737764,0.0
588523.2936376977,3547751.2368613081,-47500.0,1653.4591626832209,953.80390207194114,-230.35732378938755,1126.683958367639,536.8849090652933,623.64856522002731,1704.6035700661505,1773.6797399176303,40.8538698659072,-40.8538698659072,-1773.6797399176303,3173.5646099624591,0.0
593523.2936376977,3547751.2368613081,-47500.0,1688.2426158050339,1161.7578273204515,3.3025443581615836,1270.1693525164517,775.57099809762974,783.53944375627566,1902.4779680241766,1813.7812262523753,313.23730137251914,-313.23730137251914,-1813.7812262523753,3581.4390496056321,0.0
598523.2936376977,3547751.2368613081,-47500.0,1678.2959842265559,1363.023656908427,296.88955651399249,1402.8125494172264,1057.3958111701795,966.88484267833985,2122.4408511760453,1802.930738607929,631.58913000741939,-631.58913000741939,-1802.930738607929,4032.7470694165336,0.0
603523.2936376977,3547751.2368613081,-47500.0,1616.4894729648045,1542.94018814844,652.05857858877016,1514.2863399565883,1381.7286817241252,1172.5655274530318,2363.3861676908541,1730.6366055716076,990.01556742491846,-990.01556742491846,-1730.6366055716076,4521.9206684843666,0.0
608523.2936376977,3547751.2368613081,-47500.0,1498.621320413019,1683.7686131907897,1065.7844571298253,1592.5288139005004,1744.450171593506,1397.4723725579531,2622.2763937289201,1588.7489794671669,1377.1179769907535,-1377.1179769907535,-1588.7489794671669,5039.5229305641797,0.0
613523.2936376977,3547751.2368613081,-47500.0,1325.0624042875786,1765.6988626403124,1528.7668093841817,1624.4688436669173,2136.9651321988945,1636.0186990457896,2893.1361371212079,1373.3700187781449,1775.1830936830345,-1775.1830936830345,-1373.3700187781449,5571.7574028571771,0.0
618523.2936376977,3547751.2368613081,-47500.0,1102.328900694562,1768.6788679815804,2024.0986932387452,1597.2496521320807,2545.4299384056035,1879.7820071531278,3166.4087139835437,1086.8957705313153,2160.0410717047389,-2160.0410717047389,-1086.8957705313153,6100.2782704047613,0.0
623523.2936376977,3547751.2368613081,-47500.0,844.19004223498564,1675.1019919964162,2526.622610112438,1499.9591994396026,2950.4627325731749,2117.4125207239276,3429.3266356345575,739.81120896038783,2501.9702182351148,-2501.9702182351148,-739.81120896038783,6602.4834510093142,0.0
628523.2936376977,3547751.2368613081,-47500.0,571.82197944249697,1473.1714875203897,3003.4634919215728,1325.7469996073123,3327.6428627232012,2334.9633674341608,3667.0443705199837,351.7112414221549,2767.9639574127705,-2767.9639574127705,-351.7112414221549,7052.471856674134,0.0
633523.2936376977,3547751.2368613081,-47500.0,312.52983222369085,1160.4626509186039,3416.1713165239744,1074.0300975294906,3649.0642414532372,2516.7733502055166,3864.0029531563678,-49.045273969868958,2925.4623466508083,-2925.4623466508083,49.045273969868958,7422.7858977753713,0.0
638523.2936376977,3547751.2368613081,-47500.0,96.758139051963383,746.89680174420653,3724.6597677432701,752.31052745849888,3886.0510880690931,2646.9539713542295,4005.4292382972612,-427.52887099561258,2947.2710482517027,-2947.2710482517027,427.52887099561258,7686.9347896838954,0.0
643523.2936376977,3547751.2368613081,-47500.0,-46.476118451051981,256.14696668927809,3892.6794347234559,377.01002555299027,4012.8611101036486,2711.3869928096738,4079.0252627775731,-746.41302948308908,2816.9016090080759,-2816.9016090080759,746.41302948308908,7822.5002380071637,0.0
648523.2936376977,3547751.2368613081,-47500.0,-95.014682234226072,-275.4172295308918,3893.9763935671449,-27.22125518172669,4010.8291034753811,2699.9468021854209,4076.7411661836168,-971.67872526597955,2533.1168461679649,-2533.1168461679649,971.67872526597955,7814.3982696479979,0.0
653523.2936376977,3547751.2368613081,-47500.0,-38.589620725243478,-802.66575889978424,3717.7674787145429,-429.98681125068128,3872.0693136102777,2608.4875456288946,3996.3552449401818,-1078.7438744896449,2112.288417419988,-2112.288417419988,1078.7438744896449,7657.6833520218051,0.0
658523.2936376977,3547751.2368613081,-47500.0,118.0487391788148,-1278.1167195363294,3371.9794511182954,-799.18270380960462,3601.727736230484,2440.0635149268201,3842.5167469111002,-1057.4502848797183,1587.4842090598331,-1587.4842090598331,1057.4502848797183,7359.2320652896551,0.0
663523.2936376977,3547751.2368613081,-47500.0,355.09611338658738,-1659.4996463807543,2883.0727853901976,-1105.8053711401983,3217.9972396956814,2204.9606302596289,3626.9110944489166,-914.38567847377294,1004.0349487960291,-1004.0349487960291,914.38567847377294,6937.7952499022531,0.0
668523.2936376977,3547751.2368613081,-47500.0,641.05758783710314,-1916.5739001842933,2292.1891940200617,-1328.3678439416442,2749.6833811322072,1919.4123029659586,3367.1859634602015,-671.69038699148609,412.44059839745813,-412.44059839745813,671.69038699148609,6422.2597662386379,0.0
673523.2936376977,3547751.2368613081,-47500.0,938.68557764116963,-2035.4023388024498,1648.5045422349831,-1455.7986847180614,2231.8429899196108,1603.2598918765764,3084.2873869278783,-362.60285596600653,-139.60899949231816,139.60899949231816,362.60285596600653,5848.3999007130296,0.0
678523.2936376977,3547751.2368613081,-47500.0,1211.810187765896,-2019.0868596374023,1001.5266522201671,-1488.1621403674442,1700.5922361082357,1277.1287941244432,2798.6037488805646,-25.048495663253505,-614.05852498236368,614.05852498236368,25.048495663253505,5254.7386121505015,0.0
683523.2936376977,3547751.2368613081,-47500.0,1431.1992043059238,-1885.1294003650762,394.27068875305594,-1435.2359203819078,1188.3473761121284,959.79288941703942,2526.7978085597151,304.90577982336077,-986.61874907679203,986.61874907679203,-304.90577982336077,4678.2457693592187,0.0
688523.2936376977,3547751.2368613081,-47500.0,1578.1259596186089,-1660.5598451680821,-141.27214837198994,-1313.5955656230656,720.47062434062707,666.26139643619422,2280.684065290126,598.12277494445038,-1247.6730959539325,1247.6730959539325,-598.12277494445038,4150.4432679547608,0.0
693523.2936376977,3547751.2368613081,-47500.0,1645.2431633751221,-1376.383039309183,-585.86171744926708,-1143.1406273640923,313.73345689758548,406.83268632643143,2067.2644843801609,835.12328699318675,-1400.4340493527357,1400.4340493527357,-835.12328699318675,3694.2325562301544,0.0
698523.2936376977,3547751.2368613081,-47500.0,1635.2098885017535,-1062.7027806637225,-932.27662964854653,-943.91796140652104,-23.547194109853056,187.06312942232208,1888.9438775404308,1006.459344162915,-1457.4375924095411,1457.4375924095411,-1006.459344162915,3321.691909436578,0.0
703523.2936376977,3547751.2368613081,-47500.0,1557.9822644107921,-745.31713059424317,-1182.9729933219171,-733.77915236660226,-290.20117421311062,8.4011357375871523,1744.0355440900507,1111.3316783253545,-1436.5616932297535,1436.5616932297535,-1111.3316783253545,3033.3386607287612,0.0
708523.2936376977,3547751.2368613081,-47500.0,1427.7190456318215,-443.97115491402582,-1347.0778214692048,-527.04317705072481,-490.32461740268752,-130.82832060365402,1627.8249416003277,1155.2812513382278,-1357.475512593659,1357.475512593659,-1155.2812513382278,2819.5433281512069,0.0
713523.2936376977,3547751.2368613081,-47500.0,1260.009363625624,-172.0157092784556,-1437.4666869743114,-334.05690315408276,-631.33324718745826,-234.36438534847835,1534.0386208274808,1147.6980235810051,-1239.0022349340406,1239.0022349340406,-1147.6980235810051,2664.1673765068595,0.0
718523.2936376977,3547751.2368613081,-47500.0,1069.7945144195492,62.978316800198371,-1468.3691863379361,-161.40354879859493,-722.27549505746242,-307.06264455393949,1456.274466778274,1099.643746509325,-1097.500454384553,1097.500454384553,-1099.643746509325,2549.1997842777441,0.0
723523.2936376977,3547751.2368613081,-47500.0,870.06890610366088,258.10700763930754,-1453.6651998966684,-12.486226026320939,-772.55319963914008,-354.15180572158175,1389.0053908408631,1022.222105010231,-946.12743278372295,946.12743278372295,-1022.222105010231,2458.5633739701425,0.0
728523.2936376977,3547751.2368613081,-47500.0,671.26259290895609,413.88016324287537,-1405.8424326410759,111.74124890630398,-791.06586398818615,-380.71522152155416,1328.0349389464873,925.52913182283282,-794.74312248805768,794.74312248805768,-925.52913182283282,2380.0543053257911,0.0
583523.2936376977,3552751.2368613081,-47500.0,1686.3092374639737,625.11916217686394,-639.66926128700572,994.036863585231,219.87411370293128,469.9164387079731,1591.3125311485962,1828.7337418652664,-442.99904410591751,442.99904410591751,-1828.7337418652664,2888.2810733144511,0.0
588523.2936376977,3552751.2368613081,-47500.0,1793.787478193894,848.86385955119897,-484.92566419561462,1167.8056157923538,422.05935592977409,621.94690322166434,1777.3415202483802,1954.5542131781481,-230.34180930940829,230.34180930940829,-1954.5542131781481,3268.4670908919879,0.0
593523.2936376977,3552751.2368613081,-47500.0,1864.5933709816816,1085.0327436941984,-270.18208836255542,1343.9558114461761,673.18206929187136,803.20978540837689,1989.9765227351659,2041.9943267944279,37.958398088060903,-37.958398088060903,-2041.9943267944279,3705.13803729145,0.0
598523.2936376977,3552751.2368613081,-47500.0,1887.3675878622971,1322.167800005961,12.167473995800863,1513.3277925832915,977.15854290027937,1015.1553560699219,2230.3553621136161,2076.8046245085757,362.7996835251347,-362.7996835251347,-2076.8046245085757,4197.7303056988067,0.0
603523.2936376977,3552751.2368613081,-47500.0,1851.7130335552044,1544.3481144136053,366.79539724956311,1663.8871846423526,1335.2850002997059,1257.5516235171799,2498.3099749105199,2044.6953231661141,740.34355840404805,-740.34355840404805,-2044.6953231661141,4741.864664076581,0.0
608523.2936376977,3552751.2368613081,-47500.0,1749.9835302874694,1731.2440353721879,793.47754229003317,1780.8871053805551,1744.8735832767604,1527.7403904215939,2791.4968421800959,1933.146821740301,1160.3712994936998,-1160.3712994936998,-1933.146821740301,5328.3923152709112,0.0
613523.2936376977,3552751.2368613081,-47500.0,1579.4700859144111,1858.971789339296,1284.9062039537696,1847.5590548224814,2197.7876472995199,1819.8613191240604,3104.0711752554189,1733.8157403438317,1604.8737040364003,-1604.8737040364003,-1733.8157403438317,5942.5524610320472,0.0
618523.2936376977,3552751.2368613081,-47500.0,1344.7085253726818,1902.0340073662587,1824.6266830551431,1846.5004751987315,2679.1193169389612,2124.1773393772964,3425.5587786809906,1445.3392387640401,2047.3253650960651,-2047.3253650960651,-1445.3392387640401,6563.4400192534858,0.0
623523.2936376977,3552751.2368613081,-47500.0,1059.4116347333622,1836.5129748939046,2385.6472631495772,1761.849889606043,3166.3813271231456,2426.7022227671719,3740.9071348493285,1076.0968130334222,2453.2032672465593,-2453.2032672465593,-1076.0968130334222,7164.0513642488368,0.0
628523.2936376977,3552751.2368613081,-47500.0,747.32957058334921,1644.4121606586316,2930.4276529592812,1582.1711210712567,3629.683210227679,2709.3800806472777,4031.6992264110554,646.22637075578314,2782.2948565673287,-2782.2948565673287,-646.22637075578314,7712.2034326460762,0.0
633523.2936376977,3552751.2368613081,-47500.0,441.26428180170979,1318.6181206832648,3412.9612504719748,1303.7050044648199,4033.364489510172,2951.0697066399835,4277.8687273830201,188.00508823182622,2993.1185161609637,-2993.1185161609637,-188.00508823182622,8172.5769343283118,0.0
638523.2936376977,3552751.2368613081,-47500.0,179.6451619867905,867.44804405190234,3783.408891139472,933.32938476244431,4339.3880757562456,3129.4967859626381,4459.7032642015083,-256.25713186801431,3049.2819697619329,-3049.2819697619329,256.25713186801431,8509.979171242494,0.0
643523.2936376977,3552751.2368613081,-47500.0,0.61762085669122546,317.33937000455342,3995.1387002729125,490.30573008810359,4512.3947005717773,3224.1231136574875,4560.2016380593432,-639.25759443983839,2926.8642402165869,-2926.8642402165869,639.25759443983839,8693.6330398051668,0.0
648523.2936376977,3552751.2368613081,-47500.0,-65.517122338432742,-287.79114802868281,4013.1379822610643,5.8597078200991888,4525.7214080315443,3219.5574506066159,4567.6509128699317,-916.28909627854227,2621.1300793860592,-2621.1300793860592,916.28909627854227,8701.9246876008256,0.0
653523.2936376977,3552751.2368613081,-47500.0,-3.7098386878084932,-891.39802979618048,3821.8640389925122,-479.99684491486687,4367.0686646319864,3108.7863662686327,4478.0078508943307,-1053.9149636507293,2150.4442487895421,-2150.4442487895421,1053.9149636507293,8526.687068503672,0.0
658523.2936376977,3552751.2368613081,-47500.0,180.93904931098402,-1432.9947752096095,3430.1575734996691,-924.20636837259929,4042.1702735128715,2895.3058073633233,4296.5295742604703,-1037.3859011410523,1555.5672326810632,-1555.5672326810632,1037.3859011410523,8175.9374407473197,0.0
663523.2936376977,3552751.2368613081,-47500.0,462.79755035024999,-1858.7938193549051,2871.2924704937118,-1287.7926520660383,3575.0890101574546,2593.3625457988351,4038.1286247154781,-874.34087515298279,893.74271173099032,-893.74271173099032,874.34087515298279,7674.1812225163085,0.0
668523.2936376977,3552751.2368613081,-47500.0,800.46082711530471,-2131.3640214050511,2197.6447257603668,-1542.4845924565407,3004.6906099676453,2226.0171075397516,3726.0017459581409,-593.31334398845331,228.78314175403571,-228.78314175403571,593.31334398845331,7059.9561038061438,0.0
673523.2936376977,3552751.2368613081,-47500.0,1145.3856645732524,-2235.4685813847573,1471.3104463521172,-1674.9493467703733,2378.1159966175119,1821.4509015798067,3388.1182056205275,-237.35664443644944,-380.11140274109493,380.11140274109493,237.35664443644944,6381.0326053974713,0.0
678523.2936376977,3552751.2368613081,-47500.0,1451.6891817760497,-2178.5795706520953,753.39502640066621,-1687.5590251629646,1743.0784928008497,1408.5243160503612,3051.847171616294,145.14135278791684,-887.62615115604842,887.62615115604842,-145.14135278791684,5688.277180572366,0.0
683523.2936376977,3552751.2368613081,-47500.0,1684.17223154921,-1986.4923045364681,94.925016954836877,-1595.8474304548026,1141.0506452099828,1012.7599072337601,2738.9971826995675,509.57304326159385,-1267.4218981434915,1267.4218981434915,-509.57304326159385,5029.3233012696401,0.0
688523.2936376977,3552751.2368613081,-47500.0,1822.6432476260725,-1696.0012133644354,-468.61526322156698,-1423.8471427728173,602.83319754624381,653.6292942807321,2463.7384808287998,821.72969555170664,-1512.4627923374792,1512.4627923374792,-821.72969555170664,4442.9103090300005,0.0
693523.2936376977,3552751.2368613081,-47500.0,1862.2070000915137,-1347.0973194378971,-918.6402410883793,-1198.8884751171558,146.98586990415279,343.46381298934926,2232.7864637297635,1060.8095649410882,-1631.591606836678,1631.591606836678,-1060.8095649410882,3954.3808964873638,0.0
698523.2936376977,3552751.2368613081,-47500.0,1810.4971611372305,-976.63482976746457,-1251.5243814502246,-947.17764067474593,-219.31292367809294,87.787461001646193,2046.2712306931317,1219.078420480156,-1644.1755481451376,1644.1755481451376,-1219.078420480156,3572.9411024218361,0.0
703523.2936376977,3552751.2368613081,-47500.0,1683.4041789022956,-614.40271417132271,-1474.8057114591943,-690.85293625974464,-497.90154826533256,-113.42686391605189,1899.1458220216668,1299.3025963990938,-1574.5937665750741,1574.5937665750741,-1299.3025963990938,3291.8300710592252,0.0
708523.2936376977,3552751.2368613081,-47500.0,1500.7133536554336,-281.58853851408594,-1602.9229491803903,-446.60336103588463,-696.7274283209648,-264.12019644670801,1783.2735229526024,1311.2610227327914,-1447.7442046860979,1447.7442046860979,-1311.2610227327914,3092.3003758924028,0.0
713523.2936376977,3552751.2368613081,-47500.0,1282.5579819485426,8.9455191450149183,-1653.448918423705,-225.53884148339958,-827.11004136302563,-370.5488210716581,1689.7150581377036,1268.3641901681667,-1286.0475920710314,1286.0475920710314,-1268.3641901681667,2950.3460942858028,0.0
718523.2936376977,3552751.2368613081,-47500.0,1047.0398515965232,251.32345159268479,-1644.2777640175973,-33.855545770371002,-901.56119931277476,-439.96618829158143,1610.5006717575502,1184.9603980760751,-1107.8942987764196,1107.8942987764196,-1184.9603980760751,2843.1916459010654,0.0
723523.2936376977,3552751.2368613081,-47500.0,808.97141022249605,444.90223818984504,-1591.8324639040443,126.12609579767651,-932.27497538437672,-479.67180476339308,1539.528445783842,1074.5139480294522,-927.20407419444098,927.20407419444098,-1074.5139480294522,2753.1124613047473,0.0
728523.2936376977,3552751.2368613081,-47500.0,579.4904584842551,592.54724846766021,-1510.1364225416016,254.85854225877438,-930.2281061797521,-496.4110282372996,1472.6978475437113,948.58558766983265,-753.70089922601983,753.70089922601983,-948.58558766983265,2668.3403430434719,0.0
733523.2936376977,3552751.2368613081,-47500.0,366.2477477786868,699.17340702431295,-1410.5115236743195,354.58018158930776,-904.75514514588212,-496.05903032005813,1407.6032746419939,816.42902378532108,-593.55793162957434,593.55793162957434,-816.42902378532108,2582.2068503950368,0.0
578523.2936376977,3557751.2368613081,-47500.0,1593.2379383467294,243.81264364441301,-954.25202945021897,790.11326064147033,-82.630060800042244,297.56118671120703,1489.669776234075,1735.2729823181464,-866.91431911592349,866.91431911592349,-1735.2729823181464,2634.2767024035693,0.0
583523.2936376977,3557751.2368613081,-47500.0,1766.0968856627142,455.32990163762565,-884.71939546002307,977.39292858775229,69.253046288363848,431.0986387242736,1654.9218870553093,1934.0278004820066,-733.67778428040754,733.67778428040754,-1934.0278004820066,2961.8350577194587,0.0
588523.2936376977,3557751.2368613081,-47500.0,1916.9770010549014,694.98162586782087,-763.55245787283309,1180.1867363103845,270.1053018767912,596.95666849928716,1848.1753667704259,2113.509669024199,-544.31862717619003,544.31862717619003,-2113.509669024199,3351.9739962620692,0.0
593523.2936376977,3557751.2368613081,-47500.0,2032.7400493363725,956.48496183433724,-579.23353757539849,1392.1982273716744,527.73993364056105,799.19102709762683,2072.811566868299,2258.8087157431555,-291.86948828242771,291.86948828242771,-2258.8087157431555,3810.0942530278035,0.0
598523.2936376977,3557751.2368613081,-47500.0,2098.9898449593743,1228.8567876094012,-320.91950551197857,1603.7431217421115,848.79708185474988,1040.8833901388341,2331.4930396697737,2352.6281413282477,27.749315655688861,-27.749315655688861,-2352.6281413282477,4338.5068057891931,0.0
603523.2936376977,3557751.2368613081,-47500.0,2101.4282301353842,1495.528774260865,19.809613266383064,1801.2641184420781,1237.3656911052744,1323.3151367584996,2625.56780312307,2376.4095796182019,413.77120030589072,-413.77120030589072,-2376.4095796182019,4935.1351682236591,0.0
608523.2936376977,3557751.2368613081,-47500.0,2027.9376471003256,1733.9477011482611,446.58334894295547,1967.2111807066792,1693.2013613831457,1644.9315081613126,2954.0171046849887,2312.2960923096398,858.34299057169221,-858.34299057169221,-2312.2960923096398,5592.1357856142249,0.0
613523.2936376977,3557751.2368613081,-47500.0,1871.3635513572756,1916.0793935097204,955.38062529671549,2080.5567744469408,2209.6498754149675,2000.1644648143608,3311.7347441325437,2146.0155991238821,1344.3328069750582,-1344.3328069750582,-2146.0155991238821,6294.5596947906179,0.0
618523.2936376977,3557751.2368613081,-47500.0,1632.7409125097295,2010.2796364823328,1531.5407128736099,2118.2405148315834,2771.5499332284317,2378.2721155408585,3687.7367208917703,1870.5600869059995,1843.7453097524071,-1843.7453097524071,-1870.5600869059995,7019.2930231901028,0.0
623523.2936376977,3557751.2368613081,-47500.0,1324.3826036072817,1984.9086204319983,2147.3165250046623,2057.7787143967912,3353.5985143855246,2762.466840047005,4064.6517196344184,1490.2020548881974,2317.5218216228968,-2317.5218216228968,-1490.2020548881974,7734.6411425369588,0.0
628523.2936376977,3557751.2368613081,-47500.0,971.88920945401844,1813.7607765655855,2760.9386020826978,1881.0786039511606,3919.8680968878439,3129.719946884421,4419.8777691972591,1023.969835270714,2717.5955273445547,-2717.5955273445547,-1023.969835270714,8401.0188517833085,0.0
633523.2936376977,3557751.2368613081,-47500.0,613.88893096266656,1482.8083418471776,3318.3029738990695,1579.1234542851366,4425.2693352517308,3451.6948030239823,4727.6586584149509,507.31169319493529,2991.8896094614493,-2991.8896094614493,-507.31169319493529,8973.2087843613754,0.0
638523.2936376977,3557751.2368613081,-47500.0,298.40018576501006,996.96640452202303,3758.1815465396812,1156.6720367356866,4819.6121936985128,3697.1938966042703,4961.7096139366267,-9.4599205651904867,3092.3373195349923,-3092.3373195349923,9.4599205651904867,9404.4821416812829,0.0
643523.2936376977,3557751.2368613081,-47500.0,75.366008900827893,384.81691325596569,4021.0947610955855,635.58443216865192,5054.390235666463,3836.2157826599637,5098.4823391517384,-466.9580248753789,2984.9354585639794,-2984.9354585639794,466.9580248753789,9652.4717127948243,0.0
648523.2936376977,3557751.2368613081,-47500.0,-13.78401790207257,-301.07670183251673,4060.6797890208204,55.142872997340831,5091.4791175257706,3845.1848004788499,5120.9194651472981,-806.63522281406426,2659.5508371774113,-2659.5508371774113,806.63522281406426,9686.0832866392993,0.0
653523.2936376977,3557751.2368613081,-47500.0,52.958851836551261,-989.96275626391275,3854.8834771682841,-531.86327024137847,4911.8231480225013,3712.2457272483216,5022.0781877846275,-982.99682850326315,2136.2628771700943,-2136.2628771700943,982.99682850326315,9492.0710445032419,0.0
658523.2936376977,3557751.2368613081,-47500.0,270.48682900283586,-1604.6506629412768,3413.373022970768,-1067.2962552892809,4521.4352254088499,3441.0299255819696,4807.7220996908582,-974.65160617558865,1465.2215244256445,-1465.2215244256445,974.65160617558865,9079.5168187785239,0.0
663523.2936376977,3557751.2368613081,-47500.0,605.49477625634154,-2076.5517710226663,2778.0260326067137,-1498.3448463552043,3952.281466356641,3051.3872430141246,4497.0158744810224,-790.22746543228493,718.77867681040755,-718.77867681040755,790.22746543228493,8480.6488054857509,0.0
668523.2936376977,3557751.2368613081,-47500.0,1003.2604865297955,-2359.4508086336982,2015.5165924427749,-1787.5980003116742,3257.1332845761935,2576.4393073599263,4120.7143221696115,-466.56354180297114,-22.438860291089298,22.438860291089298,466.56354180297114,7747.3472909707725,0.0
673523.2936376977,3557751.2368613081,-47500.0,1400.3277259750723,-2437.4852468539393,1204.0197839197476,-1919.2954760091318,2499.6876997989434,2056.6454668621654,3716.4096916158669,-59.525447964676459,-685.26087531835003,685.26087531835003,59.525447964676459,6943.9566760113557,0.0
678523.2936376977,3557751.2368613081,-47500.0,1738.6614076486917,-2325.0498715828012,418.32290144166808,-1899.9752668260221,1743.0400141566522,1532.699068484447,3321.0038943021341,369.23887444893558,-1216.5366420672647,1216.5366420672647,-369.23887444893558,6138.0476115330912,0.0
683523.2936376977,3557751.2368613081,-47500.0,1976.5841238177118,-2059.5859495632426,-282.13917123254424,-1753.9623505639449,1039.9307095718602,1039.3488775563212,2963.0491378405823,764.99570674199003,-1589.1727450985745,1589.1727450985745,-764.99570674199003,5390.9635522231874,0.0
688523.2936376977,3557751.2368613081,-47500.0,2093.7347515191527,-1690.630160712534,-859.56035750117655,-1515.8997518220904,427.03607908106943,601.59827026929383,2659.0649658079874,1088.4239668524217,-1801.1735360035671,1801.1735360035671,-1088.4239668524217,4749.4558151161255,0.0
693523.2936376977,3557751.2368613081,-47500.0,2090.0326356397686,-1268.9985692625262,-1298.1139569485986,-1223.0049234701453,-76.254824923945918,233.64463063305547,2414.0606054409918,1318.5831902745513,-1869.6882486707414,1869.6882486707414,-1318.5831902745513,4239.3087519259243,0.0
698523.2936376977,3557751.2368613081,-47500.0,1980.6275619676071,-838.81372776721912,-1600.0486328392353,-909.04067480086337,-465.61335380249608,-59.997740743252891,2223.8361920262009,1451.2172011218408,-1823.0591168215701,1823.0591168215701,-1451.2172011218408,3862.4930854177569,0.0
703523.2936376977,3557751.2368613081,-47500.0,1789.3992857899734,-433.31678821257299,-1779.8633310662058,-600.81653964736154,-747.74299426055848,-282.15903294879053,2078.1722815990283,1494.38580667115,-1693.4253858705165,1693.4253858705165,-1494.38580667115,3600.0895053443319,0.0
708523.2936376977,3557751.2368613081,-47500.0,1543.0258268282553,-73.998072003195688,-1858.5178840866174,-317.04238136331668,-936.03798966901024,-440.36968479562302,1964.5191789974278,1463.409077586623,-1511.2985273576692,1511.2985273576692,-1463.409077586623,3421.1441005906518,0.0
713523.2936376977,3557751.2368613081,-47500.0,1266.6683402498386,228.07990329025506,-1858.8138883712018,-68.841862156584227,-1046.8752157034623,-544.51729224670987,1871.150601436595,1376.4646318132636,-1302.4287533474567,1302.4287533474567,-1376.4646318132636,3293.3760997278901,0.0
718523.2936376977,3557751.2368613081,-47500.0,981.47279898503712,469.92189678891043,-1802.308347195725,138.84770445128819,-1096.9296101863526,-605.08164438460688,1788.9472853955435,1251.4292305193885,-1086.5974516454908,1086.5974516454908,-1251.4292305193885,3190.6193217329601,0.0
723523.2936376977,3557751.2368613081,-47500.0,703.58656690311932,654.05941997072182,-1707.625691223323,305.60190446686016,-1101.5131463921259,-631.98338667618839,1711.8125032046974,1104.0042601827413,-877.71416791473666,877.71416791473666,-1104.0042601827413,3095.3031180499806,0.0
728523.2936376977,3557751.2368613081,-47500.0,444.21114399058854,786.32203492321037,-1589.8180081451285,433.94327682505696,-1073.7412505495272,-633.95083961107252,1636.2524196914455,946.87843045081286,-684.62528600194173,684.62528600194173,-946.87843045081286,2997.5461796224072,0.0
733523.2936376977,3557751.2368613081,-47500.0,210.23634041953468,874.11957780145087,-1460.3985280384161,528.06485228873305,-1024.2775202947951,-618.26591976432042,1560.6635618175042,789.59894067852701,-512.1926910533673,512.1926910533673,-789.59894067852701,2893.0188356934673,0.0
738523.2936376977,3557751.2368613081,-47500.0,5.1125978378726238,925.2480686170162,-1327.7386125733776,592.88842214798308,-961.43144571940104,-590.75447758877544,1484.649468779915,638.85352326933707,-362.36790781208595,362.36790781208595,-638.85352326933707,2780.863364351052,0.0
578523.2936376977,3562751.2368613081,-47500.0,1592.6696245729129,25.517233218578678,-1162.5697455911522,712.52191597087381,-251.49723424732397,225.73962422722582,1556.9951582396657,1743.7614133986051,-1143.5267530711556,1143.5267530711556,-1743.7614133986051,2721.8358998713138,0.0
583523.2936376977,3562751.2368613081,-47500.0,1808.9141631662835,237.09425296844762,-1135.0490824967783,920.23190007340975,-113.65548222668829,364.09836162238059,1722.8818991560595,1993.2304503913826,-1049.0268048980299,1049.0268048980299,-1993.2304503913826,3041.1842571173106,0.0
588523.2936376977,3562751.2368613081,-47500.0,2009.4577580669936,485.54770648024709,-1057.7810763381019,1151.6233387870225,77.776440837655784,540.72301472341417,1919.3556473104222,2232.7037545685425,-895.89596549233556,895.89596549233556,-2232.7037545685425,3429.9127925843172,0.0
593523.2936376977,3562751.2368613081,-47500.0,2179.2956445396944,766.52923375343835,-916.77863447749019,1401.184278827975,333.43940885472404,761.72621076921507,2151.6086634819649,2445.9106621797191,-673.90639415881583,673.90639415881583,-2445.9106621797191,3897.7528968068873,0.0
598523.2936376977,3562751.2368613081,-47500.0,2300.9395066003403,1070.4463666614229,-697.75025709610077,1659.3139421846936,663.39031363669346,1032.4976547122271,2424.4253198920524,2612.7782295626548,-375.08971627148071,375.08971627148071,-2612.7782295626548,4451.4285466556175,0.0
603523.2936376977,3562751.2368613081,-47500.0,2355.6982151054935,1381.0252812405206,-387.92426791696653,1911.4135045295591,1075.5147548179775,1356.6855526617223,2741.4522585021482,2710.3057004514799,3.9531235029453455,-3.9531235029453455,-2710.3057004514799,5092.8351857514772,0.0
608523.2936376977,3562751.2368613081,-47500.0,2325.9470961636357,1674.2622039751325,21.243419282865666,2137.3043009464322,1573.303034270944,1734.8177967516849,3103.9224737192108,2714.4988412794364,459.17093532724698,-459.17093532724698,-2714.4988412794364,5817.0639619514395,0.0
613523.2936376977,3562751.2368613081,-47500.0,2198.4919538326612,1918.310024902383,530.51048426923023,2311.346439921937,2153.0390684228637,2162.5984356098056,3508.449259267074,2603.6115319643045,975.92275465173998,-975.92275465173998,-2603.6115319643045,6610.3721261054752,0.0
618523.2936376977,3562751.2368613081,-47500.0,1968.8670681293645,2074.9891028241623,1128.7643103185726,2403.7260593736605,2800.6677878713381,2629.0372382435162,3944.3408636444665,2362.7289769319846,1526.2210967045448,-1526.2210967045448,-2362.7289769319846,7448.3464264117492,0.0
623523.2936376977,3562751.2368613081,-47500.0,1645.9563656573359,2103.6099106731267,1789.1748929131752,2383.3814755293761,3488.9249768456216,3114.7524438594951,4392.1742754742163,1989.3058041677093,2067.3765349487912,-2067.3765349487912,-1989.3058041677093,8294.7183725211598,0.0
628523.2936376977,3562751.2368613081,-47500.0,1255.7456125591652,1967.4993245534176,2466.8470099258147,2222.8488287781738,4175.6873458662676,3591.0111803212044,4824.6413776265745,1498.6522418516779,2543.3400842339765,-2543.3400842339765,-1498.6522418516779,9101.5061626512397,0.0
633523.2936376977,3562751.2368613081,-47500.0,842.46897007245354,1642.9003402915912,3099.6067890863228,1904.8251501056614,4804.7984255527826,4020.2687523736895,5208.9374217180448,927.66131196591687,2889.9851926131137,-2889.9851926131137,-927.66131196591687,9811.2718539917005,0.0
638523.2936376977,3562751.2368613081,-47500.0,465.24972152688309,1128.7497722182572,3613.4892479230166,1429.4342687652966,5310.6126152639263,4359.000641563197,5510.1168427104076,334.59102739421292,3044.9019108246848,-3044.9019108246848,-334.59102739421292,10362.149485973368,0.0
643523.2936376977,3562751.2368613081,-47500.0,189.00697130105681,454.49505279428013,3933.6193488824983,820.19035224301751,5626.880826849424,4563.2911927130917,5695.5617202712538,-207.06395267831363,2960.813974759958,-2960.813974759958,207.06395267831363,10695.77874158538,0.0
648523.2936376977,3562751.2368613081,-47500.0,70.236754597281404,-317.74195618562527,3999.3345126970307,125.94374933395268,5699.1994549879983,4596.8057356522622,5740.4400870360387,-621.17513533368333,2619.6759389159242,-2619.6759389159242,621.17513533368333,10767.329869422774,0.0
653523.2936376977,3562751.2368613081,-47500.0,141.00211477391602,-1099.7591886459531,3779.9710541564273,-583.62232785772858,5498.2955957042059,4439.513140644247,5633.2536195147823,-845.99834630394969,2042.7005015210689,-2042.7005015210689,845.99834630394969,10555.622346861443,0.0
658523.2936376977,3562751.2368613081,-47500.0,396.83078250238771,-1793.0737207360719,3285.912598712292,-1229.5443779408486,5029.8286519202811,4094.3992049363105,5380.0029411680007,-850.60827032966597,1291.3766732574786,-1291.3766732574786,850.60827032966597,10070.473440950262,0.0
663523.2936376977,3562751.2368613081,-47500.0,794.30252530500229,-2310.2364903037796,2569.8399264404425,-1739.7132382528159,4336.4299931264522,3589.2808130704898,5005.4935558347015,-644.35531148146515,457.04083985918078,-457.04083985918078,644.35531148146515,9354.5233892450033,0.0
668523.2936376977,3562751.2368613081,-47500.0,1260.772411719797,-2594.5504560216827,1716.3769910154851,-2064.3990495118428,3490.1278115159835,2972.2837750538397,4550.859792529689,-274.80030197729843,-358.74152347069844,358.74152347069844,274.80030197729843,8478.2284234620784,0.0
673523.2936376977,3562751.2368613081,-47500.0,1713.1763104234228,-2630.9303428137241,823.23678234978229,-2185.5679832463006,2577.245194073033,2302.1283084674078,4066.9288124920417,185.5887149240092,-1066.3274130133118,1066.3274130133118,-185.5887149240092,7528.9489630578983,0.0
678523.2936376977,3562751.2368613081,-47500.0,2078.5792926703762,-2444.4463379697313,-19.36059492123977,-2117.0059636122701,1681.0470916291629,1636.5803663234312,3603.5699972943657,658.61307699013355,-1604.8647530835153,1604.8647530835153,-658.61307699013355,6596.8387933433005,0.0
683523.2936376977,3562751.2368613081,-47500.0,2308.9285014328502,-2088.5928531131867,-744.11679414879734,-1896.3549076615234,867.85235691322839,1022.8858829574451,3197.9901000626523,1077.9712699690542,-1948.9830604788124,1948.9830604788124,-1077.9712699690542,5760.4942577018746,0.0
688523.2936376977,3562751.2368613081,-47500.0,2386.1633576376767,-1629.0762117140375,-1313.2695429917746,-1573.1622410465384,179.99959752307694,492.58363655194319,2868.4403681851327,1399.879329721633,-2105.3241618401707,2105.3241618401707,-1399.879329721633,5074.4125386318583,0.0
693523.2936376977,3562751.2368613081,-47500.0,2318.5580282202086,-1129.1386850399667,-1716.8704137158963,-1197.4790388360375,-364.23654942557613,60.939365165527249,2615.5627519103673,1605.3167242915597,-2102.7043817305721,2102.7043817305721,-1605.3167242915597,4560.241399438386,0.0
698523.2936376977,3562751.2368613081,-47500.0,2132.0901917642354,-639.99485730593358,-1965.8837472314112,-811.90945603086902,-766.00496818179943,-270.34462055138312,2427.7049469075118,1695.9698894328089,-1980.6905457740354,1980.6905457740354,-1695.9698894328089,4205.5475459750733,0.0
703523.2936376977,3562751.2368613081,-47500.0,1860.9226455432274,-196.98019677525059,-2083.7203747682074,-447.84232618597912,-1039.3502044337824,-508.97249344301383,2287.3443928772112,1687.2640690045012,-1780.0919423295479,1780.0919423295479,-1687.2640690045012,3973.2932929895505,0.0
708523.2936376977,3562751.2368613081,-47500.0,1539.7018267324454,179.93990673149688,-2098.7796131619421,-125.07465788977571,-1204.9874596937689,-667.91930898279406,2176.8901728355586,1601.3591460106977,-1536.8441813243867,1536.8441813243867,-1601.3591460106977,3818.3504544494317,0.0
713523.2936376977,3562751.2368613081,-47500.0,1198.6761252099955,483.2525786294101,-2039.1527435721787,146.52154181543398,-1285.5145486516103,-762.1241388233725,2082.2969818536758,1461.7088540651621,-1279.1678474671708,1279.1678474671708,-1461.7088540651621,3701.6463328414206,0.0
718523.2936376977,3562751.2368613081,-47500.0,861.43947895674251,714.21847546105812,-1929.5630736316359,364.50912899734681,-1302.3187550839205,-806.24792238352313,1994.1717672982745,1289.6239049767084,-1027.1129679996236,1027.1129679996236,-1289.6239049767084,3596.3014264728545,0.0
723523.2936376977,3562751.2368613081,-47500.0,544.57090427877108,879.45772017634647,-1790.0710547312742,531.38867320326904,-1273.9404373248369,-813.39161957681358,1907.2368234893597,1102.5864298176646,-793.4795422363045,793.4795422363045,-1102.5864298176646,3487.1895747612834,0.0
728523.2936376977,3562751.2368613081,-47500.0,258.38126865333476,988.26063464133995,-1635.937019595784,652.50867904819029,-1215.4793363921224,-794.53331099046716,1819.1843134262672,913.80414691175997,-585.31461250456414,585.31461250456414,-913.80414691175997,3367.7834804618342,0.0
733523.2936376977,3562751.2368613081,-47500.0,8.1452589131284512,1050.7099233030167,-1478.1177093024555,734.51358960558343,-1138.6448313606268,-758.43466808489575,1729.5584075307318,732.49998220819202,-405.47742535259022,405.47742535259022,-732.49998220819202,3236.8694539897128,0.0
738523.2936376977,3562751.2368613081,-47500.0,-204.58370910272328,1076.5088308730801,-1324.0261176117995,784.29976761606088,-1052.1419036955995,-711.81298106243321,1638.9030379461358,564.55149990168923,-254.01150490266852,254.01150490266852,-564.55149990168923,3096.0650516841697,0.0
743523.2936376977,3562751.2368613081,-47500.0,-380.79345359179922,1074.3447044788415,-1178.3293812920087,808.3819192981307,-962.18731022353131,-659.635904923304,1548.1953854697229,413.22860480443637,-129.22782922225704,129.22782922225704,-413.22860480443637,2948.2090614248318,0.0
573523.2936376977,3567751.2368613081,-47500.0,1282.418549680888,-391.0267041708604,-1304.5176861335638,396.88091264576099,-514.18569960120522,22.08210386558401,1499.399399188665,1400.3934483868084,-1421.3905722485133,1421.3905722485133,-1400.3934483868084,2597.0534941425262,0.0
578523.2936376977,3567751.2368613081,-47500.0,1537.9363219724007,-232.61689017009655,-1356.9746385637229,586.8821671532902,-443.1925466069477,124.04121248921913,1637.5212622662864,1686.3353236317951,-1421.8114184891381,1421.8114184891381,-1686.3353236317951,2841.0193923678271,0.0
583523.2936376977,3567751.2368613081,-47500.0,1799.256228502328,-30.86342321999037,-1378.3210375559311,810.67359722357094,-327.9384847448091,261.99346150249903,1800.7919723322038,1986.734679053573,-1377.2091735538074,1377.2091735538074,-1986.734679053573,3142.0481412468425,0.0
588523.2936376977,3567751.2368613081,-47500.0,2054.1989423051796,216.29572137555306,-1354.8911086177368,1067.6538493600503,-155.98234241349689,444.12429663759582,1995.7104740517634,2289.9131249431366,-1274.4398309345256,1274.4398309345256,-2289.9131249431366,3515.4435141223817,0.0
593523.2936376977,3567751.2368613081,-47500.0,2286.4636810252136,507.28201400242739,-1270.6222648168682,1353.9098749323134,86.430937954776525,679.13109568125151,2229.5422873485818,2579.1766322531053,-1099.9199704028947,1099.9199704028947,-2579.1766322531053,3976.5047731658451,0.0
598523.2936376977,3567751.2368613081,-47500.0,2475.7675792679329,834.99849170592267,-1107.8993827653387,1660.839934242101,413.40023887944596,975.50443838061642,2509.8113192566379,2832.4320083035377,-841.29004729921007,841.29004729921007,-2832.4320083035377,4538.3421545548845,0.0
603523.2936376977,3567751.2368613081,-47500.0,2598.8430773399168,1184.7513720783033,-849.29364399485223,1973.6903504029694,837.66193528955773,1340.3525413933876,2843.4423283235087,3022.5669126048642,-489.96864555207799,489.96864555207799,-3022.5669126048642,5209.2512552073686,0.0
608523.2936376977,3567751.2368613081,-47500.0,2631.6854050720349,1532.3520854295673,-480.46445590320354,2270.2889875595806,1367.9609810905436,1777.6624923644672,3235.2200986329299,3119.067129623083,-44.640145564058685,44.640145564058685,-3119.067129623083,5989.8148004064133,0.0
613523.2936376977,3567751.2368613081,-47500.0,2553.369674948699,1843.0621794702206,5.6481703055065973,2520.4529364882924,2005.4269062591052,2285.9550743951509,3684.9887387550461,3091.3530178187812,484.5500267881223,-484.5500267881223,-3091.3530178187812,6869.8611588376816,0.0
618523.2936376977,3567751.2368613081,-47500.0,2351.4834580871529,2072.3331472452437,603.5484344607089,2686.7563138877053,2739.1420047239976,2855.4384548241637,4183.7683741889768,2914.143402369813,1071.7586768263536,-1071.7586768263536,-2914.143402369813,7825.5030081762161,0.0
623523.2936376977,3567751.2368613081,-47500.0,2028.6499842538885,2169.4508434375693,1289.6134022745357,2727.4728952811233,3541.5373544227291,3465.0308250120884,4710.8876572315467,2574.676430314551,1672.4176826348948,-1672.4176826348948,-2574.676430314551,8816.7590158881903,0.0
628523.2936376977,3567751.2368613081,-47500.0,1608.7552244953611,2084.9903863770692,2017.7708213157807,2602.4040898247249,4364.8625543979533,4080.0096911923479,5234.0847265438515,2080.7826082544943,2223.2235043801957,-2223.2235043801957,-2080.7826082544943,9786.6624549659864,0.0
633523.2936376977,3567751.2368613081,-47500.0,1140.4908249629268,1782.1596679466788,2718.7020600938808,2281.7527394302065,5140.6077644404168,4651.4915697641018,5712.0583437336491,1467.6762144659481,2647.1666825358416,-2647.1666825358416,-1467.6762144659481,10663.103985801887,0.0
638523.2936376977,3567751.2368613081,-47500.0,695.16957959746458,1250.4892462966704,3305.0763556144589,1757.0284557545042,5784.044986001828,5119.236246858859,6098.6229698194575,800.28091241249103,2865.0047162548208,-2865.0047162548208,-800.28091241249103,11364.669987818346,0.0
643523.2936376977,3567751.2368613081,-47500.0,356.2310872480208,518.14354365046927,3684.4378533662612,1051.2539545037446,6205.4704599288061,5419.0315800089347,6348.719232070669,167.65758266652188,2812.7038905248764,-2812.7038905248764,-167.65758266652188,11811.150492870205,0.0
648523.2936376977,3567751.2368613081,-47500.0,200.252271305444,-342.70377261802849,3778.8897195846121,224.10467127897891,6327.7452078987726,5494.6955420486884,6426.2943389394823,-332.38258986141545,2461.2703212362885,-2461.2703212362885,332.38258986141545,11937.963275345493,0.0
653523.2936376977,3567751.2368613081,-47500.0,273.62701074202636,-1222.8296254314446,3546.9692116192514,-632.61797342254033,6106.4594392251174,5312.4575037865006,6312.8042698784157,-616.59129252499281,1832.1570269708204,-1832.1570269708204,616.59129252499281,11711.697547060541,0.0
658523.2936376977,3567751.2368613081,-47500.0,573.59356225322358,-1997.0036033763936,2999.795782703105,-1411.1980295977617,5545.8435066593975,4872.9859278246804,6013.9475896449558,-640.55489720100297,1000.3585548194732,-1000.3585548194732,640.55489720100297,11142.158096019853,0.0
663523.2936376977,3567751.2368613081,-47500.0,1043.3998466727276,-2554.1590613220023,2203.4775924758364,-2012.5615326933887,4702.9350892415023,4215.4841438245685,5562.0597354422789,-413.74559605652053,80.662497222032556,-80.662497222032556,413.74559605652053,10286.069580976788,0.0
668523.2936376977,3567751.2368613081,-47500.0,1586.3277403922903,-2825.6138642152064,1264.6143859396436,-2370.4684063042332,3676.3500612034418,3410.6933237243975,5012.6236349120936,2.6011360159934043,-799.95854182037624,799.95854182037624,-2.6011360159934043,9239.8605984056067,0.0
673523.2936376977,3567751.2368613081,-47500.0,2093.7877795925187,-2799.6652738309131,303.6839312132953,-2465.4801021865524,2583.0343325340086,2544.6945864777335,4434.6911220860784,514.80503514616669,-1533.3971773297853,1533.3971773297853,-514.80503514616669,8122.8881055452757,0.0
678523.2936376977,3567751.2368613081,-47500.0,2475.1916707615806,-2517.3874203234245,-573.02210373005926,-2323.6550271229971,1532.1130753687678,1699.8645244743634,3895.597523836243,1024.5280137880386,-2052.6476326191114,2052.6476326191114,-1024.5280137880386,7055.5881587645172,0.0
683523.2936376977,3567751.2368613081,-47500.0,2677.4586304874524,-2053.8001827270664,-1292.6000960830595,-2002.5552665409416,605.3866948931859,940.04487092846853,3443.1938245709798,1453.0352529302149,-2338.2766154697333,2338.2766154697333,-1453.0352529302149,6137.3272453035797,0.0
688523.2936376977,3567751.2368613081,-47500.0,2689.0749048961407,-1494.2693452464439,-1821.3728381581934,-1572.2330613379729,-150.6449923555204,303.82275439421983,3095.5034529319182,1753.89005943146,-2410.469241580874,2410.469241580874,-1753.89005943146,5427.4640719712461,0.0
693523.2936376977,3567751.2368613081,-47500.0,2531.6701308841066,-915.24486073646733,-2159.4678457355812,-1098.7737069361854,-722.22856885004796,-194.45995542750612,2844.1683893316831,1913.2079147924885,-2313.5211993235462,2313.5211993235462,-1913.2079147924885,4934.5396082654843,0.0
698523.2936376977,3567751.2368613081,-47500.0,2246.0418124339481,-373.6432338273712,-2329.6868532925869,-634.36400611977786,-1119.7212095733896,-558.99359730411322,2665.8310504466581,1941.790117468488,-2100.1117614263226,2100.1117614263226,-1941.790117468488,4621.4546602082883,0.0
703523.2936376977,3567751.2368613081,-47500.0,1878.841333253979,95.582725537689356,-2365.929688404151,-213.99329648428889,-1367.531003662674,-805.41768183507372,2533.7674559118832,1864.6398290784632,-1819.7947509748324,1819.7947509748324,-1864.6398290784632,4427.69390400252,0.0
708523.2936376977,3567751.2368613081,-47500.0,1473.1884515119575,476.57150325120409,-2304.2277778252028,143.24462852308346,-1495.6303062246309,-954.60275987976445,2425.6539707652723,1711.764904952084,-1512.8056339897132,1512.8056339897132,-1711.764904952084,4294.8706517246446,0.0
713523.2936376977,3567751.2368613081,-47500.0,1063.7474406732053,767.44692819866282,-2177.2292935104588,430.62866938647954,-1533.762291498756,-1028.2166085369008,2326.433769526785,1511.9063840200479,-1208.1939507371776,1208.1939507371776,-1511.9063840200479,4181.0004518579854,0.0
718523.2936376977,3567751.2368613081,-47500.0,675.30036052628714,975.11383917070475,-2011.6463448608947,649.83462961589578,-1508.2139275546699,-1046.0874019252524,2227.7642407805779,1289.1981565104186,-924.6269652961721,924.6269652961721,-1289.1981565104186,4062.1552332076626,0.0
723523.2936376977,3567751.2368613081,-47500.0,323.46323413968406,1111.015208785778,-1827.7150737273237,807.47126804619938,-1440.5008927574504,-1024.9662894662574,2126.1349066070979,1062.0209417581218,-672.41247765491516,672.41247765491516,-1062.0209417581218,3928.0199014549971,0.0
728523.2936376977,3567751.2368613081,-47500.0,16.39819734185631,1188.1398060497377,-1639.7744604696702,912.47731288407738,-1347.2499084748808,-978.21314725559273,2020.9774288537969,843.19441323963349,-455.77990312707482,455.77990312707482,-843.19441323963349,3776.6428966231192,0.0
733523.2936376977,3567751.2368613081,-47500.0,-243.23651699439813,1219.1592326638513,-1457.3183000499771,974.37342933657897,-1240.7092711531759,-916.0055641932114,1913.2482073429846,640.8227442446173,-274.91697063714412,274.91697063714412,-640.8227442446173,3610.4228356447006,0.0
738523.2936376977,3567751.2368613081,-47500.0,-456.50847492309634,1215.4250932614377,-1286.1317835088666,1002.2115820999228,-1129.5095296040115,-845.79209388841753,1804.5171159390061,459.34558650361123,-127.57386959203063,127.57386959203063,-459.34558650361123,3433.5538115009249,0.0
743523.2936376977,3567751.2368613081,-47500.0,-626.77287797923043,1186.5489651590608,-1129.3150162541097,1004.0289024718599,-1019.4529875424503,-772.81564226901833,1696.4440714117013,300.54527691246233,-10.221609437825208,10.221609437825208,-300.54527691246233,3250.5776531690281,0.0
568523.2936376977,3572751.2368613081,-47500.0,864.150786083154,-749.30234427346795,-1317.2092668184407,59.948860111908317,-702.27101981180613,-164.80750562258379,1484.8249975708352,942.19765620742214,-1550.0642501652812,1550.0642501652812,-942.19765620742214,2597.5480160193215,0.0
573523.2936376977,3572751.2368613081,-47500.0,1127.0456482639568,-658.03061742619423,-1426.4574590070299,212.84002199773806,-693.10408463842839,-103.70083001214159,1603.0245248033384,1226.8203162128816,-1630.8224350327764,1630.8224350327764,-1226.8203162128816,2787.2020697863059,0.0
578523.2936376977,3572751.2368613081,-47500.0,1414.5610895968091,-525.70002999297833,-1523.880979254413,403.60704071664685,-652.82994151256673,-12.511235710367234,1738.4695171802423,1545.3687543172809,-1685.2524421375397,1685.2524421375397,-1545.3687543172809,3012.2991468036921,0.0
583523.2936376977,3572751.2368613081,-47500.0,1719.6836511769757,-345.70653105969046,-1598.89421731948,636.03796098966723,-569.55848485285549,117.66053970942886,1896.8360347018497,1892.7128398520003,-1700.7944633449952,1700.7944633449952,-1892.7128398520003,3287.6072088572123,0.0
588523.2936376977,3572751.2368613081,-47500.0,2031.0207418163091,-112.9348779708656,-1637.5921165228399,912.05606192731705,-428.79171292146157,297.27377504686388,2085.5545708524032,2259.0692165259825,-1662.5205768202393,1662.5205768202393,-2259.0692165259825,3631.7407772649535,0.0
593523.2936376977,3572751.2368613081,-47500.0,2331.9497292660335,174.59037174203402,-1622.6234387328168,1230.3401845580831,-213.61868558387209,538.09700031301531,2313.8277183789432,2628.7097561630999,-1553.7996572907114,1553.7996572907114,-2628.7097561630999,4065.9795641876508,0.0
598523.2936376977,3572751.2368613081,-47500.0,2600.1845691318345,513.46241235411378,-1533.6506779544122,1584.5307859778809,94.513165941756867,852.56334716924459,2592.3003655783614,2978.8916708589204,-1357.7782258990781,1357.7782258990781,-2978.8916708589204,4611.7608542776061,0.0
603523.2936376977,3572751.2368613081,-47500.0,2808.2126683563411,892.14179803629258,-1348.7882899933384,1961.1025371945534,514.13388115381406,1252.5359102719508,2932.2009338611228,3279.4540458027341,-1059.98493970462,1059.98493970462,-3279.4540458027341,5286.9990315829336,0.0
608523.2936376977,3572751.2368613081,-47500.0,2925.1906093397279,1288.0401904431355,-1047.4605573590982,2337.1694138114631,1060.8454866990287,1747.2615291828811,3343.5522525074848,3493.72014819674,-652.28027770686322,652.28027770686322,-3493.72014819674,6101.6700598021553,0.0
613523.2936376977,3572751.2368613081,-47500.0,2920.9206133395269,1665.1742882341264,-615.03692279368545,2678.7766994872204,1742.8989707706814,2340.3227931962338,3831.658596633496,3581.483780625183,-138.10246171188737,138.10246171188737,-3581.483780625183,7053.0958311347058,0.0
618523.2936376977,3572751.2368613081,-47500.0,2772.3099385888027,1973.6130727143841,-49.259611803863898,2940.6034546177157,2555.2525084868876,3025.5442194702068,4391.6169672988553,3504.7944512124673,461.58327690391661,-461.58327690391661,-3504.7944512124673,8121.252263379648,0.0
623523.2936376977,3572751.2368613081,-47500.0,2472.0740482932151,2152.3568488249457,632.22824834736195,3068.3555956538289,3472.6868522454001,3782.1524074863073,5003.2210565615987,3236.8041878461299,1103.0491159635524,-1103.0491159635524,-3236.8041878461299,9264.5928221930699,0.0
628523.2936376977,3572751.2368613081,-47500.0,2038.2526264233768,2137.3071292208697,1385.028623957259,3005.2475296549915,4443.4818074403665,4570.1004222704514,5629.5884246466348,2772.9044061080067,1717.6573321213828,-1717.6573321213828,-2772.9044061080067,10417.44660490659,0.0
633523.2936376977,3572751.2368613081,-47500.0,1521.4711951267334,1875.1492230573213,2134.8073217234401,2703.4739143084571,5386.300420682197,5327.3246581448047,6219.5706967327378,2141.7295627595172,2215.8377244240341,-2215.8377244240341,-2141.7295627595172,11490.778845339995,0.0
638523.2936376977,3572751.2368613081,-47500.0,1005.371787792478,1341.8590533429838,2781.5198072509297,2140.0284115014456,6193.804512623813,5971.5467251891087,6712.7146467494085,1411.6956243077664,2499.8480629541173,-2499.8480629541173,-1411.6956243077664,12378.509542813494,0.0
643523.2936376977,3572751.2368613081,-47500.0,595.46255408608431,561.21310667950127,3214.0569601713919,1333.4457969245811,6746.2322164760062,6409.4027615452524,7047.1683760967026,687.56150494850635,2485.7298185634431,-2485.7298185634431,-687.56150494850635,12971.06961603842,0.0
648523.2936376977,3572751.2368613081,-47500.0,394.44329704120503,-384.73464208198902,3335.1689669672551,354.74087707966765,6935.5775273836098,6554.1431199771723,7170.9223909550128,92.721133085498423,2130.4220920862081,-2130.4220920862081,-92.721133085498423,13175.889890447846,0.0
653523.2936376977,3572751.2368613081,-47500.0,468.68174982943464,-1362.1351483194064,3090.9921585751072,-675.78763989687889,6695.7508612925249,6349.2097771971357,7054.7700419788016,-261.93284135074816,1454.6073868274557,-1454.6073868274557,261.93284135074816,12941.100957200608,0.0
658523.2936376977,3572751.2368613081,-47500.0,818.73492647908961,-2212.9974804416784,2493.9075747740644,-1610.9619723035455,6028.0305188672382,5789.7470192086685,6703.1802033575732,-313.3665039219706,549.09412823886578,-549.09412823886578,313.3665039219706,12275.136900202271,0.0
663523.2936376977,3572751.2368613081,-47500.0,1370.3168312622936,-2797.6183026146768,1626.4222083412117,-2314.2116326988439,5008.8926005523717,4931.3217040554428,6158.5941559902658,-70.090769764184984,-443.21299711726158,443.21299711726158,70.090769764184984,11253.803773312982,0.0
668523.2936376977,3572751.2368613081,-47500.0,1994.6262286479562,-3034.6677822914462,620.86237297320326,-2697.5299072744042,3773.2478209287701,3878.99790941945,5496.3911970208956,389.57030529216519,-1365.9065025060552,1365.9065025060552,-389.57030529216519,10009.824737283703,0.0
673523.2936376977,3572751.2368613081,-47500.0,2550.4896090208285,-2920.2893619494189,-377.69941250132791,-2742.389722089898,2478.5958412761447,2759.9068598493886,4810.6308209961253,945.49085264027826,-2092.0298372095572,2092.0298372095572,-945.49085264027826,8706.781603709429,0.0
678523.2936376977,3572751.2368613081,-47500.0,2927.6054080957292,-2518.7157271509509,-1248.7133981301106,-2495.0979907441156,1265.8870693820934,1691.546869171827,4191.7087358198041,1475.8229817698361,-2552.4253138969716,2552.4253138969716,-1475.8229817698361,7504.8680115844372,0.0
683523.2936376977,3572751.2368613081,-47500.0,3071.4339320757654,-1932.633787341782,-1918.6534034291512,-2042.4092930045906,232.87987657165735,758.9761463704715,3699.4728880449024,1889.831903478236,-2740.0809323853773,2740.0809323853773,-1889.831903478236,6526.2004761893159,0.0
688523.2936376977,3572751.2368613081,-47500.0,2983.7098771436813,-1269.7527703149451,-2363.9796301947417,-1481.6646739997996,-573.46445784875789,6.9887466121847339,3347.0727807118228,2141.9755466551742,-2694.770507056015,2694.770507056015,-2141.9755466551742,5826.6167511503509,0.0
693523.2936376977,3572751.2368613081,-47500.0,2705.9548885273434,-618.78385876829032,-2599.8425829481903,-897.81212081919637,-1149.2284635765973,-555.0435441637452,3109.7855456365105,2228.0469044537422,-2479.8509749750147,2479.8509749750147,-2228.0469044537422,5386.3214475782897,0.0
698523.2936376977,3572751.2368613081,-47500.0,2298.0341853011378,-39.14904308634717,-2663.58004441597,-352.0975383442684,-1518.7559986214533,-942.09311571452804,2947.7828879488925,2171.6087827804622,-2161.8233105882382,2161.8233105882382,-2171.6087827804622,5131.8762934036213,0.0
703523.2936376977,3572751.2368613081,-47500.0,1820.5927325637576,438.35234083644673,-2600.0449911672295,119.27978296803083,-1720.021406423185,-1181.9527281783808,2824.6065221870349,2009.1577749365724,-1797.5814328634715,1797.5814328634715,-2009.1577749365724,4977.8221781226594,0.0
708523.2936376977,3572751.2368613081,-47500.0,1324.6268358687953,805.14933527517076,-2451.8096470091418,500.81941012470946,-1793.7996688740711,-1306.3578933720023,2715.0791752707869,1778.8353864473256,-1429.2528719942611,1429.2528719942611,-1778.8353864473256,4857.7993777453803,0.0
713523.2936376977,3572751.2368613081,-47500.0,847.48732228884819,1067.1330925739151,-2254.2384114279871,791.50134401627997,-1777.2755300130336,-1345.4585073301582,2605.3366952665988,1513.8768779209418,-1084.2063357914558,1084.2063357914558,-1513.8768779209418,4732.8283932290979,0.0
718523.2936376977,3572751.2368613081,-47500.0,413.09505789207293,1237.9475792190515,-2034.0669207062915,998.99009601291664,-1701.1934416355407,-1325.0788203113907,2489.6873705370986,1239.9562895603271,-777.62583596042043,777.62583596042043,-1239.9562895603271,4585.8391591402196,0.0
723523.2936376977,3572751.2368613081,-47500.0,34.231526197023506,1334.1681442955148,-1809.9781108292141,1135.1902372215848,-1589.278402340618,-1265.8498558715448,2367.2968534148054,975.00793048660228,-515.81134664190574,515.81134664190574,-975.00793048660228,4413.2867828660292,0.0
728523.2936376977,3572751.2368613081,-47500.0,-284.56408759431497,1372.2979105373586,-1594.0416589219169,1213.2622428432969,-1458.8612314393608,-1183.4059846387613,2239.7480496715207,730.29346860227781,-299.21666637618262,299.21666637618262,-730.29346860227781,4218.5404720894394,0.0
733523.2936376977,3572751.2368613081,-47500.0,-544.28935828316105,1367.1624182499133,-1393.3309449414448,1245.8450652673773,-1321.9909852270553,-1089.076939676934,2109.5278736236442,511.89333989072907,-124.84190168583214,124.84190168583214,-511.89333989072907,4007.7284489921062,0.0
738523.2936376977,3572751.2368613081,-47500.0,-749.29177155179593,1331.2422266290362,-1211.3787460896835,1244.1449935573644,-1186.6247362362774,-990.73048633145345,1979.1977713998917,322.17048116379215,12.062835602318671,-12.062835602318671,-322.17048116379215,3787.4521814260443,0.0
743523.2936376977,3572751.2368613081,-47500.0,-905.65977511358597,1274.5683223551782,-1049.3487822416946,1217.5868280284285,-1057.696844952284,-893.58335835625655,1850.9984566820835,161.00646241837768,116.87843405650197,-116.87843405650197,-161.00646241837768,3563.6809260692244,0.0
748523.2936376977,3572751.2368613081,-47500.0,-1020.1238493120666,1204.9149557795422,-906.91268280123302,1173.7959090358922,-937.99489073497398,-800.89858351711507,1726.7040952243908,26.755904446436517,194.93859247751655,-194.93859247751655,-26.755904446436517,3341.3188477969147,0.0
563523.2936376977,3577751.2368613081,-47500.0,380.40118230624728,-1016.8684691061668,-1224.0925061985231,-268.33173749709363,-810.41188597841051,-323.19904683054858,1502.0252627252844,420.76434290045108,-1534.77714530303,1534.77714530303,-420.76434290045108,2688.6620541171287,0.0
568523.2936376977,3577751.2368613081,-47500.0,619.64781604368136,-994.13867458502239,-1363.3707961902999,-165.61601699962799,-851.16536281409924,-302.68815450576204,1612.3746341518008,669.70745335967013,-1671.2810742700526,1671.2810742700526,-669.70745335967013,2859.1477043769801,0.0
573523.2936376977,3577751.2368613081,-47500.0,896.04822268636428,-939.30336795485346,-1506.8206544700349,-27.080233112265375,-874.9344339665065,-260.4315571108437,1733.2640552339158,963.64886482462953,-1800.4756281734435,1800.4756281734435,-963.64886482462953,3045.9741153533073,0.0
578523.2936376977,3577751.2368613081,-47500.0,1208.3883001077779,-843.86427821774134,-1648.2680158004243,153.96014970606652,-872.19737214250131,-188.18806017237813,1867.9635344360086,1303.9312079445838,-1913.0036970966646,1913.0036970966646,-1303.9312079445838,3257.4512840922794,0.0
583523.2936376977,3577751.2368613081,-47500.0,1552.0435788298169,-698.90891499041334,-1778.463203617297,383.91471111637696,-830.38410179938012,-75.549650245120148,2021.4770143343324,1688.7884959417775,-1996.4198859212111,1996.4198859212111,-1688.7884959417775,3506.6837124147892,0.0
588523.2936376977,3577751.2368613081,-47500.0,1917.6421468905526,-496.10304321809377,-1884.3464756614837,667.92857250088389,-733.43041723302747,90.271890567915335,2201.1518295723918,2111.7827795084663,-2034.9603396514344,2034.9603396514344,-2111.7827795084663,3812.7758351504144,0.0
593523.2936376977,3577751.2368613081,-47500.0,2289.6518663323241,-229.34296975529017,-1948.4869620818574,1008.3623077276371,-561.602095258139,324.44302750504102,2417.2287986691831,2559.9687710566113,-2009.7844108204433,2009.7844108204433,-2559.9687710566113,4201.1198016482558,0.0
598523.2936376977,3577751.2368613081,-47500.0,2645.1864388420067,102.7658664153595,-1949.0075129315601,1402.6261744466785,-291.8834640157466,644.09627366184225,2683.0906631888179,3012.0061206570381,-1900.0524327127614,1900.0524327127614,-3012.0061206570381,4701.801194988564,0.0
603523.2936376977,3577751.2368613081,-47500.0,2953.5554404939685,493.54855835208048,-1860.477404195273,1840.3383202727803,100.63736518725005,1067.2214305060738,3014.8350845270561,3436.6790100254325,-1685.300888522625,1685.300888522625,-3436.6790100254325,5345.4638640824051,0.0
608523.2936376977,3577751.2368613081,-47500.0,3177.3517020207119,924.24121544899231,-1656.4015820542045,2299.981404174091,639.83356451703594,1610.4812162117696,3429.5332490111527,3792.5994171656448,-1349.5714737552692,1349.5714737552692,-3792.5994171656448,6156.8627073044763,0.0
613523.2936376977,3577751.2368613081,-47500.0,3276.0795960877526,1360.0363154547401,-1313.9581139479822,2745.6111990470413,1343.4785229576453,2285.5195701542448,3941.0099084394333,4030.1969084707425,-887.5277597592119,887.5277597592119,-4030.1969084707425,7147.1665716876059,0.0
618523.2936376977,3577751.2368613081,-47500.0,3213.2764075612795,1747.6470540113148,-821.35245022916877,3124.7534052440506,2215.7101603359765,3093.4159675851561,4552.2202077350212,4097.261255792012,-312.19107204121133,312.19107204121133,-4097.261255792012,8306.1531954290367,0.0
623523.2936376977,3577751.2368613081,-47500.0,2967.4575108704576,2016.6413596152554,-187.34794977613453,3369.3363089997906,3237.3549537521144,4017.3190038675798,5246.6698436775569,3949.0024493044157,337.16550281716718,-337.16550281716718,-3949.0024493044157,9595.1198699729284,0.0
628523.2936376977,3577751.2368613081,-47500.0,2545.707837499735,2087.2234939072391,548.91266334292516,3402.0626174472295,4355.7545864235799,5014.1647841772492,5984.2884998853169,3562.4558268753067,989.89913804185426,-989.89913804185426,-3562.4558268753067,10941.611560230824,0.0
633523.2936376977,3577751.2368613081,-47500.0,1996.2749354000432,1886.4667071663682,1311.5531685738329,3150.4288220617018,5477.6134467737729,6007.8663242396815,6703.1650711381408,2952.8322816257164,1545.9215002998712,-1545.9215002998712,-2952.8322816257164,12238.184331416665,0.0
638523.2936376977,3577751.2368613081,-47500.0,1413.6849194233816,1372.4097083385659,1990.3191989141078,2568.7892094931731,6470.2472148455827,6888.2277995795966,7325.2750980498186,2186.3350249268296,1889.048060794848,-1889.048060794848,-2186.3350249268296,13348.601950931617,0.0
643523.2936376977,3577751.2368613081,-47500.0,928.4208113089984,560.62113599338932,2456.5273402703256,1664.6790553227931,7177.0497817384339,7521.0623629875199,7766.6400600404986,1381.2372968106531,1913.6497653697691,-1913.6497653697691,-1381.2372968106531,14124.81014206084,0.0
648523.2936376977,3577751.2368613081,-47500.0,675.97073325563167,-457.91556855219278,2593.6338015817319,519.55690193190617,7449.9202259415561,7773.5129183645658,7953.0904409102659,689.20401849526661,1560.426289330851,-1560.426289330851,-689.20401849526661,14435.534435352056,0.0
653523.2936376977,3577751.2368613081,-47500.0,749.57106379484242,-1521.5848260473963,2335.6680148330211,-710.42993155611146,7193.353379073752,7552.1761917345038,7839.777343226242,255.13133278247085,848.76087415617201,-848.76087415617201,-255.13133278247085,14201.913270135208,0.0
658523.2936376977,3577751.2368613081,-47500.0,1155.170191625833,-2433.9145974922149,1698.0380882961572,-1824.7283780267301,6404.0934976680928,6841.1369718008427,7428.548154855539,166.77731188438261,-112.39339314226922,112.39339314226922,-166.77731188438261,13428.929864177853,0.0
663523.2936376977,3577751.2368613081,-47500.0,1795.5430940555414,-3022.4273810024274,782.67428936891179,-2635.4506233232792,5184.7153869975718,5719.6107638692274,6775.4624103786027,418.2475464850553,-1148.116494757614,1148.116494757614,-418.2475464850553,12218.207672967044,0.0
668523.2936376977,3577751.2368613081,-47500.0,2499.8716205595788,-3194.5267742372498,-250.32368711083078,-3026.8864074009944,3718.4359053722487,4344.7027022954844,5983.408302159969,910.54763631411117,-2070.6525290435889,2070.6525290435889,-910.54763631411117,10752.769242658982,0.0
673523.2936376977,3577751.2368613081,-47500.0,3086.8385853891073,-2961.261515947127,-1232.9823318624206,-2986.4242751325583,2214.2629392635404,2904.5364726765756,5180.3617374464411,1491.8949186072543,-2737.2750145328864,2737.2750145328864,-1491.8949186072543,9256.2873000489817,0.0
678523.2936376977,3577751.2368613081,-47500.0,3426.4111353371882,-2418.7571484119126,-2036.7121403264291,-2592.7422145449414,849.54565748467087,1565.4792979030053,4486.0305056765847,2014.8145029670063,-3084.3919879000764,3084.3919879000764,-2014.8145029670063,7938.8640036121187,0.0
683523.2936376977,3577751.2368613081,-47500.0,3469.6869056818723,-1702.9698603223551,-2596.0384449230246,-1973.9639790185497,-264.66340772610874,437.86681880260119,3971.2171871833525,2379.3404690168841,-3126.2871500211127,3126.2871500211127,-2379.3404690168841,6942.2496118890449,0.0
688523.2936376977,3577751.2368613081,-47500.0,3241.2971232694158,-944.29195192641805,-2905.3752968393928,-1261.8861386840792,-1087.8454042361607,-430.99829846978264,3634.7207372523303,2546.6281098038612,-2928.5931279099436,2928.5931279099436,-2546.6281098038612,6300.5787940742448,0.0
693523.2936376977,3577751.2368613081,-47500.0,2810.2720669134746,-239.87285450737144,-2999.5300350878256,-561.54939883365023,-1633.199626808612,-1043.9008984746445,3425.3485917791741,2527.8342281675,-2575.7371146784494,2575.7371146784494,-2527.8342281675,5944.5034039658894,0.0
698523.2936376977,3577751.2368613081,-47500.0,2259.0942193267183,353.78909917021991,-2931.4092647286438,59.535027750893832,-1944.2710834834588,-1433.6896944979967,3283.5434830100403,2362.7698928559989,-2146.4323133063895,2146.4323133063895,-2362.7698928559989,5756.4985241460317,0.0
703523.2936376977,3577751.2368613081,-47500.0,1662.2858036478356,814.92617717114274,-2755.2073618452541,568.26408353599311,-2075.1494465196593,-1645.5584244039392,3165.5265093698963,2100.3349102932279,-1701.3943105043656,1701.3943105043656,-2100.3349102932279,5632.3637967641071,0.0
708523.2936376977,3577751.2368613081,-47500.0,1076.4316936513683,1145.558763864055,-2517.1383611177193,956.7793782446563,-2077.8392383779874,-1725.2346908412046,3047.0254530878074,1785.8464723150696,-1280.8015703853848,1280.8015703853848,-1785.8464723150696,5507.3168174431976,0.0
713523.2936376977,3577751.2368613081,-47500.0,538.55665899793735,1360.9911700105538,-2252.188463093566,1232.7679007805573,-1996.1459608419293,-1712.8019080600081,2918.170438210645,1455.1764199487527,-907.1211240090413,907.1211240090413,-1455.1764199487527,5351.9849469078545,0.0
718523.2936376977,3577751.2368613081,-47500.0,68.913329786932664,1481.9936019544668,-1984.4494336545786,1411.7450099773762,-1863.9416349942262,-1640.4553471931702,2777.4579135885333,1133.5334471281385,-589.78221431889096,589.78221431889096,-1133.5334471281385,5159.3709118563529,0.0
723523.2936376977,3577751.2368613081,-47500.0,-324.73964808011038,1529.8969527723218,-1729.0401145324304,1511.8489421267209,-1705.7894137867679,-1532.5003521515825,2627.3795997189532,836.67137788205798,-329.7061262306064,329.7061262306064,-836.67137788205798,4933.8276318273693,0.0
728523.2936376977,3577751.2368613081,-47500.0,-642.98445649644066,1523.9837706100718,-1494.3954653688186,1550.7695452305084,-1538.5412695563991,-1406.3899158813945,2471.8240381831565,572.98324116066613,-122.89334974103292,122.89334974103292,-572.98324116066613,4684.1522872309415,0.0
733523.2936376977,3577751.2368613081,-47500.0,-891.38000488700618,1480.4089704222461,-1284.3313344919577,1544.1974648372284,-1373.1267352736261,-1274.090031036593,2314.7258158385262,345.63396092402616,37.056980416832801,-37.056980416832801,-345.63396092402616,4419.8859693032637,0.0
738523.2936376977,3577751.2368613081,-47500.0,-1078.0167444329547,1412.0166047789414,-1099.6774733305886,1505.237394328565,-1216.1641674579771,-1143.4071615312305,2159.4624706288282,154.36270754973586,157.33367363931805,-157.33367363931805,-154.36270754973586,4149.5886606654349,0.0
743523.2936376977,3577751.2368613081,-47500.0,-1211.8801797232068,1328.6154539196777,-939.46970383310475,1444.37368958415,-1071.2669959273151,-1019.1242797340957,2008.6595428412375,-3.1426354285683402,244.96938215001154,-244.96938215001154,3.1426354285683402,3880.2056190708995,0.0
748523.2936376977,3577751.2368613081,-47500.0,-1301.8399478357721,1237.4429860003529,-801.76997872003892,1369.7156434563956,-940.03653790506223,-903.9046743125017,1864.1985972131233,-130.27028100715791,306.34958332928466,-306.34958332928466,130.27028100715791,3616.9864965695047,0.0
558523.2936376977,3582751.2368613081,-47500.0,-121.29459975459869,-1178.051914945949,-1058.4190343264984,-562.41068802710993,-843.64420300098311,-445.97470353601005,1532.6375244512797,-109.45859272091536,-1399.1821687040815,1399.1821687040815,109.45859272091536,2815.474494593519,0.0
563523.2936376977,3582751.2368613081,-47500.0,69.864007504815874,-1214.4738940377881,-1203.0901649204725,-515.22288193128429,-918.65526418635852,-461.7715649932295,1645.695330527039,78.828594662787737,-1563.1103567098673,1563.1103567098673,-78.828594662787737,2996.5459853247316,0.0
568523.2936376977,3582751.2368613081,-47500.0,302.92221148368878,-1231.0651978536812,-1362.3838992832766,-439.15087861846263,-989.23437018777372,-465.07767024953807,1766.0906703011733,313.98428767650671,-1735.1483143407002,1735.1483143407002,-313.98428767650671,3185.1204575239335,0.0
573523.2936376977,3582751.2368613081,-47500.0,581.50456422659659,-1219.8693607740804,-1534.3843726898774,-326.49811552194143,-1049.1193558505765,-449.35216495223762,1894.8036331105445,602.11092030129885,-1910.261524134085,1910.261524134085,-602.11092030129885,3382.9682734972002,0.0
578523.2936376977,3582751.2368613081,-47500.0,907.43855532021121,-1171.3765736791386,-1715.0783344584288,-168.59276911385254,-1089.323652432169,-405.8002554192567,2033.6989959331904,948.16933591388533,-2080.6991869906024,2080.6991869906024,-948.16933591388533,3594.4009106469075,0.0
583523.2936376977,3582751.2368613081,-47500.0,1279.495476780316,-1074.7942634177655,-1897.4859291914961,43.783355103612223,-1097.3625622563454,-322.84418083434133,2186.1636661051443,1354.7269744679559,-2235.2766150250432,2235.2766150250432,-1354.7269744679559,3828.0560060776697,0.0
588523.2936376977,3582751.2368613081,-47500.0,1691.7395787841954,-918.78670496122572,-2070.6531332429363,319.53112672368906,-1056.453732518687,-185.6054170005074,2358.0213333700403,1820.1949135031737,-2358.7422972657878,2358.7422972657878,-1820.1949135031737,4099.2444352522125,0.0
593523.2936376977,3582751.2368613081,-47500.0,2131.5403003151505,-692.94473032655515,-2218.642501240678,665.72548280546425,-944.86135994034123,24.481897955837091,2558.7078859884132,2336.5205602976448,-2431.4791556783866,2431.4791556783866,-2336.5205602976448,4432.3891656582446,0.0
598523.2936376977,3582751.2368613081,-47500.0,2577.4780726338181,-390.28705214071505,-2319.8203854296053,1085.2195623215655,-735.70471413066457,329.70468371099065,2802.5249618936059,2886.4460078575457,-2429.9556962747638,2429.9556962747638,-2886.4460078575457,4862.2896836137579,0.0
603523.2936376977,3582751.2368613081,-47500.0,2997.6750187425359,-11.041764716446149,-2346.9697510353035,1573.1525292366848,-397.76358108062112,755.38067210255224,3109.4655249879543,3440.7188303846174,-2328.5273030487638,2328.5273030487638,-3440.7188303846174,5432.1528790851571,0.0
608523.2936376977,3582751.2368613081,-47500.0,3349.5097606185982,432.28916620651387,-2269.0298817728631,2112.3285240835103,101.93416465757632,1327.8697827629262,3504.5365470605548,3956.081946207657,-2103.3171544302277,2103.3171544302277,-3956.081946207657,6186.5936045101207,0.0
613523.2936376977,3582751.2368613081,-47500.0,3582.1549723023454,909.15887681027004,-2055.4532257324613,2667.8784436921869,792.76599680956758,2070.5046567323238,4013.5538455394908,4375.4457610051586,-1738.8061437180941,1738.8061437180941,-4375.4457610051586,7159.8526658993651,0.0
618523.2936376977,3582751.2368613081,-47500.0,3643.6459261903169,1366.077976145571,-1684.0282631427094,3182.4447000407536,1691.5176037916265,2996.571042380926,4653.0383964051416,4632.1699687449745,-1237.170803033212,1237.170803033212,-4632.1699687449745,8361.9064420082195,0.0
623523.2936376977,3582751.2368613081,-47500.0,3493.7737958079538,1725.4824047557347,-1152.1849024377993,3574.3497155212949,2789.5539238826987,4098.7743090401864,5416.090322140808,4660.4422766866583,-629.06963389611633,629.06963389611633,-4660.4422766866583,9765.5719126104159,0.0
628523.2936376977,3582751.2368613081,-47500.0,3122.3567740647895,1892.3441970924866,-489.96419075265959,3742.5161729766696,4037.7127916153922,5335.7474811639886,6262.9652485223951,4412.6894006021166,17.535752848244556,-17.535752848244556,-4412.6894006021166,11296.680671251519,0.0
633523.2936376977,3582751.2368613081,-47500.0,2568.9545684756599,1772.2444877096989,229.86189872340074,3582.4249277334293,5333.3554576023635,6618.5093295097968,7121.1043562173218,3882.169762068992,596.20761434346332,-596.20761434346332,-3882.169762068992,12829.669914311851,0.0
638523.2936376977,3582751.2368613081,-47500.0,1935.3427144206146,1301.5948216140687,891.54258591594089,3015.5983903841111,6517.3663346018893,7803.3454454986158,7891.6893299338317,3124.3318074812883,975.09385923921445,-975.09385923921445,-3124.3318074812883,14192.960817898276,0.0
643523.2936376977,3582751.2368613081,-47500.0,1378.3456617917125,484.02056284316944,1353.1559896619112,2029.2178341117869,7390.6595476118418,8700.9752606164548,8462.5185656297308,2265.5202315373235,1028.1301145571624,-1028.1301145571624,-2265.5202315373235,15189.718292865209,0.0
648523.2936376977,3582751.2368613081,-47500.0,1072.569250098878,-582.02674521497738,1482.9223885597316,712.25834269434051,7756.4015490802221,9111.3894984862127,8729.6868962255812,1485.7535009771254,680.30707805453494,-680.30707805453494,-1485.7535009771254,15636.999768947053,0.0
653523.2936376977,3582751.2368613081,-47500.0,1145.4814965929058,-1705.1572316080408,1206.9293973580727,-735.47802361372226,7482.4650470819242,8884.0945071112528,8626.3863719695219,969.13454997672875,-49.152258003579561,49.152258003579561,-969.13454997672875,15418.226308895635,0.0
658523.2936376977,3582751.2368613081,-47500.0,1610.4445455280927,-2646.6905726232212,547.69527792934218,-2043.2052995383231,6560.6854824651709,7983.7544034300081,8150.0993575973243,834.35520064048103,-1031.0114274113398,1031.0114274113398,-834.35520064048103,14532.326158725815,0.0
663523.2936376977,3582751.2368613081,-47500.0,2340.5478607971727,-3200.4020887555121,-371.09423730236057,-2955.126688113301,5128.2403453957104,6523.9182651921947,7375.2874210444197,1080.2304619890365,-2057.1018909448976,2057.1018909448976,-1080.2304619890365,13115.638873002652,0.0
668523.2936376977,3582751.2368613081,-47500.0,3111.7526434096453,-3267.7434567218279,-1363.7842792165729,-3322.6015308800011,3429.6181192724421,4739.4490908895541,6442.4433231104849,1583.9913828243871,-2911.4491025439311,2911.4491025439311,-1583.9913828243871,11419.49946575777,0.0
673523.2936376977,3582751.2368613081,-47500.0,3696.2868274773969,-2884.7417551175854,-2247.8960123491056,-3148.4388694820718,1734.4739539797429,2906.6202600905617,5524.3834699067829,2158.3977640254748,-3444.6680602854517,3444.6680602854517,-2158.3977640254748,9746.3514752314622,0.0
678523.2936376977,3582751.2368613081,-47500.0,3948.6003552608922,-2188.3075105439452,-2899.5557955110826,-2560.8062187623436,256.46525480550315,1256.4987565921297,4775.3162308693672,2631.1824466120352,-3611.0719402902932,3611.0719402902932,-2631.1824466120352,8363.3306519900634,0.0
683523.2936376977,3582751.2368613081,-47500.0,3837.3602343616089,-1350.2628509784886,-3273.856364498788,-1743.3868064549565,-888.11523037021288,-74.237971318457227,4269.8145130073781,2899.4268936773083,-3456.4689686365186,3456.4689686365186,-2899.4268936773083,7416.7275741050689,0.0
688523.2936376977,3582751.2368613081,-47500.0,3422.4055505226452,-519.5239877696755,-3391.2554227179744,-867.97585986150455,-1675.7733973370559,-1044.442528059735,3975.6877017615889,2939.1215687753188,-3076.7300421058685,3076.7300421058685,-2939.1215687753188,6887.4981254549039,0.0
693523.2936376977,3582751.2368613081,-47500.0,2807.5564764368419,205.98915556757015,-3308.5001063926907,-57.44037043583301,-2145.107347425198,-1680.2643694025796,3805.1053310716152,2782.7796552488758,-2575.8035528491423,2575.8035528491423,-2782.7796552488758,6636.306745698389,0.0
698523.2936376977,3582751.2368613081,-47500.0,2099.1830951492943,780.16348191360669,-3091.8004723892614,620.54851335752437,-2362.9864911248446,-2041.5072317546176,3680.7978996970651,2488.6597990359869,-2039.547830801296,2039.547830801296,-2488.6597990359869,6506.1273701094879,0.0
703523.2936376977,3582751.2368613081,-47500.0,1382.8805857322868,1195.415923030303,-2800.1589362361037,1142.3694521193027,-2400.1474719492062,-2196.2966859964254,3558.185402664074,2117.0943589293743,-1526.6256714758465,1526.6256714758465,-2117.0943589293743,6389.1075155187691,0.0
708523.2936376977,3582751.2368613081,-47500.0,716.43336815601083,1466.8530154129057,-2478.5636619935603,1512.6549816965164,-2318.23935268784,-2206.8498897864961,3419.018940656319,1717.9430931207989,-1070.3164779123126,1070.3164779123126,-1717.9430931207989,6233.4388083867925,0.0
713523.2936376977,3582751.2368613081,-47500.0,132.31322130250115,1619.6480894941733,-2157.5156307314087,1750.7412078337579,-2165.3155273934171,-2123.7342038500415,3260.1174145015602,1326.7349342852262,-684.78343055830874,684.78343055830874,-1326.7349342852262,6024.7773238364853,0.0
718523.2936376977,3582751.2368613081,-47500.0,-356.16262030949167,1680.9604317116477,-1855.4822162913827,1881.37843071986,-1976.0403516513436,-1985.0658520598097,3085.201344699879,965.64102638186091,-371.76001070365766,371.76001070365766,-965.64102638186091,5767.918444787334,0.0
723523.2936376977,3582751.2368613081,-47500.0,-748.42179844703151,1675.6349157761567,-1582.1021144174831,1929.292810608041,-1773.8902250276346,-1817.990951800464,2900.2656563589039,646.33856495910982,-125.93636493268735,125.93636493268735,-646.33856495910982,5475.1393813092791,0.0
728523.2936376977,3582751.2368613081,-47500.0,-1051.3999295146036,1624.4229556456648,-1341.0915282754743,1916.4836041834938,-1573.8130860147421,-1640.8991666138543,2711.3131355480928,373.11616788566312,61.301455763834412,-61.301455763834412,-373.11616788566312,5160.0676853508048,0.0
733523.2936376977,3582751.2368613081,-47500.0,-1275.7792255716456,1543.6497560195335,-1132.5000202595193,1861.2125709759925,-1384.6433360388917,-1465.6110005921721,2523.4145923502733,145.51353235761846,199.53988900786672,-199.53988900786672,-145.51353235761846,4834.9121909622809,0.0
738523.2936376977,3582751.2368613081,-47500.0,-1433.5261331000122,1445.5959677926796,-954.30764583130065,1777.9302035971516,-1211.0382089737057,-1299.238284354192,2340.4463610844755,-39.692437035802556,298.02626251168499,-298.02626251168499,39.692437035802556,4509.4923803897764,0.0
743523.2936376977,3582751.2368613081,-47500.0,-1536.4110242456809,1339.1565017047008,-803.48224401320033,1677.6545919676767,-1054.9226265720526,-1145.6438329482396,2165.1402904549063,-187.10788687365186,365.02552007511622,-365.02552007511622,187.10788687365186,4191.1405984529683,0.0
748523.2936376977,3582751.2368613081,-47500.0,-1595.2095210122973,1230.543803286705,-676.63893349158047,1568.5225928079906,-916.51668524836407,-1006.5301820177448,1999.2575455433782,-301.82492211378701,407.58254728255429,-407.58254728255429,301.82492211378701,3884.9818266011043,0.0
558523.2936376977,3587751.2368613081,-47500.0,-468.48582198577321,-1313.1030221539015,-986.96455968022838,-810.77675483592327,-907.74572203829018,-575.92085727500557,1681.035711989151,-485.80799465080349,-1343.2544247712801,1343.2544247712801,485.80799465080349,3137.1104655909571,0.0
563523.2936376977,3587751.2368613081,-47500.0,-300.46830472774121,-1384.8161787558595,-1137.6362064096554,-798.06538067432746,-1005.7788462567448,-617.2897578488903,1810.1015396338512,-329.87097077694284,-1526.2329507779748,1526.2329507779748,329.87097077694284,3351.8113077415646,0.0
568523.2936376977,3587751.2368613081,-47500.0,-86.393464644750978,-1443.071480843681,-1308.6861216777095,-759.20208626371732,-1105.6885149950933,-650.63216185207534,1946.493040142683,-124.46387529960634,-1725.9791991107334,1725.9791991107334,124.46387529960634,3573.0757656203405,0.0
573523.2936376977,3587751.2368613081,-47500.0,180.09836735234589,-1480.1594961458497,-1500.3528544034352,-685.52949611435758,-1202.4808952130245,-669.72469884442535,2090.1277817131822,139.34685503464539,-1939.7324615547657,1939.7324615547657,-139.34685503464539,3799.7866683475181,0.0
578523.2936376977,3587751.2368613081,-47500.0,504.34695847722804,-1486.2965875214186,-1711.2683162087528,-566.69336804272677,-1288.4292357297134,-665.79259662984316,2241.2730118866916,470.37514469264681,-2162.2362799031262,2162.2362799031262,-470.37514469264681,4031.9232379686946,0.0
583523.2936376977,3587751.2368613081,-47500.0,889.4075262534659,-1449.5859690282507,-1937.5444012088674,-390.80334819537904,-1352.0921650122884,-626.73546053417965,2401.0777239313175,876.19583581365509,-2384.8139231172654,2384.8139231172654,-876.19583581365509,4272.0982317259813,0.0
588523.2936376977,3587751.2368613081,-47500.0,1334.2154609497425,-1356.3793502979563,-2171.5894328440518,-145.0090171800899,-1377.1616573089161,-536.23997465915909,2572.5045174518409,1361.3764816605749,-2594.3603082642335,2594.3603082642335,-1361.3764816605749,4528.1254435126639,0.0
593523.2936376977,3587751.2368613081,-47500.0,1831.1109596008841,-1192.3588030939268,-2400.7212099112808,183.22582191338086,-1341.2661605618466,-372.86666770572305,2761.8424539132857,1924.8918321163981,-2772.4579433091549,2772.4579433091549,-1924.8918321163981,4816.8367068299185,0.0
598523.2936376977,3587751.2368613081,-47500.0,2362.8096658457671,-944.77061552116504,-2605.803467657568,603.76203410121423,-1215.0276147302134,-109.31764548921188,2980.9236285071415,2556.645993745839,-2895.0241195848589,2895.0241195848589,-2556.645993745839,5168.7254067199865,0.0
603523.2936376977,3587751.2368613081,-47500.0,2899.2446212187701,-606.29933801977279,-2760.4178844620214,1119.8758288405891,-961.96420439222356,287.68858453852908,3249.8614695705919,3233.291155437963,-2933.1843596289441,2933.1843596289441,-3233.291155437963,5631.4089265614721,0.0
608523.2936376977,3587751.2368613081,-47500.0,3395.299370229463,-180.92012741197775,-2831.4820033011165,1722.4157147631665,-540.24492787861163,856.16073338486035,3599.2119255514954,3914.0640318866799,-2856.3651633857644,2856.3651633857644,-3914.0640318866799,6267.6397335314332,0.0
613523.2936376977,3587751.2368613081,-47500.0,3791.2844074084146,308.51564103374199,-2782.6338679499149,2382.0701782255055,92.250906406683413,1634.9563057246366,4068.3953237843853,4538.2169259342199,-2638.7142610012825,2638.7142610012825,-4538.2169259342199,7143.1420993379043,0.0
618523.2936376977,3587751.2368613081,-47500.0,4018.8179955144101,812.46444201760698,-2581.8228372057288,3040.8519654904189,967.9043434402555,2655.5989972038974,4694.7062527287608,5026.6676511723863,-2269.5124003664578,2269.5124003664578,-5026.6676511723863,8304.2073882219611,0.0
623523.2936376977,3587751.2368613081,-47500.0,4014.8662623658838,1250.1236641345188,-2213.8110261201264,3605.8088919925049,2093.2943081427879,3928.1279302092262,5491.1288318605521,5291.2167153593227,-1766.7222643223095,1766.7222643223095,-5291.2167153593227,9752.0932741609031,0.0
628523.2936376977,3587751.2368613081,-47500.0,3744.939144878912,1513.6654129598705,-1696.0926473959848,3950.4670266242224,3428.2066809030143,5420.5741016733273,6426.012545883741,5254.0532768675821,-1189.9675050281016,1189.9675050281016,-5254.0532768675821,11422.770409082732,0.0
633523.2936376977,3587751.2368613081,-47500.0,3231.7486657759223,1487.3582407753474,-1093.006213391141,3931.3866946194507,4865.0540993463565,7035.1667222855704,7418.5696564964674,4877.0410700566172,-645.68586689782933,645.68586689782933,-4877.0410700566172,13176.824590191116,0.0
638523.2936376977,3587751.2368613081,-47500.0,2578.1847455527682,1084.2169400083994,-518.93434775391688,3425.8952788657562,6219.5952215878833,8590.5795139707225,8346.6889640182235,4193.8444194171971,-275.16131992869646,275.16131992869646,-4193.8444194171971,14803.684974649152,0.0
643523.2936376977,3587751.2368613081,-47500.0,1966.3103081666022,293.66438109598243,-120.72671974347146,2389.1770407846534,7247.6118869457414,9826.7351857078902,9063.588774854954,3329.801555340483,-219.07086703632694,219.07086703632694,-3329.801555340483,16047.238138697714,0.0
648523.2936376977,3587751.2368613081,-47500.0,1614.2516592344709,-779.49850642488616,-35.684124432963813,912.72889369762163,7698.5816311034441,10450.793210808057,9427.2303652000664,2489.433389734404,-562.73434300642134,562.73434300642134,-2489.433389734404,16658.722461513538,0.0
653523.2936376977,3587751.2368613081,-47500.0,1689.6671367278529,-1913.9408468880795,-335.61302479225708,-752.5723295227167,7400.7733048882246,10229.409779823252,9341.7803805492622,1898.0755577736975,-1282.7092842008904,1282.7092842008904,-1898.0755577736975,16472.014936345371,0.0
658523.2936376977,3587751.2368613081,-47500.0,2213.9851944144129,-2829.7427416152759,-983.59878036581324,-2247.6844523372488,6344.5746231983785,9097.6202824814573,8798.8290659227932,1709.843351654793,-2228.0555093985986,2228.0555093985986,-1709.843351654793,15477.708038927622,0.0
663523.2936376977,3587751.2368613081,-47500.0,3022.6974789879159,-3292.7322003127892,-1834.1322084291173,-3232.2805463687987,4711.7900623711466,7218.809232792797,7897.785235103358,1930.1909138635933,-3161.8511223230603,3161.8511223230603,-1930.1909138635933,13858.138908107583,0.0
668523.2936376977,3587751.2368613081,-47500.0,3828.2462501082223,-3209.9014557343621,-2686.1091846130948,-3523.4238786760234,2818.2176050264338,4939.9094445702858,6829.4270619958643,2411.046015759197,-3852.1026538924452,3852.1026538924452,-2411.046015759197,11953.886059400145,0.0
673523.2936376977,3587751.2368613081,-47500.0,4354.8258055157376,-2654.5211648244681,-3361.0277619823814,-3155.2865777951915,995.63219652471548,2657.7914316419842,5822.8506972791984,2929.6441369474232,-4160.280961742681,4160.280961742681,-2929.6441369474232,10163.712492646489,0.0
678523.2936376977,3587751.2368613081,-47500.0,4452.6131153096694,-1809.9127544583469,-3759.8862957542847,-2326.81848513983,-515.61337672462071,681.95920167151644,5065.8877095247572,3294.9107832613577,-4074.78926082506,4074.78926082506,-3294.9107832613577,8807.0234049576338,0.0
683523.2936376977,3587751.2368613081,-47500.0,4124.9769427331485,-879.59717375319258,-3872.7368589483967,-1290.2672781328029,-1609.1647522148221,-830.55847898091361,4617.1134673002543,3411.5035760642072,-3681.4328747802588,3681.4328747802588,-3411.5035760642072,7998.2172665602238,0.0
688523.2936376977,3587751.2368613081,-47500.0,3479.9964131988409,-20.317166566172666,-3751.2127898769554,-257.81571234277249,-2291.5195338422718,-1860.3014866985741,4390.6476362134554,3279.7887434613694,-3105.4710191443464,3105.4710191443464,-3279.7887434613694,7625.3647378796686,0.0
693523.2936376977,3587751.2368613081,-47500.0,2660.5685675276745,680.64152207682992,-3471.2489594910953,637.73870526416499,-2633.2615995138622,-2471.6264356265788,4259.6656609138463,2958.2293589217002,-2463.2834286602233,2463.2834286602233,-2958.2293589217002,7475.3648091822806,0.0
698523.2936376977,3587751.2368613081,-47500.0,1794.0114279986014,1195.6529639735775,-3105.4984010628395,1338.397847715793,-2725.1080973419712,-2760.7869686851577,4140.2589052304502,2523.0057120836868,-1838.9984597120235,1838.9984597120235,-2523.0057120836868,7374.037722933128,0.0
703523.2936376977,3587751.2368613081,-47500.0,970.75238009776376,1535.1412547889979,-2710.2553298108423,1837.8235924850087,-2651.3637170364282,-2822.9949265476498,3996.8012291072682,2042.3318037225376,-1281.688975759113,1281.688975759113,-2042.3318037225376,7229.7631129712508,0.0
708523.2936376977,3587751.2368613081,-47500.0,243.43547065511498,1727.790379412696,-2323.0665832933428,2157.8006927618385,-2479.0404080262942,-2737.6065348272514,3821.9699607316006,1566.2639835811799,-812.70580067767492,812.70580067767492,-1566.2639835811799,7013.1097317737758,0.0
713523.2936376977,3587751.2368613081,-47500.0,-364.90180619659702,1807.2588194790883,-1965.631979914343,2331.3355486416417,-2256.4247186714765,-2564.6150243589859,3620.9319092883784,1126.2108118262381,-435.2374205703025,435.2374205703025,-1126.2108118262381,6727.4226257386981,0.0
718523.2936376977,3587751.2368613081,-47500.0,-850.99242560070945,1805.0143996478034,-1648.2059318109486,2392.7408236418878,-2015.8261075499756,-2346.4553814830188,3402.7674679481834,738.59029612586994,-142.34325504770629,142.34325504770629,-738.59029612586994,6389.0748269408487,0.0
723523.2936376977,3587751.2368613081,-47500.0,-1223.0973969618074,1747.3452098655939,-1373.6385850119016,2372.7805342463548,-1777.4305868477211,-2111.5534081935016,3176.5443304612286,409.31932894104978,77.489848190290132,-77.489848190290132,-409.31932894104978,6017.138374786944,0.0
728523.2936376977,3587751.2368613081,-47500.0,-1495.1404605964256,1654.7331383376056,-1140.4487778068199,2296.8750928879558,-1552.8694068398759,-1877.9385140092118,2949.817958621451,137.69468349342418,236.97138840445541,-236.97138840445541,-137.69468349342418,5628.8237548970219,0.0
733523.2936376977,3587751.2368613081,-47500.0,-1682.9546222131435,1542.3543232697584,-944.92103385187784,2184.9300654624089,-1348.0515581132538,-1656.2941087626539,2728.2744565388998,-80.722574717125411,348.1868267716643,-348.1868267716643,80.722574717125411,5237.9180753925111,0.0
738523.2936376977,3587751.2368613081,-47500.0,-1802.093288830813,1420.9950737888075,-782.42900457834685,2051.9132911722963,-1165.236750655512,-1452.3155610560682,2515.8609957008603,-252.15040586294654,421.76320112969802,-421.76320112969802,252.15040586294654,4854.6327742567591,0.0
743523.2936376977,3587751.2368613081,-47500.0,-1866.693055478846,1298.0204214313428,-648.21190341484612,1908.6952001479124,-1004.4746575717795,-1268.4378556407582,2315.0859775980994,-383.35140773861798,466.60664566647512,-466.60664566647512,383.35140773861798,4486.0309934969027,0.0
748523.2936376977,3587751.2368613081,-47500.0,-1888.9938984119856,1178.2369416970596,-537.79145232660278,1762.906919789951,-864.56594241960408,-1105.0545926377411,2127.3453238679303,-480.90950478582812,489.94272468262653,-489.94272468262653,480.90950478582812,4136.631513701067,0.0
753523.2936376977,3587751.2368613081,-47500.0,-1879.2454457116623,1064.5986291992208,-447.16617881838999,1619.7066087304377,-743.68189880472403,-961.35194342879981,1953.2159638873268,-550.84734374469167,497.49737710816021,-497.49737710816021,550.84734374469167,3809.0065336208709,0.0
553523.2936376977,3592751.2368613081,-47500.0,-950.98713087200031,-1301.6327808660565,-753.59402806740798,-1037.6060100404713,-837.20537980922415,-645.72909823873442,1702.060980180117,-977.5535336751268,-1055.7849822202766,1055.7849822202766,977.5535336751268,3238.4026312582891,0.0
558523.2936376977,3592751.2368613081,-47500.0,-857.21273947682062,-1407.3778353065891,-879.90440565542474,-1081.4811775909454,-944.86553310904367,-715.42713747439961,1842.7840263975911,-906.54824576686474,-1223.7422637097759,1223.7422637097759,906.54824576686474,3486.1281923587262,0.0
563523.2936376977,3592751.2368613081,-47500.0,-723.94145696943758,-1512.0308462531359,-1028.023177119293,-1111.4011255213602,-1062.5366158655888,-786.6475856737402,1992.8546979473144,-796.65167222840319,-1414.9946162979118,1414.9946162979118,796.65167222840319,3745.4814602777951,0.0
568523.2936376977,3592751.2368613081,-47500.0,-542.78974628227161,-1610.7736344350426,-1200.7081450161904,-1120.4051920520865,-1188.6228194766925,-856.00120870623743,2151.7765163082804,-637.93877482709138,-1630.6342181429814,1630.6342181429814,637.93877482709138,4014.1078166898428,0.0
573523.2936376977,3592751.2368613081,-47500.0,-304.74866713253044,-1696.8366938466947,-1400.3459223007792,-1099.4749458783594,-1319.8572738862008,-918.1945303421827,2318.7357740891548,-419.04611959126578,-1870.5517367198049,1870.5517367198049,419.04611959126578,4288.9309863393428,0.0
578523.2936376977,3592751.2368613081,-47500.0,-0.79648042061111191,-1761.0529665842721,-1628.4087623341613,-1037.2037547018135,-1450.4796393434883,-965.26659790355507,2492.6692343244822,-127.51825263916419,-2132.6816324719293,2132.6816324719293,127.51825263916419,4566.4550836615072,0.0
583523.2936376977,3592751.2368613081,-47500.0,376.99917303897098,-1791.4904309883339,-1884.6203179045053,-919.59525108199591,-1571.1238768756978,-985.58675455538867,2672.5142316276151,249.39196142686706,-2411.9874398420429,2411.9874398420429,-249.39196142686706,4843.6022875369972,0.0
588523.2936376977,3592751.2368613081,-47500.0,833.67164669135377,-1773.3523242469716,-2165.752007843324,-730.17861373895164,-1667.3824485828513,-962.57828615317135,2857.8156675923628,723.21330243087982,-2699.1925847927669,2699.1925847927669,-723.21330243087982,5119.5363123767356,0.0
593523.2936376977,3592751.2368613081,-47500.0,1368.6065729099355,-1689.4825825258752,-2464.0213298457643,-450.76944758212011,-1718.0903469726677,-873.17866598183321,3049.9923233308318,1301.7161105931164,-2979.3739962456984,2979.3739962456984,-1301.7161105931164,5399.1523256349701,0.0
598523.2936376977,3592751.2368613081,-47500.0,1971.7057085211545,-1522.0079676479975,-2765.1956629018432,-63.405235893934837,-1693.5445963530178,-686.16493982233828,3254.7199653870284,1985.015111523066,-3230.7445592545296,3230.7445592545296,-1985.015111523066,5698.9740479133161,0.0
603523.2936376977,3592751.2368613081,-47500.0,2618.6314482274574,-1255.8505900328341,-3046.806649974817,445.78112565891121,-1554.230556682028,-360.74542935573027,3485.9840108322101,2760.1630732309213,-3424.3207900130083,3424.3207900130083,-2760.1630732309213,6055.4886319344541,0.0
608523.2936376977,3592751.2368613081,-47500.0,3266.0093955381303,-884.87459975397098,-3277.3742379532623,1079.8459669973238,-1251.2082298191513,153.66193912221837,3771.8726071235114,3594.6107636995621,-3525.6488733136621,3525.6488733136621,-3594.6107636995621,6533.0750698842585,0.0
613523.2936376977,3592751.2368613081,-47500.0,3848.7136514975009,-420.97658652210094,-3418.2060921793109,1820.8359851221205,-730.11216859278568,914.69508547759142,4159.6815773090912,4430.0167186785902,-3500.1965823264545,3500.1965823264545,-4430.0167186785902,7223.0531155871377,0.0
618523.2936376977,3592751.2368613081,-47500.0,4282.9628631874621,94.99903819765305,-3429.8334404103998,2616.6585751635553,58.582361754525387,1978.525310645271,4711.1662417084899,5179.6037278102222,-3323.8922384377101,3323.8922384377101,-5179.6037278102222,8222.0482998625394,0.0
623523.2936376977,3592751.2368613081,-47500.0,4480.0353521928646,584.37783184166494,-3284.7097783927893,3368.3160522144603,1140.6129326439627,3382.0612973418101,5474.5381313587095,5734.0703868398814,-2998.7807564482196,2998.7807564482196,-5734.0703868398814,9588.2986130163044,0.0
628523.2936376977,3592751.2368613081,-47500.0,4374.0752398614004,931.15331799711873,-2985.3643395069139,3925.0969411849383,2490.4207564671824,5113.5326568085038,6443.0402211218097,5981.451775025007,-2570.1440387205962,2570.1440387205962,-5981.451775025007,11294.999978134827,0.0
633523.2936376977,3592751.2368613081,-47500.0,3961.4232866310317,1001.1196359167581,-2582.2448095722821,4099.5460140606838,4001.2457591095613,7074.121673284857,7536.0231777687732,5842.9552683575712,-2136.196242603628,2136.196242603628,-5842.9552683575712,13203.499745909423,0.0
638523.2936376977,3592751.2368613081,-47500.0,3337.5847665462175,685.10167248222979,-2179.7482238427247,3713.9169170674763,5467.7637447505958,9043.5815609986075,8607.8996605076645,5317.9613804034725,-1837.7808226342188,1837.7808226342188,-5317.9613804034725,15065.13185182929,0.0
643523.2936376977,3592751.2368613081,-47500.0,2705.6807854560466,-40.999382480053555,-1917.4832521649503,2679.2776002670289,6602.7755901268201,10676.112307881735,9471.5133329590772,4518.7446582214789,-1818.9257083869531,1818.9257083869531,-4518.7446582214789,16555.379834299227,0.0
648523.2936376977,3592751.2368613081,-47500.0,2327.9012527327282,-1065.6582092957467,-1922.6248733060036,1083.7852052004789,7104.7575676890974,11559.33011284366,9938.4468391729624,3666.1328778117941,-2163.6029957833862,2163.6029957833862,-3666.1328778117941,17346.125629518996,0.0
653523.2936376977,3592751.2368613081,-47500.0,2413.6308407723063,-2139.9408230028289,-2248.6501363932584,-764.55144972878782,6768.9525467451876,11350.528024690664,9877.3638486520686,3023.5878912746984,-2835.70165549171,2835.70165549171,-3023.5878912746984,17211.017796673408,0.0
658523.2936376977,3592751.2368613081,-47500.0,2989.4524562597644,-2951.6285197181064,-2834.6050183741804,-2403.4933119076732,5595.1663202842456,9947.358098333767,9274.0117738417503,2780.8335527633849,-3663.2953253305818,3663.2953253305818,-2780.8335527633849,16131.945644146184,0.0
663523.2936376977,3592751.2368613081,-47500.0,3845.2310590868997,-3255.2117080914236,-3518.1259300896522,-3397.9547911014361,3819.5670252988821,7584.5620166977869,8261.9472040516739,2950.5886434221761,-4394.7341016290029,4394.7341016290029,-2950.5886434221761,14350.276226087657,0.0
668523.2936376977,3592751.2368613081,-47500.0,4625.1013054738696,-2982.0278520262273,-4103.9743958638073,-3538.3573535149744,1828.9783394108765,4760.1115761091387,7096.810123393203,3361.0229063563793,-4806.714473066233,4806.714473066233,-3361.0229063563793,12315.290461783568,0.0
673523.2936376977,3592751.2368613081,-47500.0,5013.6333973077517,-2253.6121428570809,-4447.0762591496959,-2913.0240232791093,2.5245071686014811,2020.9421354262315,6069.9059937894635,3760.4632277930859,-4797.2138045263355,4797.2138045263355,-3760.4632277930859,10528.138208817485,0.0
678523.2936376977,3592751.2368613081,-47500.0,4877.0764008622737,-1296.4748970470764,-4497.8619940483186,-1812.4880630783205,-1416.3767343984678,-241.80967404253866,5383.3705855991029,3951.9912521878036,-4404.4787286276623,4404.4787286276623,-3951.9912521878036,9328.422831705504,0.0
683523.2936376977,3592751.2368613081,-47500.0,4273.5891323350943,-331.14296116101133,-4292.4612206692973,-563.00319716546267,-2352.4547947401193,-1868.2048958534269,5043.1759215043658,3861.9032928860502,-3755.6909048568209,3755.6909048568209,-3861.9032928860502,8738.9902790755295,0.0
688523.2936376977,3592751.2368613081,-47500.0,3368.9394536784885,495.2389991009299,-3911.5369110530651,591.93721214921777,-2853.1474532969773,-2882.3873696165097,4894.2433200992982,3523.4786774314034,-2996.1087079718473,2996.1087079718473,-3523.4786774314034,8531.1248451003357,0.0
693523.2936376977,3592751.2368613081,-47500.0,2342.935152576822,1118.8697357946114,-3440.5644376708756,1524.1406377962196,-3021.5233553987068,-3402.1973669010486,4786.9159660210717,3022.0311421817569,-2241.495338018346,2241.495338018346,-3022.0311421817569,8446.4120355613068,0.0
698523.2936376977,3592751.2368613081,-47500.0,1335.3232946489079,1536.5740881680097,-2947.5338473291145,2197.6178063264515,-2966.3876053066265,-3566.8104894123694,4649.4968888952862,2447.2962164142045,-1563.0419302316946,1563.0419302316946,-2447.2962164142045,8327.5903102587963,0.0
703523.2936376977,3592751.2368613081,-47500.0,432.00151994689043,1777.2667405376822,-2476.9905571498653,2630.6459579304433,-2777.990606324382,-3498.875024347893,4464.5072066330467,1869.2753725174471,-993.0202429503538,993.0202429503538,-1869.2753725174471,8115.8953716254091,0.0
708523.2936376977,3592751.2368613081,-47500.0,-326.75789074494878,1880.7247756555573,-2053.0865558475089,2865.059849984144,-2521.875210614875,-3292.3979263683714,4238.1891836315435,1332.815660298455,-537.38686615341385,537.38686615341385,-1332.815660298455,7808.4701887106949,0.0
713523.2936376977,3592751.2368613081,-47500.0,-931.78755285600016,1885.6662704881642,-1685.4751523784023,2947.6524768354866,-2241.4818611194182,-3013.63791821211,3983.9612446028605,861.40763131333915,-187.45795496506435,187.45795496506435,-861.40763131333915,7425.5626831717373,0.0
718523.2936376977,3592751.2368613081,-47500.0,-1392.0066787082819,1824.6479211717917,-1374.8417117147415,2921.0931904060485,-1963.4279702461508,-2706.5280597079145,3715.3375212572523,463.4971094180429,71.876998839721949,-71.876998839721949,-463.4971094180429,6993.02147759953,0.0
723523.2936376977,3592751.2368613081,-47500.0,-1725.1316608058341,1722.8446942495245,-1117.0183158008522,2820.5799617517728,-1702.6331837719006,-2398.5971112971988,3443.4496620020086,138.20124075036685,257.25139983800591,-257.25139983800591,-138.20124075036685,6534.6289596337519,0.0
728523.2936376977,3592751.2368613081,-47500.0,-1951.8551677328644,1598.6403763631488,-905.67328253770017,2673.4186851060122,-1466.3709702537944,-2105.960792932377,3176.553853209854,-120.46680614617668,384.28260618522603,-384.28260618522603,120.46680614617668,6069.4855315558361,0.0
733523.2936376977,3592751.2368613081,-47500.0,-2092.5588438783388,1464.8563611008487,-733.90714248868358,2499.8749142688193,-1257.1725693470496,-1837.110462978093,2920.3023630067337,-320.80368186237928,466.48907067296153,-466.48907067296153,320.80368186237928,5611.6938430358696,0.0
738523.2936376977,3592751.2368613081,-47500.0,-2165.6692592669183,1330.0503362293755,-595.11228122880652,2314.4370729491911,-1074.7909872787418,-1595.6330821793522,2678.2443167316783,-471.71094701513965,515.01306115649948,-515.01306115649948,471.71094701513965,5170.9575276187561,0.0
743523.2936376977,3592751.2368613081,-47500.0,-2187.0040725036974,1199.653308411067,-483.37551240133615,2127.0893277454879,-917.47503474372456,-1382.0949457804463,2452.3373520052928,-581.73706063685574,538.74401836874665,-538.74401836874665,581.73706063685574,4753.448781717454,0.0
748523.2936376977,3592751.2368613081,-47500.0,-2169.6730193151261,1076.8800377975422,-393.61634040781246,1944.4277093731139,-782.76615320093401,-1195.3079893747442,2243.3897285604603,-658.59759972536767,544.6100781892801,-544.6100781892801,658.59759972536767,4362.6614318885722,0.0
753523.2936376977,3592751.2368613081,-47500.0,-2124.2648474470193,963.42049154033089,-321.58273955277099,1770.5718249210322,-667.97739832144373,-1033.1572336879751,2051.4137891214218,-708.98682105714556,537.91440587147713,-537.91440587147713,708.98682105714556,4000.1438399126655,0.0
553523.2936376977,3597751.2368613081,-47500.0,-1326.2484694837794,-1322.1712283254462,-628.10031577289396,-1280.2478666476723,-831.22892758070259,-763.90518987207895,1850.9011114701743,-1375.1485519464281,-878.83698787538867,878.83698787538867,1375.1485519464281,3556.0343850397785,0.0
558523.2936376977,3597751.2368613081,-47500.0,-1275.747004447453,-1448.5461270968776,-742.20001377622464,-1366.6739715830215,-948.35940941928686,-860.54355708375783,2014.0972269211736,-1357.4562082628513,-1038.358153032229,1038.358153032229,1357.4562082628513,3851.2262116359407,0.0
563523.2936376977,3597751.2368613081,-47500.0,-1188.1203297988104,-1580.2889034064458,-878.91030884818326,-1446.2758563384639,-1079.9699651713058,-965.07866011723968,2189.8125160030877,-1306.0301345429227,-1224.6818225004729,1224.6818225004729,1306.0301345429227,4164.4300562865947,0.0
568523.2936376977,3597751.2368613081,-47500.0,-1053.6038071502282,-1714.0404467552364,-1042.2309972042399,-1512.8050236236995,-1226.0389688688799,-1075.5410460240209,2377.6603355708094,-1210.1432416600833,-1440.9050616006175,1440.9050616006175,1210.1432416600833,4493.3190192441389,0.0
573523.2936376977,3597751.2368613081,-47500.0,-860.92637414519982,-1844.5946026359359,-1236.3950012342368,-1557.6838875908593,-1385.3139841147063,-1188.268522029525,2576.6704307342884,-1056.7720798161017,-1689.6113021137439,1689.6113021137439,1056.7720798161017,4834.173393022621,0.0
578523.2936376977,3597751.2368613081,-47500.0,-597.60375580115362,-1964.2964084484283,-1465.5216440932497,-1569.4035433087631,-1554.5403728457943,-1297.0849657858862,2785.1398235239471,-830.54571179734228,-1972.2418985011914,1972.2418985011914,830.54571179734228,5181.6709725408336,0.0
583523.2936376977,3597751.2368613081,-47500.0,-250.68995232450496,-2062.387096476371,-1732.9887050588559,-1532.9020107554666,-1727.3388637320559,-1392.1422013469835,3000.5355619361471,-514.04890801213753,-2288.1512229004015,2288.1512229004015,514.04890801213753,5528.9181188974972,0.0
588523.2936376977,3597751.2368613081,-47500.0,191.71126380740978,-2124.4321262567437,-2040.3952488301502,-1429.0700553255861,-1892.6275755762663,-1458.3109674024884,3219.5717833876856,-88.781163659621825,-2633.2709599387272,2633.2709599387272,88.781163659621825,5868.0766989500644,0.0
593523.2936376977,3597751.2368613081,-47500.0,737.7671320390366,-2132.1340300737847,-2385.9868402184557,-1234.7045356104379,-2032.5205727955636,-1473.0062442846479,3438.7300439739188,462.77446001760518,-2998.3763236800319,2998.3763236800319,-462.77446001760518,6192.2804974001692,0.0
598523.2936376977,3597751.2368613081,-47500.0,1387.6133976332646,-2064.0951901385565,-2762.4917327461008,-923.52740251265277,-2119.7720798188207,-1403.4086977874781,3655.7640251917255,1153.3663049180852,-3367.1258421337498,3367.1258421337498,-1153.3663049180852,6500.0475594947038,0.0
603523.2936376977,3597751.2368613081,-47500.0,2127.1560047482903,-1898.4513690136087,-3154.5633555469067,-469.3326408569975,-2115.1947809175376,-1203.3150413027729,3873.2010804703373,1984.8414072314176,-3714.4280281797978,3714.4280281797978,-1984.8414072314176,6803.9181693479932,0.0
608523.2936376977,3597751.2368613081,-47500.0,2920.4131441607992,-1618.6025191376441,-3536.5599655193082,147.17191735961012,-1966.2131579346558,-810.53737022984421,4105.4311000227353,2939.3978104109906,-4006.3277139866182,4006.3277139866182,-2939.3978104109906,7144.5384698352955,0.0
613523.2936376977,3597751.2368613081,-47500.0,3702.464425198139,-1223.1068791878536,-3872.2674367439108,926.10677313066708,-1608.9105847707326,-147.1105252552457,4390.5320003123115,3969.1631083254742,-4203.3958176741417,4203.3958176741417,-3969.1631083254742,7606.7775329749456,0.0
618523.2936376977,3597751.2368613081,-47500.0,4377.7263112253022,-739.4153482131826,-4119.1314639840166,1830.0942725392958,-977.3409749263385,873.3836438931055,4801.4390025717375,4987.4760225342598,-4270.0117138746245,4270.0117138746245,-4987.4760225342598,8321.9369618360906,0.0
623523.2936376977,3597751.2368613081,-47500.0,4831.0157177909532,-237.64991289402269,-4239.6914540136295,2762.8260969560492,-24.396356653932905,2325.0927723321902,5431.1059860595678,5868.6465797311748,-4190.7571571906965,4190.7571571906965,-5868.6465797311748,9428.5591310578875,0.0
628523.2936376977,3597751.2368613081,-47500.0,4958.7958207881356,164.73843876158406,-4220.5398622553757,3554.4089236325513,1244.1295834805373,4229.9669890115738,6328.0441527905987,6465.3484998833546,-3990.9223241206973,3990.9223241206973,-6465.3484998833546,10987.615321622541,0.0
633523.2936376977,3597751.2368613081,-47500.0,4720.6561003536226,320.74041901650924,-4092.9658441829688,3971.5464510225388,2728.9940044596078,6499.7747888725053,7436.2859880037176,6650.0481071882496,-3750.856709538064,3750.856709538064,-6650.0481071882496,12903.335472671806,0.0
638523.2936376977,3597751.2368613081,-47500.0,4194.1634487527072,103.47217138533406,-3941.3623681296249,3772.8913044076903,4210.7071828504895,8877.8741936141214,8595.3178532296915,6374.9909801866188,-3597.8408345849466,3597.8408345849466,-6374.9909801866188,14904.857836853851,0.0
643523.2936376977,3597751.2368613081,-47500.0,3596.0838182099724,-520.66996263568274,-3883.0180616561438,2815.2931338350409,5367.2844213227881,10921.452949429435,9574.8876786016426,5725.7661939679783,-3663.1975384363486,3663.1975384363486,-5725.7661939679783,16595.159654984007,0.0
648523.2936376977,3597751.2368613081,-47500.0,3227.8170374651095,-1431.3627452281814,-4015.6325033714752,1179.0510934181859,5859.5477981588674,12077.276503875795,10133.199801705183,4928.0535987104713,-4012.8179591555263,4012.8179591555263,-4928.0535987104713,17555.651248859853,0.0
653523.2936376977,3597751.2368613081,-47500.0,3334.5039280897704,-2357.8256244038635,-4355.7331417328724,-767.099114892535,5469.9571755200977,11875.908833105022,10099.146519853484,4274.6693514133176,-4587.4659998559373,4587.4659998559373,-4274.6693514133176,17492.438802464658,0.0
658523.2936376977,3597751.2368613081,-47500.0,3939.4675229353625,-2974.8122602561721,-4811.0292460009332,-2452.7951452662551,4227.6271509917678,10180.599542870594,9456.6936716791533,3984.8174806365441,-5200.1631924335616,5200.1631924335616,-3984.8174806365441,16381.439441545355,0.0
663523.2936376977,3597751.2368613081,-47500.0,4781.7191241772371,-3054.3426213950693,-5215.9625536796011,-3354.2583253806197,2427.8000824480778,7324.005166252964,8387.5574325462985,4076.784668824871,-5610.6989095885301,5610.6989095885301,-4076.784668824871,14534.67016626077,0.0
668523.2936376977,3597751.2368613081,-47500.0,5444.828396687617,-2575.3107213659232,-5413.3014024003123,-3257.0853489740316,508.21941923698336,3986.2924302663509,7224.2846618637932,4361.2311127287721,-5640.5465595576879,5640.5465595576879,-4361.2311127287721,12517.455365994523,0.0
673523.2936376977,3597751.2368613081,-47500.0,5597.2030324876732,-1710.5327274306899,-5325.9264194900416,-2329.0523717386109,-1142.6503818372657,874.23917475613689,6298.1000124092407,4573.1439347223459,-5251.6525108429596,5251.6525108429596,-4573.1439347223459,10908.7015809474,0.0
678523.2936376977,3597751.2368613081,-47500.0,5149.0474620657933,-712.04623243625485,-4973.758883402289,-962.48484268131028,-2315.2080552653047,-1557.3705101382361,5771.7441626140098,4529.3929677300748,-4539.1423535619233,4539.1423535619233,-4529.3929677300748,9997.0098363166562,0.0
683523.2936376977,3597751.2368613081,-47500.0,4229.9735167670042,208.33794526791462,-4439.6701841590057,452.68074930041143,-2985.6974668892976,-3175.138926290158,5567.4711579461837,4192.329984509036,-3660.5664336872551,3660.5664336872551,-4192.329984509036,9658.5126971377467,0.0
688523.2936376977,3597751.2368613081,-47500.0,3063.3128132658353,933.45201006828813,-3821.2907426657225,1662.5178972650929,-3244.2831487337326,-4069.2462188068339,5477.0597398368691,3632.121954458054,-2762.9033657830964,2762.9033657830964,-3632.121954458054,9573.3138401601864,0.0
693523.2936376977,3597751.2368613081,-47500.0,1854.6515331802198,1432.5539292657766,-3198.4187848475872,2562.4234049552151,-3216.8189684047356,-4419.9948721730598,5361.2272322677445,2956.3335417568296,-1945.2627762039785,1945.2627762039785,-2956.3335417568296,9491.9399424012863,0.0
698523.2936376977,3597751.2368613081,-47500.0,742.68405359027145,1727.4644068411742,-2622.1115907482249,3149.6949420436003,-3017.2652920590085,-4408.3579689904582,5177.7062900605042,2260.2152155953072,-1256.0543277662186,1256.0543277662186,-2260.2152155953072,9303.1545148768764,0.0
703523.2936376977,3597751.2368613081,-47500.0,-201.7216854000977,1861.3772107948125,-2117.6198945526048,3471.2245562030771,-2730.6037394748309,-4178.838632957697,4931.2490340437926,1608.1450789235114,-706.69925496026542,706.69925496026542,-1608.1450789235114,8987.7327170110311,0.0
708523.2936376977,3597751.2368613081,-47500.0,-956.82879207689564,1879.6873914956545,-1692.1710413188196,3588.4121760360013,-2413.0138717220675,-3833.9349511414366,4640.8862058132336,1034.6657607343573,-287.46399369811434,287.46399369811434,-1034.6657607343573,8567.4090657395227,0.0
713523.2936376977,3597751.2368613081,-47500.0,-1529.9618612383365,1821.2997355604302,-1342.4478000671877,3559.4208125870787,-2098.2759157687724,-3441.1145731490669,4326.4124187184925,552.58595190794222,20.685993943661686,-20.685993943661686,-552.58595190794222,8075.5276866274698,0.0
718523.2936376977,3597751.2368613081,-47500.0,-1942.6324149878449,1716.2170517634008,-1060.0233192287506,3432.4782021809733,-1804.7446618885542,-3042.1946739190794,4004.0205765625974,161.3034004710008,238.95984701084026,-238.95984701084026,-161.3034004710008,7543.98782102327,0.0
723523.2936376977,3597751.2368613081,-47500.0,-2221.2996109156088,1586.0709170033281,-834.73957511124411,3244.7447752581365,-1540.9307922192472,-2661.4249445464511,3685.5601590695073,-146.93832339576329,387.14183519475989,-387.14183519475989,146.93832339576329,6998.7063940963872,0.0
728523.2936376977,3597751.2368613081,-47500.0,-2392.2984507515853,1445.6754243696353,-656.5614696644119,3023.4820633861773,-1309.4301273126732,-2311.521643865733,3379.0410343282101,-382.99142973754562,482.14338020139775,-482.14338020139775,382.99142973754562,6458.8842616038119,0.0
733523.2936376977,3597751.2368613081,-47500.0,-2479.3971242373477,1304.7003807304025,-516.45768378466721,2787.9110367993167,-1109.5055261329851,-1997.8977694937184,3089.4470286055894,-558.41389110355522,537.70109821791743,-537.70109821791743,558.41389110355522,5937.752052489207,0.0
738523.2936376977,3597751.2368613081,-47500.0,-2502.8698920977599,1169.1171580734849,-406.71759879875225,2551.0664347721167,-938.70677517897309,-1721.5278132357366,2819.5196270554911,-684.18538301723459,564.61019028882481,-564.61019028882481,684.18538301723459,5443.7462993341642,0.0
743523.2936376977,3597751.2368613081,-47500.0,-2479.3805548825098,1042.3323154569846,-320.97018005006203,2321.393869755253,-793.84852003834101,-1480.8396267542439,2570.409482224919,-770.10219708046066,571.15952427615684,-571.15952427615684,770.10219708046066,4981.6787445413929,0.0
748523.2936376977,3597751.2368613081,-47500.0,-2422.2628078612543,926.02904392306118,-254.06257723112267,2104.0323739864261,-671.57532454203329,-1272.9336699212074,2342.1834168840192,-824.56697900707036,563.60211891270023,-563.60211891270023,824.56697900707036,4553.7413538746669,0.0
753523.2936376977,3597751.2368613081,-47500.0,-2341.9627375912355,820.7700691570127,-201.88673786160174,1901.7997628179619,-568.66887323021501,-1094.3446712534724,2134.2019589595971,-854.59463268551031,546.5868122716854,-546.5868122716854,854.59463268551031,4160.3063635327144,0.0
548523.2936376977,3602751.2368613081,-47500.0,-1685.3834784809819,-1160.9061141292534,-408.44556661109118,-1396.5444134208292,-688.9650610227402,-771.0073458597227,1829.864256276516,-1716.9645689744432,-534.90436789313185,534.90436789313185,1716.9645689744432,3552.0682809588598,0.0
553523.2936376977,3602751.2368613081,-47500.0,-1708.5564064218679,-1287.7683372754902,-486.73306050647994,-1523.6849177858801,-792.93601716549654,-881.35084514771381,2001.7754800261662,-1776.8542872106761,-650.66313957407897,650.66313957407897,1776.8542872106761,3872.0219397723099,0.0
558523.2936376977,3602751.2368613081,-47500.0,-1707.7683707388667,-1426.2383646608662,-582.52841359381887,-1655.9460343348358,-912.85022611073657,-1006.1871376889412,2189.929643731899,-1819.1299119967539,-789.84954311695901,789.84954311695901,1819.1299119967539,4218.7391459325081,0.0
563523.2936376977,3602751.2368613081,-47500.0,-1674.5539405865259,-1575.654793614495,-699.80655303717663,-1790.1990238254168,-1050.4658672663888,-1146.1759221290845,2394.9758035265195,-1835.595721743156,-956.71545706909455,956.71545706909455,1835.595721743156,4592.0821031756423,0.0
568523.2936376977,3602751.2368613081,-47500.0,-1598.3758050203332,-1734.3196646113845,-843.29944300474938,-1921.5920152111066,-1207.2413135928268,-1301.2408247506928,2617.1389591364868,-1815.5998126288696,-1155.9396188423575,1155.9396188423575,1815.5998126288696,4990.7420683424862,0.0
573523.2936376977,3602751.2368613081,-47500.0,-1466.3598639162312,-1898.99784229743,-1018.5081420257111,-2042.9018336233462,-1383.94756946743,-1470.0578266702626,2855.9880883239498,-1745.5140378327796,-1392.4288090323666,1392.4288090323666,1745.5140378327796,5411.7553274733236,0.0
578523.2936376977,3602751.2368613081,-47500.0,-1263.1798885357107,-2064.2494721037142,-1231.5960552557076,-2143.696231372156,-1580.0401796699857,-1649.278425583836,3110.1254822647588,-1608.2417336895178,-1670.9199486315247,1670.9199486315247,1608.2417336895178,5849.9165160891644,0.0
583523.2936376977,3602751.2368613081,-47500.0,-971.28715285338899,-2221.5882598145549,-1489.0627274557705,-2209.2944375401485,-1792.6672199798711,-1832.3502242404295,3376.7912277279506,-1382.8997823949148,-1995.2732925770179,1995.2732925770179,1382.8997823949148,6297.1390281977392,0.0
588523.2936376977,3602751.2368613081,-47500.0,-571.83033323397387,-2358.5217089291723,-1797.0448681951555,-2219.5828619779663,-2015.147703980824,-2007.7308979890779,3651.4121401924267,-1044.9659953138548,-2367.3156162019422,2367.3156162019422,1044.9659953138548,6741.932501179037,0.0
593523.2936376977,3602751.2368613081,-47500.0,-46.82535917041816,-2457.6812644752526,-2160.0419443857832,-2147.9139549818533,-2234.7318074701052,-2156.2134638109915,3927.224570403991,-567.41610776868765,-2785.0961775857486,2785.0961775857486,567.41610776868765,7169.4408433208519,0.0
598523.2936376977,3602751.2368613081,-47500.0,616.62849191637156,-2496.543884802049,-2578.8571001902769,-1960.6859211861859,-2429.5131563148357,-2247.0511613048538,4195.3406462041785,76.297558817247364,-3240.5144314458903,3240.5144314458903,-76.297558817247364,7563.0421613473991,0.0
603523.2936376977,3602751.2368613081,-47500.0,1419.2057699247348,-2448.7366448014432,-3047.6810960389698,-1618.8811026118933,-2564.6577512635477,-2232.7542877455589,4446.1661732719467,906.23912518101793,-3716.5910645056556,3716.5910645056556,-906.23912518101793,7909.5301885015433,0.0
608523.2936376977,3602751.2368613081,-47500.0,2338.9089232244155,-2288.5303651538047,-3550.7062156347429,-1083.8370991146462,-2588.8956829749891,-2043.1822607623751,4674.1644074698734,1925.7511552605947,-4185.3401737755858,4185.3401737755858,-1925.7511552605947,8211.2620158236532,0.0
613523.2936376977,3602751.2368613081,-47500.0,3318.765593238687,-2000.4495364826823,-4059.6149501849518,-330.4550649657437,-2433.7883840382888,-1581.4433110673904,4889.752944579609,3106.7684238658767,-4608.299542648967,4608.299542648967,-3106.7684238658767,8508.813965526273,0.0
618523.2936376977,3602751.2368613081,-47500.0,4257.9583372042425,-1594.9068545599196,-4534.6782702084447,629.38774811760561,-2020.5843613542972,-727.57125020622436,5142.4374361595337,4373.4607510893529,-4942.8659864437941,4942.8659864437941,-4373.4607510893529,8910.5481166991831,0.0
623523.2936376977,3602751.2368613081,-47500.0,5016.9092337674037,-1126.8249018770523,-4933.0974503246334,1714.7086357883504,-1281.2497891494386,639.78125848114507,5542.4081141615779,5592.4143629369873,-5157.2002875321841,5157.2002875321841,-5592.4143629369873,9600.2142151247735,0.0
628523.2936376977,3602751.2368613081,-47500.0,5449.4644699948922,-706.68692270840234,-5226.439282972543,2746.4672804080228,-198.06757310450419,2592.0839476958918,6215.0212559618003,6583.3255448730451,-5252.2187913290636,5252.2187913290636,-6583.3255448730451,10764.737991607279,0.0
633523.2936376977,3602751.2368613081,-47500.0,5467.3479958849912,-486.00048468189487,-5422.1169874783136,3448.2699906517209,1144.7073461916525,5067.7846180780907,7176.5556655015562,7163.7119409340867,-5279.9610878445001,5279.9610878445001,-7163.7119409340867,12437.862317513142,0.0
638523.2936376977,3602751.2368613081,-47500.0,5117.3192705386064,-602.1836481252376,-5573.4042104722475,3510.1247808472976,2523.7576187962786,7781.6932409803658,8287.4834206684045,7225.9054530245439,-5338.4706402352886,5338.4706402352886,-7225.9054530245439,14388.655374796508,0.0
643523.2936376977,3602751.2368613081,-47500.0,4618.9517852787594,-1092.532085675999,-5758.6622714899004,2727.724389252824,3597.1971016668613,10189.479242701205,9291.4758149368881,6814.4822800924803,-5527.5727365711437,5527.5727365711437,-6814.4822800924803,16163.422743388634,0.0
648523.2936376977,3602751.2368613081,-47500.0,4302.3501103533254,-1826.4326106787848,-6027.5028136975989,1171.1301215474662,4011.9841411056509,11588.144907392765,9893.5588939249119,6147.0432594032018,-5877.8196459886594,5877.8196459886594,-6147.0432594032018,17247.031968417439,0.0
653523.2936376977,3602751.2368613081,-47500.0,4434.5058516704466,-2522.1443137622887,-6346.6122218550372,-731.3148425877032,3569.4073704004313,11384.248308243226,9882.2860360976429,5533.1547432145226,-6300.5975096323664,6300.5975096323664,-5533.1547432145226,17273.318386337811,0.0
658523.2936376977,3602751.2368613081,-47500.0,5023.0193639665786,-2869.977560407845,-6595.8164307433717,-2313.8410747376461,2351.1426984208756,9427.6943402082306,9252.8308292056208,5210.0140413427998,-6609.2874010022988,6609.2874010022988,-5210.0140413427998,16215.15381558124,0.0
663523.2936376977,3602751.2368613081,-47500.0,5759.3223963077298,-2694.8685826902674,-6630.8228767327373,-2994.5749445169022,703.02500394387266,6173.4286448996418,8257.4347143468203,5198.4082409803077,-6611.1908864679581,6611.1908864679581,-5198.4082409803077,14456.491284129315,0.0
668523.2936376977,3602751.2368613081,-47500.0,6193.1983386747088,-2041.412724188182,-6367.2805090002394,-2589.3279802420052,-931.40855586366172,2486.0691150884431,7276.8407497505605,5303.7852768626253,-6209.969356941996,6209.969356941996,-5303.7852768626253,12655.577401202876,0.0
673523.2936376977,3602751.2368613081,-47500.0,6015.164149697197,-1121.0994465204719,-5821.1307882784877,-1361.2758412361959,-2211.90899583894,-796.96230660913079,6578.9516959285129,5271.6311962257496,-5447.7557211521307,5447.7557211521307,-5271.6311962257496,11396.49238565154,0.0
678523.2936376977,3602751.2368613081,-47500.0,5206.4490321490393,-179.1039398845526,-5085.1418687697715,208.69600910251387,-3001.5440794745459,-3200.5976662124849,6253.7297016556713,4954.5880261428247,-4466.4811854158052,4466.4811854158052,-4954.5880261428247,10831.809150618741,0.0
683523.2936376977,3602751.2368613081,-47500.0,3971.7652331831118,611.81429863958226,-4274.9011462419285,1697.5575972661509,-3336.4726766365447,-4650.5233677769111,6163.8771864287883,4360.3599285082482,-3430.4746381724326,3430.4746381724326,-4360.3599285082482,10696.281360105575,0.0
688523.2936376977,3602751.2368613081,-47500.0,2577.8296626818083,1179.9306477383225,-3485.8632387911889,2869.8827447947506,-3336.5270096943113,-5314.0989100627448,6088.5512745731176,3592.3202001037048,-2466.6514821574506,2466.6514821574506,-3592.3202001037048,10652.666534792144,0.0
693523.2936376977,3602751.2368613081,-47500.0,1236.9606807729938,1528.7148591094617,-2777.0230773096218,3661.588242832494,-3130.487806635062,-5428.9632181957077,5927.8898913743324,2770.3616479583588,-1644.7668518132562,1644.7668518132562,-2770.3616479583588,10508.194480400718,0.0
698523.2936376977,3602751.2368613081,-47500.0,71.907563956231471,1698.4382762771575,-2174.1460444945824,4108.4136975397905,-2820.2976036977602,-5206.2353667251255,5675.2351735512402,1985.5656875241507,-986.43195227957074,986.43195227957074,-1985.5656875241507,10207.941046998554,0.0
703523.2936376977,3602751.2368613081,-47500.0,-869.73502435299326,1738.2238771285752,-1680.3613874527248,4283.9851513781805,-2474.1844086683163,-4800.8041598771033,5355.239949986717,1290.1964126679213,-483.48265966039003,483.48265966039003,-1290.1964126679213,9767.8252395012241,0.0
708523.2936376977,3602751.2368613081,-47500.0,-1587.6615876577716,1691.9902163240129,-1286.4026173580442,4264.7268183616288,-2132.5722932854119,-4314.9778168174425,4996.1820686583469,705.32817637886433,-113.90708530396176,113.90708530396176,-705.32817637886433,9227.4812489831274,0.0
713523.2936376977,3602751.2368613081,-47500.0,-2105.4465608195505,1593.8547154630787,-977.83484166726203,4115.4920993911655,-1816.6579457591668,-3811.7190228965615,4621.3513568657154,232.24745774979129,148.00635602821507,-148.00635602821507,-232.24745774979129,8627.8948316754286,0.0
718523.2936376977,3602751.2368613081,-47500.0,-2455.5669019969964,1468.2124892640668,-739.30116843570465,3886.2554183559055,-1535.626875061216,-3327.2962241463078,4247.6225682475251,-138.27325197442002,326.45607843309716,-326.45607843309716,138.27325197442002,8003.2453550458322,0.0
723523.2936376977,3602751.2368613081,-47500.0,-2671.2555376874539,1331.5025834416556,-556.64520455712545,3613.3777460905098,-1291.7042068015965,-2880.7628234826038,3886.2803543225787,-419.92400603764662,442.04439544084897,-442.04439544084897,419.92400603764662,7379.1726708188617,0.0
728523.2936376977,3602751.2368613081,-47500.0,-2782.676585362412,1194.232900485448,-417.75024554314416,3322.2158382509197,-1083.3803155906437,-2480.4467495673198,3544.3072715558928,-627.38593842148077,511.35570129002429,-511.35570129002429,627.38593842148077,6773.5173862088732,0.0
733523.2936376977,3602751.2368613081,-47500.0,-2815.5063972583703,1062.7280205718625,-312.69059981477091,3029.7597573954986,-907.35854895420448,-2128.2303873458495,3225.566603717712,-774.54295126807426,547.28377469142868,-547.28377469142868,774.54295126807426,6197.7990999812018,0.0
738523.2936376977,3602751.2368613081,-47500.0,-2790.7424102116338,940.4750171829985,-233.55845639825449,2746.8716555931369,-759.67970466157351,-1822.3188318203615,2931.747202000769,-873.68664653777751,559.62096954201388,-559.62096954201388,873.68664653777751,5658.7390801689389,0.0
743523.2936376977,3602751.2368613081,-47500.0,-2725.0792746007924,829.10014846444767,-174.16870847745218,2480.0494374898976,-636.3394786537591,-1558.9983757733273,2663.0747361679373,-935.2691116200856,555.67755191824494,-555.67755191824494,935.2691116200856,5159.5796238850289,0.0
748523.2936376977,3602751.2368613081,-47500.0,-2631.5043051656007,729.05156557160274,-129.74333599232017,2232.7621738130597,-533.60242714284448,-1333.7268288886457,2418.8307789136402,-967.94010582290457,540.83589896684953,-540.83589896684953,967.94010582290457,4701.1412730277934,0.0
753523.2936376977,3602751.2368613081,-47500.0,-2519.9354154031194,640.06433005109704,-96.622693831614498,2006.4343007003124,-448.13995827703678,-1141.7858379517809,2197.7229592387298,-978.71793273915341,519.01023577569686,-519.01023577569686,978.71793273915341,4282.6305603680703,0.0
548523.2936376977,3607751.2368613081,-47500.0,-2010.9928584490428,-1068.2748986191607,-281.1599426118899,-1592.2731083354863,-622.08731327282192,-861.02747413081636,1955.7305201936349,-2049.4779228782727,-292.59995080503199,292.59995080503199,2049.4779228782727,3810.0009101870614,0.0
553523.2936376977,3607751.2368613081,-47500.0,-2080.8218478950266,-1193.827928922422,-339.70594823414308,-1757.8522789117765,-720.28305048010805,-993.45409977550469,2149.4121067682731,-2163.0382002049118,-379.23417920293286,379.23417920293286,2163.0382002049118,4174.069023644849,0.0
558523.2936376977,3607751.2368613081,-47500.0,-2132.9961208403624,-1333.6286755309909,-412.99050191384543,-1936.7510051919389,-835.06459883516141,-1146.3558160863035,2363.6825908736296,-2267.8630748367568,-486.77056438561908,486.77056438561908,2267.8630748367568,4573.3532452329109,0.0
563523.2936376977,3607751.2368613081,-47500.0,-2159.3403976716249,-1488.2140898264759,-504.90727841389588,-2127.5726055746136,-968.93462061986907,-1322.1292976037651,2600.0943766254445,-2356.8642590203203,-619.91104343669519,619.91104343669519,2356.8642590203203,5009.3416338843699,0.0
568523.2936376977,3607751.2368613081,-47500.0,-2149.2185876544258,-1657.4674393362179,-620.32622276079201,-2327.4686042279463,-1124.4821510679449,-1522.9571867814989,2859.9284866678063,-2420.3418116751059,-784.23005100585704,784.23005100585704,2420.3418116751059,5482.5664158331892,0.0
573523.2936376977,3607751.2368613081,-47500.0,-2088.973498953756,-1840.1876289207819,-765.26310785314035,-2531.4407889983695,-1304.1574327217288,-1750.4456493627242,3143.9447934651894,-2445.214594276702,-986.19489676168769,986.19489676168769,2445.214594276702,5992.0469151834232,0.0
578523.2936376977,3607751.2368613081,-47500.0,-1961.3648373261904,-2033.4598770197313,-947.00755329381116,-2731.3496992839919,-1509.8546668135673,-2005.017858899708,3451.9982561273891,-2414.1120869661449,-1233.0624413619635,1233.0624413619635,2414.1120869661449,6534.5068784679424,0.0
583523.2936376977,3607751.2368613081,-47500.0,-1745.1590094457827,-2231.7695677372121,-1174.129415773896,-2914.532074177032,-1742.1749613668903,-2284.8983627604507,3782.4622420822316,-2304.4009299676536,-1532.5424673028031,1532.5424673028031,2304.4009299676536,7103.3090276766507,0.0
588523.2936376977,3607751.2368613081,-47500.0,-1415.2040282253968,-2425.8275222252332,-1456.2212534794874,-3061.9451037685731,-1999.1683691114442,-2584.40150745755,4131.3893302273664,-2087.3597235819734,-1892.05749094937,1892.05749094937,2087.3597235819734,7687.0808103101526,0.0
593523.2936376977,3607751.2368613081,-47500.0,-943.63254104993428,-2601.1804347289681,-1803.14749919991,-3145.8801732184024,-2274.2686875933914,-2891.0564338966974,4491.3719482256802,-1727.9963357378535,-2317.3644278865868,2317.3644278865868,1727.9963357378535,8268.1548824906022,0.0
598523.2936376977,3607751.2368613081,-47500.0,-303.29874086126057,-2736.9495295382608,-2223.481453888131,-3127.6663450651904,-2553.0859404580747,-3180.8925483121366,4850.208257085711,-1186.496771209303,-2810.282857878502,2810.282857878502,1186.496771209303,8821.3634901799614,0.0
603523.2936376977,3607751.2368613081,-47500.0,524.97514209311657,-2805.5916304990778,-2721.8033139706467,-2956.6497115846946,-2808.8686927230656,-3411.1592103666071,5189.8952669738419,-422.99399977950816,-3365.4289263739811,3365.4289263739811,422.99399977950816,9314.6961039496618,0.0
608523.2936376977,3607751.2368613081,-47500.0,1539.7733804504528,-2775.4603180200302,-3294.7927410884108,-2573.3208180618972,-2997.1327599987221,-3510.3770351554904,5487.480091785128,592.00259525592332,-3966.4049282511141,3966.4049282511141,-592.00259525592332,9715.2281016818542,0.0
613523.2936376977,3607751.2368613081,-47500.0,2701.1578058883515,-2618.8505550397481,-3926.8821197061388,-1921.544023113458,-3051.7171810867608,-3367.9337039794714,5721.5052479683873,1859.4856234135816,-4583.1004964586591,4583.1004964586591,-1859.4856234135816,10006.481220595948,0.0
618523.2936376977,3607751.2368613081,-47500.0,3912.3903524717371,-2327.9379690383316,-4587.8179024260553,-975.83018144059315,-2887.7117140800488,-2830.6617625629856,5892.1012351761519,3327.1279971253794,-5173.4775445898558,5173.4775445898558,-3327.1279971253794,10224.294644340509,0.0
623523.2936376977,3607751.2368613081,-47500.0,5014.7734131817897,-1937.1700848616551,-5236.1571259970178,214.52172386078695,-2420.1699926115502,-1721.7157296751448,6065.5463215775562,4866.328035766599,-5694.0337235602055,5694.0337235602055,-4866.328035766599,10505.91221703404,0.0
628523.2936376977,3607751.2368613081,-47500.0,5816.4456308160916,-1541.1819728453374,-5832.0713416398139,1477.0693434056996,-1606.6760641619428,97.836789026548686,6407.8925947192965,6270.4749778937494,-6119.8392648589142,6119.8392648589142,-6270.4749778937494,11099.201488033945,0.0
633523.2936376977,3607751.2368613081,-47500.0,6169.176441091342,-1285.6708316721711,-6356.2949567224296,2500.5671756839424,-508.79365713848239,2615.4045168944135,7044.9783267471275,7298.4530936624551,-6464.8377908063239,6464.8377908063239,-7298.4530936624551,12226.938703329381,0.0
638523.2936376977,3607751.2368613081,-47500.0,6072.6351477595344,-1309.5568456298295,-6820.221645892525,2904.5431354342486,660.62754861633141,5533.6873927783381,7882.5716363893516,7769.746655520119,-6780.8500248000546,6780.8500248000546,-7769.746655520119,13832.239909232389,0.0
643523.2936376977,3607751.2368613081,-47500.0,5734.2200519799553,-1648.6606408880486,-7247.2468695725574,2417.30823807566,1561.5119259152707,8212.7906450857336,8688.7441508815937,7672.1873270720007,-7117.1672490125075,7117.1672490125075,-7672.1873270720007,15486.659399363025,0.0
648523.2936376977,3607751.2368613081,-47500.0,5498.3036922605115,-2165.1300662391964,-7625.6687456223881,1094.1393211021405,1857.169533168216,9806.7179480235736,9184.7072057180449,7201.5847094823548,-7456.8488183632671,7456.8488183632671,-7201.5847094823548,16593.571619489219,0.0
653523.2936376977,3607751.2368613081,-47500.0,5637.3014276113363,-2583.8703558859465,-7872.9055867846128,-587.83352497415285,1399.5947309871601,9622.1635767879798,9166.7428958268574,6671.3754718031496,-7686.977837977588,7686.977837977588,-6671.3754718031496,16708.786057620462,0.0
658523.2936376977,3607751.2368613081,-47500.0,6134.8651376400921,-2642.2469432085259,-7860.9284897323396,-1900.8867577124736,334.9529260708814,7529.1104043385048,8699.761160653783,6325.4630321535242,-7647.7384521632321,7647.7384521632321,-6325.4630321535242,15794.328939655396,0.0
663523.2936376977,3607751.2368613081,-47500.0,6653.7031362547741,-2245.6866469210995,-7497.7228837252605,-2256.0283888544568,-969.45686819381422,4110.4824176004004,8051.2244200293781,6187.3520434644133,-7229.9090960015192,7229.9090960015192,-6187.3520434644133,14281.403567245708,0.0
668523.2936376977,3607751.2368613081,-47500.0,6754.7167246771969,-1504.5948054750468,-6794.1956283065801,-1533.3370683673229,-2125.856967685615,370.33600603376016,7399.3510871000753,6075.9083063484868,-6440.7794979529663,6440.7794979529663,-6075.9083063484868,12854.357866003691,0.0
673523.2936376977,3607751.2368613081,-47500.0,6192.2698052258465,-639.42472917072712,-5859.0573944352691,-81.777060976460163,-2898.5786136207362,-2795.3790005851156,6928.7915858743236,5773.6491915229135,-5395.2278165644702,5395.2278165644702,-5773.6491915229135,12006.296271930214,0.0
678523.2936376977,3607751.2368613081,-47500.0,5030.615404139463,148.66355860237184,-4838.4612881270996,1571.7202955009911,-3244.9135760766753,-4946.4873410857326,6768.7854448239723,5185.0896405222993,-4254.5655994995905,4254.5655994995905,-5185.0896405222993,11727.833165543709,0.0
683523.2936376977,3607751.2368613081,-47500.0,3532.8514380141091,748.33675321801525,-3856.5104276434304,3015.2410556606087,-3249.1676667387874,-6084.9702408127696,6740.4807623705956,4362.0457925036499,-3162.260077379246,3162.260077379246,-4362.0457925036499,11690.249313968685,0.0
688523.2936376977,3607751.2368613081,-47500.0,1982.4208492373177,1136.1647504505052,-2989.0234809284029,4057.6081925752164,-3035.1867125305412,-6443.6440563941178,6637.2586178393885,3429.3864012418476,-2209.4786084802649,2209.4786084802649,-3429.3864012418476,11607.168251333564,0.0
693523.2936376977,3607751.2368613081,-47500.0,577.29680853903426,1340.91741250982,-2266.4566794643724,4681.6634092177355,-2711.3237283623716,-6295.4000308159466,6409.1630579811963,2506.8968831434577,-1433.3115894948551,1433.3115894948551,-2506.8968831434577,11356.873010225521,0.0
698523.2936376977,3607751.2368613081,-47500.0,-586.50449272161893,1409.5518651642744,-1688.7818253483699,4956.870875999115,-2352.4152474804823,-5861.4454505775093,6080.2214098963968,1673.4103868212119,-832.52716348178683,832.52716348178683,-1673.4103868212119,10931.576194382234,0.0
703523.2936376977,3607751.2368613081,-47500.0,-1487.3311687541836,1387.3882548812344,-1240.1306557641435,4975.4023922803135,-2002.4246242345387,-5293.1122915525202,5688.7201847168635,965.74710735821088,-385.71937441645389,385.71937441645389,-965.74710735821088,10370.795901282127,0.0
708523.2936376977,3607751.2368613081,-47500.0,-2144.6094045446293,1310.4432994877675,-898.8948971708744,4821.1360617849996,-1683.4115332702443,-4684.2332731848119,5267.7179429503012,391.34983400833312,-64.577305682760567,64.577305682760567,-391.34983400833312,9723.610810690463,0.0
713523.2936376977,3607751.2368613081,-47500.0,-2594.9084260909967,1204.4604640528726,-643.37234361883782,4559.9837707055467,-1403.9459075371994,-4088.8944225977311,4841.2538252981931,-58.662960023105391,158.66925083211626,-158.66925083211626,58.662960023105391,9033.3702540859485,0.0
718523.2936376977,3607751.2368613081,-47500.0,-2878.3694882846794,1086.5774187625971,-454.35196380588087,4239.9482715495369,-1165.0934079015642,-3535.7864709122759,4425.3275034139515,-400.35227671156861,308.01868487131844,-308.01868487131844,400.35227671156861,8333.5113715261577,0.0
723523.2936376977,3607751.2368613081,-47500.0,-3032.2547750643098,967.5436036671706,-315.94198654296355,3894.3349301760591,-964.1567051227812,-3038.0157839405742,4029.8421120537878,-651.6548666975981,402.85659500397685,-402.85659500397685,651.6548666975981,7647.796220654207,0.0
728523.2936376977,3607751.2368613081,-47500.0,-3088.4944016723207,853.67635381340972,-215.52295600407808,3545.3314157618374,-796.84092474810313,-2599.4158606756496,3660.3717726088057,-829.69983895641622,458.23182584156183,-458.23182584156183,829.69983895641622,6991.9478642163904,0.0
733523.2936376977,3607751.2368613081,-47500.0,-3073.218460905156,748.35314424706792,-143.33386373303617,3207.0598350674204,-658.4321088030714,-2218.5265117127828,3319.5238020653401,-949.65133948717653,485.53687880386559,-485.53687880386559,949.65133948717653,6375.4974293638361,0.0
738523.2936376977,3607751.2368613081,-47500.0,-3007.170341716967,653.0725034976665,-91.957061339537773,2887.9479834815302,-544.39628708002226,-1891.0812142896391,3007.9302883833393,-1024.3599269620865,493.250259945344,-493.250259945344,1024.3599269620865,5803.4325417470136,0.0
743523.2936376977,3607751.2368613081,-47500.0,-2906.448370506504,568.1771392928971,-55.824145279941575,2592.4978419650884,-450.6504328640516,-1611.5410037503746,2724.953250783874,-1064.412130663804,487.60202726724185,-487.60202726724185,1064.412130663804,5277.5389773431589,0.0
748523.2936376977,3607751.2368613081,-47500.0,-2783.311420980096,493.33335496734014,-30.791165195410134,2322.5737292443969,-373.65502077789188,-1374.0144051236086,2469.1785788790644,-1078.3558833015411,473.12153479936643,-473.12153479936643,1078.3558833015411,4797.4369260263702,0.0
753523.2936376977,3607751.2368613081,-47500.0,-2646.9329576975997,427.84111173862078,-13.793807421368278,2078.3248755379145,-310.41388267011189,-1172.7839251229241,2238.7577653769331,-1072.9877277742885,453.06855743862485,-453.06855743862485,1072.9877277742885,4361.3547064103113,0.0
543523.2936376977,3612751.2368613081,-47500.0,-2188.9831495946678,-824.69642676359342,-131.3612907010193,-1588.6831601506335,-455.1243042106604,-811.95289025215652,1880.4894358070824,-2188.0635909324083,11.125896912257531,-11.125896912257531,2188.0635909324083,3678.3341369700174,0.0
548523.2936376977,3612751.2368613081,-47500.0,-2309.2400263535665,-925.5829415120927,-160.87381723525672,-1770.0770585773769,-527.76820233216347,-942.35914393776659,2072.5792065143,-2348.1178345952885,-26.613672726471123,26.613672726471123,2348.1178345952885,4043.8258575836785,0.0
553523.2936376977,3612751.2368613081,-47500.0,-2424.2268430352883,-1039.8310861537373,-198.95423896657985,-1971.8639308213842,-613.45566526095899,-1095.2912979571931,2287.2421038601551,-2512.4364257391039,-77.001427424250778,77.001427424250778,2512.4364257391039,4449.5096013263883,0.0
558523.2936376977,3612751.2368613081,-47500.0,-2528.5182689525845,-1168.8983127818165,-248.22360748195609,-2195.2045566369065,-714.58651841807978,-1274.5056060220847,2527.0067296323646,-2677.3329963977585,-143.60187833591363,143.60187833591363,2677.3329963977585,4899.0217116736621,0.0
563523.2936376977,3612751.2368613081,-47500.0,-2614.6548648049488,-1314.1499378793753,-312.10939920877104,-2440.6685858696455,-833.93007867221559,-1484.2119552255076,2794.5059860849137,-2837.2780677133783,-230.91653810351499,230.91653810351499,2837.2780677133783,5395.7945051279603,0.0
568523.2936376977,3612751.2368613081,-47500.0,-2672.496706886604,-1476.6710779791149,-395.07713536805153,-2707.803556427345,-974.61849408328737,-1729.0230596060132,3092.3618857994306,-2984.1995629356802,-344.59186106649668,344.59186106649668,2984.1995629356802,5942.7277763304237,0.0
573523.2936376977,3612751.2368613081,-47500.0,-2688.405227959202,-1656.9546952143935,-502.9069614771721,-2994.4669940550043,-1140.078896638302,-2013.8136705465918,3422.9763459884612,-3106.5432813577463,-491.63842912657469,491.63842912657469,3106.5432813577463,6541.6734675412536,0.0
578523.2936376977,3612751.2368613081,-47500.0,-2644.2550142210221,-1854.3998579123765,-643.00133702718063,-3295.7915279946551,-1333.8451904747508,-2343.4072771389347,3788.1645738322559,-3188.0368486140082,-680.62553381243515,680.62553381243515,3188.0368486140082,7192.6353907880339,0.0
583523.2936376977,3612751.2368613081,-47500.0,-2516.3498824011049,-2066.5282810373037,-824.67894211878206,-3602.5895506100546,-1559.1387374780957,-2721.9204048093648,4188.5257977562151,-3206.1267979657659,-921.77248750057902,921.77248750057902,3206.1267979657659,7892.5331875390448,0.0
588523.2936376977,3612751.2368613081,-47500.0,-2274.503086694685,-2287.8169201678998,-1059.353915998196,-3898.9511878813405,-1818.0211021681994,-3151.4290474264481,4622.3994758095196,-3130.1689834820609,-1226.7861506313063,1226.7861506313063,3130.1689834820609,8633.3402899715038,0.0
593523.2936376977,3612751.2368613081,-47500.0,-1881.9127815206243,-2508.0859803266289,-1360.4019634690837,-4158.8067662478088,-2109.7897097529467,-3629.3192325672485,5084.2088483422722,-2919.7242008392341,-1608.1845380240236,1608.1845380240236,2919.7242008392341,9399.4063150549537,0.0
598523.2936376977,3612751.2368613081,-47500.0,-1297.1390285988105,-2710.57265268218,-1742.372181948102,-4341.5207528106366,-2428.1308458007557,-4143.2354915086353,5562.029131986329,-2523.9125942128539,-2077.709167832727,2077.709167832727,2523.9125942128539,10163.995228489664,0.0
603523.2936376977,3612751.2368613081,-47500.0,-480.43082174668888,-2870.3335608355292,-2219.0630022385367,-4387.5214763288141,-2756.4995938087604,-4662.0904415133891,6034.4798217333937,-1883.8377183603732,-2643.3672464688179,2643.3672464688179,1883.8377183603732,10885.821027876542,0.0
608523.2936376977,3612751.2368613081,-47500.0,592.58347031702738,-2954.6309599075103,-2799.9779820907002,-4217.1109392523585,-3061.6325573570844,-5121.7878488352899,6467.8541985872062,-941.53822083584191,-3304.8743275930105,3304.8743275930105,941.53822083584191,11508.238136997221,0.0
613523.2936376977,3612751.2368613081,-47500.0,1907.7421746859707,-2928.379119639118,-3485.1598250403763,-3739.1426316997299,-3286.7728940801699,-5406.6978851164604,6816.30731821677,340.17959991103203,-4048.2240482089355,4048.2240482089355,-340.17959991103203,11967.320952455753,0.0
618523.2936376977,3612751.2368613081,-47500.0,3383.0105103381306,-2768.4277314534088,-4259.7560859831046,-2879.634720866673,-3349.9432986663614,-5334.9901751105899,7032.0075376753939,1944.8565748383371,-4842.0623963228145,4842.0623963228145,-1944.8565748383371,12219.721673361348,0.0
623523.2936376977,3612751.2368613081,-47500.0,4848.4202196885335,-2487.4217985813179,-5091.7478929545796,-1637.8636638035266,-3157.8392297715577,-4668.8215267495925,7101.1780656742103,3763.4562623256247,-5640.6385725503769,5640.6385725503769,-3763.4562623256247,12300.702792870828,0.0
628523.2936376977,3612751.2368613081,-47500.0,6065.3140057963092,-2157.40070981999,-5937.0043854690157,-159.20122272625127,-2647.2943959714617,-3182.3206518255702,7132.7115981330335,5573.5977173658421,-6396.919578242937,6396.919578242937,-5573.5977173658421,12395.362415526673,0.0
633523.2936376977,3612751.2368613081,-47500.0,6812.6582134728551,-1907.4846413603689,-6751.1453192089166,1223.5257070713351,-1852.383835888505,-809.26077024323479,7394.3050189391397,7074.8883402387855,-7080.4674090041754,7080.4674090041754,-7074.8883402387855,12821.416446533231,0.0
638523.2936376977,3612751.2368613081,-47500.0,7023.0185794459994,-1867.5135724402398,-7496.904506963072,2058.9632880146737,-959.50196190981421,2169.5553421147415,7920.618092347986,8001.1942413526103,-7680.9808615904803,7680.9808615904803,-8001.1942413526103,13778.791719931254,0.0
643523.2936376977,3612751.2368613081,-47500.0,6872.8482818917109,-2067.5646029423551,-8131.1255571321544,1997.1296529316858,-280.25341242427351,5037.985996529851,8391.5589636260229,8265.9618832899941,-8179.9541526816247,8179.9541526816247,-8265.9618832899941,15032.677788071538,0.0
648523.2936376977,3612751.2368613081,-47500.0,6707.0333262684326,-2370.8497788898271,-8576.0910032170068,1063.1646717571691,-103.95553654831805,6825.5341293441697,8477.590928494079,8029.003733664209,-8508.2263592246418,8508.2263592246418,-8029.003733664209,15990.15815613248,0.0
653523.2936376977,3612751.2368613081,-47500.0,6795.8085536054268,-2530.809700791237,-8714.3861929249997,-242.77196928415376,-508.54855398055906,6768.2692583686521,8194.1581321113008,7598.8212535363491,-8545.6522213315111,8545.6522213315111,-7598.8212535363491,16134.045756198657,0.0
658523.2936376977,3612751.2368613081,-47500.0,7107.6708853483842,-2355.6803828832681,-8440.8670695836972,-1176.9111221118922,-1295.5803509042748,4776.697266653292,8365.3978836712649,7223.4147164523383,-8190.2063732445949,8190.2063732445949,-7223.4147164523383,15387.848246869768,0.0
663523.2936376977,3612751.2368613081,-47500.0,7312.9033635394344,-1836.4998312250464,-7740.3660167682719,-1191.0249105528424,-2122.7338852347821,1530.423825395658,8075.9356146416176,6938.677612665897,-7437.4420204265425,7437.4420204265425,-6938.677612665897,14173.375738224047,0.0
668523.2936376977,3612751.2368613081,-47500.0,7031.7980293001356,-1126.6315536272066,-6715.9276264340624,-238.13147194263311,-2711.9498378424191,-1913.893171756778,7572.3433615804843,6598.9912504442636,-6391.4410424956459,6391.4410424956459,-6598.9912504442636,13118.097227591661,0.0
673523.2936376977,3612751.2368613081,-47500.0,6106.8802890955658,-419.66189794056623,-5540.2780692427814,1289.6118494850659,-2959.6775516877128,-4689.3811723083936,7218.0304571287179,6043.2045032876185,-5209.6310128368941,5209.6310128368941,-6043.2045032876185,12580.401844569535,0.0
678523.2936376977,3612751.2368613081,-47500.0,4670.9084838838962,152.16726885583918,-4378.9805012913166,2879.1389930091964,-2909.3683850710495,-6428.0066810969238,7170.975725614182,5229.5386730242544,-4040.0804915837061,4040.0804915837061,-5229.5386730242544,12448.836099851538,0.0
683523.2936376977,3612751.2368613081,-47500.0,3010.5569373291755,542.8778311934592,-3342.4524857929641,4169.0629130321622,-2666.2946751396325,-7194.2650589904997,7161.4201321720539,4240.4975264264031,-2986.607479258595,2986.607479258595,-4240.4975264264031,12410.583307171508,0.0
688523.2936376977,3612751.2368613081,-47500.0,1395.8945869131398,766.59925232511819,-2479.8911477500619,5022.0454424939662,-2331.8244840716056,-7251.1895921064988,7013.309034642718,3206.0423064027832,-2101.8593691262517,2101.8593691262517,-3206.0423064027832,12248.167011702655,0.0
693523.2936376977,3612751.2368613081,-47500.0,-4.3992176554209621,862.71586019867721,-1796.3427036775859,5458.994461628411,-1977.1718817013391,-6874.5427354639442,6721.7854404770378,2235.0987950022381,-1397.1421376530111,1397.1421376530111,-2235.0987950022381,11893.752477648277,0.0
698523.2936376977,3612751.2368613081,-47500.0,-1123.3154457584446,872.86363016372457,-1273.1190718249773,5569.061892430459,-1642.881780989283,-6274.5210021484208,6331.2856266488079,1390.4963220801158,-858.08545059470612,858.08545059470612,-1390.4963220801158,11367.141065996981,0.0
703523.2936376977,3612751.2368613081,-47500.0,-1960.9596535137416,831.01651119501525,-882.66816736700321,5450.8947281547853,-1347.4417621090868,-5587.881123691418,5886.9380291209864,694.46256530123571,-458.67534133128981,458.67534133128981,-694.46256530123571,10718.370849475579,0.0
708523.2936376977,3612751.2368613081,-47500.0,-2550.5439713407882,761.48303917304997,-596.96453228882547,5187.6253089684906,-1096.1187537519843,-4895.3449258049977,5422.9484361602217,143.60929295209576,-170.60252422034421,170.60252422034421,-143.60929295209576,9998.6842302690093,0.0
713523.2936376977,3612751.2368613081,-47500.0,-2936.2415592762354,680.23943006693071,-391.29898629570869,4841.4026151778353,-887.29261455828316,-4240.8363223695369,4962.4016286221049,-278.03049614674114,31.886932347917764,-31.886932347917764,278.03049614674114,9250.2107215834658,0.0
718523.2936376977,3612751.2368613081,-47500.0,-3161.7476469537601,597.08882950357395,-245.44968683246373,4455.7552704421478,-716.30832022282129,-3645.7015008399035,4519.7706622128753,-590.72250622059698,170.19266496615626,-170.19266496615626,590.72250622059698,8504.1438070986405,0.0
723523.2936376977,3612751.2368613081,-47500.0,-3265.5050727376342,517.6228557770778,-143.58354469486645,4059.8380854495636,-577.58189214686206,-3117.9056353551364,4103.4588125256787,-814.66323551078312,261.20482648822099,-261.20482648822099,814.66323551078312,7781.9563343132268,0.0
728523.2936376977,3612751.2368613081,-47500.0,-3279.3621650305863,444.71235886755875,-73.6515105996952,3672.3602722452656,-465.64629964284387,-2657.7229371363151,3717.7608893595207,-968.03304347847939,317.85200059340144,-317.85200059340144,968.03304347847939,7097.3725572576286,0.0
733523.2936376977,3612751.2368613081,-47500.0,-3228.7719526728069,379.54578294951608,-26.659480462689938,3304.6717203322778,-375.60485724213032,-2261.2293022472309,3364.2562625981718,-1066.3437104341385,349.84499183999043,-349.84499183999043,1066.3437104341385,6458.2853951076495,0.0
738523.2936376977,3612751.2368613081,-47500.0,-3133.5780177040947,322.31803826611502,4.0144150998203525,2963.0481127245466,-303.27644897515313,-1922.443220934955,3042.7730469079524,-1122.4098734784852,364.38877372428522,-364.38877372428522,1122.4098734784852,5868.3767192240302,0.0
743523.2936376977,3612751.2368613081,-47500.0,-3008.950642956825,272.67110562367787,23.195855122303165,2650.3434140298682,-245.18966733567564,-1634.6227017701499,2752.0517364665798,-1146.5912896335728,366.78274713529549,-366.78274713529549,1146.5912896335728,5328.4039986626021,0.0
748523.2936376977,3612751.2368613081,-47500.0,-2866.285678921417,229.96878493232083,34.373192067754481,2367.1686754620878,-198.51229306621298,-1391.025905661538,2490.199896933882,-1147.1296892477117,360.89748569966696,-360.89748569966696,1147.1296892477117,4837.1819138852952,0.0
753523.2936376977,3612751.2368613081,-47500.0,-2713.9957917429761,193.46239690411221,40.050999047597216,2112.7226653871462,-160.95888380777751,-1185.329674190735,2255.0008781147826,-1130.4973600548046,349.54131918762687,-349.54131918762687,1130.4973600548046,4392.3084336121456,0.0
543523.2936376977,3617751.2368613081,-47500.0,-2410.3548979466782,-655.2579928873871,-43.641090225622833,-1714.6063230765742,-352.10326526473108,-867.2052910987519,1967.1638170980639,-2399.7035362505349,252.3512399337485,-252.3512399337485,2399.7035362505349,3848.3886555579697,0.0
548523.2936376977,3617751.2368613081,-47500.0,-2564.8109161241919,-736.86396707499705,-57.553129328430927,-1921.5656441067142,-408.45077325936086,-1011.3848461673535,2174.5720555274706,-2596.1779095880793,249.6360726354003,-249.6360726354003,2596.1779095880793,4243.9698100294572,0.0
553523.2936376977,3617751.2368613081,-47500.0,-2719.7910101420034,-830.01319280995006,-76.975164954823541,-2154.8754511631305,-475.18728040575326,-1182.0049764977289,2407.9006001312455,-2804.0311515007352,239.77623403762732,-239.77623403762732,2804.0311515007352,4686.1301055126132,0.0
558523.2936376977,3617751.2368613081,-47500.0,-2870.7739611228931,-936.28195485542005,-103.93197744359691,-2417.2287226964559,-554.37587813691482,-1384.0734153658746,2670.5308347882128,-3021.0211988022088,219.97347417327319,-219.97347417327319,3021.0211988022088,5180.0657545513113,0.0
563523.2936376977,3617751.2368613081,-47500.0,-3011.2339826542234,-1057.34115663066,-141.17043204223975,-2711.1377546920835,-648.4841466112324,-1623.5011002086276,2966.1891841142024,-3243.3048809047978,186.49804246142207,-186.49804246142207,3243.3048809047978,5731.1862278383005,0.0
568523.2936376977,3617751.2368613081,-47500.0,-3131.8952736276519,-1194.8653290392124,-192.40749488001259,-3038.6017595942772,-760.44310144972326,-1907.2345498284058,3298.9022068464874,-3464.7232661828484,134.40083753016711,-134.40083753016711,3464.7232661828484,6344.8987079841354,0.0
573523.2936376977,3617751.2368613081,-47500.0,-3219.7158587822878,-1350.355171907881,-262.65224289916353,-3400.532776131688,-893.69102695456138,-2243.376799996985,3672.8662209323547,-3675.7776775672774,57.149468121560858,-57.149468121560858,3675.7776775672774,7026.2126490094197,0.0
578523.2936376977,3617751.2368613081,-47500.0,-3256.543096767165,-1524.8127579761972,-358.6103241863463,-3795.7788888803539,-1052.1685025814397,-2641.2469319488655,4092.1629295438584,-3862.1839366367817,-53.81074403163575,53.81074403163575,3862.1839366367817,7779.0530553475173,0.0
583523.2936376977,3617751.2368613081,-47500.0,-3217.4145692618845,-1718.172489228589,-489.16344013098097,-4219.4649489472149,-1240.1888834749313,-3111.234003674298,4560.1836005193672,-4002.863912165375,-209.54727626559816,209.54727626559816,4002.863912165375,8605.0653781740184,0.0
588523.2936376977,3617751.2368613081,-47500.0,-3068.6408587411502,-1928.3530539509798,-665.8779290031938,-4660.2334404274943,-1462.0272295029361,-3664.1027707377852,5078.5422653121113,-4067.2872653813401,-424.09836983265836,424.09836983265836,4067.2872653813401,9501.5858104152467,0.0
593523.2936376977,3617751.2368613081,-47500.0,-2766.2010588091903,-2149.7817893525817,-903.41698382785216,-5095.8469563544759,-1720.9265477775443,-4308.9976471450464,5645.1459696231968,-4012.2950763191157,-714.69793330331959,714.69793330331959,4012.2950763191157,10458.3220987148,0.0
598523.2936376977,3617751.2368613081,-47500.0,-2255.8095910377338,-2371.3334102270478,-1219.585381895103,-5486.7249904617884,-2016.9995982407872,-5048.6683227396697,6251.0081062169274,-3779.1488334955193,-1101.3618371900047,1101.3618371900047,3779.1488334955193,11452.284936444925,0.0
603523.2936376977,3617751.2368613081,-47500.0,-1477.4322286927911,-2574.0123575918224,-1634.5212666925902,-5767.8476158258818,-2343.2964032512323,-5869.4609231759059,6875.5083440870367,-3292.8803695400175,-1605.1589533846543,1605.1589533846543,3292.8803695400175,12441.004170334516,0.0
608523.2936376977,3617751.2368613081,-47500.0,-378.74388068674455,-2729.6485778538804,-2168.3224338115974,-5841.9799765162988,-2679.4315252573151,-6723.0325280821498,7480.4486017118688,-2468.2682822141833,-2244.2837709824444,2244.2837709824444,2468.2682822141833,13355.75460430752,0.0
613523.2936376977,3617751.2368613081,-47500.0,1057.6128319446807,-2803.5266173628579,-2836.4019764027089,-5582.2611132838747,-2983.4632575766914,-7498.6444263906797,8004.9870673553878,-1229.2458565340364,-3027.3537442583502,3027.3537442583502,1229.2458565340364,14100.427584006728,0.0
618523.2936376977,3617751.2368613081,-47500.0,2773.1119985745127,-2765.3858016882573,-3642.5598929784469,-4858.8492448775833,-3186.4403382315136,-7993.4258349919046,8367.048783503893,451.79209366286182,-3944.8147409249323,3944.8147409249323,-451.79209366286182,14568.189267398069,0.0
623523.2936376977,3617751.2368613081,-47500.0,4594.5295299680438,-2611.4912071870026,-4571.48365792607,-3605.2903201246477,-3200.38016692882,-7906.9090203185378,8483.2025477366951,2497.9328362461902,-4962.1312638565714,4962.1312638565714,-2497.9328362461902,14693.356541616979,0.0
628523.2936376977,3617751.2368613081,-47500.0,6236.8960970748449,-2390.2338943517843,-5584.1348888870871,-1919.6895529145388,-2954.1898455851019,-6908.579752329214,8335.1321635393488,4682.1618709915074,-6020.1905469421672,6020.1905469421672,-4682.1618709915074,14543.872339113286,0.0
633523.2936376977,3617751.2368613081,-47500.0,7394.7613582676795,-2205.3147395001001,-6618.0197963905975,-142.20379759499855,-2459.0537691616091,-4820.1702050219501,8151.1942252108583,6646.5494607087394,-7043.8740010074862,7043.8740010074862,-6646.5494607087394,14394.067088508878,0.0
638523.2936376977,3617751.2368613081,-47500.0,7913.8097934532034,-2164.7164462714254,-7588.0961210787309,1203.0797627819832,-1864.3212544345345,-1868.7404355888484,8374.4961414314294,8028.9490502806593,-7948.6326535944581,7948.6326535944581,-8028.9490502806593,14600.90677171346,0.0
643523.2936376977,3617751.2368613081,-47500.0,7922.6518005814623,-2285.2886697889262,-8382.3461496360269,1669.3642969136815,-1427.0622047032471,1181.9950968360959,8768.1543965674682,8652.9481035813351,-8633.8852516401403,8633.8852516401403,-8652.9481035813351,15215.797751191389,0.0
648523.2936376977,3617751.2368613081,-47500.0,7761.9505999051225,-2438.0095198271192,-8862.456109078028,1222.8819122122995,-1361.183321814895,3256.3314066548692,8908.6032879719369,8632.5861813480406,-8978.5445569325711,8978.5445569325711,-8632.5861813480406,15800.149007923594,0.0
653523.2936376977,3617751.2368613081,-47500.0,7711.6288727981491,-2422.1854910867278,-8897.1483322799922,350.89054407219817,-1669.2242544066141,3530.2854365541816,8787.7933390074559,8272.6722561602164,-8876.1427297854298,8876.1427297854298,-8272.6722561602164,15818.260354577596,0.0
658523.2936376977,3617751.2368613081,-47500.0,7755.674604787896,-2124.8134660516944,-8429.3845682342107,-223.8353739740287,-2130.3825825157687,1937.2536002969453,8574.4613780406144,7837.1064374360403,-8305.5030465440832,8305.5030465440832,-7837.1064374360403,15131.063037097481,0.0
663523.2936376977,3617751.2368613081,-47500.0,7613.5210576451727,-1604.8845849708348,-7524.843584246144,-8.4279923647744646,-2471.5884729075115,-812.99233653922556,8135.6630724138486,7393.1778625657244,-7365.4230410161726,7365.4230410161726,-7393.1778625657244,14094.892870004884,0.0
668523.2936376977,3617751.2368613081,-47500.0,6992.083923401643,-1025.7146099848997,-6350.8714516301225,1001.4171719120163,-2547.130486037538,-3702.183963004728,7556.265054722664,6847.7133311116158,-6227.0997194657139,6227.0997194657139,-6847.7133311116158,13241.491085526277,0.0
673523.2936376977,3617751.2368613081,-47500.0,5812.8191704356432,-530.74555834296359,-5102.254747109524,2431.1335255136223,-2374.0188920937344,-5950.2299787480724,7248.3887637258977,6098.1191027475161,-5054.3600460026391,5054.3600460026391,-6098.1191027475161,12829.567929291883,0.0
678523.2936376977,3617751.2368613081,-47500.0,4238.8191149093409,-181.87954406122142,-3932.971432793946,3832.0741058800568,-2052.6322666371143,-7258.2605699136857,7295.6907091801768,5141.2920653095516,-3960.1860291302346,3960.1860291302346,-5141.2920653095516,12720.172521263497,0.0
683523.2936376977,3617751.2368613081,-47500.0,2540.7660255070396,26.557121405430983,-2929.46326186427,4909.8170597653016,-1683.2448053665269,-7711.9797338144563,7297.6529944687736,4069.0716499039763,-3005.4402970614437,3005.4402970614437,-4069.0716499039763,12640.344128252464,0.0
688523.2936376977,3617751.2368613081,-47500.0,953.29856376479722,129.50081722130417,-2119.261956061961,5569.7542586653781,-1330.770278408361,-7560.1222069949999,7123.0562262449275,3000.9143674933398,-2212.5073991435843,2212.5073991435843,-3000.9143674933398,12417.351098826362,0.0
693523.2936376977,3617751.2368613081,-47500.0,-387.91789496519704,164.26204682169663,-1492.9206775942339,5850.0702766680242,-1025.6356439374665,-7051.5430507553347,6799.8288049536895,2028.9836643381632,-1578.601955904006,1578.601955904006,-2028.9836643381632,12007.010670239251,0.0
698523.2936376977,3617751.2368613081,-47500.0,-1438.3151399575804,159.93794725200328,-1023.8203533575058,5841.3049467915716,-776.07214753736855,-6371.1732015710322,6382.5092783877826,1201.3293875338898,-1086.5687300542083,1086.5687300542083,-1201.3293875338898,11436.593607950686,0.0
703523.2936376977,3617751.2368613081,-47500.0,-2210.3574839480025,136.10813549460312,-680.91463249152366,5636.574800951892,-579.03196348287122,-5636.876796275109,5917.9659649838213,529.93760694676712,-713.22840066338154,713.22840066338154,-529.93760694676712,10756.171822691553,0.0
708523.2936376977,3617751.2368613081,-47500.0,-2742.7158329537883,104.77128565806355,-435.22856922215414,5311.8172451897863,-426.97588660248721,-4916.718359812151,5439.6000718794212,5.3281344350212976,-434.95340574373336,434.95340574373336,-5.3281344350212976,10014.655821850216,0.0
713523.2936376977,3617751.2368613081,-47500.0,-3081.0773341891222,72.703596328052512,-262.38031062181295,4922.620281569225,-311.41298379084685,-4246.6190176004038,4969.1611978588198,-391.6317527030991,-230.63612741368377,230.63612741368377,391.6317527030991,9251.6059194087502,0.0
718523.2936376977,3617751.2368613081,-47500.0,-3268.7025283201178,43.360825691120745,-143.01291134554958,4507.2761419722019,-224.49947165668178,-3643.0204569700527,4519.8982931397695,-682.57709387792534,-82.770398982904908,82.770398982904908,682.57709387792534,8496.0877077812493,0.0
723523.2936376977,3617751.2368613081,-47500.0,-3342.803197113351,18.210776607741849,-62.30444349932506,4091.0243563537924,-159.61383890801193,-3110.9321725743084,4099.2552439772462,-888.07483930028116,22.540404688596198,-22.540404688596198,888.07483930028116,7767.9887435674873,0.0
728523.2936376977,3617751.2368613081,-47500.0,-3333.7982847845269,-2.3987338959415676,-9.1760020935138318,3689.7477936487671,-111.43835612118581,-2648.863432967421,3710.8231070711067,-1026.1733832347009,96.046290201823581,-96.046290201823581,1026.1733832347009,7079.9073813774075,0.0
733523.2936376977,3617751.2368613081,-47500.0,-3265.7893772455027,-18.702049003902228,24.514002450114631,3312.795745994832,-75.829500511856054,-2251.8425171211893,3355.6815022158457,-1112.0341772144684,145.93989378740025,-145.93989378740025,1112.0341772144684,6438.9547589878675,0.0
738523.2936376977,3617751.2368613081,-47500.0,-3157.4532042076376,-31.197253030993462,44.672902281340811,2965.0429873301036,-49.619483248361867,-1913.2692922675492,3033.3091616089782,-1158.0555555024162,178.41162056049791,-178.41162056049791,1158.0555555024162,5848.2747249237273,0.0
743523.2936376977,3617751.2368613081,-47500.0,-3023.0002388115854,-40.466784987420994,55.54390732732454,2648.3679817822917,-30.415631862903844,-1626.0390346634308,2742.2040807893591,-1174.1901513520515,198.11562497239231,-198.11562497239231,1174.1901513520515,5308.2553483270813,0.0
748523.2936376977,3617751.2368613081,-47500.0,-2873.0593637981447,-47.0829578267074,60.148637500337827,2362.7045260378095,-16.424051997817131,-1383.1997702681108,2480.3061770978757,-1168.3146727067369,208.53959802563816,-208.53959802563816,1168.3146727067369,4817.4578775579557,0.0
753523.2936376977,3617751.2368613081,-47500.0,-2715.44121953182,-51.563323902848573,60.621514229726792,2106.7816076964095,-6.3055930040871981,-1178.3089565968196,2245.2829565817269,-1146.5891034614626,212.29025439050656,-212.29025439050656,1146.5891034614626,4373.3060882755108,0.0
543523.2936376977,3622751.2368613081,-47500.0,-2582.8027048560552,-454.38004402461894,21.682185014619446,-1812.4405273897119,-232.68011104301726,-910.04930586501189,2036.5681615477345,-2555.6639900960113,488.40074393583745,-488.40074393583745,2555.6639900960113,3982.6386095993294,0.0
548523.2936376977,3622751.2368613081,-47500.0,-2763.9190925556354,-509.9131790318188,19.663030773831341,-2039.2377782522281,-268.49742086093408,-1064.8906076296523,2256.1762980665567,-2779.0402845309236,520.97023996183839,-520.97023996183839,2779.0402845309236,4401.9792146797927,0.0
553523.2936376977,3622751.2368613081,-47500.0,-2950.2189064507761,-573.50428168635312,14.599179599424541,-2297.082421131458,-310.80104515104597,-1249.2339911946392,2504.4089203933149,-3019.2051761011717,552.33361492363906,-552.33361492363906,3019.2051761011717,4873.0546298191157,0.0
558523.2936376977,3622751.2368613081,-47500.0,-3137.9874971299873,-646.40658232487544,5.0115951865473445,-2589.9261277903197,-360.90693292208954,-1469.0929618684374,2785.3657125413674,-3275.1000007098246,580.69488898439886,-580.69488898439886,3275.1000007098246,5402.3843021923867,0.0
563523.2936376977,3622751.2368613081,-47500.0,-3321.5816681197389,-730.03861702448967,-11.186075049091976,-2921.9077832942667,-420.42347664906481,-1731.7652145489662,3103.7107971566734,-3544.310465838048,603.44283869408241,-603.44283869408241,3544.310465838048,5997.0898013448996,0.0
568523.2936376977,3622751.2368613081,-47500.0,-3492.6265514282868,-825.96814997510876,-36.922291885662169,-3297.1268982868851,-491.3207008977152,-2046.133272508237,3464.7000208061281,-3822.3714569981757,616.83012583791128,-616.83012583791128,3822.3714569981757,6664.8013734807218,0.0
573523.2936376977,3622751.2368613081,-47500.0,-3638.8694441741568,-935.85429189668616,-76.287018029381059,-3719.190549936262,-576.01242411408293,-2423.0370658143365,3874.1423652324065,-4101.7246110565566,615.52797366856157,-615.52797366856157,4101.7246110565566,7413.4145032132446,0.0
578523.2936376977,3622751.2368613081,-47500.0,-3742.5746173265384,-1061.3025745124894,-134.95758376346609,-4190.34851380072,-677.43797794756813,-2875.7070425505281,4338.2221190150758,-4370.1670901836305,592.02280305498516,-592.02280305498516,4370.1670901836305,8250.5728244577258,0.0
583523.2936376977,3622751.2368613081,-47500.0,-3778.3412362193158,-1203.5636724159169,-220.75199449621701,-4709.8784440483341,-799.10983113388636,-3420.1637858778417,4863.0333071019595,-4608.563934255465,535.81303137360646,-535.81303137360646,4608.563934255465,9182.6344278344295,0.0
588523.2936376977,3622751.2368613081,-47500.0,-3710.3404672735714,-1362.9549937179906,-344.31231286385508,-5271.1516295447491,-945.03048879287132,-4075.2690626609351,5453.5536661498554,-4787.5737669581431,432.3950444006241,-432.3950444006241,4787.5737669581431,10212.687387085572,0.0
593523.2936376977,3622751.2368613081,-47500.0,-3489.3521851765004,-1537.8477609705126,-519.87443494148431,-5856.5473685374754,-1119.2663291065919,-4861.624324860898,6111.6239854366868,-4863.2815903070114,262.10962966851866,-262.10962966851866,4863.2815903070114,11336.952867261383,0.0
598523.2936376977,3622751.2368613081,-47500.0,-3050.8988170896209,-1723.0780831784241,-765.9718700105085,-6429.2626450048729,-1324.7603682859183,-5797.5345279503717,6832.3096912571955,-4772.1881053212019,-0.87530463237999356,0.87530463237999356,4772.1881053212019,12538.699280583978,0.0
603523.2936376977,3622751.2368613081,-47500.0,-2317.5835713523638,-1907.8658721406678,-1105.7112683565028,-6921.7145264271285,-1560.7046429936349,-6888.7092987969263,7597.9966026924458,-4427.4800415572945,-388.76140559769851,388.76140559769851,4427.4800415572945,13779.009217638117,0.0
608523.2936376977,3622751.2368613081,-47500.0,-1211.4062597535392,-2074.0260587800749,-1565.9133575862486,-7222.9072448338111,-1817.7040522004081,-8106.7992745734082,8370.0705779892414,-3721.4221988239706,-938.17237606594995,938.17237606594995,3721.4221988239706,14985.183278465849,0.0
613523.2936376977,3622751.2368613081,-47500.0,316.22040767097138,-2196.688203255178,-2173.9980721054944,-7173.5919723795623,-2070.7712051316721,-9352.7552865525795,9079.7293249695758,-2542.8313274136917,-1684.100539873685,1684.100539873685,2542.8313274136917,16041.642054221737,0.0
618523.2936376977,3622751.2368613081,-47500.0,2232.8648958140234,-2251.4416129030069,-2951.3003977717012,-6588.2981360186222,-2273.2042869713459,-10410.261682635393,9623.0881484271304,-820.70981126885249,-2647.9448394759602,2647.9448394759602,820.70981126885249,16796.026900625999,0.0
623523.2936376977,3622751.2368613081,-47500.0,4366.1576974118962,-2231.1284504814416,-3902.1190022171832,-5329.4045360997125,-2360.3702779415207,-10919.518569146312,9871.1154840303316,1403.588818909669,-3820.1263073299638,3820.1263073299638,-1403.588818909669,17102.21043484164,0.0
628523.2936376977,3622751.2368613081,-47500.0,6386.1182846264946,-2167.023366103941,-4999.6410558969474,-3437.7797297067382,-2277.0641084583954,-10437.418881232521,9710.9212016412457,3903.6593327017954,-5142.47858227913,5142.47858227913,-3903.6593327017954,16917.925262404115,0.0
633523.2936376977,3622751.2368613081,-47500.0,7897.5601071039509,-2131.6826497677353,-6172.2008062569012,-1253.8474835917257,-2031.1337402246832,-8652.0192509520202,9158.7901903820712,6266.1256484133801,-6499.3229863845763,6499.3229863845763,-6266.1256484133801,16423.253344253011,0.0
638523.2936376977,3622751.2368613081,-47500.0,8650.4262624870353,-2194.4072247039508,-7295.075395714136,620.6009444652658,-1736.8396004484039,-5708.7936227036789,8773.0986040914086,8030.0517258679583,-7723.9340438149711,7723.9340438149711,-8030.0517258679583,16004.149322801855,0.0
643523.2936376977,3622751.2368613081,-47500.0,8723.0957047977081,-2342.0292212232466,-8196.6921248662529,1623.1703880636608,-1576.5489003251719,-2396.6034521283241,9065.7697556098301,8927.3420754264025,-8623.3484914607161,8623.3484914607161,-8927.3420754264025,15924.818596364137,0.0
648523.2936376977,3622751.2368613081,-47500.0,8464.8368988404454,-2448.9940123131832,-8694.3245700893422,1634.6598537053624,-1662.7701615087269,113.33619491309865,9222.8500952171635,9033.1254023034107,-9027.6913327636848,9027.6913327636848,-9033.1254023034107,15974.451621164655,0.0
653523.2936376977,3622751.2368613081,-47500.0,8194.8178721942513,-2365.4160687978651,-8663.4915997517655,1104.8822041229705,-1918.9780995258718,924.82771042481079,9026.250510444479,8665.7011699526447,-8861.2726298207126,8861.2726298207126,-8665.7011699526447,15684.09753951249,0.0
658523.2936376977,3622751.2368613081,-47500.0,7949.4044327056226,-2051.8227075725554,-8103.7096029136546,729.12770678421464,-2126.0583460298863,-51.063830663443987,8578.3441906471489,8126.8645613625285,-8192.4459191475053,8192.4459191475053,-8126.8645613625285,14868.177981314939,0.0
663523.2936376977,3622751.2368613081,-47500.0,7519.9437547412463,-1612.2296553682791,-7143.0992362372353,971.34436950781026,-2100.7514747188702,-2141.702440526165,7920.8827262167051,7531.4966464519439,-7205.1437902168673,7205.1437902168673,-7531.4966464519439,13804.019586557002,0.0
668523.2936376977,3622751.2368613081,-47500.0,6690.205090516095,-1198.4662205329723,-5975.3284644047753,1844.9915190668855,-1818.6136107713439,-4417.9987623471679,7165.8571918701136,6838.854160957022,-6103.9100103030305,6103.9100103030305,-6838.854160957022,12944.482059613731,0.0
673523.2936376977,3622751.2368613081,-47500.0,5422.3576236660756,-903.53294009447984,-4782.2013147151247,3040.7192853808187,-1383.9545672014215,-6191.1318081906156,6870.727361708241,5987.2158292028862,-5034.3536654701684,5034.3536654701684,-5987.2158292028862,12507.143954328441,0.0
678523.2936376977,3622751.2368613081,-47500.0,3866.1981763623621,-736.59467328080325,-3689.3771827600976,4193.4902132537036,-925.84679993966824,-7196.4182217100333,7037.6771192561846,4986.4733196155348,-4069.020057592747,4069.020057592747,-4986.4733196155348,12362.812837236326,0.0
683523.2936376977,3622751.2368613081,-47500.0,2248.0685048584605,-660.36174586099787,-2760.4794859459848,5066.0208195932919,-529.17304217170897,-7495.12287456165,7077.8761757913935,3916.6695408074897,-3233.316180902953,3233.316180902953,-3916.6695408074897,12262.059194536261,0.0
688523.2936376977,3622751.2368613081,-47500.0,759.36985052704495,-631.96163514298507,-2011.825083821446,5582.7185533887305,-225.51307169298656,-7287.5773588123275,6920.7567422937345,2876.5047725078612,-2530.3849104861856,2530.3849104861856,-2876.5047725078612,12040.93666252778,0.0
693523.2936376977,3622751.2368613081,-47500.0,-491.01455212533483,-621.27234223484254,-1431.4545783551266,5775.9044828841916,-12.604372667486375,-6778.7373911765881,6614.4122176989713,1940.8079325413071,-1952.8547276726192,1952.8547276726192,-1940.8079325413071,11651.106903573274,0.0
698523.2936376977,3622751.2368613081,-47500.0,-1469.4769163386627,-612.16944529845773,-994.48920347835167,5721.4388274690737,125.80276018772025,-6123.9016264575748,6215.7579157867349,1147.493558846606,-1487.4851982259415,1487.4851982259415,-1147.493558846606,11111.993399897656,0.0
703523.2936376977,3622751.2368613081,-47500.0,-2189.8390799202075,-597.99363520941733,-672.91343250164903,5498.1485390029266,208.4227988894377,-5424.092747260167,5770.4500642025114,504.28918021641323,-1118.1346973379241,1118.1346973379241,-504.28918021641323,10467.072368437479,0.0
708523.2936376977,3622751.2368613081,-47500.0,-2687.9224199386131,-577.19078686123532,-440.69159404300063,5171.1469979203721,251.66506416225016,-4738.9323242928604,5310.588489129922,0.87827546630870756,-828.24589290649578,828.24589290649578,-0.87827546630870756,9761.0203382162417,0.0
713523.2936376977,3622751.2368613081,-47500.0,-3005.455253734197,-550.5311683573168,-275.83129051409031,4788.7359428117279,268.38442398551848,-4100.6334927885036,4857.1407602432546,-381.1528662540893,-602.55499654377445,602.55499654377445,381.1528662540893,9031.1132874218129,0.0
718523.2936376977,3622751.2368613081,-47500.0,-3181.9981634241212,-519.61626377348819,-160.76471290253369,4384.6226965132164,268.05373608874828,-3524.3692965873324,4423.0217513400976,-662.22023317733715,-427.92149245609698,427.92149245609698,662.22023317733715,8305.4056402287424,0.0
723523.2936376977,3622751.2368613081,-47500.0,-3251.761573219916,-486.15432369998013,-81.94891966997875,3981.2976993201264,257.37235467831294,-3015.0491722221846,4015.6233030134963,-861.6635415665819,-293.50438166587128,293.50438166587128,861.6635415665819,7603.5100337611457,0.0
728523.2936376977,3622751.2368613081,-47500.0,-3242.89621631825,-451.64564201552173,-29.191621712725645,3593.0726301711693,240.9215273223088,-2571.5900832367342,3638.6369371109872,-996.48159943453402,-190.58272708350728,190.58272708350728,996.48159943453402,6938.138311054553,0.0
733523.2936376977,3622751.2368613081,-47500.0,-3177.8609245070766,-417.27548149488166,5.0483104703033987,3228.4563410162782,221.73426092753658,-2189.6050669499355,3293.3135791751847,-1081.0059066002723,-112.2394694266419,112.2394694266419,1081.0059066002723,6316.6983393133023,0.0
738523.2936376977,3622751.2368613081,-47500.0,-3074.1781509982598,-383.90838767738978,26.280059059172657,2891.9244243280768,201.74832947799507,-1863.0970178837208,2979.3270840836467,-1127.007978396764,-53.029322561481194,53.029322561481194,1127.007978396764,5742.6994458087729,0.0
743523.2936376977,3622751.2368613081,-47500.0,-2945.2680185849194,-352.1271482716852,38.488332078553043,2585.2147576550055,182.14764031631856,-1585.5123853064756,2695.3691186795136,-1143.9814401182464,-8.6819811265672797,8.6819811265672797,1143.9814401182464,5216.903079420973,0.0
748523.2936376977,3622751.2368613081,-47500.0,-2801.2320979327656,-322.28697677951408,44.530967669253954,2308.2653803994776,163.61032879788138,-1350.3731000321745,2439.558932187359,-1139.4748443861472,24.144701418991076,-24.144701418991076,1139.4748443861472,4738.2208910135432,0.0
753523.2936376977,3622751.2368613081,-47500.0,-2649.539873362467,-294.57006523801067,46.441962019315483,2059.8854686959658,146.48395698694353,-1151.6301037453468,2209.7240373107375,-1119.4184503747815,48.063190497760274,-48.063190497760274,1119.4184503747815,4304.3914617626597,0.0
543523.2936376977,3627751.2368613081,-47500.0,-2697.6760070954433,-231.21782926541403,58.947707994967921,-1877.6681064429333,-101.662658380062,-938.62415066161088,2085.1842809395457,-2647.3330641426878,706.76490110516477,-706.76490110516477,2647.3330641426878,4075.8431241399817,0.0
548523.2936376977,3627751.2368613081,-47500.0,-2895.6910480945012,-255.84117579723292,63.547903790607158,-2117.1932431593436,-113.95097772984269,-1100.3581672547787,2312.9800896844968,-2885.7215621445675,771.82410759663685,-771.82410759663685,2885.7215621445675,4511.13473741505,0.0
553523.2936376977,3627751.2368613081,-47500.0,-3101.7701150580551,-283.81503905199207,66.483669423241054,-2390.7198103701976,-127.92068599249309,-1293.5393012676141,2571.1838329729007,-3143.8594704760098,841.21004264079352,-841.21004264079352,3143.8594704760098,5001.5961722028496,0.0
558523.2936376977,3627751.2368613081,-47500.0,-3312.7059076149112,-315.72368676153849,66.60005014510557,-2702.9959317471057,-143.83009647422105,-1524.8217717817745,2864.3752244665484,-3421.3521002685875,914.1142869611258,-914.1142869611258,3421.3521002685875,5554.6464853793423,0.0
563523.2936376977,3627751.2368613081,-47500.0,-3523.4225733295707,-352.28362855831404,62.216278483389779,-3059.2011381120196,-161.99704114669726,-1802.3950982951944,3197.8524494735166,-3716.6030236687811,989.06387651477621,-989.06387651477621,3716.6030236687811,6178.5867125971545,0.0
568523.2936376977,3627751.2368613081,-47500.0,-3726.1408756454534,-394.37490898654448,50.91000510250803,-3464.7960597866363,-182.82687804559194,-2136.4021454324406,3577.712425182046,-4026.1386407347873,1063.593178728298,-1063.593178728298,4026.1386407347873,6882.5987411187334,0.0
573523.2936376977,3627751.2368613081,-47500.0,-3909.1605954799684,-443.07089884820397,29.218155761003807,-3925.1658480068218,-206.85659170364454,-2539.4950927787013,4010.8860430360123,-4343.5727765330503,1133.7620063984004,-1133.7620063984004,4343.5727765330503,7676.6291092679039,0.0
578523.2936376977,3627751.2368613081,-47500.0,-4055.0958508585682,-499.65271880162618,-7.7732790392476501,-4444.8544551312998,-234.81853637931729,-3027.5498592429444,4505.0504448734855,-4658.0131613548729,1193.4489477648958,-1193.4489477648958,4658.0131613548729,8571.0227986510672,0.0
583523.2936376977,3627751.2368613081,-47500.0,-4138.3807004359487,-565.57759314035559,-66.984025149466916,-5026.0138809369455,-267.71920754741762,-3620.4909106712935,5068.2638820172533,-4951.626542387,1233.3245839364474,-1233.3245839364474,4951.626542387,9575.6486627086015,0.0
588523.2936376977,3627751.2368613081,-47500.0,-4121.9366433044934,-642.34671535825134,-158.07073517752016,-5665.4007073776565,-306.90557720088384,-4342.9573484320135,5708.0271168745712,-5196.0058761756518,1239.3902291376764,-1239.3902291376764,5196.0058761756518,10698.031410561613,0.0
593523.2936376977,3627751.2368613081,-47500.0,-3953.2432360330972,-731.18552897665836,-294.34777956087362,-6348.8573459020054,-354.03004147922616,-5223.990397993126,6429.2599466662832,-5347.0450816800694,1190.9961824676298,-1190.9961824676298,5347.0450816800694,11939.670128116963,0.0
598523.2936376977,3627751.2368613081,-47500.0,-3561.0274616421143,-832.44682920220328,-493.84650487019081,-7041.9105801642509,-410.71798718783708,-6293.7686026780184,7230.4324396677712,-5338.534617489393,1058.4110518923762,-1058.4110518923762,5338.534617489393,13289.385598119283,0.0
603523.2936376977,3627751.2368613081,-47500.0,-2855.8564654974552,-944.74176181480186,-780.29475667925794,-7675.528413126699,-477.5818807822431,-7573.3915052796656,8096.937640241088,-5076.2118100076204,800.47282248934198,-800.47282248934198,5076.2118100076204,14712.501553356462,0.0
608523.2936376977,3627751.2368613081,-47500.0,-1741.3408080337742,-1064.1660992617412,-1183.4356352971486,-8128.7641433484623,-552.15573183219328,-9051.237701567954,8991.171144373533,-4437.3774570742653,363.85185182568148,-363.85185182568148,4437.3774570742653,16135.875429506248,0.0
613523.2936376977,3627751.2368613081,-47500.0,-146.02050212694584,-1184.7709043408597,-1737.4322134556287,-8217.4743436447061,-625.76659948083193,-10639.186707259099,9840.4817960189757,-3286.61395432874,-312.87659711528818,312.87659711528818,3286.61395432874,17432.918063809284,0.0
618523.2936376977,3627751.2368613081,-47500.0,1916.4722232996364,-1302.3559527239288,-2475.155725091181,-7711.6716995577945,-681.18315182283391,-12111.372986312073,10528.09751810657,-1522.4836571538481,-1285.4581188850789,1285.4581188850789,1522.4836571538481,18421.504442654303,0.0
623523.2936376977,3627751.2368613081,-47500.0,4271.2261697669446,-1422.9639688355583,-3415.4892706627438,-6415.3668782532413,-696.54150326448212,-13058.250578008832,10898.149252803869,837.2894482551344,-2576.2327284722933,2576.2327284722933,-837.2894482551344,18899.481163170462,0.0
628523.2936376977,3627751.2368613081,-47500.0,6545.8095235007058,-1571.4780287242309,-4542.0441387117489,-4323.4655052796807,-663.39934290202109,-12937.563660282703,10789.781951630492,3560.1105619501673,-4135.2792985160013,4135.2792985160013,-3560.1105619501673,18743.519581976889,0.0
633523.2936376977,3627751.2368613081,-47500.0,8264.4789395625376,-1784.2429764784531,-5777.3877165153981,-1784.0852329084435,-617.15226963072871,-11316.639213488064,10107.932472902656,6179.2442508956756,-5808.1021383083516,5808.1021383083516,-6179.2442508956756,18052.16987934339,0.0
638523.2936376977,3627751.2368613081,-47500.0,9097.8265634824875,-2069.3949396092512,-6967.7155801333101,520.35603410350654,-648.67124045839921,-8267.2685860774836,8961.1667197896386,8148.9970463118916,-7340.6861188526727,7340.6861188526727,-8148.9970463118916,17192.740519124087,0.0
643523.2936376977,3627751.2368613081,-47500.0,9097.7989751837922,-2357.0739103767751,-7902.1825206186077,1913.5172768930538,-848.96784640813223,-4602.8966800754934,9010.9616619854096,9136.452917654382,-8445.4591486362133,8445.4591486362133,-9136.452917654382,16541.195127716179,0.0
648523.2936376977,3627751.2368613081,-47500.0,8650.6171893771025,-2510.8854087373556,-8381.3852036025364,2195.6414197348172,-1200.9662171923455,-1583.8595218128696,9182.132544961074,9211.7634813612203,-8914.9262967591603,8914.9262967591603,-9211.7634813612203,16069.321925164739,0.0
653523.2936376977,3627751.2368613081,-47500.0,8141.6496588610125,-2429.3613659897269,-8308.2068259615116,1788.1606492697683,-1536.5405712914319,-182.69696147127573,8890.3544699928152,8736.3622299812268,-8720.531296723464,8720.531296723464,-8736.3622299812268,15405.811696774266,0.0
658523.2936376977,3627751.2368613081,-47500.0,7674.2088212291228,-2141.7120455349218,-7734.1407416581424,1381.8079989613361,-1642.7492784841036,-537.08142161765602,8278.8454850249473,8065.7456051912632,-8020.2182475454465,8020.2182475454465,-8065.7456051912632,14349.388152535244,0.0
663523.2936376977,3627751.2368613081,-47500.0,7099.5180597928356,-1787.1107324203283,-6820.8161667780942,1451.2759522337524,-1422.2308677157473,-2039.6220186563169,7470.6495251173174,7359.032464173687,-7061.5345984282039,7061.5345984282039,-7359.032464173687,13116.700187895502,0.0
668523.2936376977,3627751.2368613081,-47500.0,6239.8254245013186,-1504.985416135685,-5755.1559720306768,2055.9288259066325,-947.04077977920849,-3849.9967269169315,6521.7583654043447,6606.3401762230633,-6057.698578367902,6057.698578367902,-6606.3401762230633,12117.053799725407,0.0
673523.2936376977,3627751.2368613081,-47500.0,5053.9396618919136,-1353.0782119239668,-4686.0309413067735,2964.059794637993,-379.96546062017649,-5341.322389668795,6075.7529785911493,5757.1358492386453,-5125.7763852515191,5125.7763852515191,-5757.1358492386453,11574.173329968577,0.0
678523.2936376977,3627751.2368613081,-47500.0,3649.0125013758352,-1309.2365653519037,-3706.2734817012406,3881.9521916390286,134.02242282589813,-6246.9379964656482,6409.5901224683694,4809.2619463980773,-4301.7715469519935,4301.7715469519935,-4809.2619463980773,11386.279805042488,0.0
683523.2936376977,3627751.2368613081,-47500.0,2197.4812412780429,-1319.3936083864467,-2861.5183194654828,4606.0389374242022,519.97867691976012,-6577.5224808573939,6518.8783456013207,3817.0301852184352,-3584.2432363729563,3584.2432363729563,-3817.0301852184352,11308.481018129642,0.0
688523.2936376977,3627751.2368613081,-47500.0,851.81997527585145,-1337.2161447321555,-2164.9016119014459,5057.2273010054796,765.82510974210322,-6472.4480505630809,6425.152065121044,2854.8182162398939,-2963.8837708251735,2963.8837708251735,-2854.8182162398939,11157.991891755632,0.0
693523.2936376977,3627751.2368613081,-47500.0,-295.49598770962785,-1337.3764654142963,-1609.6611503599277,5245.69787845275,893.29181322079739,-6090.3153581570068,6183.1903270532075,1982.9865118693328,-2432.5233435713922,2432.5233435713922,-1982.9865118693328,10862.931868873522,0.0
698523.2936376977,3627751.2368613081,-47500.0,-1210.8158525526005,-1312.0368594621748,-1178.6334331562896,5223.086639711496,934.01850966887412,-5559.7700059085973,5846.2652649404072,1234.7673745911811,-1982.6827605291364,1982.6827605291364,-1234.7673745911811,10424.86421165196,0.0
703523.2936376977,3627751.2368613081,-47500.0,-1900.2923707685425,-1263.1528096368042,-850.86570130173766,5049.5245937120699,917.26433511654989,-4969.9512709305145,5456.9655182581537,619.1829686896109,-1606.1920429268971,1606.1920429268971,-619.1829686896109,9876.7082838538499,0.0
708523.2936376977,3627751.2368613081,-47500.0,-2390.5033165997575,-1196.5354593589332,-605.67480942355655,4778.0964914840561,865.85759729101972,-4377.0594008443259,5046.0725212102689,129.60230918902403,-1294.0912656827697,1294.0912656827697,-129.60230918902403,9258.1055030069965,0.0
713523.2936376977,3627751.2368613081,-47500.0,-2715.1441555167712,-1118.584440238526,-424.71289726785886,4450.2913517054722,796.06719995787364,-3813.8980027907237,4634.4708842735381,-248.42748234842895,-1037.2656859206086,1037.2656859206086,248.42748234842895,8604.6555583678946,0.0
718523.2936376977,3627751.2368613081,-47500.0,-2907.7122924522014,-1034.8787727273912,-292.70943403992891,4096.4172166661583,718.79337508991568,-3297.7775478646686,4235.6316986565635,-531.97483293510504,-827.09328494964825,827.09328494964825,531.97483293510504,7944.5093379513792,0.0
723523.2936376977,3627751.2368613081,-47500.0,-2998.18918786212,-949.75496463926538,-197.46679539539318,3737.5862383522963,640.94436606403099,-2836.1102683436484,3857.7504491298214,-737.85293521996198,-655.83221989329934,655.83221989329934,737.85293521996198,7298.1889961602383,0.0
728523.2936376977,3627751.2368613081,-47500.0,-3011.9312026545849,-866.32659155835472,-129.50766979146516,3387.8474092524866,566.61859973725814,-2430.1806284354279,3505.3616254293979,-881.27654460579845,-516.7609096611003,516.7609096611003,881.27654460579845,6679.6117413803167,0.0
733523.2936376977,3627751.2368613081,-47500.0,-2969.6360831703905,-786.66914969798665,-81.60886642242663,3056.0179719209514,498.01594384906531,-2077.6546842894472,3180.5017280922211,-975.37560207575859,-404.16497093528881,404.16497093528881,975.37560207575859,6097.4263170767681,0.0
738523.2936376977,3627751.2368613081,-47500.0,-2887.7763585223606,-712.0433355351131,-48.340697748953865,2747.1413137301001,436.10196683767163,-1774.2386415433132,2883.5369308895201,-1031.1459713338888,-313.25009483010496,313.25009483010496,1031.1459713338888,5556.3000746798498,0.0
743523.2936376977,3627751.2368613081,-47500.0,-2779.1959755727307,-643.10441325263162,-25.663132484636733,2463.609273029906,381.07449167532474,-1514.7555912628425,2613.7505740901261,-1057.6040170106112,-240.02929359363515,240.02929359363515,1057.6040170106112,5058.0223003900455,0.0
748523.2936376977,3627751.2368613081,-47500.0,-2653.727710645057,-580.07810583646881,-10.593598767679358,2206.0085917393767,332.68053854330276,-1293.8221586684458,2369.7590196895985,-1062.0241209568408,-181.20792193666017,181.20792193666017,1062.0241209568408,4602.3918628880892,0.0
753523.2936376977,3627751.2368613081,-47500.0,-2518.7651477635677,-522.8996311867561,-0.94402590616638338,1973.7463636037057,290.42535318078075,-1106.249952532514,2149.8026202720225,-1050.1968583240323,-134.07694934918663,134.07694934918663,1050.1968583240323,4187.8990721655937,0.0
543523.2936376977,3632751.2368613081,-47500.0,-2749.557060363712,3.2518076043904438,64.713146387547411,-1907.4480869133142,35.249708023183501,-951.76054152340691,2110.693429972669,-2669.918762730691,895.88922415605055,-895.88922415605055,2669.918762730691,4124.50456422365,0.0
548523.2936376977,3632751.2368613081,-47500.0,-2953.3243855043615,11.832007809904455,69.702749454795097,-2151.7250936443061,47.92647228318075,-1116.2068559219031,2342.0747393717525,-2910.1097857083469,987.78475712128989,-987.78475712128989,2910.1097857083469,4566.9586378114263,0.0
553523.2936376977,3632751.2368613081,-47500.0,-3165.848233494944,22.331011481951261,73.013565003934616,-2430.9075439299422,64.146034772863601,-1312.7618230200633,2604.5446512623453,-3170.1362639795802,1088.3230477750053,-1088.3230477750053,3170.1362639795802,5065.9686966281934,0.0
558523.2936376977,3632751.2368613081,-47500.0,-3383.994702278922,34.995113104436122,73.478563785548445,-2749.9525179145598,84.853469624605054,-1548.2768528660299,2902.8549645717021,-3449.591429201304,1197.4110718812283,-1197.4110718812283,3449.591429201304,5629.3007452010097,0.0
563523.2936376977,3632751.2368613081,-47500.0,-3602.7580566754345,50.023736908566448,69.405841328475844,-3114.3108669272115,111.22752689778795,-1831.2167217432414,3242.5327795132844,-3746.8648602531707,1314.3876740711262,-1314.3876740711262,3746.8648602531707,6265.7142130631828,0.0
568523.2936376977,3632751.2368613081,-47500.0,-3814.4102126919902,67.508202457718099,58.366862076632557,-3529.7976068335779,144.72302725964781,-2172.1185722319942,3629.9814581868714,-4058.4645528204264,1437.6855862553666,-1437.6855862553666,4058.4645528204264,6984.9992454974254,0.0
573523.2936376977,3632751.2368613081,-47500.0,-4007.2510846045575,87.332868838131844,36.904675699817652,-4002.2598906624489,187.10836825733475,-2584.2141782780536,4072.5436093451758,-4377.9736442419635,1564.3145640941789,-1564.3145640941789,4377.9736442419635,7797.9105765643908,0.0
578523.2936376977,3632751.2368613081,-47500.0,-4163.7829397981859,109.02242684648203,0.13469785452962998,-4536.8375736840071,240.48737851898537,-3084.2541359714942,4578.4521158159632,-4694.4379476585391,1689.0715972810613,-1689.0715972810613,4694.4379476585391,8715.8688161972113,0.0
583523.2936376977,3632751.2368613081,-47500.0,-4258.0939914177115,131.50911670027847,-58.79484783890976,-5136.416558162462,307.28472363499344,-3693.5036961120886,5156.506605703431,-4989.8770242897481,1803.3330750884493,-1803.3330750884493,4989.8770242897481,9750.1524490453849,0.0
588523.2936376977,3632751.2368613081,-47500.0,-4252.3063905215959,152.79094113884915,-149.41949831443586,-5798.5618331975384,390.16308584880557,-4438.6614650733636,5815.1699695817151,-5235.5298214967452,1893.2363203806426,-1893.2363203806426,5235.5298214967452,10910.072308318413,0.0
593523.2936376977,3632751.2368613081,-47500.0,-4092.2844645409118,169.43257337244978,-284.87699891200799,-6509.7689448608653,491.81472985782716,-5351.8796979182553,6560.5493753315823,-5386.4883619547918,1937.028167869149,-1937.028167869149,5386.4883619547918,12199.252705768664,0.0
598523.2936376977,3632751.2368613081,-47500.0,-3703.7956497838031,175.85887608737124,-483.00370872021801,-7235.4543655343541,614.53960660660903,-6467.7977004090981,7392.4240509225001,-5374.8525389267816,1901.4739782029851,-1901.4739782029851,5374.8525389267816,13608.697183697241,0.0
603523.2936376977,3632751.2368613081,-47500.0,-2992.5554256520441,163.3661473284557,-767.43611050483639,-7904.4413469224919,759.44138326121197,-7813.2552902581856,8297.3086206975331,-5103.1441986477457,1737.7084163023956,-1737.7084163023956,5103.1441986477457,15105.225377048799,0.0
608523.2936376977,3632751.2368613081,-47500.0,-1855.3873029964032,118.80367902351159,-1168.1725700563343,-8389.3890851082706,924.92535162781849,-9382.3705542433436,9237.8341300460943,-4443.3213427492583,1378.2162069292854,-1378.2162069292854,4443.3213427492583,16614.895307021154,0.0
613523.2936376977,3632751.2368613081,-47500.0,-213.84106958623974,23.038783025766783,-1720.2700041768348,-8492.6904155559114,1103.8861671423099,-11088.850387819364,10139.472204732694,-3252.8316240140157,739.23939374157635,-739.23939374157635,3252.8316240140157,18005.204385280387,0.0
618523.2936376977,3632751.2368613081,-47500.0,1920.2721701517441,-150.00739820254501,-2458.0576599045753,-7962.5440166956414,1278.599405190537,-12696.912893414819,10879.822808210272,-1424.4779238653382,-263.56839510755844,263.56839510755844,1424.4779238653382,19079.079944192825,0.0
623523.2936376977,3632751.2368613081,-47500.0,4359.2070630539765,-431.11587521230155,-3401.0260977729004,-6578.1446519280535,1412.6042522472464,-13765.449858438154,11292.484703206508,1020.371014108116,-1677.2946496773197,1677.2946496773197,-1020.371014108116,19606.956412469197,0.0
628523.2936376977,3632751.2368613081,-47500.0,6695.2796561713849,-844.50510017048111,-4528.8553521425101,-4323.8256410382101,1442.2095390528607,-13696.848680871011,11202.60073453344,3825.2325904336572,-3452.2075526062367,3452.2075526062367,-3825.2325904336572,19426.836577682501,0.0
633523.2936376977,3632751.2368613081,-47500.0,8403.5403733273761,-1381.1706920251693,-5751.4310155309995,-1574.5303518200237,1279.9466985695753,-12000.362856755024,10504.262983174387,6477.6683686163424,-5388.1086562882438,5388.1086562882438,-6477.6683686163424,18599.487659088572,0.0
638523.2936376977,3632751.2368613081,-47500.0,9124.0848261024639,-1963.9137214205791,-6896.2430245429714,920.50136656063671,852.86197381732825,-8728.5524591604008,9301.8956255414341,8387.9780802556343,-7144.3543390127497,7144.3543390127497,-8387.9780802556343,17483.060956965721,0.0
643523.2936376977,3632751.2368613081,-47500.0,8928.6103252740813,-2442.1954252255068,-7744.6777936786493,2415.6622305844871,181.2635552604479,-4732.7222889488339,8925.097109842256,9219.9849284584634,-8355.7015526711075,8355.7015526711075,-9219.9849284584634,16502.999959990535,0.0
648523.2936376977,3632751.2368613081,-47500.0,8264.4573281667963,-2660.7373712857357,-8120.9981371481481,2682.0859619005173,-561.71191151599999,-1329.3539476507765,8964.9160451967,9092.5101762223276,-8807.6626166228889,8807.6626166228889,-9092.5101762223276,15719.137521245764,0.0
653523.2936376977,3632751.2368613081,-47500.0,7581.2419824253529,-2571.0752132324319,-7978.938247096241,2148.9637578286274,-1104.7130590009235,477.27276452930761,8550.8946167825616,8433.0524101526335,-8541.8453943631266,8541.8453943631266,-8433.0524101526335,14811.925527440117,0.0
658523.2936376977,3632751.2368613081,-47500.0,7027.1958031247977,-2275.5447635054611,-7413.3331329726443,1524.464225145842,-1239.0236942463505,524.99363592028851,7830.1786947489518,7642.1835386350858,-7803.2349075096854,7803.2349075096854,-7642.1835386350858,13565.548091091132,0.0
663523.2936376977,3632751.2368613081,-47500.0,6476.8858751806301,-1951.6577154541155,-6591.0920947584264,1308.9574114484572,-943.31353280362589,-631.40080164372682,6998.4325043125027,6895.5621878387074,-6882.6212347779374,6882.6212347779374,-6895.5621878387074,12150.941827665984,0.0
668523.2936376977,3632751.2368613081,-47500.0,5750.6300921549846,-1735.2652294142576,-5668.3527825874853,1608.9446116221466,-367.3845305665638,-2219.1992009718665,6128.1361201295613,6180.7066130626336,-5984.3929411296867,5984.3929411296867,-6180.7066130626336,10959.400684405768,0.0
673523.2936376977,3632751.2368613081,-47500.0,4775.9032794830673,-1663.5123977929759,-4751.2307067132388,2253.1746745229516,281.58770619394591,-3648.5737708303177,5471.8789545249601,5430.5548712751506,-5192.2096211099533,5192.2096211099533,-5430.5548712751506,10258.998863613766,0.0
678523.2936376977,3632751.2368613081,-47500.0,3608.9011999109071,-1696.2107092172259,-3899.4100689208904,2993.9442745002252,843.15773704611365,-4637.1255792186594,5583.9544266853409,4615.3062996733406,-4508.9950730034598,4508.9950730034598,-4615.3062996733406,10005.658605919518,0.0
683523.2936376977,3632751.2368613081,-47500.0,2373.3265845524456,-1768.440670090843,-3142.9743711791934,3640.7016917140054,1241.5612050922437,-5144.589888531671,5729.958895489478,3758.8849385376484,-3910.635907903868,3910.635907903868,-3758.8849385376484,9962.3416332658944,0.0
688523.2936376977,3632751.2368613081,-47500.0,1192.1671197281619,-1828.741327566629,-2494.3410181375752,4098.6791137186401,1470.0253753755253,-5255.4328970971874,5717.371919435468,2912.817147990786,-3376.7658813291146,3376.7658813291146,-2912.817147990786,9914.9421616911713,0.0
693523.2936376977,3632751.2368613081,-47500.0,150.25350113943719,-1850.795710015399,-1954.1991668194883,4350.0230700643651,1558.0162862726554,-5088.6117536905886,5567.483760363727,2126.7480912135184,-2897.5348639178451,2897.5348639178451,-2126.7480912135184,9755.827329505355,0.0
698523.2936376977,3632751.2368613081,-47500.0,-711.85025626423169,-1828.6979923334736,-1515.2390463356132,4419.6433287441314,1545.2517539155122,-4751.5711484545818,5320.2591461002585,1433.3532272785965,-2469.6940798050646,2469.6940798050646,-1433.3532272785965,9461.229909762078,0.0
703523.2936376977,3632751.2368613081,-47500.0,-1387.5345228816275,-1767.9966885526778,-1165.4651892971619,4348.187647105573,1468.0350999057382,-4325.7521241634058,5012.290195241907,846.66946277972545,-2091.8812445526441,2091.8812445526441,-846.66946277972545,9049.7486686224347,0.0
708523.2936376977,3632751.2368613081,-47500.0,-1890.5090497922561,-1678.6102407184671,-891.03434446941878,4176.8419197872299,1354.5579226122888,-3867.1943881504358,4672.2575417292746,366.7735959728177,-1762.174714281118,1762.174714281118,-366.7735959728177,8554.3898318978572,0.0
713523.2936376977,3632751.2368613081,-47500.0,-2243.9900718262002,-1570.7748579209933,-678.27033883544686,3940.906268648263,1224.724771894038,-3411.8745471598577,4320.9894133225798,-14.55635848823033,-1477.5092447598477,1477.5092447598477,14.55635848823033,8008.6261067177966,0.0
718523.2936376977,3632751.2368613081,-47500.0,-2473.8684169005214,-1453.2481581191228,-514.81661193290461,3668.1410592167549,1091.6214669818878,-2981.2900955331775,3972.8443489990955,-309.44637409703273,-1233.9283545042856,1233.9283545042856,309.44637409703273,7440.826935871487,0.0
723523.2936376977,3632751.2368613081,-47500.0,-2605.0056027489541,-1332.7873258482589,-390.12397446087056,3379.190948407037,963.2638347443509,-2586.9758368764928,3637.2428424953287,-531.12822598529056,-1027.0257565900631,1027.0257565900631,531.12822598529056,6872.8075859713144,0.0
728523.2936376977,3632751.2368613081,-47500.0,-2659.5160858437366,-1214.2272322695396,-295.51946290310514,3088.7135998101012,844.12327896561158,-2233.855964506598,3319.9799159950026,-692.37616804951983,-852.31923815419725,852.31923815419725,692.37616804951983,6320.1691617230736,0.0
733523.2936376977,3632751.2368613081,-47500.0,-2656.1749623676301,-1100.7872644512736,-224.05468620454906,2806.6192249352825,736.30913976237491,-1922.6444692925459,3024.2548122714816,-804.73988712366804,-705.50316593033699,705.50316593033699,804.73988712366804,5793.2915782445225,0.0
738523.2936376977,3632751.2368613081,-47500.0,-2610.4164228177729,-994.42811168440107,-170.26308262624093,2539.1989260727755,640.42918701560757,-1651.5253753972397,2751.4511346413101,-878.24541349862636,-582.59696985573908,582.59696985573908,878.24541349862636,5298.4604527546117,0.0
743523.2936376977,3632751.2368613081,-47500.0,-2534.6184554418951,-896.18037405638847,-129.89900371076686,2290.0743686430928,556.18891732002567,-1417.3001015171801,2501.717889970158,-921.35593627729463,-480.01845394976198,480.01845394976198,921.35593627729463,4838.9065636381865,0.0
748523.2936376977,3632751.2368613081,-47500.0,-2438.5044296265623,-806.41806652998923,-99.69587271089361,2060.9602190713017,482.79447546049437,-1216.1453787646938,2274.3955970365168,-941.0678555063314,-394.60782895183996,394.60782895183996,941.0678555063314,4415.676187382126,0.0
753523.2936376977,3632751.2368613081,-47500.0,-2329.5707716402035,-725.07285550935012,-77.157286263872635,1852.2564450403167,419.21384972590971,-1044.0932918289859,2068.3246306017754,-943.07011507138373,-323.62024357265153,323.62024357265153,943.07011507138373,4028.3205628286673,0.0
543523.2936376977,3637751.2368613081,-47500.0,-2736.7956450373481,237.18161563170224,38.169934919249634,-1900.880632503895,171.92746494040657,-949.08476730583243,2112.0419293887826,-2622.9574550488201,1046.2599049281889,-1046.2599049281889,2622.9574550488201,4127.1045604337678,0.0
548523.2936376977,3637751.2368613081,-47500.0,-2934.8207389660174,278.43832623889006,37.13449638912379,-2141.6959169241736,209.28612256133275,-1111.9466791504731,2342.1665560838369,-2851.6729929312723,1157.0582925463425,-1157.0582925463425,2851.6729929312723,4567.5439355299914,0.0
553523.2936376977,3637751.2368613081,-47500.0,-3140.0153040273731,326.68022339773108,32.956737882580313,-2416.1921466400086,255.28100312649673,-1306.2507670170323,2602.8909310654517,-3097.4173743182323,1278.9679278318404,-1278.9679278318404,3097.4173743182323,5063.7514644543089,0.0
558523.2936376977,3637751.2368613081,-47500.0,-3348.8574391978564,382.91666697119643,24.100098637181155,-2728.917031380151,312.00836123968537,-1538.5814835625931,2898.8078629394972,-3359.08792461231,1412.1426134807712,-1412.1426134807712,3359.08792461231,5623.2415317076029,0.0
563523.2936376977,3637751.2368613081,-47500.0,-3555.8754165388423,448.17486642332619,8.4127784064358426,-3084.7756693565275,382.07203282995124,-1817.0283864527541,3235.232787789872,-3634.2131387632535,1556.1418332539681,-1556.1418332539681,3634.2131387632535,6254.4407765018568,0.0
568523.2936376977,3637751.2368613081,-47500.0,-3752.7931984757952,523.4026151662548,-17.100989340780792,-3488.8556067540062,468.68958220364277,-2151.599143325021,3618.2858885802689,-3918.2448665040683,1709.5547211209578,-1709.5547211209578,3918.2448665040683,6966.6958830514504,0.0
573523.2936376977,3637751.2368613081,-47500.0,-3927.2920524710471,609.29444541409021,-56.588155783859804,-3946.038717912139,575.80404021693812,-2554.7767415288736,4054.9326867103073,-4203.4931106175427,1869.4214793977574,-1869.4214793977574,4203.4931106175427,7770.1725401619133,0.0
578523.2936376977,3637751.2368613081,-47500.0,-4061.2177360848532,705.99092176900035,-115.75442976578394,-4460.188756598297,708.18158470824562,-3042.2469525690335,4552.9026920592696,-4477.5059098932043,2030.3377375497682,-2030.3377375497682,4477.5059098932043,8675.5031307512181,0.0
583523.2936376977,3637751.2368613081,-47500.0,-4128.0482216046239,812.57184812368769,-202.39434369145337,-5032.5212056994324,871.45046387023615,-3633.7531552979726,5120.3276597678678,-4720.6183446726909,2183.0717804807136,-2183.0717804807136,4720.6183446726909,9692.9128982644597,0.0
588523.2936376977,3637751.2368613081,-47500.0,-4089.5168164327133,926.22182113013764,-327.05933189080173,-5658.4549390930069,1071.9856609888795,-4353.8097722029488,5764.7970462808489,-4902.3309938462789,2312.4558064016651,-2312.4558064016651,4902.3309938462789,10830.317878536767,0.0
593523.2936376977,3637751.2368613081,-47500.0,-3891.653623956412,1040.8892865847981,-503.84870679878748,-6321.8159869587062,1316.4339620164676,-5231.4236305870763,6491.2996872793692,-4976.2612349353049,2394.2689169818523,-2394.2689169818523,4976.2612349353049,12089.520421110194,0.0
598523.2936376977,3637751.2368613081,-47500.0,-3461.5554048466838,1145.2340108794956,-751.23016616634663,-6984.9237219785009,1610.4850192613121,-6296.7345009338196,7298.2605100706323,-4873.9791362994774,2390.9551545910408,-2390.9551545910408,4873.9791362994774,13459.253615376136,0.0
603523.2936376977,3637751.2368613081,-47500.0,-2708.4329067894278,1219.730163151165,-1092.5968577022238,-7573.4936452122256,1956.1592446309126,-7570.2671594581416,8170.7018400008446,-4499.7002824744995,2246.592630981304,-2246.592630981304,4499.7002824744995,14903.711130254727,0.0
608523.2936376977,3637751.2368613081,-47500.0,-1536.2583312591373,1233.2369738519026,-1555.8461713551781,-7958.1924527040001,2346.4831374747378,-9037.7086363456583,9069.9521886693165,-3731.4874397898097,1883.1592752971278,-1883.1592752971278,3731.4874397898097,16346.383518726967,0.0
613523.2936376977,3637751.2368613081,-47500.0,120.8693309840025,1140.5826418940248,-2170.4790665006981,-7942.887470867794,2756.2842426274269,-10602.65779462207,9921.1086305661047,-2440.4739649409312,1203.4599667470022,-1203.4599667470022,2440.4739649409312,17653.199531237049,0.0
618523.2936376977,3637751.2368613081,-47500.0,2232.2027130652755,885.21230707543361,-2959.6521495967349,-7284.7151089721292,3129.129623135856,-12019.971257950901,10603.793419741693,-544.07947456195393,110.7028363931943,-110.7028363931943,544.07947456195393,18628.230802138605,0.0
623523.2936376977,3637751.2368613081,-47500.0,4586.9366983334912,414.07960607912031,-3924.1994816067936,-5784.1647924317012,3365.3133833643287,-12846.055031546653,10958.780389577871,1900.17206200787,-1443.8269438892517,1443.8269438892517,-1900.17206200787,19048.205910112902,0.0
628523.2936376977,3637751.2368613081,-47500.0,6759.3186475612229,-288.52121066049136,-5018.6627834273149,-3461.1264788302055,3325.7489081950771,-12497.846516440481,10829.380361640187,4595.9719028453628,-3386.6359192810414,3386.6359192810414,-4595.9719028453628,18764.819834006503,0.0
633523.2936376977,3637751.2368613081,-47500.0,8227.8899789434654,-1154.620333909683,-6129.5798394373023,-731.5442548821527,2875.3534524784995,-10524.308827016999,10158.507837683614,7008.7401845324002,-5460.8758795204612,5460.8758795204612,-7008.7401845324002,17859.329747394011,0.0
638523.2936376977,3637751.2368613081,-47500.0,8671.311543554586,-2009.1869010535045,-7080.7449371949442,1632.5446163921329,1975.088394881705,-7032.8430336777074,9221.3948168669212,8572.0699427923282,-7256.8280912757655,7256.8280912757655,-8572.0699427923282,16708.801535770355,0.0
643523.2936376977,3637751.2368613081,-47500.0,8225.5845374709934,-2621.3296599174514,-7688.1756389421926,2902.9105375228028,775.15336543600665,-2906.2536167850317,8837.2638823117504,9025.6098912537309,-8378.629856603191,8378.629856603191,-9025.6098912537309,15738.918180096742,0.0
648523.2936376977,3637751.2368613081,-47500.0,7395.0042661484222,-2831.5267010992588,-7846.6892028240482,2896.8039850267592,-392.0949957563185,566.38964091273601,8641.1124932018975,8581.4840577471768,-8656.6157479335816,8656.6157479335816,-8581.4840577471768,14984.919498740152,0.0
653523.2936376977,3637751.2368613081,-47500.0,6655.5359256395141,-2659.2011282467838,-7581.7001605404221,2078.3543253102048,-1166.183617575374,2443.3985239366993,8084.4368736450106,7727.1780069741289,-8226.2960158395035,8226.2960158395035,-7727.1780069741289,14096.966800155777,0.0
658523.2936376977,3637751.2368613081,-47500.0,6157.5097177485804,-2285.00543449411,-7019.1564609706393,1163.4430121659293,-1353.7813544129808,2591.0629815361049,7257.560493262441,6872.7181124554827,-7408.3863714254894,7408.3863714254894,-6872.7181124554827,12828.597589827741,0.0
663523.2936376977,3637751.2368613081,-47500.0,5765.454555002284,-1925.8392579340098,-6305.7683009931006,657.3301880278442,-1004.8592185578303,1528.483123492482,6454.071772905374,6172.1768900483821,-6512.29189786594,6512.29189786594,-6172.1768900483821,11312.513751776583,0.0
668523.2936376977,3637751.2368613081,-47500.0,5277.0786924941267,-1717.9730018132336,-5548.825479617677,690.92333867540458,-334.58083940990576,-33.790130032765433,5730.9707988287128,5582.5653631946798,-5716.5978966133871,5716.5978966133871,-5582.5653631946798,9926.3701195079866,0.0
673523.2936376977,3637751.2368613081,-47500.0,4582.3679962944389,-1684.0356143602946,-4805.4732729016578,1129.7303608990217,413.14700460695087,-1542.8280076443682,5120.6276663865456,5005.1720411200822,-5066.18498248781,5066.18498248781,-5005.1720411200822,8999.7829536693371,0.0
678523.2936376977,3637751.2368613081,-47500.0,3692.5210977409633,-1770.0799443584654,-4101.7377267496813,1753.0175202976341,1061.5809196904877,-2709.272016921157,4858.8870969324689,4378.4600014566013,-4531.4111315195923,4531.4111315195923,-4378.4600014566013,8592.7769483672218,0.0
683523.2936376977,3637751.2368613081,-47500.0,2692.862917862587,-1900.7858369980283,-3451.8812621261109,2373.9022889130388,1527.4431256498406,-3456.6797324058753,4895.0760261320711,3698.1763659203543,-4066.3378411621879,4066.3378411621879,-3698.1763659203543,8516.5623092740807,0.0
688523.2936376977,3637751.2368613081,-47500.0,1685.0776830054212,-2016.4681010918243,-2866.412502183482,2880.8120401912538,1800.724504830403,-3828.2030931656418,4925.008174900865,2996.6941282042162,-3638.5262093788342,3638.5262093788342,-2996.6941282042162,8534.7627705531741,0.0
693523.2936376977,3637751.2368613081,-47500.0,750.73843835762136,-2084.759892173347,-2352.3215760689704,3230.1550114080933,1911.2516261362898,-3911.7594498966032,4860.3292326753017,2315.8250510871612,-3233.9795005466904,3233.9795005466904,-2315.8250510871612,8496.9924796460946,0.0
698523.2936376977,3637751.2368613081,-47500.0,-60.704195757409899,-2096.4367928545557,-1911.8045303387648,3422.431549511095,1901.9499338084663,-3797.6696239717398,4706.6178198251991,1689.6160921361231,-2851.0115389920375,2851.0115389920375,-1689.6160921361231,8345.6863450875935,0.0
703523.2936376977,3637751.2368613081,-47500.0,-728.77048783322834,-2056.3672422504669,-1542.2887765980033,3480.1126037573358,1813.7713347023748,-3561.188939296218,4487.7486496615229,1138.5833804251738,-2493.0733777705786,2493.0733777705786,-1138.5833804251738,8078.9214225601518,0.0
708523.2936376977,3637751.2368613081,-47500.0,-1253.3353239263763,-1975.6744924954237,-1237.686279081878,3432.9937430053483,1679.6737418888838,-3258.6972003055339,4227.5964244721144,670.81175529692064,-2164.1951831065189,2164.1951831065189,-670.81175529692064,7719.0169064964575,0.0
713523.2936376977,3637751.2368613081,-47500.0,-1646.1859394793278,-1866.7728309931388,-989.99791557352489,3310.3372319314499,1523.6493575572904,-2929.605791874204,3945.6837075459221,285.49279700566001,-1867.0183225626533,1867.0183225626533,-285.49279700566001,7294.7896642956412,0.0
718523.2936376977,3637751.2368613081,-47500.0,-1924.7518083824391,-1740.855951378147,-790.66354262092534,3137.4353666437187,1361.9056700961371,-2599.8840633046448,3656.6646870975428,-23.539155293994781,-1602.3762289828617,1602.3762289828617,23.539155293994781,6833.316973255759,0.0
723523.2936376977,3637751.2368613081,-47500.0,-2108.0885096823772,-1606.9457806934736,-631.46170288067424,2934.5896887600511,1204.6397077480192,-2285.5344543287256,3370.9309621895,-265.11833273117225,-1369.5537647201841,1369.5537647201841,265.11833273117225,6356.8608491381729,0.0
728523.2936376977,3637751.2368613081,-47500.0,-2214.5734269885629,-1471.7747039542751,-504.9997245579724,2717.2541305677137,1057.7256714151351,-1995.4956468783671,3095.4651191243693,-448.96570246624776,-1166.7394681644359,1166.7394681644359,448.96570246624776,5882.2810934100862,0.0
733523.2936376977,3637751.2368613081,-47500.0,-2260.7370434246473,-1340.0441054294643,-404.91082035452649,2496.6641528758933,924.08945044713812,-1733.8991674077959,2834.6517948541396,-584.61652535114831,-991.4584728134264,991.4584728134264,584.61652535114831,5421.522276977229,0.0
738523.2936376977,3637751.2368613081,-47500.0,-2260.7923587152877,-1214.8099929622279,-325.87116877671582,2280.610550306882,804.74192218525445,-1501.7475998718587,2590.9619595712129,-680.83650446451475,-840.91713083143009,840.91713083143009,680.83650446451475,4982.474210338286,0.0
743523.2936376977,3637751.2368613081,-47500.0,-2226.5702363035998,-1097.8726249005188,-263.52037851294438,2074.194993536104,699.5163237951474,-1298.1200726001123,2365.4992374903454,-745.35327506707006,-712.25032900954022,712.25032900954022,745.35327506707006,4569.8782550244496,0.0
748523.2936376977,3637751.2368613081,-47500.0,-2167.6735730963687,-990.11806222579128,-214.33982083735748,1880.4954504203595,607.57348100430499,-1121.008751450968,2158.4215944473644,-784.78085388807085,-602.68545743041204,602.68545743041204,784.78085388807085,4186.1392268071413,0.0
753523.2936376977,3637751.2368613081,-47500.0,-2091.7352955679871,-891.79498247338427,-175.52013815732209,1701.1177660439307,527.73531905555444,-967.87872355028412,1969.2587607303069,-804.6558249500149,-509.64117732388763,509.64117732388763,804.6558249500149,3831.9964327988155,0.0
543523.2936376977,3642751.2368613081,-47500.0,-2661.6396409487361,458.92466016803598,-18.76579613844779,-1859.0752349200366,302.3286305780494,-931.0456454321502,2089.4108360553473,-2510.3463756780075,1151.2655102394831,-1151.2655102394831,2510.3463756780075,4084.1794342530393,0.0
548523.2936376977,3642751.2368613081,-47500.0,-2843.1616196556611,529.59535948302209,-31.618624744211914,-2088.6332850342997,362.40878089294887,-1088.2173553362256,2313.5537432553297,-2715.5047545543421,1271.6290548788845,-1271.6290548788845,2715.5047545543421,4513.6574123562268,0.0
553523.2936376977,3642751.2368613081,-47500.0,-3028.235678492179,611.38496557929489,-50.309515375890058,-2348.6857188465951,435.55722019242705,-1274.922763390342,2566.6947039740658,-2932.3941181107248,1403.3937878817969,-1403.3937878817969,2932.3941181107248,4996.0377131843434,0.0
558523.2936376977,3642751.2368613081,-47500.0,-3212.5766239802374,705.78309091386438,-77.020831279564291,-2642.8213284266958,524.77973402701366,-1497.0556338453896,2852.9598806585022,-3158.6754314417485,1546.4075607305601,-1546.4075607305601,3158.6754314417485,5538.022658185173,0.0
563523.2936376977,3642751.2368613081,-47500.0,-3389.829131988216,814.27356454784012,-114.69952774532752,-2974.6832373445541,633.76810698925055,-1761.7414924509333,3177.0477334707871,-3390.3689735624539,1699.754186757591,-1699.754186757591,3390.3689735624539,6146.9729706370426,0.0
568523.2936376977,3642751.2368613081,-47500.0,-3550.7330093237038,938.17531735094474,-167.3106801444564,-3347.6982884531621,767.02982698654239,-2077.629918663089,3544.2589860954999,-3621.1122669163524,1861.3079831483856,-1861.3079831483856,3621.1122669163524,6830.8289408706387,0.0
573523.2936376977,3642751.2368613081,-47500.0,-3681.9490703133329,1078.3628068994706,-240.16408297717726,-3764.5717233695577,930.01562273674165,-2455.2725373116227,3960.4699382795011,-3841.0855637499335,2027.0623097581829,-2027.0623097581829,3841.0855637499335,7597.8976912540293,0.0
578523.2936376977,3642751.2368613081,-47500.0,-3764.4128319480174,1234.7852632022584,-340.32351610975991,-4226.3390547927202,1129.2086756917488,-2907.5799351041205,4431.963415183689,-4035.4401957419964,2190.1099124835723,-2190.1099124835723,4035.4401957419964,8456.3540574555664,0.0
583523.2936376977,3642751.2368613081,-47500.0,-3771.1055235788499,1405.6623876011904,-477.09748945352328,-4730.6141385552219,1372.0991184514075,-3450.2753228665583,4964.9681707586051,-4182.028331489335,2339.1056584167013,-2339.1056584167013,4182.028331489335,9413.201489814508,0.0
588523.2936376977,3642751.2368613081,-47500.0,-3664.2483980793495,1586.1657466920406,-662.57870477679921,-5268.4067045217143,1666.8741009234013,-4102.0271963881933,5564.6197308873734,-4248.2225010609054,2455.980667212486,-2455.980667212486,4248.2225010609054,10472.212723243687,0.0
593523.2936376977,3642751.2368613081,-47500.0,-3392.3562400895635,1766.3308399997311,-912.1302931865539,-5818.569508265894,2021.4794349454824,-4883.3970090089015,6232.8752130170751,-4186.8023989184621,2512.677656454548,-2512.677656454548,4186.8023989184621,11630.09053789025,0.0
598523.2936376977,3642751.2368613081,-47500.0,-2888.6377473383291,1927.9381297370176,-1244.5688543882789,-6338.7724381315129,2441.3914675661499,-5812.6216696674819,6964.7075267574437,-3931.5623585819262,2466.8795643916633,-2466.8795643916633,3931.5623585819262,12869.809507923426,0.0
603523.2936376977,3642751.2368613081,-47500.0,-2074.3403731006888,2040.3444225873766,-1681.5105016974826,-6752.5928209635886,2924.9607733569874,-6894.4018962491,7741.8525506935011,-3395.0187580740976,2257.4611627525301,-2257.4611627525301,3395.0187580740976,14150.212175994568,0.0
608523.2936376977,3642751.2368613081,-47500.0,-873.85182807139381,2056.152660050288,-2244.8735353900474,-6935.4126440301525,3454.7331010395956,-8095.8725202478472,8523.9199652021762,-2473.9961546177419,1802.3063889521381,-1802.3063889521381,2473.9961546177419,15392.349254482133,0.0
613523.2936376977,3642751.2368613081,-47500.0,749.15773499338457,1909.7981993270409,-2950.9329415115735,-6709.5831867139541,3983.4949254032285,-9304.6992302042527,9238.5784959508746,-1073.5562854841846,1004.7376834938177,-1004.7376834938177,1073.5562854841846,16467.323129096367,0.0
618523.2936376977,3642751.2368613081,-47500.0,2729.959040196798,1525.8626769896528,-3799.1125320560204,-5872.1040498161574,4416.9119752003953,-10275.166924947955,9776.7636259032752,838.5236774908949,-220.83370867480329,220.83370867480329,-838.5236774908949,17199.058159241937,0.0
623523.2936376977,3642751.2368613081,-47500.0,4834.244206360614,846.94822078731033,-4755.3408271103754,-4285.925532446312,4603.3555344270562,-10598.93850879385,10005.493408112949,3147.4853258983185,-1894.0050274209032,1894.0050274209032,-3147.4853258983185,17406.249890587456,0.0
628523.2936376977,3642751.2368613081,-47500.0,6647.3561738208045,-114.72374944025856,-5735.5226951630439,-2038.5260505619169,4355.0198220032771,-9781.1074984170027,9817.6364886091105,5520.1888027830719,-3892.1932974246083,3892.1932974246083,-5520.1888027830719,17005.977625522788,0.0
633523.2936376977,3642751.2368613081,-47500.0,7710.7112444197637,-1223.1542743780603,-6604.2891865863576,422.9180809237497,3527.4720101989355,-7497.4075311328352,9245.5865887076416,7443.8231275310918,-5903.7334108828909,5903.7334108828909,-7443.8231275310918,16151.035935775386,0.0
638523.2936376977,3642751.2368613081,-47500.0,7800.8118159980741,-2219.2775981464906,-7207.9052825254357,2371.7566115124723,2146.0723198277328,-3952.495174361849,8652.5661228059835,8449.4913989201195,-7493.4612534656335,7493.4612534656335,-8449.4913989201195,15246.898084994247,0.0
643523.2936376977,3642751.2368613081,-47500.0,7133.4818746202627,-2826.3428495075818,-7440.1874664118504,3189.3270589359381,487.76303064675574,-11.714320687191631,8425.7993359578122,8412.3284386724772,-8303.9234934601191,8303.9234934601191,-8412.3284386724772,14646.082797172487,0.0
648523.2936376977,3642751.2368613081,-47500.0,6233.2961458540449,-2913.4506715356156,-7300.0137284655193,2791.7647882919209,-996.74684371252386,3174.7190739109783,8191.245147793712,7644.0531767550237,-8261.1566744498596,8261.1566744498596,-7644.0531767550237,14245.68874177318,0.0
653523.2936376977,3642751.2368613081,-47500.0,5549.8510411517109,-2578.010974518078,-6887.9192129489493,1668.553307502739,-1906.1371500414662,4821.0859725195896,7599.7222031211941,6654.0094529514381,-7598.8231585562307,7598.8231585562307,-6654.0094529514381,13614.540888499914,0.0
658523.2936376977,3642751.2368613081,-47500.0,5201.1404367766463,-2069.4556157710549,-6341.2703241369263,502.97068772797388,-2084.2560250208649,4855.7315628238002,6631.3483589376046,5817.0530989935651,-6684.7258170620662,6684.7258170620662,-5817.0530989935651,12489.953965840608,0.0
663523.2936376977,3642751.2368613081,-47500.0,5030.2836117271654,-1632.8090563625835,-5764.9148576798771,-230.92777112027437,-1644.6812932066091,3754.9806018998274,5776.6299845105095,5238.0060130535639,-5817.1511135836845,5817.1511135836845,-5238.0060130535639,10984.929106724288,0.0
668523.2936376977,3642751.2368613081,-47500.0,4814.3349157462108,-1401.0419100072279,-5205.6780486928283,-400.47439208539987,-850.49120943077548,2149.6810672688616,5268.9203954758605,4832.9228976778495,-5133.9248724160598,5133.9248724160598,-4832.9228976778495,9452.0407447885045,0.0
673523.2936376977,3642751.2368613081,-47500.0,4413.8245327971645,-1383.3842382187513,-4668.9171567744443,-116.45371580110097,29.763387499094254,538.67298028555342,4749.1633571707771,4471.0068195224276,-4638.0552009087269,4638.0552009087269,-4471.0068195224276,8252.3083696711292,0.0
678523.2936376977,3642751.2368613081,-47500.0,3805.1135691899617,-1513.595303750712,-4147.1856125495397,421.75206739318713,807.30215381631774,-799.04060641880471,4361.2271666798533,4063.2183236338487,-4268.628811431844,4268.628811431844,-4063.2183236338487,7562.1050916860177,0.0
683523.2936376977,3642751.2368613081,-47500.0,3043.5643109815214,-1706.0782822853787,-3638.3502720550523,1032.2665914397803,1390.521240927905,-1767.1354209784902,4212.8428587079698,3582.3187233179756,-3959.0745956210344,3959.0745956210344,-3582.3187233179756,7305.8613414274341,0.0
688523.2936376977,3642751.2368613081,-47500.0,2213.6576670101613,-1891.5470882113673,-3149.1099766271445,1592.4250232222371,1762.8901197069692,-2379.3476259125646,4196.8801075493711,3045.1215033964336,-3664.4645266839334,3664.4645266839334,-3045.1215033964336,7272.4413023080178,0.0
693523.2936376977,3642751.2368613081,-47500.0,1393.8463967865023,-2029.0031462112945,-2690.5691782464251,2039.1837816331631,1950.6439951507336,-2698.5754794775276,4170.456813916252,2486.938917213216,-3364.8033697239152,3364.8033697239152,-2486.938917213216,7277.0615310827025,0.0
698523.2936376977,3642751.2368613081,-47500.0,640.71883453029704,-2102.7352985236712,-2272.9460290763514,2353.0548085742848,1996.5271928376962,-2799.4041445561975,4085.8964401857288,1943.0770777666089,-3057.5662936521953,3057.5662936521953,-1943.0770777666089,7220.3860074556833,0.0
703523.2936376977,3642751.2368613081,-47500.0,-13.18137823225398,-2113.8889720966549,-1902.6225476352536,2540.4484599388711,1943.9107977264136,-2749.8593825088046,3943.6179422295122,1440.0458479631502,-2748.9044474011966,2748.9044474011966,-1440.0458479631502,7070.5151724235247,0.0
708523.2936376977,3642751.2368613081,-47500.0,-554.95219945603776,-2072.3639718343647,-1581.6111527219866,2620.2371189666292,1829.477432308551,-2604.8894402658407,3757.5114489802409,993.69288928320736,-2447.3907988628862,2447.3907988628862,-993.69288928320736,6831.8118296503981,0.0
713523.2936376977,3642751.2368613081,-47500.0,-985.22774988480808,-1991.1054672900352,-1308.383937811888,2615.2785022911871,1681.1739883840789,-2405.7128110164572,3542.9939574057071,610.75167566924756,-2160.6955951460372,2160.6955951460372,-610.75167566924756,6523.4005710399942,0.0
718523.2936376977,3642751.2368613081,-47500.0,-1312.7380964393617,-1882.8087598921034,-1079.1105505931669,2547.768031512147,1518.7592137926483,-2181.5689574368121,3313.3666300489785,291.41312478502141,-1894.3236619971226,1894.3236619971226,-291.41312478502141,6167.7056245913127,0.0
723523.2936376977,3642751.2368613081,-47500.0,-1550.2605097838148,-1758.3679580149808,-888.77994606760342,2437.0658646230968,1355.3182063230847,-1952.1481507931999,3078.9855474703663,31.752008109762073,-1651.4794934498511,1651.4794934498511,-31.752008109762073,5785.2413181753291,0.0
728523.2936376977,3642751.2368613081,-47500.0,-1711.9183454958857,-1626.3819632064008,-732.02455635595584,2298.9623678560197,1198.9204661966603,-1729.9497357550561,2847.4037143690393,-174.38722826652497,-1433.4238973699951,1433.4238973699951,174.38722826652497,5392.7224521881008,0.0
733523.2936376977,3642751.2368613081,-47500.0,-1811.5349816617099,-1493.2169507878814,-603.64439455168599,2145.7092425789792,1054.0755118945679,-1522.2902723135132,2623.81764357051,-334.07528362979747,-1239.9704168447529,1239.9704168447529,334.07528362979747,5002.7799084385642,0.0
738523.2936376977,3642751.2368613081,-47500.0,-1861.7319429331724,-1363.3156631382658,-498.89594672064203,1986.414395964948,922.88504254044335,-1332.8981867374634,2411.566195604084,-454.45273980753268,-1069.9585995163397,1069.9585995163397,454.45273980753268,4624.3744517619098,0.0
743523.2936376977,3642751.2368613081,-47500.0,-1873.5184947925256,-1239.5794324593601,-413.61880201910293,1827.5704776556074,805.89837909278606,-1163.1195093953697,2212.5851981577116,-542.23245574441148,-921.64173867661179,921.64173867661179,542.23245574441148,4263.4483958038427,0.0
748523.2936376977,3642751.2368613081,-47500.0,-1856.1867273979576,-1123.7366853603673,-344.26124348743025,1673.5932893784682,702.71948113446092,-1012.7951820373659,2027.7880645284281,-603.44188980740432,-792.97821587597969,792.97821587597969,603.44188980740432,3923.5981845326792,0.0
543523.2936376977,3647751.2368613081,-47500.0,-2529.9401038081169,658.07028002012157,-101.70395971283844,-1785.0117113232334,421.00164114426178,-898.86025271705489,2044.1220462717486,-2339.8916208934388,1207.7075962555009,-1207.7075962555009,2339.8916208934388,3998.2248884173782,0.0
548523.2936376977,3647751.2368613081,-47500.0,-2685.8977244007801,752.59030772807182,-130.84064868816202,-1996.5297232374928,500.39955392487724,-1046.7076454246555,2258.0075684105791,-2511.6951808704098,1327.9267717086479,-1327.9267717086479,2511.6951808704098,4408.6057917796061,0.0
553523.2936376977,3647751.2368613081,-47500.0,-2840.2956241316842,860.86708101362456,-169.30054425955211,-2233.7721188333326,596.20764954188724,-1221.1391508423724,2498.3433980706582,-2688.1805290085695,1457.679399557228,-1457.679399557228,2688.1805290085695,4867.2378349803248,0.0
558523.2936376977,3647751.2368613081,-47500.0,-2987.8910107479496,984.44224794000581,-220.02651382431728,-2498.9752958468434,711.95901172639958,-1427.0288309477187,2768.5497199216074,-2865.4941986914769,1596.0048378152646,-1596.0048378152646,2865.4941986914769,5379.5704954096836,0.0
563523.2936376977,3647751.2368613081,-47500.0,-3121.2694976227249,1124.7037807258125,-286.87090983481852,-2794.0291493974141,851.90541491745591,-1670.093217973422,3072.4006748696593,-3037.8613373989183,1740.8992645197675,-1740.8992645197675,3037.8613373989183,5951.3374047757352,0.0
568523.2936376977,3647751.2368613081,-47500.0,-3230.074357105706,1282.6338355375419,-374.85530822315638,-3120.0958111792338,1021.1111957021759,-1957.0184031751246,3413.9857534554467,-3196.8445708740942,1888.7906250137898,-1888.7906250137898,3196.8445708740942,6588.3639981379902,0.0
573523.2936376977,3647751.2368613081,-47500.0,-3299.9709279124299,1458.3911650675698,-490.48366433131861,-3476.9754498752241,1225.5122283657229,-2295.5930286519533,3797.5937137523852,-3330.3227652001669,2033.775519908053,-2033.775519908053,3330.3227652001669,7296.2070013618004,0.0
578523.2936376977,3647751.2368613081,-47500.0,-3311.2758076556634,1650.6259720987694,-642.09597245218208,-3862.0317663784363,1471.877920776152,-2694.8026049576047,4227.4343495913736,-3421.0846356204665,2166.507073183745,-2166.507073183745,3421.0846356204665,8079.4753910493046,0.0
583523.2936376977,3647751.2368613081,-47500.0,-3237.2488686449237,1855.3850097343445,-840.22238356895741,-4268.3809907478471,1767.5605095415713,-3164.760327330906,4707.0689493595337,-3444.9497089506731,2272.6011395660744,-2272.6011395660744,3444.9497089506731,8940.6170659317049,0.0
588523.2936376977,3647751.2368613081,-47500.0,-3042.2056927687727,2064.3993173204876,-1097.8359777048395,-4681.8586941504764,2119.7927472547922,-3716.1216881118485,5238.3040666248316,-3368.389712538255,2330.4050022132801,-2330.4050022132801,3368.389712538255,9877.7668631861561,0.0
593523.2936376977,3647751.2368613081,-47500.0,-2680.0756659500353,2262.5108865896036,-1430.2818861568501,-5076.1175445003937,2534.0791524927599,-4358.155428983895,5819.1744997126079,-3145.9176255622083,2308.0535129228724,-2308.0535129228724,3145.9176255622083,10881.067769240708,0.0
598523.2936376977,3647751.2368613081,-47500.0,-2095.0403693624016,2424.0954201148497,-1854.4525410147419,-5405.3179504056488,3010.8825542027562,-5093.7781594087437,6440.5564631089264,-2718.2879312110772,2160.0886069147973,-2160.0886069147973,2718.2879312110772,11926.823305780044,0.0
603523.2936376977,3647751.2368613081,-47500.0,-1227.6353912241993,2508.8068837653636,-2386.4464405618128,-5594.8496587821191,3539.3629888488622,-5908.5912587923594,7081.0463914300672,-2014.1641702030793,1824.8523460051838,-1824.8523460051838,2014.1641702030793,12969.212877237243,0.0
608523.2936376977,3647751.2368613081,-47500.0,-31.919716664550929,2458.2969471890078,-3036.5574040053052,-5533.6251115620216,4086.7395062652013,-6750.0727922777405,7700.4562378239707,-960.60782084424704,1225.8748052751532,-1225.8748052751532,960.60782084424704,13931.002264842955,0.0
613523.2936376977,3647751.2368613081,-47500.0,1490.1469980127874,2198.2740485206346,-3800.3464895434458,-5078.039489593898,4583.004961365109,-7495.2460037825003,8234.2530327363838,489.5522560342456,283.67345838123833,-283.67345838123833,-489.5522560342456,14698.909162178335,0.0
618523.2936376977,3647751.2368613081,-47500.0,3237.8198485030048,1653.9444682384544,-4645.6707433442834,-4086.4409683105596,4905.3952003305467,-7915.8838306149719,8595.1201653392254,2307.230390895962,-1053.027742724872,1053.027742724872,-2307.230390895962,15136.601803031092,0.0
623523.2936376977,3647751.2368613081,-47500.0,4966.9730294794554,787.75680876501269,-5499.4671137243549,-2503.8067823087945,4877.2799084415274,-7674.7080437560253,8693.4747441751751,4322.9445599544188,-2751.9577005292258,2751.9577005292258,-4322.9445599544188,15135.305641469959,0.0
628523.2936376977,3647751.2368613081,-47500.0,6308.529156841204,-342.94897122835442,-6245.2120385414682,-485.75697595237807,4307.812648103155,-6412.6882713574614,8494.1650760000703,6194.3722431195602,-4634.7005152615402,4634.7005152615402,-6194.3722431195602,14712.558938386181,0.0
633523.2936376977,3647751.2368613081,-47500.0,6910.7581803668872,-1541.7991861450007,-6746.920292029321,1524.7085564029471,3091.7787652672646,-3965.8618309276203,8122.024821991331,7482.3971687563717,-6361.7017905037683,6361.7017905037683,-7482.3971687563717,14109.096203581797,0.0
638523.2936376977,3647751.2368613081,-47500.0,6671.3234976640251,-2505.8389059277383,-6904.6727536611779,2910.9832155696422,1336.4115175138274,-619.67014607469571,7897.0449958790805,7865.7411585584669,-7532.2669234225086,7532.2669234225086,-7865.7411585584669,13714.988264559346,0.0
643523.2936376977,3647751.2368613081,-47500.0,5865.5281746786577,-2964.6320868915745,-6714.0837642474826,3217.4440139079738,-592.95904653486377,2850.5674458857338,7910.3298511095763,7366.4350768217355,-7887.3665799991613,7887.3665799991613,-7366.4350768217355,13707.200962384721,0.0
648523.2936376977,3647751.2368613081,-47500.0,4989.3280682136692,-2843.878661288039,-6278.516035684831,2463.0422650382629,-2201.8518525245458,5516.6466565314986,7869.0680947549445,6360.6690101025624,-7468.2143869633956,7468.2143869633956,-6360.6690101025624,13790.984125488611,0.0
653523.2936376977,3647751.2368613081,-47500.0,4426.7403599966965,-2309.3118426708061,-5753.3003339682446,1124.0449060167675,-3107.2671801343108,6790.3578065113152,7547.4413115998459,5329.8861718233802,-6580.5204919780936,6580.5204919780936,-5329.8861718233802,13492.077681116431,0.0
658523.2936376977,3647751.2368613081,-47500.0,4252.6449723938758,-1652.1922178252084,-5264.5318073604831,-193.05012917785265,-3203.582525600475,6656.7242522397628,6903.2893930775081,4582.7959428954646,-5599.0376923631111,5599.0376923631111,-4582.7959428954646,12582.771712375988,0.0
663523.2936376977,3647751.2368613081,-47500.0,4297.7870841388749,-1126.3179887842298,-4863.6539054173445,-1072.4544194856562,-2647.6215531600633,5524.9487955260074,6072.3276629190823,4168.7169971390204,-4785.6821293325056,4785.6821293325056,-4168.7169971390204,11178.839305670537,0.0
668523.2936376977,3647751.2368613081,-47500.0,4333.0889594807377,-856.21064472816954,-4536.2964751226127,-1390.1409131797047,-1723.5988938171049,3923.4955079810247,5283.3797489793551,3969.698265283047,-4231.6488918255427,4231.6488918255427,-3969.698265283047,9597.398986728298,0.0
673523.2936376977,3647751.2368613081,-47500.0,4202.2930932042091,-840.29247108843651,-4239.4923301606923,-1234.3256634821093,-706.66655789050753,2279.772167511142,4627.0777647094546,3832.5189636288324,-3902.0682035178133,3902.0682035178133,-3832.5189636288324,8180.30594970946,0.0
678523.2936376977,3647751.2368613081,-47500.0,3855.8616825664608,-1003.836498843807,-3935.0895377446004,-779.28237772051943,210.66219862418029,848.19409907705062,4120.1338463172287,3648.7221297914871,-3710.1892853135937,3710.1892853135937,-3648.7221297914871,7161.7341257449871,0.0
683523.2936376977,3647751.2368613081,-47500.0,3323.9221011045806,-1253.6007518848689,-3605.0029850861461,-194.99133205284869,930.68857075099299,-266.59231185078528,3804.912264222291,3373.4673876072798,-3572.3461163054203,3572.3461163054203,-3373.4673876072798,6591.7026823661572,0.0
688523.2936376977,3647751.2368613081,-47500.0,2674.2757378000938,-1511.8531597762417,-3250.6045722951708,392.96223304219893,1429.3491259987352,-1056.5215643073254,3665.4385061309122,3010.4098957387205,-3432.2630736614847,3432.2630736614847,-3010.4098957387205,6353.5818538917574,0.0
693523.2936376977,3647751.2368613081,-47500.0,1979.6871530354861,-1728.7284062477027,-2884.771977631312,909.31913761138753,1726.6799268773691,-1562.6022828131304,3603.225935693783,2588.2253491734482,-3263.1706616103029,3263.1706616103029,-2588.2253491734482,6274.5370499344244,0.0
698523.2936376977,3647751.2368613081,-47500.0,1300.0777940424928,-1880.687319457893,-2523.6449519321945,1319.4841219049961,1862.2083946706766,-1843.2987652531333,3538.1056310223275,2141.9099583423445,-3059.8524655240221,3059.8524655240221,-2141.9099583423445,6222.5236940331724,0.0
703523.2936376977,3647751.2368613081,-47500.0,676.58801196541185,-1963.2172519843789,-2181.264977468561,1616.1783435614157,1879.0799404865629,-1957.1328585241104,3440.553348945145,1702.1160662166435,-2829.0795880661231,2829.0795880661231,-1702.1160662166435,6129.3237627066719,0.0
708523.2936376977,3647751.2368613081,-47500.0,132.52116122163,-1983.0048119152741,-1867.3218157433973,1807.8610818175471,1815.8412520792317,-1954.8178105695947,3308.1865195065348,1291.0263396154764,-2582.2400008646487,2582.2400008646487,-1291.0263396154764,5972.926704417162,0.0
713523.2936376977,3647751.2368613081,-47500.0,-322.83262614010067,-1951.8497412114161,-1586.9938737119555,1910.448981510782,1703.3498871033423,-1876.817498186248,3148.2535074817815,922.12319720836206,-2330.8912047834383,2330.8912047834383,-922.12319720836206,5755.9782723017606,0.0
718523.2936376977,3647751.2368613081,-47500.0,-689.86941458140302,-1882.7360636783874,-1341.7930699132298,1942.0870379580406,1564.5263751743341,-1753.6102810961922,2970.108038095012,601.70897151613588,-2084.6361032758382,2084.6361032758382,-601.70897151613588,5491.4015543154901,0.0
723523.2936376977,3647751.2368613081,-47500.0,-974.93140104807901,-1787.6733046542538,-1130.6776972386015,1920.1956176170054,1415.395394386544,-1607.0917956796561,2782.3784124901022,330.88377998286671,-1850.460368829195,1850.460368829195,-330.88377998286671,5194.635748815751,0.0
728523.2936376977,3647751.2368613081,-47500.0,-1187.4806921693021,-1676.7408404680746,-951.06064728044043,1860.0310794977181,1266.5263218069608,-1452.2965979074454,2592.0685747638609,107.3614208382462,-1632.8391576448792,1632.8391576448792,-107.3614208382462,4880.0023411615075,0.0
733523.2936376977,3647751.2368613081,-47500.0,-1338.1505253305666,-1557.8500013681148,-799.58218859092153,1774.1729873323536,1124.4341893467304,-1299.0453300022152,2404.4429060917691,-73.094829468679222,-1434.169343925184,1434.169343925184,73.094829468679222,4559.3135706350749,0.0
738523.2936376977,3647751.2368613081,-47500.0,-1437.5085764260457,-1436.8828780240735,-672.64061453718978,1672.5348171876576,992.76300769672196,-1153.3551027643241,2223.213490794551,-215.63822347195594,-1255.2809825475842,1255.2809825475842,215.63822347195594,4241.6007397442499,0.0
743523.2936376977,3647751.2368613081,-47500.0,-1495.3441120616549,-1317.9941653323326,-566.72305274513019,1562.6373655110317,873.20954167024456,-1018.5679071192862,2050.8207168853637,-325.64731911188704,-1095.909208986676,1095.909208986676,325.64731911188704,3933.3478584700274,0.0
748523.2936376977,3647751.2368613081,-47500.0,-1520.3163092973016,-1203.9555116670945,-478.59048297063094,1449.986533577506,766.20749692752293,-896.21233280777221,1888.7174383898621,-408.29854248160927,-955.08202677740383,955.08202677740383,408.29854248160927,3638.912542232445,0.0
543523.2936376977,3652751.2368613081,-47500.0,-2350.4825275947028,826.29765733080637,-204.32782065153515,-1683.2177125452445,523.50510290332181,-854.38734263827212,1978.4893945982669,-2122.4470877867575,1215.8960403797946,-1215.8960403797946,2122.4470877867575,3873.4443254888306,0.0
548523.2936376977,3652751.2368613081,-47500.0,-2474.2238349083254,937.49991788903981,-252.40204758434459,-1871.3801026059234,617.75813148653685,-989.96766082193835,2178.5684506092557,-2254.1356702668036,1326.9091584059161,-1326.9091584059161,2254.1356702668036,4257.8797329014569,0.0
553523.2936376977,3652751.2368613081,-47500.0,-2590.5163557855485,1063.2960964134345,-313.50094997806951,-2079.4386211803894,730.40640388508518,-1148.4251852311361,2401.8576489003403,-2382.642301396002,1443.7804240217604,-1443.7804240217604,2382.642301396002,4684.5739975762181,0.0
558523.2936376977,3652751.2368613081,-47500.0,-2693.1884503993433,1204.8103946259566,-391.24695723272453,-2308.0887772669626,865.06298610562192,-1333.4137460487473,2650.9288030682446,-2502.6308170256375,1564.4031730659331,-1564.4031730659331,2502.6308170256375,5157.4536016598558,0.0
563523.2936376977,3652751.2368613081,-47500.0,-2773.8858486703889,1362.7502225174333,-490.24193423028703,-2557.2708298327452,1025.9353937471353,-1548.9909498347936,2928.465980313747,-2606.6641898619973,1685.3170950727226,-1685.3170950727226,2606.6641898619973,5680.3142830552706,0.0
568523.2936376977,3652751.2368613081,-47500.0,-2821.4199331406744,1537.0449154285714,-616.29019975624408,-2825.6982984348997,1217.8275225960535,-1799.5710042930232,3237.1583826990245,-2684.528884951992,1801.1274664852817,-1801.1274664852817,2684.528884951992,6256.5172724335725,0.0
573523.2936376977,3652751.2368613081,-47500.0,-2820.9540281840141,1726.2814461429787,-776.63221903451972,-3110.1363635631396,1446.0528318720815,-2089.8064744933131,3579.4993870361718,-2722.367672820229,1903.7003569392236,-1903.7003569392236,2722.367672820229,6888.4919529877807,0.0
578523.2936376977,3652751.2368613081,-47500.0,-2753.0398411265874,1926.8387202687566,-980.14668402853044,-3404.2921568321735,1716.1750123889747,-2424.3316201631815,3957.4278180068964,-2701.6010065408032,1981.064376361292,-1981.064376361292,2701.6010065408032,7576.9348904302342,0.0
583523.2936376977,3652751.2368613081,-47500.0,-2592.5996078371163,2131.5857030181542,-1237.4317384556468,-3697.1000322619111,2033.4212449583993,-2807.2120080015802,4371.698700159317,-2597.6634578188687,2015.9483885371737,-2015.9483885371737,2597.6634578188687,8319.5191518208412,0.0
588523.2936376977,3652751.2368613081,-47500.0,-2308.1579072517047,2327.9798753953519,-1560.58541798074,-3970.1045537358168,2401.4853345365568,-3240.7584462464711,4820.8051469593793,-2378.7264195369185,1983.9312480775063,-1983.9312480775063,2378.7264195369185,9108.8337199655343,0.0
593523.2936376977,3652751.2368613081,-47500.0,-1862.0887662104806,2495.447769127617,-1962.3598205532128,-4193.6531253144713,2820.2394493450161,-3723.0138788368731,5299.2232321175143,-2004.9402900014734,1851.3615422581929,-1851.3615422581929,2004.9402900014734,9929.2350965562182,0.0
598523.2936376977,3652751.2368613081,-47500.0,-1213.4714517683731,2602.160831720209,-2454.1381203356341,-4321.9260512555111,3281.5939639719763,-4242.6548527804307,5794.7636943955013,-1429.4662756398593,1573.6672758441246,-1573.6672758441246,1429.4662756398593,10752.415225146369,0.0
603523.2936376977,3652751.2368613081,-47500.0,-326.36715544749791,2602.0118978012679,-3041.9215050217936,-4287.9684162645744,3762.5220346359811,-4769.4321313919163,6285.0775760657734,-603.85538122791911,1095.6792950962285,-1095.6792950962285,603.85538122791911,11532.16418258074,0.0
608523.2936376977,3652751.2368613081,-47500.0,812.66962888256376,2434.1260438407207,-3719.4155734519723,-4002.6015393183779,4214.5646812953419,-5238.401807341771,6734.2019484980055,508.04911839177765,357.33598921030381,-357.33598921030381,-508.04911839177765,12200.668952609412,0.0
613523.2936376977,3652751.2368613081,-47500.0,2165.3593245307416,2029.7678396439453,-4457.9428159661411,-3365.7247241662972,4551.0734107211556,-5529.1575662771893,7091.9029015252645,1903.055791854536,-689.8098577535294,689.8098577535294,-1903.055791854536,12672.474107637081,0.0
618523.2936376977,3652751.2368613081,-47500.0,3606.1202440222191,1333.8349879053594,-5195.3126131482504,-2302.7488186231722,4638.7076753545252,-5450.3553548066138,7301.7586285716152,3498.4696345979719,-2049.8718032836723,2049.8718032836723,-3498.4696345979719,12867.522647652064,0.0
623523.2936376977,3652751.2368613081,-47500.0,4903.4143542233596,345.75070248289268,-5830.8036270428674,-833.97440876884173,4308.5779319983212,-4755.7759957396875,7327.6969690306205,5094.3628760979491,-3635.9366579340958,3635.9366579340958,-5094.3628760979491,12766.214831486543,0.0
628523.2936376977,3652751.2368613081,-47500.0,5760.7966139217624,-830.2496564665513,-6239.0199787833508,843.62136894994603,3408.2207053114198,-3228.5529101445927,7208.2614266495602,6378.5867574832509,-5232.4963973267504,5232.4963973267504,-6378.5867574832509,12489.37136908225,0.0
633523.2936376977,3652751.2368613081,-47500.0,5947.5866001315362,-1963.4617255268072,-6312.9857505933478,2333.3290929968298,1899.9114739017839,-840.95409128942481,7113.6999185791792,7022.6650215689551,-6515.3378262636597,6515.3378262636597,-7022.6650215689551,12324.866547793716,0.0
638523.2936376977,3652751.2368613081,-47500.0,5467.5726546272517,-2755.6760573829124,-6025.5315654013211,3162.5357292351182,-40.41665093929371,2094.6641642573613,7245.3986326121176,6860.0598887905862,-7167.8426698149788,7167.8426698149788,-6860.0598887905862,12549.654032091608,0.0
643523.2936376977,3652751.2368613081,-47500.0,4616.3734827561948,-2984.5910119002624,-5466.4948806786633,3039.0704260855823,-2019.2084014724292,4947.296235826062,7557.3903968750146,6025.843957077197,-7052.5003583180605,7052.5003583180605,-6025.843957077197,13106.227537141491,0.0
648523.2936376977,3652751.2368613081,-47500.0,3824.3548475197185,-2638.4786480039247,-4812.8124264063345,2052.3110574816142,-3571.0120146663266,7031.62762814087,7803.3806691211848,4908.0972851548731,-6305.7468363477537,6305.7468363477537,-4908.0972851548731,13578.145672035002,0.0
653523.2936376977,3652751.2368613081,-47500.0,3395.9888482791503,-1924.0920662245628,-4242.2377244468544,625.73163183728775,-4371.6061791254633,7941.9623234807177,7760.6142859124939,3923.2720779024321,-5261.3724354651849,5261.3724354651849,-3923.2720779024321,13540.509156970444,0.0
658523.2936376977,3652751.2368613081,-47500.0,3370.8108685802813,-1141.4939959979308,-3854.5504735412587,-736.72771780191579,-4361.316984058959,7693.604916377094,7343.6446421062446,3305.8548237011464,-4265.8145333955417,4265.8145333955417,-3305.8548237011464,12834.591159532511,0.0
663523.2936376977,3652751.2368613081,-47500.0,3584.0478379262363,-535.28764814373187,-3651.0574207277541,-1687.6224255010609,-3711.1708055192348,6609.754284689805,6620.7114492970413,3060.9449153691621,-3532.9533160972969,3532.9533160972969,-3060.9449153691621,11580.808496173941,0.0
668523.2936376977,3652751.2368613081,-47500.0,3816.8555460014204,-219.76621241999561,-3567.4265519398487,-2112.6777785489885,-2697.3500867131606,5106.1224524465706,5751.5146024421247,3052.8623005168629,-3113.0508237707163,3113.0508237707163,-3052.8623005168629,10053.474425188762,0.0
673523.2936376977,3652751.2368613081,-47500.0,3908.3286747836496,-188.4970728667646,-3522.3987247626183,-2074.3741227107234,-1582.8662655911326,3530.9938741404098,4905.8482521190035,3119.3814467943148,-2944.4371397831828,2944.4371397831828,-3119.3814467943148,8549.0521979220048,0.0
678523.2936376977,3652751.2368613081,-47500.0,3790.3025265035217,-365.102295948701,-3452.5834297865067,-1716.0852863456846,-555.02244098637357,2106.2712664540409,4204.3259708914402,3141.389276473139,-2923.7738054046531,2923.7738054046531,-3141.389276473139,7297.739843049646,0.0
683523.2936376977,3652751.2368613081,-47500.0,3470.4290112003109,-653.86253990261037,-3325.2406753895257,-1188.3738419815586,285.27054325033191,937.49188791299639,3702.3331761928566,3061.0767317213777,-2955.8469898107978,2955.8469898107978,-3061.0767317213777,6414.6189761919713,0.0
688523.2936376977,3652751.2368613081,-47500.0,2998.8426332085537,-971.81738164502372,-3135.0324360827904,-611.79855201027988,905.9930168775611,49.294124178448946,3397.6432160435852,2870.2812962613348,-2975.3331815054821,2975.3331815054821,-2870.2812962613348,5886.4885306956048,0.0
693523.2936376977,3652751.2368613081,-47500.0,2439.1306222362005,-1261.7080663694539,-2893.9936615736451,-66.95244865289682,1318.7838877597774,-579.65748408167349,3231.4111737458588,2590.0013231130815,-2948.6498279846492,2948.6498279846492,-2590.0013231130815,5609.1413383101508,0.0
698523.2936376977,3652751.2368613081,-47500.0,1850.087090185054,-1492.1856830621509,-2621.4567822871627,401.2964618337752,1556.9917936764584,-991.30960639243187,3125.4710415895788,2252.5854150302221,-2866.4270718641701,2866.4270718641701,-2252.5854150302221,5458.7957489447062,0.0
703523.2936376977,3652751.2368613081,-47500.0,1277.3106149261525,-1652.076881263579,-2336.9642801377458,774.60743725929797,1660.577977044092,-1232.6900983499092,3028.3914140913394,1890.2212850536484,-2734.0075802264723,2734.0075802264723,-1890.2212850536484,5343.4011450638764,0.0
708523.2936376977,3652751.2368613081,-47500.0,751.39548808860866,-1743.3437885887881,-2056.5463779430279,1051.8869105268579,1667.4838158721284,-1347.6844691876231,2918.8130289611636,1529.2329789815549,-2563.5932035764317,2563.5932035764317,-1529.2329789815549,5212.9864223591803,0.0
713523.2936376977,3652751.2368613081,-47500.0,289.62006646299636,-1775.0594779627329,-1791.5172163452926,1241.8449594871552,1609.6889703101021,-1373.4654613788134,2792.1287125211384,1188.3451737848638,-2369.0317733231841,2369.0317733231841,-1188.3451737848638,5048.5856901573934,0.0
718523.2936376977,3652751.2368613081,-47500.0,-101.02796127925403,-1759.1215967167532,-1548.7267765779968,1357.7472613756986,1512.1445044969282,-1339.5873758967098,2650.867092267973,879.13093575455298,-2162.9423088485532,2162.9423088485532,-879.13093575455298,4848.7629914239396,0.0
723523.2936376977,3652751.2368613081,-47500.0,-420.71839057359824,-1707.6028117536748,-1331.443349444934,1414.0656814174451,1393.2110849262995,-1268.448766548657,2499.876620955632,607.38551575455483,-1955.4811020876487,1955.4811020876487,-607.38551575455483,4620.1294627929647,0.0
728523.2936376977,3652751.2368613081,-47500.0,-674.10377090852273,-1631.3410559290157,-1140.366345943941,1424.5492989346865,1265.7281589113359,-1176.3464942239855,2344.1763174573739,374.69401085217555,-1754.0898106298553,1754.0898106298553,-374.69401085217555,4371.9009493450421,0.0
733523.2936376977,3652751.2368613081,-47500.0,-868.2752479976424,-1539.3526212440693,-974.52543859455409,1401.2658269785945,1138.2242748714589,-1074.6867776587872,2188.0974913488494,179.83930465383241,-1563.7461303977946,1563.7461303977946,-179.83930465383241,4113.1598910202847,0.0
738523.2936376977,3652751.2368613081,-47500.0,-1011.3237174248404,-1438.7333542697825,-831.98127724397887,1354.2557495754538,1016.0287397805397,-971.12904968353166,2035.0277564431819,19.921835075400168,-1387.4148579514124,1387.4148579514124,-19.921835075400168,3851.675065784968,0.0
743523.2936376977,3652751.2368613081,-47500.0,-1111.4013904113372,-1334.8162945600691,-710.32619066523512,1291.5428455647898,902.19338273076085,-870.56603136167109,1887.425827768715,-108.81956714336252,-1226.5321576066251,1226.5321576066251,108.81956714336252,3593.5471309377181,0.0
543523.2936376977,3657751.2368613081,-47500.0,-2134.0570725154039,957.93762166081547,-319.14004534261562,-1559.3150047078072,606.69295766237133,-799.94853647989453,1895.6309742199865,-1870.786669206539,1179.341127487015,-1179.341127487015,1870.786669206539,3715.3768921374217,0.0
548523.2936376977,3657751.2368613081,-47500.0,-2221.7089597742415,1077.8921917935997,-386.78860625021798,-1720.5381433298242,710.74963216866809,-921.146109235994,2079.2846670057079,-1958.9713855394584,1273.585054659693,-1273.585054659693,1958.9713855394584,4068.6326382112788,0.0
553523.2936376977,3657751.2368613081,-47500.0,-2296.0078508262682,1211.4624393956417,-470.79419396129771,-1895.3549468321332,833.75096903650399,-1061.0802337593836,2282.5216208737816,-2036.257360877265,1368.7937062564183,-1368.7937062564183,2036.257360877265,4457.3423971511393,0.0
558523.2936376977,3657751.2368613081,-47500.0,-2350.0932747546854,1358.9513113996243,-575.20172295068505,-2082.9444487404417,978.95968200863319,-1222.123018095127,2507.0339165240875,-2096.1425508355092,1461.6087954547233,-1461.6087954547233,2096.1425508355092,4883.834246595402,0.0
563523.2936376977,3657751.2368613081,-47500.0,-2375.0484656832787,1519.9158969204843,-704.98008563589133,-2281.3928664662876,1149.9792276858796,-1406.6267105190188,2754.4029416966,-2130.0224113114523,1547.0666000066963,-1547.0666000066963,2130.0224113114523,5349.9241532017359,0.0
568523.2936376977,3657751.2368613081,-47500.0,-2359.424692594102,1692.7078605680213,-866.15463469715212,-2487.1823375582226,1350.6286263378774,-1616.7271718455722,3025.9423331570442,-2126.658892939849,1618.0182171697879,-1618.0182171697879,2126.658892939849,5856.5354781347132,0.0
573523.2936376977,3657751.2368613081,-47500.0,-2288.7263984829715,1873.7999733820725,-1065.88889911611,-2694.467085814008,1584.6738970092365,-1854.0238291256735,3322.4495550038755,-2071.5788614520216,1664.3791912307024,-1664.3791912307024,2071.5788614520216,6403.135091555916,0.0
578523.2936376977,3657751.2368613081,-47500.0,-2144.9357659752882,2056.8219239849195,-1312.4422881586622,-2894.0537142763642,1855.3163744188992,-2119.0607105356016,3643.8217691532946,-1946.4578059300036,1672.1923607064457,-1672.1923607064457,1946.4578059300036,6986.9135264489814,0.0
583523.2936376977,3657751.2368613081,-47500.0,-1906.2536365203919,2231.2131245499982,-1614.8672771883364,-3071.9685692319385,2164.2653266022276,-2410.4556789016942,3988.4563627931234,-1728.6229635840837,1622.5208777767675,-1622.5208777767675,1728.6229635840837,7601.5843882562276,0.0
588523.2936376977,3657751.2368613081,-47500.0,-1547.456043698028,2380.4354550881126,-1982.2169525190488,-3207.5187606117815,2510.1241342038602,-2723.4066515699965,4352.3523419024996,-1391.0008514371327,1490.3030139257505,-1490.3030139257505,1391.0008514371327,8235.6989805890535,0.0
593523.2936376977,3657751.2368613081,-47500.0,-1041.6301571052857,2479.8080478367342,-2421.8901454925854,-3270.8675203565754,2885.6718511334834,-3047.0814986932646,4727.8247942763091,-903.16605926805585,1243.5372157430925,-1243.5372157430925,903.16605926805585,8870.4160804529984,0.0
598523.2936376977,3657751.2368613081,-47500.0,-364.63385844471821,2494.3884916975189,-2936.586624610638,-3220.5901451687846,3273.4989083442315,-3360.1432120149666,5101.8747885722178,-234.73595436149714,843.66864615192708,-843.66864615192708,234.73595436149714,9477.0047246759896,0.0
603523.2936376977,3657751.2368613081,-47500.0,495.79230268324483,2378.1033804390254,-3519.2685068817159,-3002.721675195442,3639.5217966832702,-3623.5612062735254,5454.611938672736,636.88912163169721,248.90118761179966,-248.90118761179966,-636.88912163169721,10015.179876943426,0.0
608523.2936376977,3657751.2368613081,-47500.0,1524.4255761931654,2076.7222664442215,-4145.8414602503544,-2554.7898155951352,3924.6499445097529,-3770.5994342015474,5758.9796261951233,1711.9789971150242,-576.71268694510786,576.71268694510786,-1711.9789971150242,10435.172400778109,0.0
613523.2936376977,3657751.2368613081,-47500.0,2657.1218190310201,1538.9827751916641,-4766.5655950954488,-1820.8499886143995,4037.1551689211005,-3696.7468922021908,5984.5735672919245,2945.9842929524393,-1644.9802140493384,1644.9802140493384,-2945.9842929524393,10689.312457011172,0.0
618523.2936376977,3657751.2368613081,-47500.0,3761.4098344196791,740.53575097767305,-5300.1685033665581,-784.08287693023829,3852.8669806586827,-3258.6948720066434,6110.3604415249774,4223.7435164563121,-2914.9319857003925,2914.9319857003925,-4223.7435164563121,10761.232861774968,0.0
623523.2936376977,3657751.2368613081,-47500.0,4638.8986728940681,-279.58030291020515,-5638.9655639397452,483.97519048314643,3235.8909918565496,-2299.6230868831549,6151.5117444407997,5347.1000459948918,-4261.4392381834477,4261.4392381834477,-5347.1000459948918,10715.155423802898,0.0
628523.2936376977,3657751.2368613081,-47500.0,5076.1370424945444,-1384.7391286728305,-5675.2140710700069,1780.1182462091572,2092.1162198328066,-717.91079025114789,6194.8120073684386,6065.0871000619782,-5464.4402818295539,5464.4402818295539,-6065.0871000619782,10735.852064154469,0.0
633523.2936376977,3657751.2368613081,-47500.0,4950.0098197720954,-2342.70411278763,-5350.4410507304956,2781.6614234879685,449.0472247151327,1430.0354051639938,6390.2068087700645,6167.7319014938703,-6252.5944515191832,6252.5944515191832,-6167.7319014938703,11068.641435473861,0.0
638523.2936376977,3657751.2368613081,-47500.0,4334.8274556342203,-2896.5302414712901,-4706.3862255145614,3157.4591171918187,-1483.0718603262333,3856.1346733106288,6813.8493027413697,5614.0604734156223,-6412.939112223381,6412.939112223381,-5614.0604734156223,11803.454615221355,0.0
643523.2936376977,3657751.2368613081,-47500.0,3510.7359583206094,-2888.8308947183641,-3895.6780091762967,2744.4901029477946,-3336.556973783242,6087.2423847089858,7339.161895579573,4599.7371718160575,-5914.5024831052033,5914.5024831052033,-4599.7371718160575,12712.457406622076,0.0
648523.2936376977,3657751.2368613081,-47500.0,2827.347563062694,-2356.8569343888498,-3126.7902433236773,1662.6301239952925,-4719.000482006054,7650.0763268404598,7728.2786483784275,3481.4173593661235,-4947.898501055548,4947.898501055548,-3481.4173593661235,13386.183125576374,0.0
653523.2936376977,3657751.2368613081,-47500.0,2514.9636694041146,-1517.3412392968983,-2572.1223950782419,261.08812840502526,-5377.6985355297302,8278.4865927219453,7794.6813427947118,2595.9785492725291,-3834.6247886872156,3834.6247886872156,-2595.9785492725291,13501.354643868382,0.0
658523.2936376977,3657751.2368613081,-47500.0,2591.4522525166044,-652.25527314386682,-2302.3937438512403,-1062.1682590116154,-5283.6961020966883,7994.6872246091089,7482.8594640861056,2112.7069597800401,-2873.0306720385852,2873.0306720385852,-2112.7069597800401,12961.501656395434,0.0
663523.2936376977,3657751.2368613081,-47500.0,2910.4758801858084,14.786266427491705,-2283.421793206564,-2025.9305213482892,-4596.4062899803321,7034.6210155333456,6857.5051094678838,2010.3982415427247,-2230.6093642272863,2230.6093642272863,-2010.3982415427247,11878.561598233349,0.0
668523.2936376977,3657751.2368613081,-47500.0,3275.7475266868132,378.68420016417775,-2419.425308641672,-2524.659154054184,-3561.5268982997482,5707.4157295610821,6049.0216093209801,2152.5310465590337,-1929.384335678448,1929.384335678448,-2152.5310465590337,10478.65033348396,0.0
673523.2936376977,3657751.2368613081,-47500.0,3531.7661046733738,443.83339156725901,-2604.6802837748501,-2594.2793355998792,-2415.4648767666886,4284.7369436494555,5198.7274935169171,2380.3794309609639,-1894.8204323313284,1894.8204323313284,-2380.3794309609639,9007.149177877629,0.0
678523.2936376977,3657751.2368613081,-47500.0,3598.5275409210021,280.64247360356273,-2757.7187840474671,-2344.4326854607325,-1332.7277594826166,2953.0051166580015,4422.9446312427299,2572.1458348821157,-2017.5035681947797,2017.5035681947797,-2572.1458348821157,7666.115789213115,0.0
683523.2936376977,3657751.2368613081,-47500.0,3464.1788263683256,-18.921199146350247,-2833.0624962408683,-1901.0781465142074,-414.34969162609059,1813.1153230324055,3796.5626546826097,2661.1886718549645,-2197.0144118397498,2197.0144118397498,-2661.1886718549645,6583.5050726350009,0.0
688523.2936376977,3657751.2368613081,-47500.0,3160.6782645530889,-371.078255910542,-2817.388613583722,-1373.3824896936617,300.02000593632806,901.23971153496791,3347.6692088015243,2628.6129268139921,-2361.9259569270325,2361.9259569270325,-2628.6129268139921,5803.1838687279605,0.0
693523.2936376977,3657751.2368613081,-47500.0,2739.4857148560027,-713.84101249541175,-2719.0808725854104,-841.22632215722933,812.22814273351162,212.7040961560302,3056.0542397510967,2486.6209631843039,-2472.3629949729257,2472.3629949729257,-2486.6209631843039,5293.2791950464907,0.0
698523.2936376977,3657751.2368613081,-47500.0,2254.1812866463206,-1009.1733563942189,-2557.4766284125535,-355.06427203188252,1147.0865922412897,-278.76491406856735,2868.4316916135085,2262.5249632042828,-2513.7618425995965,2513.7618425995965,-2262.5249632042828,4976.0551809705976,0.0
703523.2936376977,3657751.2368613081,-47500.0,1750.7390698153808,-1239.1497411287949,-2354.7785179469329,58.66948930987504,1338.691786937469,-607.9613291325594,2731.907501645941,1987.2718624080062,-2488.1893491223755,2488.1893491223755,-1987.2718624080062,4767.4045280705886,0.0
708523.2936376977,3657751.2368613081,-47500.0,1263.6786665737911,-1400.1288954409345,-2131.2176625844672,390.75226598789158,1421.8617273126124,-810.35176805862363,2612.8117044720025,1688.8038737757768,-2406.6119731545577,2406.6119731545577,-1688.8038737757768,4603.2621158127449,0.0
713523.2936376977,3657751.2368613081,-47500.0,815.88337181165082,-1497.2099755657612,-1902.8732752349031,642.98727843393317,1427.6202770099835,-917.95542590479238,2494.9677943916358,1389.1420066285643,-2283.3177152747935,2283.3177152747935,-1389.1420066285643,4445.611200454051,0.0
718523.2936376977,3657751.2368613081,-47500.0,420.27675668741608,-1539.910850005188,-1681.2263266503987,823.37906675403894,1381.4008477570153,-957.62219345150947,2372.6812916738563,1103.8269636558771,-2132.4872014910793,2132.4872014910793,-1103.8269636558771,4276.9033518395263,0.0
723523.2936376977,3657751.2368613081,-47500.0,82.149882786228432,-1539.2219286424797,-1473.6371726768662,942.7375836261599,1302.8474070404477,-950.72230469186923,2245.4844986679987,842.60160274354973,-1966.428733383555,1966.428733383555,-842.60160274354973,4092.2460981797749,0.0
728523.2936376977,3657751.2368613081,-47500.0,-198.54473111234037,-1505.826932646414,-1284.188304181906,1012.492618452574,1206.4195012045327,-913.58043463302477,2115.1248893332281,610.58775710780185,-1794.9181639923954,1794.9181639923954,-610.58775710780185,3893.3194459466863,0.0
733523.2936376977,3657751.2368613081,-47500.0,-425.2511138878682,-1449.1774082677355,-1114.5686422951514,1043.4211747040738,1102.3060181739249,-858.23412951626153,1984.0082109188154,409.52594801265195,-1625.1817474192508,1625.1817474192508,-409.52594801265195,3684.5535093261328,0.0
738523.2936376977,3657751.2368613081,-47500.0,-603.31577220777706,-1377.1286005256436,-964.84544804220491,1045.008069468696,997.37133250842874,-793.27006130416135,1854.457592858811,238.86825950537627,-1462.1990810244463,1462.1990810244463,-238.86825950537627,3471.0136982652252,0.0
743523.2936376977,3657751.2368613081,-47500.0,-738.92097731108447,-1295.9095161167486,-834.07206375322232,1025.2143911988314,896.00082816000224,-724.6075796917296,1728.4069273598109,96.649113672260683,-1309.1247191127729,1309.1247191127729,-96.649113672260683,3257.3625920023605,0.0
543523.2936376977,3662751.2368613081,-47500.0,-1892.4121295358129,1050.1902238757173,-438.28199250799292,-1419.5016499409953,668.83882032429858,-738.12241571393054,1799.264585169261,-1598.3828628194042,1104.1206460009416,-1104.1206460009416,1598.3828628194042,3530.4505609573876,0.0
548523.2936376977,3662751.2368613081,-47500.0,-1942.8951901384535,1171.0441013414156,-524.20874698018429,-1551.9960256433028,777.54147655763654,-843.69383028504308,1964.925617070543,-1642.9585698562867,1176.1034414524877,-1176.1034414524877,1642.9585698562867,3849.0664948762783,0.0
553523.2936376977,3662751.2368613081,-47500.0,-1974.7845392831694,1302.9649995331051,-628.9670406823044,-1691.8636421892909,904.40063136270123,-963.74658275648005,2146.4748819360493,-1669.8954291180746,1243.6402702886505,-1243.6402702886505,1669.8954291180746,4196.0615513566281,0.0
558523.2936376977,3662751.2368613081,-47500.0,-1980.9188601356573,1445.1762578723708,-756.65357310946024,-1836.969880225942,1051.9834812039369,-1099.4346244626001,2344.7963236430219,-1672.0387314130226,1302.2512304304305,-1302.2512304304305,1672.0387314130226,4572.2702682218887,0.0
563523.2936376977,3662751.2368613081,-47500.0,-1952.3570136407154,1595.8309346344865,-912.09424388893683,-1983.8749768005459,1222.8685532058837,-1251.5349920908093,2560.4946363639233,-1640.3349017933097,1345.7313408845043,-1345.7313408845043,1640.3349017933097,4977.7294483102623,0.0
568523.2936376977,3662751.2368613081,-47500.0,-1878.1199808373105,1751.4944018088547,-1100.8417050177682,-2127.3470350812004,1419.3903390594928,-1420.1493011112927,2793.7208867046365,-1563.5123507514536,1365.6454615035523,-1365.6454615035523,1563.5123507514536,5411.2797882564018,0.0
573523.2936376977,3662751.2368613081,-47500.0,-1745.0111884075461,1906.4371365574666,-1329.0568236059451,-2259.7262443294389,1643.2017196538245,-1604.261254639199,3043.9267593009495,-1427.8182948773149,1350.7374386156805,-1350.7374386156805,1427.8182948773149,5870.0267859224177,0.0
578523.2936376977,3662751.2368613081,-47500.0,-1537.6373016456359,2051.6955642663329,-1603.1746936698871,-2370.11236135025,1894.5516193099913,-1801.0812477842624,3309.5237043878251,-1216.9248739019804,1286.2937580883827,-1286.2937580883827,1216.9248739019804,6348.6275548020985,0.0
583523.2936376977,3662751.2368613081,-47500.0,-1238.8535006741279,2173.883997676307,-1929.1993785533921,-2443.3636260856688,2171.1245990973111,-2005.0648843654028,3587.4213190767596,-912.212343805724,1153.5698405523165,-1153.5698405523165,912.212343805724,6838.3802799785017,0.0
588523.2936376977,3662751.2368613081,-47500.0,-831.03047219737482,2253.8197184740475,-2311.3907371984983,-2458.9680818311635,2466.2282625451317,-2206.427169822909,3872.4407541878545,-493.80579771037685,929.52734466969594,-929.52734466969594,493.80579771037685,7326.1604918077337,0.0
593523.2936376977,3662751.2368613081,-47500.0,-298.7862521396047,2265.211077318701,-2750.0183132348575,-2390.0291880618806,2766.0575033835835,-2388.8866919425586,4156.6583748061121,57.00552790756052,587.37989685831712,-587.37989685831712,-57.00552790756052,7793.4088707516512,0.0
598523.2936376977,3662751.2368613081,-47500.0,365.90141703093059,2174.0610824953183,-3237.8247456222443,-2203.0328491044047,3045.8024338731029,-2526.3415577483211,4428.9187792201292,753.01238450144319,98.858209986985514,-98.858209986985514,-753.01238450144319,8215.8069217887787,0.0
603523.2936376977,3662751.2368613081,-47500.0,1155.2455471034382,1940.134839770589,-3754.997984381987,-1859.8414661767108,3264.6707689835321,-2578.3804685622958,4675.1291865225912,1592.8312863548995,-560.35690843716145,560.35690843716145,-1592.8312863548995,8565.1075818062363,0.0
608523.2936376977,3662751.2368613081,-47500.0,2033.7108481876369,1522.800339405976,-4263.1167208528313,-1324.4927835790456,3360.848703371857,-2485.4239055423836,4880.6441649673234,2548.429361069941,-1400.2083548836908,1400.2083548836908,-2548.429361069941,8816.0037485424837,0.0
613523.2936376977,3662751.2368613081,-47500.0,2925.1402212506423,894.19238621047521,-4700.0931632689753,-578.1709031288816,3249.4548142783569,-2166.4568188318999,5036.9307009119821,3549.8684398255741,-2399.6921510436455,2399.6921510436455,-3549.8684398255741,8962.2755747001247,0.0
618523.2936376977,3662751.2368613081,-47500.0,3706.8665478431872,61.37323302613536,-4980.7445901452875,355.8165474366063,2829.6169188916087,-1525.8800883041645,5154.8657203999401,4473.787740431786,-3486.3447238139183,3486.3447238139183,-4473.787740431786,9044.7481266791328,0.0
623523.2936376977,3662751.2368613081,-47500.0,4224.7993377930306,-906.63125221645623,-5010.022697708283,1382.3202674033844,2008.9121031728118,-478.76346293243188,5282.8718917872829,5149.3857401128143,-4521.3910049974847,4521.3910049974847,-5149.3857401128143,9180.1104466437046,0.0
628523.2936376977,3662751.2368613081,-47500.0,4342.3117750481961,-1862.1788537359412,-4714.2761303651941,2318.6939142060633,749.25401120678771,1000.5825398748558,5511.7239460746141,5398.5444866741891,-5309.0777479412609,5309.0777479412609,-5398.5444866741891,9546.7572278976586,0.0
633523.2936376977,3662751.2368613081,-47500.0,4015.8451440641388,-2597.377780051323,-4085.1626965195437,2922.6122987062067,-877.9445174279997,2820.3924966308382,5924.8935102952346,5112.5901658163448,-5648.2998821855736,5648.2998821855736,-5112.5901658163448,10273.632535045967,0.0
638523.2936376977,3662751.2368613081,-47500.0,3353.95388930122,-2912.4218915294646,-3212.6920891663185,2978.6502539226935,-2662.813548106461,4743.9153649526479,6500.2128365816261,4332.3266029012339,-5420.6421250201656,5420.6421250201656,-4332.3266029012339,11292.281481123708,0.0
643523.2936376977,3662751.2368613081,-47500.0,2600.1655825929324,-2710.4886476243182,-2275.6008314516757,2410.0894026377946,-4294.4137526583108,6436.6524353631048,7086.1988457923126,3268.1647075017636,-4667.6476580882645,4667.6476580882645,-3268.1647075017636,12328.396107780954,0.0
648523.2936376977,3662751.2368613081,-47500.0,2025.9440440404799,-2057.2663151288662,-1479.5597138239234,1338.2769916589614,-5465.8292669766861,7585.2821028816634,7493.9852386237071,2222.6161223218128,-3594.7787848179164,3594.7787848179164,-2222.6161223218128,13052.928231853099,0.0
653523.2936376977,3662751.2368613081,-47500.0,1801.1802530251332,-1156.1664166944217,-975.94146032941285,36.183837902796355,-5989.7411394058054,8019.0582358088504,7594.1954884206261,1456.3211956403456,-2486.4719566038498,2486.4719566038498,-1456.3211956403456,13239.611115416981,0.0
658523.2936376977,3662751.2368613081,-47500.0,1933.2558790772332,-255.37875169527632,-811.94388593532119,-1192.6719983638134,-5853.0570944873771,7755.6972692090521,7355.1531486853792,1088.8653632004707,-1588.1199013199239,1588.1199013199239,-1088.8653632004707,12831.936591521073,0.0
663523.2936376977,3662751.2368613081,-47500.0,2301.1863330118672,448.31565518092543,-935.60189972280614,-2125.6186852009719,-5188.7380391967308,6957.1143078895366,6830.1172756893075,1088.4745821817116,-1029.3110278704778,1029.3110278704778,-1088.4745821817116,11922.728242111836,0.0
668523.2936376977,3662751.2368613081,-47500.0,2737.7960831145183,857.75990884776616,-1238.7157042159329,-2666.1946008296695,-4200.5113342113455,5843.1915251827777,6120.415994535042,1330.1288395721517,-816.9759758586523,816.9759758586523,-1330.1288395721517,10689.74704868064,0.0
673523.2936376977,3662751.2368613081,-47500.0,3100.4684257925269,970.50386065842758,-1605.1962939017108,-2827.1913128474202,-3090.0327872095263,4618.2923206825963,5338.1913752607516,1667.864792661456,-876.00465492262151,876.00465492262151,-1667.864792661456,9329.4701591266967,0.0
678523.2936376977,3662751.2368613081,-47500.0,3304.0947260282455,845.12233132440178,-1943.3129880176027,-2686.075208077521,-2013.4651584628334,3433.7599551017838,4581.0691633728184,1983.8427899180801,-1100.2034474522347,1100.2034474522347,-1983.8427899180801,8011.3874129534815,0.0
683523.2936376977,3662751.2368613081,-47500.0,3321.4822441330066,564.26779317201806,-2197.581029479747,-2342.4418158895164,-1068.5206874250141,2381.4105927489045,3919.8706033646799,2206.6497210892489,-1390.0190777538342,1390.0190777538342,-2206.6497210892489,6855.4346317532118,0.0
688523.2936376977,3662751.2368613081,-47500.0,3167.4554031490961,207.92933033734369,-2346.1195773682862,-1889.966039820473,-300.87072172601307,1503.6008054641788,3393.872830071472,2308.2477279317231,-1671.239880264864,1671.239880264864,-2308.2477279317231,5925.4807733089101,0.0
693523.2936376977,3662751.2368613081,-47500.0,2879.8317772836767,-160.53057746629995,-2391.2929731785321,-1402.9896412125709,281.58595248780534,808.19513986881589,3008.1704253439643,2291.5934238368518,-1898.8711420938178,1898.8711420938178,-2291.5934238368518,5232.2940746715303,0.0
698523.2936376977,3662751.2368613081,-47500.0,2503.9667662046122,-498.41045505210872,-2349.3814307860371,-933.24660279146497,694.01284298084897,282.29833976639276,2737.5605642796263,2177.1629447624805,-2052.7902842326162,2052.7902842326162,-2177.1629447624805,4744.6092521037108,0.0
703523.2936376977,3662751.2368613081,-47500.0,2082.7382957088976,-781.84920884579435,-2242.2267881956577,-512.0900945453244,962.86188951728832,-97.356550757352764,2543.6892480058777,1992.2502203695728,-2130.4707239379936,2130.4707239379936,-1992.2502203695728,4408.0817632823646,0.0
708523.2936376977,3662751.2368613081,-47500.0,1651.4003175801358,-1001.4948245180879,-2091.707887260055,-154.92839835171824,1117.8347840926112,-357.45431363319216,2393.1436724385567,1763.991374088884,-2139.8955661199734,2139.8955661199734,-1763.991374088884,4166.1305308526444,0.0
713523.2936376977,3662751.2368613081,-47500.0,1235.9133328031849,-1157.783396750762,-1916.7573038695848,134.04627128187207,1187.1243030529879,-523.92605619474875,2263.9388448647451,1515.6372222907873,-2094.0132562208851,2094.0132562208851,-1515.6372222907873,3973.8215327389098,0.0
718523.2936376977,3662751.2368613081,-47500.0,853.36748282574604,-1256.8923770377662,-1732.2132689389025,357.7568338303609,1195.0707739079162,-619.77452316099493,2143.9295468177593,1265.1375760428687,-2007.0013104897776,2007.0013104897776,-1265.1375760428687,3801.8857480431629,0.0
723523.2936376977,3662751.2368613081,-47500.0,513.42635205350086,-1307.7260608047663,-1548.7905955807398,523.08433667454619,1161.385365329018,-664.21190593010203,2027.4153722755609,1025.1299747494384,-1892.0810672355576,1892.0810672355576,-1025.1299747494384,3634.3867367862949,0.0
728523.2936376977,3662751.2368613081,-47500.0,220.089068506264,-1319.9041760164102,-1373.6172363349374,638.64543945740604,1101.2731585853858,-672.58589560388293,1912.3824398208071,803.64289538981734,-1760.4631252093498,1760.4631252093498,-803.64289538981734,3464.4710219947319,0.0
733523.2936376977,3662751.2368613081,-47500.0,-26.629439322672635,-1302.5618337661442,-1210.9737232038949,713.35430975980159,1025.9950603712552,-656.72743502254809,1798.7051370804884,605.05987877902362,-1621.0228444344611,1621.0228444344611,-605.05987877902362,3290.6024684371901,0.0
738523.2936376977,3662751.2368613081,-47500.0,-229.28531112063314,-1263.7340762863146,-1063.0299858453398,755.57853428097417,943.58255224317406,-625.4810263381446,1687.0852491803691,431.08439542040117,-1480.3934796808276,1480.3934796808276,-431.08439542040117,3113.9344035272529,0.0
543523.2936376977,3667751.2368613081,-47500.0,-1637.2424956270575,1103.0095204027332,-554.30084645000534,-1270.0428513103329,709.60212158328159,-671.5400285950227,1693.4967548937932,-1318.2652615793666,998.04821608062525,-998.04821608062525,1318.2652615793666,3325.517478491005,0.0
548523.2936376977,3667751.2368613081,-47500.0,-1651.9771327564877,1217.7046264632665,-655.59993646119676,-1373.6916787493067,818.11598546168898,-761.07491541677723,1840.6715170034138,-1321.9705841648345,1044.5973935490717,-1044.5973935490717,1321.9705841648345,3607.8028048108617,0.0
553523.2936376977,3667751.2368613081,-47500.0,-1644.0419518574163,1339.775239216312,-777.02960116419115,-1479.0350075745398,942.89524547906012,-860.99962072728329,2000.2550643710908,-1302.8629608048477,1081.4536109113683,-1081.4536109113683,1302.8629608048477,3911.6159581401098,0.0
558523.2936376977,3667751.2368613081,-47500.0,-1606.4232778606495,1467.289015586058,-922.3372879178529,-1582.9457483990363,1085.5928565963238,-971.40800328802982,2172.4718564187147,-1253.7269976989946,1103.3313306331256,-1103.3313306331256,1253.7269976989946,4236.544751518968,0.0
563523.2936376977,3667751.2368613081,-47500.0,-1530.7303284760017,1596.9906106952551,-1095.6890973684226,-1680.9255710629129,1247.5305475355574,-1091.7574010078108,2357.1752022204578,-1165.8332107108454,1103.2685008454623,-1103.2685008454623,1165.8332107108454,4581.228387718078,0.0
568523.2936376977,3667751.2368613081,-47500.0,-1407.164811222852,1723.7867630254405,-1301.5150338605686,-1766.6980993097022,1429.3396845274099,-1220.5225249921843,2553.6914282530479,-1028.8610252628841,1072.2621587578178,-1072.2621587578178,1028.8610252628841,4943.0054864659942,0.0
573523.2936376977,3667751.2368613081,-47500.0,-1224.6613760110627,1840.0946051830642,-1544.1831513295265,-1831.7300414641918,1630.4062367222955,-1354.7131369001702,2760.6251110887779,-830.98605275135685,998.91660755459645,-998.91660755459645,830.98605275135685,5317.487757258873,0.0
578523.2936376977,3667751.2368613081,-47500.0,-971.33707381708155,1935.0586090361969,-1827.3984102719508,-1864.7007398525463,1848.0335037037291,-1489.2072461852017,2975.6272834638844,-559.27232986189779,869.19226855239754,-869.19226855239754,559.27232986189779,5698.0757626240411,0.0
583523.2936376977,3667751.2368613081,-47500.0,-635.4687093317159,1993.6945236226791,-2153.1794655264025,-1850.9873363238996,2076.2138157317509,-1615.8377068818927,3195.1500698152322,-200.59454195381758,666.42558100622898,-666.42558100622898,200.59454195381758,6075.4884645083994,0.0
588523.2936376977,3667751.2368613081,-47500.0,-207.3211457742627,1996.1273730531461,-2520.2246891342611,-1772.3211659728847,2303.8844731733234,-1722.1523532217072,3414.2515327271053,256.57350602130055,371.92135163434227,-371.92135163434227,-256.57350602130055,6437.4815985955547,0.0
593523.2936376977,3667751.2368613081,-47500.0,317.74377635473263,1917.2952955936269,-2921.4643610259841,-1606.9497844089515,2512.5703017868059,-1789.7718718759647,3626.6034672739388,819.03899474333139,-33.382871123364396,33.382871123364396,-819.03899474333139,6769.1480167019572,0.0
598523.2936376977,3667751.2368613081,-47500.0,934.43310018158945,1727.8487372702662,-3340.6978323557491,-1330.9600876637517,2673.4728677026451,-1792.3626654167667,3825.0444349333657,1483.9086168503959,-565.43150163968949,565.43150163968949,-1483.9086168503959,7054.6346665117253,0.0
603523.2936376977,3667751.2368613081,-47500.0,1620.8355721882137,1397.4450357690509,-3748.5433477906518,-921.85757361711796,2744.4684681941894,-1693.5318165547544,4003.2885857586944,2231.4247486493255,-1230.8267522620097,1230.8267522620097,-2231.4247486493255,7281.7244073449574,0.0
608523.2936376977,3667751.2368613081,-47500.0,2330.8007666675103,902.07125691543831,-4098.7323938688496,-365.91581802999224,2668.3635959088324,-1445.6873219544345,4159.7423835491827,3016.1850581776348,-2017.1825085274536,2017.1825085274536,-3016.1850581776348,7451.3808924924751,0.0
613523.2936376977,3667751.2368613081,-47500.0,2988.5312584131052,236.77167279627432,-4327.1570267346306,329.45422259072961,2375.1751945839555,-992.20396303353493,4304.2769352095302,3759.4170879614599,-2880.6946499964411,2880.6946499964411,-3759.4170879614599,7593.5435935580936,0.0
618523.2936376977,3667751.2368613081,-47500.0,3491.7030533343914,-566.91740424485158,-4357.7294904452228,1119.1939788250686,1792.6969542364691,-276.74211986958034,4466.9273614009453,4348.3902944743659,-3734.7449161288559,3734.7449161288559,-4348.3902944743659,7784.4635477598904,0.0
623523.2936376977,3667751.2368613081,-47500.0,3731.2673433645764,-1424.5422917304281,-4119.5223830559662,1906.0025359349363,869.37076196100145,736.43905010830963,4701.3928837936101,4652.0224466225309,-4448.1872965250741,4448.1872965250741,-4652.0224466225309,8145.3081234833435,0.0
628523.2936376977,3667751.2368613081,-47500.0,3631.5491925782717,-2195.8481271765086,-3576.0200153920709,2540.6313853569768,-391.56578697554721,2031.955925007406,5067.3131725186904,4559.4020827495715,-4865.1449784306769,4865.1449784306769,-4559.4020827495715,8790.2340769154507,0.0
633523.2936376977,3667751.2368613081,-47500.0,3199.2170681121193,-2710.3112500473412,-2757.7583919214703,2851.8802670089808,-1899.0093699882052,3514.2112605534048,5582.8902773838472,4034.6980445959148,-4852.6025905555007,4852.6025905555007,-4034.6980445959148,9732.2620596403031,0.0
638523.2936376977,3667751.2368613081,-47500.0,2550.6322916941735,-2824.3189154948795,-1778.4717868531852,2707.8636456322783,-3465.8041920488599,5002.3740135377966,6183.4800667262689,3160.6854299801353,-4362.9660062066714,4362.9660062066714,-3160.6854299801353,10831.866383650127,0.0
643523.2936376977,3667751.2368613081,-47500.0,1885.8024459216283,-2487.3959268569829,-814.80536732080486,2082.605540620923,-4845.8531993552178,6268.1617556104547,6738.6885685733068,2133.7259979907294,-3476.2719545778218,3476.2719545778218,-2133.7259979907294,11847.084964908299,0.0
648523.2936376977,3667751.2368613081,-47500.0,1409.7706780678,-1775.9929347063953,-49.863184891804693,1084.0655408726041,-5810.1605026184598,7108.3579140514194,7113.452642223855,1197.309853571674,-2386.6162969526085,2386.6162969526085,-1197.309853571674,12537.31313329739,0.0
653523.2936376977,3667751.2368613081,-47500.0,1246.6051950328726,-867.90078989588687,391.12016308311763,-81.303033942847378,-6223.4739043010559,7413.7429705851519,7220.2857394375151,547.94598664124783,-1332.1517395679232,1332.1517395679232,-547.94598664124783,12748.168701634371,0.0
658523.2936376977,3667751.2368613081,-47500.0,1399.7316215326143,28.029430376990661,476.83192406108714,-1186.8592214867783,-6079.1169396722789,7195.1738493769935,7039.3756059968009,270.15461273456128,-509.38112831811043,509.38112831811043,-270.15461273456128,12445.190075972481,0.0
663523.2936376977,3667751.2368613081,-47500.0,1774.1884322819071,743.50360803110618,262.85636118755815,-2059.0772148727069,-5479.7248361050433,6559.2416668586466,6610.313926431214,331.67730981023101,-19.347669476627999,19.347669476627999,-331.67730981023101,11699.25664802386,0.0
668523.2936376977,3667751.2368613081,-47500.0,2233.2959860370534,1189.1443547817003,-144.89125084342703,-2611.9739821922512,-4585.4629020404973,5657.5806795140797,6008.696802761624,625.49108352896042,136.50967828347626,-136.50967828347626,-625.49108352896042,10644.90101257682,0.0
673523.2936376977,3667751.2368613081,-47500.0,2651.9182033923125,1354.1342639528275,-631.62410079973404,-2841.3370480641966,-3561.1053916765627,4639.6567223537131,5321.082151341082,1023.7983903965491,25.643992818524225,-25.643992818524225,-1023.7983903965491,9435.2859155558617,0.0
678523.2936376977,3667751.2368613081,-47500.0,2945.9443864719983,1282.4080159267048,-1102.815926367937,-2797.3706175112661,-2541.2753796478637,3624.5933589783008,4626.5792717563845,1417.713216562056,-255.6172936329574,255.6172936329574,-1417.713216562056,8208.8069330227936,0.0
683523.2936376977,3667751.2368613081,-47500.0,3077.898081814013,1043.6282765381,-1496.5766872876125,-2554.6957812241681,-1616.9295757648883,2692.1535249196322,3986.892172405891,1735.0308004349586,-613.62742443250534,613.62742443250534,-1735.0308004349586,7071.0900740283605,0.0
688523.2936376977,3667751.2368613081,-47500.0,3048.1069446334591,710.12727752805506,-1783.1422458012432,-2189.8337346216363,-837.02963950316985,1885.9445994095408,3442.1262930947851,1940.904402672307,-974.79843144085476,974.79843144085476,-1940.904402672307,6089.1467075580504,0.0
693523.2936376977,3667751.2368613081,-47500.0,2880.92109957203,343.22333811874415,-1957.6258476975345,-1768.32524999051,-217.67929884690949,1221.8394380487282,3008.6965770831466,2029.6250804225892,-1290.8563326754152,1290.8563326754152,-2029.6250804225892,5292.7333384641261,0.0
698523.2936376977,3667751.2368613081,-47500.0,2611.8806292873155,-12.274729768827148,-2030.9983437962592,-1339.6326454108421,246.97330639994991,697.12904956410864,2680.0044386228074,2014.0130044579016,-1536.6073971764561,1536.6073971764561,-2014.0130044579016,4679.7355957067793,0.0
703523.2936376977,3667751.2368613081,-47500.0,2278.2844866606874,-328.13037525180505,-2022.153727183394,-936.99110747026168,575.15122305960267,298.29417777259897,2434.205172883565,1916.0472195051216,-1704.410476713485,1704.410476713485,-1916.0472195051216,4224.7564297936215,0.0
708523.2936376977,3667751.2368613081,-47500.0,1913.4681285812076,-589.93344433052789,-1952.1644839809853,-579.79355275070998,790.31401203543544,6.7658473229092513,2246.0182039578267,1760.0894731494911,-1798.1274569004729,1798.1274569004729,-1760.0894731494911,3890.2896260166503,0.0
713523.2936376977,3667751.2368613081,-47500.0,1544.1088092794348,-793.42128990091828,-1840.75903703421,-276.86905903423741,916.49529564004149,-197.22922618212846,2094.4784200704239,1568.7382165689567,-1827.9685116954604,1827.9685116954604,-1568.7382165689567,3637.8292570024355,0.0
718523.2936376977,3667751.2368613081,-47500.0,1189.6082107657744,-940.96039990108295,-1704.5687902744803,-29.707041474153947,975.65092033114365,-332.36711989696835,1964.9823526983305,1360.775342449755,-1806.7133825575465,1806.7133825575465,-1360.775342449755,3435.4555047120107,0.0
723523.2936376977,3667751.2368613081,-47500.0,862.69087451389862,-1038.6848295910149,-1556.5776949788765,164.82146105271963,986.43823931557267,-415.04534318974908,1848.4384981741932,1150.5389137140405,-1747.2662359602095,1747.2662359602095,-1150.5389137140405,3260.6074969956831,0.0
728523.2936376977,3667751.2368613081,-47500.0,570.57156351657591,-1094.4147530180533,-1406.2781898324693,312.3867145804802,963.90878614317398,-458.94788720775887,1739.7029182967603,948.13847931314535,-1661.2787153794832,1661.2787153794832,-948.13847931314535,3099.3527956212638,0.0
733523.2936376977,3667751.2368613081,-47500.0,316.2704903243116,-1116.281915450352,-1260.1703953154172,419.73835894548733,919.71763298583141,-475.06293655538093,1636.170561572123,760.08322213588679,-1558.5277487311714,1558.5277487311714,-760.08322213588679,2944.2015008449471,0.0
738523.2936376977,3667751.2368613081,-47500.0,99.8384622851204,-1111.9130999313234,-1122.3723434467049,493.75469915638377,862.57879782655687,-471.94336361505981,1536.7368311225189,590.04450353553898,-1446.7733405992806,1446.7733405992806,-590.04450353553898,2791.8552372095724,0.0
548523.2936376977,3672751.2368613081,-47500.0,-1361.7281819740081,1221.5067983868821,-773.39897304611213,-1192.9291027353875,834.00471613337209,-676.52051208477735,1711.685864013836,-1009.8349919199803,889.9864154611754,-889.9864154611754,1009.8349919199803,3353.3089374748783,0.0
553523.2936376977,3672751.2368613081,-47500.0,-1318.8208585957461,1327.3484968985372,-906.16866147159783,-1265.9088370063944,951.73312618616069,-757.01179001037735,1850.16785848268,-951.46044325933997,895.97166197448485,-895.97166197448485,951.46044325933997,3614.4992733087424,0.0
558523.2936376977,3672751.2368613081,-47500.0,-1244.16798341504,1433.2532477494044,-1062.1198218264053,-1332.0206670332973,1083.7050689170669,-843.42683404064519,1997.7429756246961,-860.24994262377959,882.06698683784998,-882.06698683784998,860.24994262377959,3889.6674189931668,0.0
563523.2936376977,3672751.2368613081,-47500.0,-1130.4270405538896,1534.7724021667027,-1244.3406515343154,-1386.2148240958491,1229.9454050997538,-934.22420164054449,2153.7839588211536,-728.47416387546491,841.13569361440523,-841.13569361440523,728.47416387546491,4176.5383671402305,0.0
568523.2936376977,3672751.2368613081,-47500.0,-969.52922179004577,1625.5475362189952,-1455.6683599829094,-1421.8480538758845,1389.4281493556546,-1026.7271304105425,2317.1734287755239,-547.5449651160344,764.39042514638584,-764.39042514638584,547.5449651160344,4471.6326447451765,0.0
573523.2936376977,3672751.2368613081,-47500.0,-753.08004073431061,1696.7945234236761,-1698.1946761486256,-1430.3947352452187,1559.4752775389113,-1116.6696348603155,2486.1952864279929,-308.4040871085931,641.31285698504269,-641.31285698504269,308.4040871085931,4770.0227362264077,0.0
578523.2936376977,3672751.2368613081,-47500.0,-473.11091423978309,1736.772274447379,-1972.4808901006581,-1401.2141627852716,1734.9162552765968,-1197.6108642835104,2658.4512192913389,-2.2825328581834867,459.79208087145525,-459.79208087145525,2.2825328581834867,5065.1611482582184,0.0
583523.2936376977,3672751.2368613081,-47500.0,-123.35584258650734,1730.35226923389,-2276.3741922395966,-1321.4812204723289,1906.9532670901674,-1260.2018986911123,2830.8587945188801,377.97850948404152,206.67128246885761,-206.67128246885761,-377.97850948404152,5348.9217243673384,0.0
588523.2936376977,3672751.2368613081,-47500.0,298.73994179283227,1658.9175184574381,-2603.3198683190171,-1176.4711871392853,2061.7035460940747,-1291.3056256472009,2999.8379287873877,835.81046756312003,-131.01118052237729,131.01118052237729,-835.81046756312003,5612.1233600180494,0.0
593523.2936376977,3672751.2368613081,-47500.0,789.08377598533627,1500.99443060566,-2940.1203927163465,-950.51814215797685,2178.4690503119987,-1273.0180913818135,3161.8701292167329,1367.7630576251904,-563.69026000113115,563.69026000113115,-1367.7630576251904,5846.0087436242984,0.0
598523.2936376977,3672751.2368613081,-47500.0,1333.0284489948756,1234.2668240188045,-3264.2850574845879,-629.15179829579267,2227.9898299565261,-1181.7690163585146,3314.7418427057837,1959.1967759886786,-1095.3862047244622,1095.3862047244622,-1959.1967759886786,6045.4727852139813,0.0
603523.2936376977,3672751.2368613081,-47500.0,1900.902926065218,839.83221899375485,-3541.5025364122876,-203.06997793292138,2171.3114568846954,-987.92890360110141,3459.8474836559744,2579.1181251829494,-1717.9119123271432,1717.9119123271432,-2579.1181251829494,6215.0124273835972,0.0
608523.2936376977,3672751.2368613081,-47500.0,2444.3316837035709,309.55144667824436,-3724.4979422054525,325.43120847358699,1960.549885084753,-656.82282550566288,3605.7944285446229,3175.3790596991093,-2403.3947819663972,2403.3947819663972,-3175.3790596991093,6377.8973570476501,0.0
613523.2936376977,3672751.2368613081,-47500.0,2896.1467340058812,-343.41543810487258,-3755.446181602375,933.63228467244437,1543.5849333062249,-152.6429152940897,3772.5856309604105,3672.9911362845792,-3096.7046441530943,3096.7046441530943,-3672.9911362845792,6586.0665473034287,0.0
618523.2936376977,3672751.2368613081,-47500.0,3178.0666340988491,-1072.8556068102121,-3574.7667326651381,1569.0712756892335,875.06860093463058,552.91074445165805,3993.2563758717115,3980.017364095233,-3711.6830272566954,3711.6830272566954,-3980.017364095233,6921.0698791776585,0.0
623523.2936376977,3672751.2368613081,-47500.0,3219.8235113602568,-1792.004835838819,-3138.2132982599373,2144.7216654841955,-65.157709588748659,1466.3713953080655,4306.6716723967766,4005.7313244200091,-4137.4115891473612,4137.4115891473612,-4005.7313244200091,7469.7246898104986,0.0
628523.2936376977,3672751.2368613081,-47500.0,2988.5811489069511,-2378.9871558987593,-2440.2711581739359,2546.3734539921038,-1249.3591531934549,2555.1083339811412,4736.6877251932929,3691.7722585620127,-4260.5091399191815,4260.5091399191815,-3691.7722585620127,8271.6723828011927,0.0
633523.2936376977,3672751.2368613081,-47500.0,2517.8546080754936,-2702.5731888034561,-1535.0559336874362,2658.3341639391119,-2584.707060647153,3734.7454976522113,5265.696183933911,3047.428468343217,-4003.0424562557291,4003.0424562557291,-3047.428468343217,9273.2365484388356,0.0
638523.2936376977,3672751.2368613081,-47500.0,1916.6511103437881,-2665.7473475238967,-540.51365940838025,2404.0653609460146,-3915.7620405994753,4872.9239901487281,5825.0249109579145,2169.54067047631,-3363.017926252488,3363.017926252488,-2169.54067047631,10329.474925329203,0.0
643523.2936376977,3672751.2368613081,-47500.0,1343.5228961128009,-2249.1211651568583,384.7470534452346,1784.2387523195289,-5055.5532858425167,5816.2856690443159,6315.1982416803421,1227.3366348203149,-2434.0756250592481,2434.0756250592481,-1227.3366348203149,11252.344366244728,0.0
648523.2936376977,3672751.2368613081,-47500.0,951.11761807953928,-1528.4364973677582,1087.5141038818806,888.60914484102511,-5837.6686358399274,6433.5336193682269,6641.8701645797164,410.64278561177247,-1386.1967326909003,1386.1967326909003,-410.64278561177247,11871.818110895787,0.0
653523.2936376977,3672751.2368613081,-47500.0,829.93834939603209,-652.29894298795034,1467.6758621737122,-129.31188085820844,-6165.4779514942047,6654.2109160813079,6745.0146308957756,-134.20616026903775,-412.13678000829208,412.13678000829208,134.20616026903775,12082.239217031574,0.0
658523.2936376977,3672751.2368613081,-47500.0,982.4113557300941,208.66446161704198,1503.6331457420786,-1102.0709110441458,-6034.2813080767755,6483.7699007863794,6610.7922084335614,-346.66443744214655,332.92968598488665,-332.92968598488665,346.66443744214655,11860.908321618734,0.0
663523.2936376977,3672751.2368613081,-47500.0,1336.5938125795926,913.62510616257248,1246.1867730510955,-1895.9876662678669,-5519.3348051761686,5990.8169562356534,6266.9560934134388,-254.62438970929963,769.00987054669224,-769.00987054669224,254.62438970929963,11259.145229994219,0.0
668523.2936376977,3672751.2368613081,-47500.0,1784.1316184450156,1381.6282239094492,790.18660689156104,-2436.7043595725258,-4741.8783899196442,5278.0467174437417,5768.3961581355798,54.583355406978171,894.85095539750614,-894.85095539750614,-54.583355406978171,10376.108853418698,0.0
673523.2936376977,3672751.2368613081,-47500.0,2219.1640660109074,1594.60685845436,241.20806772863421,-2709.518364235998,-3832.0976345930385,4452.6248685903047,5180.5538281933768,473.28600260821759,766.29219862078412,-766.29219862078412,-473.28600260821759,9328.7750278284511,0.0
678523.2936376977,3672751.2368613081,-47500.0,2563.2522743560239,1581.9599625326803,-309.59230371845672,-2743.732912001597,-2902.2725357826553,3605.9070432545673,4566.1518532782411,904.70026331163058,466.15372272091849,-466.15372272091849,-904.70026331163058,8227.8375347814708,0.0
683523.2936376977,3672751.2368613081,-47500.0,2773.6800826807566,1398.9628111456122,-797.92043019248342,-2592.4805424399974,-2033.9004252404686,2804.4189266087433,3977.1034205223013,1279.3427797189274,78.647037474307808,-78.647037474307808,-1279.3427797189274,7163.2026161414733,0.0
688523.2936376977,3672751.2368613081,-47500.0,2839.8836748396561,1107.7945768316947,-1188.0140289074841,-2315.5647958309528,-1276.1345033450525,2089.3041960038217,3450.5555090439607,1558.3532675486736,-326.34086772704393,326.34086772704393,-1558.3532675486736,6198.1269237528204,0.0
693523.2936376977,3672751.2368613081,-47500.0,2774.3200591432637,764.86503701324887,-1467.8849707976851,-1968.1204163137843,-650.79945508544836,1480.3831706489298,3006.9516377134305,1728.8638275086128,-699.50083989183247,699.50083989183247,-1728.8638275086128,5369.1339987705378,0.0
698523.2936376977,3672751.2368613081,-47500.0,2602.5171442301703,414.49160099892924,-1642.1435531757656,-1594.8437169072392,-159.87863544204313,981.8075901335975,2649.8167405573022,1796.2491158276957,-1011.8107070542519,1011.8107070542519,-1796.2491158276957,4689.0462344534853,0.0
703523.2936376977,3672751.2368613081,-47500.0,2354.8427390762013,87.322615199355937,-1725.0239564335448,-1228.3123472418117,207.12806601769395,587.53464428219127,2369.4071188976532,1776.416295839877,-1250.8269026710304,1250.8269026710304,-1776.416295839877,4151.643555284063,0.0
708523.2936376977,3672751.2368613081,-47500.0,2060.8320659053174,-198.39357801945442,-1734.8668675258209,-889.78128524449039,467.21929595679421,285.81300553499977,2149.6911199516949,1689.6534352379238,-1415.8943211359503,1415.8943211359503,-1689.6534352379238,3737.4695928282604,0.0
713523.2936376977,3672751.2368613081,-47500.0,1745.9406540829598,-434.24546001708865,-1690.3701215096291,-591.17429380770841,639.61674314477193,62.469840304900181,1974.4182546673601,1556.4358557418336,-1513.6541949275279,1513.6541949275279,-1556.4358557418336,3420.361685474506,0.0
718523.2936376977,3672751.2368613081,-47500.0,1430.1739083021832,-618.83000656379477,-1608.4077628703635,-337.41582184560787,743.05137567906104,-96.907067448706627,1830.1085843258588,1394.9911758831174,-1554.4688247059123,1554.4688247059123,-1394.9911758831174,3173.5738053234577,0.0
723523.2936376977,3672751.2368613081,-47500.0,1127.9672244232686,-755.22490493783357,-1503.025477334236,-128.61292967644846,794.27121979177343,-205.67492439523363,1706.7679867623369,1220.1939601073063,-1549.8992775105112,1549.8992775105112,-1220.1939601073063,2974.0947122498142,0.0
728523.2936376977,3672751.2368613081,-47500.0,848.77728014563183,-848.99250784875721,-1385.2087717031593,38.13881984564523,807.40318446827519,-275.4882804048716,1597.5438798534408,1043.3397151684378,-1511.1170209010863,1511.1170209010863,-1043.3397151684378,2804.5501244241063,0.0
733523.2936376977,3672751.2368613081,-47500.0,597.99058529329034,-906.74561891882956,-1263.0955774535137,167.38509595205673,793.85467035849297,-316.08338625422238,1498.0312870985586,872.4268546548119,-1448.0367799662022,1448.0367799662022,-872.4268546548119,2653.1555526825523,0.0
548523.2936376977,3677751.2368613081,-47500.0,-1082.7680960194944,1188.1737144099702,-872.00716844597969,-1015.9630067310892,827.91102410381438,-592.84700112633732,1582.4614530784065,-717.59469494934206,722.91013982014783,-722.91013982014783,717.59469494934206,3093.430043640215,0.0
553523.2936376977,3677751.2368613081,-47500.0,-1011.1693190314253,1273.5012816418782,-1010.2560959888231,-1059.9874599328962,934.81322392211564,-655.31907346034427,1701.439939824201,-628.15630767634707,700.16973588226983,-700.16973588226983,628.15630767634707,3314.2222828500549,0.0
558523.2936376977,3677751.2368613081,-47500.0,-907.5993767734949,1353.6146672708401,-1169.5140345447358,-1093.1096521621171,1051.874655583043,-719.90529600440664,1826.6682088672565,-505.4152074684547,654.15984471206286,-654.15984471206286,505.4152074684547,3543.1332457752023,0.0
563523.2936376977,3677751.2368613081,-47500.0,-766.10898726543439,1423.2336537957397,-1351.5363604396573,-1110.1927250283088,1177.9410784763475,-784.39676799554491,1957.3055561242386,-343.1213002769075,578.12883977957301,-578.12883977957301,343.1213002769075,3777.4799533346841,0.0
568523.2936376977,3677751.2368613081,-47500.0,-580.66863100703654,1475.2767344522017,-1557.3455789738241,-1104.8050442897502,1310.5737011821666,-845.4293133521644,2092.1432905326651,-134.8904446936875,464.19253810651173,-464.19253810651173,134.8904446936875,4013.6426834527992,0.0
573523.2936376977,3677751.2368613081,-47500.0,-345.73873431794436,1500.5302908898198,-1786.6363978895586,-1069.1170478245963,1445.471153828139,-898.10128066454718,2229.5956087448312,125.19831379552521,303.50629241346502,-303.50629241346502,-125.19831379552521,4247.0413671338656,0.0
578523.2936376977,3677751.2368613081,-47500.0,-57.175039844857139,1487.4090068036221,-2036.9204273827277,-993.92917383777456,1575.7196549027594,-935.51877252152428,2367.7681307948096,441.63698733319075,86.725759990521055,-86.725759990521055,-441.63698733319075,4472.3038939332118,0.0
583523.2936376977,3677751.2368613081,-47500.0,286.425547741667,1421.9516284220354,-2302.3563058790041,-868.9447377827679,1690.8672892360146,-948.28533476474195,2504.6735272669366,816.03029206429119,-195.07493246483409,195.07493246483409,-816.03029206429119,4683.8057244101446,0.0
588523.2936376977,3677751.2368613081,-47500.0,681.85230737197685,1288.2902029766515,-2572.250332708702,-683.46293316543051,1775.8686423613926,-923.9856585119943,2638.7037178344945,1245.0323582861201,-548.80807776211998,548.80807776211998,-1245.0323582861201,4876.8746128629564,0.0
593523.2936376977,3677751.2368613081,-47500.0,1118.8823816529284,1069.9499680618246,-2829.3182278432928,-427.73755415134093,1810.0469726931155,-846.77261649229388,2769.5085412366525,1717.6476704351785,-976.8600785226422,976.8600785226422,-1717.6476704351785,5050.084607316051,0.0
598523.2936376977,3677751.2368613081,-47500.0,1577.5760961856722,752.44743856934065,-3048.0098273002245,-95.306826478376351,1766.4045951929929,-697.27252793416324,2899.434111042754,2212.0788647600361,-1473.4896102069388,1473.4896102069388,-2212.0788647600361,5209.1084480097352,0.0
603523.2936376977,3677751.2368613081,-47500.0,2025.9110670357124,327.66424490642459,-3193.5632506499533,313.4227293070407,1611.9026781468533,-453.19666794069877,3035.5357443251996,2692.739361930915,-2020.2349962104051,2020.2349962104051,-2692.739361930915,5372.2185255697659,0.0
608523.2936376977,3677751.2368613081,-47500.0,2419.0666033600219,-199.81322963123432,-3222.9526305330096,786.30662340081813,1309.6936554669594,-91.269995380775185,3191.6856690626491,3108.7610872303785,-2581.0571832990272,2581.0571832990272,-3108.7610872303785,5575.9578740056331,0.0
613523.2936376977,3677751.2368613081,-47500.0,2702.4041584255551,-805.05886267585436,-3089.3341763076505,1293.9626965158945,824.54782196276733,408.7411746631783,3389.2555039073141,3396.1861412208664,-3099.0169019405503,3099.0169019405503,-3396.1861412208664,5876.0396544133673,0.0
618523.2936376977,3677751.2368613081,-47500.0,2820.4171535352202,-1436.1589035424201,-2751.5100603088545,1785.5526316271344,132.45270869491191,1057.2902282142638,3653.700499157183,3486.506690948042,-3497.5905547920383,3497.5905547920383,-3486.506690948042,6335.2866931368626,0.0
623523.2936376977,3677751.2368613081,-47500.0,2732.5718883489367,-2012.8388448700782,-2188.528315272908,2189.2719391200831,-766.05601228614694,1845.9535563149016,4004.8877917392351,3323.1969010600146,-3690.3587743243847,3690.3587743243847,-3323.1969010600146,6995.2843105099782,0.0
628523.2936376977,3677751.2368613081,-47500.0,2433.1488236114328,-2435.5810628711461,-1416.3413306255934,2421.5452975511566,-1832.1634803099782,2738.3586023997968,4443.1403517548461,2884.2405468138822,-3601.1449427305197,3601.1449427305197,-2884.2405468138822,7845.056327173771,0.0
633523.2936376977,3677751.2368613081,-47500.0,1966.7798717876706,-2607.9545854361068,-499.33759823980284,2406.6562480297421,-2981.3641720299884,3665.92270306112,4938.5754547725828,2202.7717795676076,-3191.4544581247233,3191.4544581247233,-2202.7717795676076,8809.36823976292,0.0
638523.2936376977,3677751.2368613081,-47500.0,1428.420301134382,-2467.8134006410542,452.26983080246146,2102.6176772516519,-4090.0783630154483,4533.8367146017999,5432.3052947578326,1373.5380403031422,-2484.7779962493928,2484.7779962493928,-1373.5380403031422,9764.5977803691567,0.0
643523.2936376977,3677751.2368613081,-47500.0,941.19524604780827,-2014.5700670931276,1304.009449788321,1522.3454314125179,-5019.4430171398753,5239.270845321571,5851.3131971347075,535.73738151888051,-1573.5244122407128,1573.5244122407128,-535.73738151888051,10571.574822967234,0.0
648523.2936376977,3677751.2368613081,-47500.0,618.1234695028121,-1317.3032906654266,1932.340781747241,737.7948761180545,-5649.9500486415345,5696.7810865419715,6129.5338648239385,-165.2360884683003,-600.05312723798454,600.05312723798454,165.2360884683003,11110.812974060162,0.0
653523.2936376977,3677751.2368613081,-47500.0,525.47614961724241,-496.94107325144188,2258.7182862454383,-137.57766238714692,-5912.6403445327951,5860.2696960880121,6224.9821683615401,-620.80353963357834,282.62565571809012,-282.62565571809012,620.80353963357834,11308.989485559792,0.0
658523.2936376977,3677751.2368613081,-47500.0,665.67991100010579,309.6454976100884,2267.3156248727955,-980.43565735993923,-5803.2641964255845,5731.8620509072998,6127.2301450627419,-786.80049879689909,952.72217381723226,-952.72217381723226,786.80049879689909,11149.990557134661,0.0
663523.2936376977,3677751.2368613081,-47500.0,985.44770424077421,986.51130089035166,2000.6278705185289,-1688.560790194716,-5375.282925008406,5355.3979120294098,5855.07566432365,-685.32331652098173,1346.0208130559072,-1346.0208130559072,685.32331652098173,10669.821678385728,0.0
668523.2936376977,3677751.2368613081,-47500.0,1400.7512320907615,1461.8092202167772,1538.7763130345793,-2199.4141958916553,-4718.2162502243127,4799.914357194265,5447.7368551092713,-385.30595926827186,1459.3926709040511,-1459.3926709040511,385.30595926827186,9940.4130630670079,0.0
673523.2936376977,3677751.2368613081,-47500.0,1824.5803316059885,1712.622268182125,973.97234833362268,-2493.1676815888795,-3932.4098691072259,4141.3215253030585,4953.9991240772652,25.155022862825149,1336.3363351950406,-1336.3363351950406,-25.155022862825149,9049.8555102414557,0.0
678523.2936376977,3677751.2368613081,-47500.0,2187.0400950440458,1755.8389491613814,389.73736288060917,-2584.4126968090809,-3108.9753795432875,3448.2953215287025,4422.7973378699435,462.74923052263648,1045.1045227325517,-1045.1045227325517,-462.74923052263648,8085.2693994803121,0.0
683523.2936376977,3677751.2368613081,-47500.0,2444.3975225594913,1632.8829776929585,-150.90674068233048,-2509.1569663537666,-2318.4553994959306,2774.5122363446339,3896.8092285476887,863.3544355346412,658.59215538989065,-658.59215538989065,-863.3544355346412,7121.3454408126227,0.0
688523.2936376977,3677751.2368613081,-47500.0,2578.970792909784,1394.8072979750748,-608.75102409693136,-2312.3403735236375,-1607.5110105358451,2156.4460350850754,3408.8309745036963,1186.8490718870412,240.64110545600204,-240.64110545600204,-1186.8490718870412,6214.7161895270719,0.0
693523.2936376977,3677751.2368613081,-47500.0,2593.7185138937093,1091.1996039505245,-965.96544510625563,-2038.5143439191995,-1000.9984031764358,1614.7992704647559,2979.831011547235,1415.2395582091408,-160.62592447828899,160.62592447828899,-1415.2395582091408,5402.7543875962356,0.0
698523.2936376977,3677751.2368613081,-47500.0,2505.0402311143316,763.69536415281664,-1220.9157319700514,-1726.2383590740928,-506.68019591410922,1157.6981688399362,2618.3253732435087,1547.4650180258081,-514.02880086179687,514.02880086179687,-1547.4650180258081,4705.0509229836016,0.0
703523.2936376977,3677751.2368613081,-47500.0,2336.0590484305403,443.38227157199287,-1382.4670995018482,-1405.6096865729155,-120.54155120007343,784.32083819476827,2322.1442327831323,1593.4331371007991,-803.27321146507688,803.27321146507688,-1593.4331371007991,4126.2233534247853,0.0
708523.2936376977,3677751.2368613081,-47500.0,2111.4580033105576,150.85422560181905,-1465.0489201473044,-1097.9680494448153,168.45803183787032,488.19912905040002,2082.5950723787018,1568.7675075830648,-1023.4644719289417,1023.4644719289417,-1568.7675075830648,3659.3416586147437,0.0
713523.2936376977,3677751.2368613081,-47500.0,1854.0991556195095,-102.27530533351033,-1484.9820230725652,-816.85967232001644,374.69286634531409,259.85710916956646,1888.7133655883865,1490.8709644551384,-1177.4381520363752,1177.4381520363752,-1490.8709644551384,3289.6977563730225,0.0
718523.2936376977,3677751.2368613081,-47500.0,1583.2038248585318,-311.29455511084893,-1458.0851609451313,-569.56241562335663,513.30481759708698,88.720240310049945,1729.9237093710904,1376.3599689352254,-1272.5818345843377,1272.5818345843377,-1376.3599689352254,2998.6873557952213,0.0
723523.2936376977,3677751.2368613081,-47500.0,1313.694275961285,-476.31472400119344,-1398.3405001363076,-358.71185915068014,598.61128192090291,-35.630225914561755,1597.2347761871747,1239.648714065429,-1318.4068508732316,1318.4068508732316,-1239.648714065429,2767.3182700790558,0.0
728523.2936376977,3677751.2368613081,-47500.0,1056.2897017902274,-600.48441990779736,-1317.3259071869838,-183.7706862342487,643.25676847952309,-122.72355138966411,1483.586464486049,1092.3726128517874,-1324.876127042673,1324.876127042673,-1092.3726128517874,2578.7587074041035,0.0
553523.2936376977,3682751.2368613081,-47500.0,-729.80472795862636,1187.2654844970243,-1085.9324119125254,-866.99059560247986,896.84652014887513,-558.69717297324564,1557.6853945721168,-341.35373526376821,505.27617570318836,-505.27617570318836,341.35373526376821,3018.9166885901527,0.0
558523.2936376977,3682751.2368613081,-47500.0,-605.81229571407641,1239.9756178011082,-1241.6134963947438,-872.66873385361737,996.47112177029169,-604.15913760987439,1663.2328854192945,-197.73298272881135,432.64743174710878,-432.64743174710878,197.73298272881135,3206.4671875061254,0.0
563523.2936376977,3682751.2368613081,-47500.0,-446.82424658028077,1277.1068431249632,-1415.3384269341252,-859.94470103521962,1100.0543924135964,-646.15782018086804,1772.0721673056316,-17.812563971841712,329.10435781419534,-329.10435781419534,17.812563971841712,3395.0810785677727,0.0
568523.2936376977,3682751.2368613081,-47500.0,-248.91065848429992,1291.4223544943575,-1606.3391250050347,-823.01938327992036,1204.1024349029178,-681.04001382672425,1883.179362092473,202.44220093468243,188.15556415474134,-188.15556415474134,-202.44220093468243,3581.5847000109416,0.0
573523.2936376977,3682751.2368613081,-47500.0,-9.2479880681085032,1274.005014254599,-1812.1132559974847,-755.20061886146618,1303.2356858215242,-703.78335243927779,1995.4181191358684,465.87618231986414,3.1037428155758278,-3.1037428155758278,-465.87618231986414,3762.4551655155565,0.0
578523.2936376977,3682751.2368613081,-47500.0,272.95974639071619,1214.2933138873068,-2027.6082117960145,-649.12338857342399,1389.588448085959,-707.68372597485438,2107.7331611424743,773.1318703244101,-232.28095080771067,232.28095080771067,-773.1318703244101,3934.2996888384932,0.0
583523.2936376977,3682751.2368613081,-47500.0,595.24578042112353,1100.430103558411,-2244.2065360227407,-497.23777989099761,1452.1448678689062,-684.05729943393101,2219.5154415906109,1121.2712300655799,-522.65759768463079,522.65759768463079,-1121.2712300655799,4094.7936887584897,0.0
588523.2936376977,3682751.2368613081,-47500.0,950.34515721094397,920.12943012716198,-2448.5741068435004,-292.69504492422146,1476.1012213003423,-622.02578838804459,2331.2135063107817,1502.0305003090598,-869.45243346072868,869.45243346072868,-1502.0305003090598,4244.3127566178964,0.0
593523.2936376977,3682751.2368613081,-47500.0,1324.4886406386959,662.32411294379074,-2621.5493389899452,-30.785365916499618,1442.4393470334223,-508.50547227993388,2445.250845832677,1899.8245681055685,-1268.5507287811095,1268.5507287811095,-1899.8245681055685,4388.4821392240183,0.0
598523.2936376977,3682751.2368613081,-47500.0,1695.8654710199773,319.86090112951263,-2737.4418243865039,288.94086700342979,1328.0318704603837,-328.58918455472877,2567.2039273948913,2289.8398846675254,-1707.3986756853499,1707.3986756853499,-2289.8398846675254,4541.5856309407236,0.0
603523.2936376977,3682751.2368613081,-47500.0,2033.9120424673172,-106.61016775168302,-2764.3730409091386,659.84492650021866,1106.7760396379608,-66.599621454331242,2706.9309042320347,2636.901513735148,-2161.8741303149018,2161.8741303149018,-2636.901513735148,4729.9025336267596,0.0
608523.2936376977,3682751.2368613081,-47500.0,2300.4579918334039,-603.78323666834012,-2666.5551642904461,1064.9268343113865,752.39501162879287,291.84095904666009,2878.8585106386126,2896.2321958884299,-2593.803604702503,2593.803604702503,-2896.2321958884299,4992.3040460861776,0.0
613523.2936376977,3682751.2368613081,-47500.0,2453.9894254750652,-1140.8479586674612,-2409.4800759979548,1473.8927087637587,243.51353323820803,756.41458672475119,3100.173487892228,3017.5473127022915,-2950.6763801910101,2950.6763801910101,-3017.5473127022915,5373.8785190981744,0.0
618523.2936376977,3682751.2368613081,-47500.0,2457.9620150064875,-1666.6613951387892,-1968.5384367286736,1842.0617269673019,-428.85256078412937,1327.3686578905342,3385.9231886217422,2953.7296795001894,-3169.6380796484427,3169.6380796484427,-2953.7296795001894,5910.3446578899502,0.0
623523.2936376977,3682751.2368613081,-47500.0,2292.7090754284509,-2111.8660375683794,-1340.2385143395236,2113.1795789912217,-1252.3950035946464,1990.1239364753942,3741.6466983821656,2674.0275741748642,-3187.57753121007,3187.57753121007,-2674.0275741748642,6608.5238912516897,0.0
628523.2936376977,3682751.2368613081,-47500.0,1967.9362896218447,-2398.6668939194183,-552.9833836464345,2227.9124660590896,-2185.9264445959898,2710.9870252221408,4156.3386809839021,2179.0634617308351,-2957.2707365355554,2957.2707365355554,-2179.0634617308351,7434.1607024014602,0.0
633523.2936376977,3682751.2368613081,-47500.0,1530.0990037491233,-2458.5680800230443,327.75626482392852,2137.8903395829007,-3157.3070923544028,3436.6239794962185,4599.3762107737311,1511.7758924858274,-2465.9564607896846,2465.9564607896846,-1511.7758924858274,8314.0797781250094,0.0
638523.2936376977,3682751.2368613081,-47500.0,1058.4839363279918,-2253.8308181770722,1205.1021270381002,1821.7843829787271,-4070.7646762241811,4099.6813988011572,5023.956697709621,757.12700726814228,-1748.9526042962161,1748.9526042962161,-757.12700726814228,9150.6182448364543,0.0
643523.2936376977,3682751.2368613081,-47500.0,647.67540880600609,-1794.1158215532357,1968.9015192604134,1296.8791632340765,-4824.2288165247919,4630.7553493653268,5376.952395215967,26.544051010620194,-890.12820317319802,890.12820317319802,-26.544051010620194,9842.2460591288709,0.0
648523.2936376977,3682751.2368613081,-47500.0,381.37044400399321,-1139.5470392153866,2521.6168087497772,619.77295314257697,-5332.0768254871373,4973.4914321412871,5611.6125891129741,-569.53031497468123,-5.6498719985692105,5.6498719985692105,569.53031497468123,10304.423668645944,0.0
653523.2936376977,3682751.2368613081,-47500.0,308.4072518822411,-387.06754833128571,2802.1787560793855,-125.62964163554813,-5544.8876127177118,5097.2320252787067,5698.0273046075617,-950.39931756797591,784.22423014790388,-784.22423014790388,950.39931756797591,10485.4018741033,0.0
658523.2936376977,3682751.2368613081,-47500.0,431.37753945406456,354.65653248829841,2798.3189289874954,-848.33370300751153,-5458.5782462385623,5002.3476348918539,5628.0183834659738,-1083.2747154474916,1384.0608533909224,-1384.0608533909224,1083.2747154474916,10373.116418881718,0.0
663523.2936376977,3682751.2368613081,-47500.0,711.33077880782878,991.25574321477552,2543.7346172442089,-1470.4819890928238,-5110.4731379677651,4716.9444906459457,5414.0656492893095,-984.76302996924301,1741.822876658927,-1741.822876658927,984.76302996924301,9992.4104130332107,0.0
668523.2936376977,3682751.2368613081,-47500.0,1084.058683953444,1460.2318166053867,2103.5450692673494,-1940.6290933877806,-4565.7089308746745,4287.4500981576466,5083.9758374530265,-708.08453654949642,1852.2784073422372,-1852.2784073422372,708.08453654949642,9395.0680647997706,0.0
673523.2936376977,3682751.2368613081,-47500.0,1479.5799245206497,1736.3575135199517,1555.3725171934548,-2237.5382612582721,-3900.33383985617,3767.3233700379492,4673.8222880382582,-323.78171517383612,1747.7434786931842,-1747.7434786931842,323.78171517383612,8646.876743977713,0.0
678523.2936376977,3682751.2368613081,-47500.0,1837.7538596308686,1826.8472561119802,972.79473782978334,-2366.213097919604,-3186.7232283023995,3207.4761596625613,4221.3534476335653,98.24568365315713,1482.6297097392141,-1482.6297097392141,-98.24568365315713,7815.6041370155499,0.0
683523.2936376977,3682751.2368613081,-47500.0,2116.8437871255201,1761.0374087718374,414.76094750442564,-2349.8294108960081,-2484.1968299811679,2650.1349391977919,3761.0606125791583,500.831035162234,1118.0807153472088,-1118.0807153472088,-500.831035162234,6962.1653155291951,0.0
688523.2936376977,3682751.2368613081,-47500.0,2295.3736439971717,1579.1558053672684,-78.637105170842631,-2220.9987613433691,-1835.0846309775079,2126.2104013766871,3321.0271743731132,844.87817956788456,710.48276000361204,-710.48276000361204,-844.87817956788456,6135.5733520646108,0.0
693523.2936376977,3682751.2368613081,-47500.0,2369.4272261736573,1323.0893848842836,-485.56560060411834,-2014.5099202765141,-1264.9435635343234,1655.3173608182797,2921.0320094140898,1109.3773960203257,304.94596848990045,-304.94596848990045,-1109.3773960203257,5371.1127592211451,0.0
698523.2936376977,3682751.2368613081,-47500.0,2347.799553475063,1030.2685525098432,-799.095805797926,-1762.3791913278519,-785.20537012014825,1247.3693906184462,2571.6834879161684,1288.2820603318337,-66.906710902780446,66.906710902780446,-1288.2820603318337,4690.7250937979716,0.0
703523.2936376977,3682751.2368613081,-47500.0,2246.8413430562273,730.55255781196911,-1022.8730051756044,-1491.1500204717372,-396.78490051188516,904.8384854823704,2275.1963295363071,1386.1764013769457,-386.21402364467275,386.21402364467275,-1386.1764013769457,4104.638672483884,0.0
708523.2936376977,3682751.2368613081,-47500.0,2086.0686697802148,445.40564751707018,-1166.9788071490416,-1220.9516534512613,-93.657124016105826,625.0608337885667,2027.9300539859564,1414.0360959176248,-644.58905254915203,644.58905254915203,-1414.0360959176248,3613.5545232764384,0.0
713523.2936376977,3682751.2368613081,-47500.0,1884.965364268005,188.52645585933763,-1244.5771645523259,-965.72284885428178,134.1231440500932,402.24436982992057,1823.3217464115414,1385.7574867606331,-841.31662620333066,841.31662620333066,-1385.7574867606331,3211.0302343574776,0.0
718523.2936376977,3682751.2368613081,-47500.0,1660.9859111398218,-32.788536582988868,-1269.5157083875149,-734.07698003621272,298.14609561662292,229.03818093047738,1653.9688197028688,1315.6711074539846,-980.69002917185003,980.69002917185003,-1315.6711074539846,2885.9131114592483,0.0
723523.2936376977,3682751.2368613081,-47500.0,1428.5532066784174,-216.06029994537235,-1254.8099460124185,-530.41981519124761,410.09798696863595,97.651686686496717,1512.7738859177291,1216.9826203703396,-1069.8123789235096,1069.8123789235096,-1216.9826203703396,2624.7032868414572,0.0
553523.2936376977,3687751.2368613081,-47500.0,-480.19430076933332,1077.8804771693992,-1132.3552126570439,-690.83760258629673,842.82006215287254,-469.13553342968595,1421.1756514384053,-95.633246385207315,320.21033464223984,-320.21033464223984,95.633246385207315,2735.1296070304079,0.0
558523.2936376977,3687751.2368613081,-47500.0,-343.84748837635425,1103.7300061563933,-1278.6058329230075,-674.77775933694011,923.96993034320485,-498.41608532031648,1509.8406776860252,59.043270311279016,227.35481399031562,-227.35481399031562,-59.043270311279016,2887.0359328479421,0.0
563523.2936376977,3687751.2368613081,-47500.0,-176.64884390222329,1110.247850108962,-1437.5361916083339,-639.45451779750465,1004.6087681784015,-521.89562188996911,1600.5224346871478,245.23461882112304,104.5362054380994,-104.5362054380994,-245.23461882112304,3037.4476761629371,0.0
568523.2936376977,3687751.2368613081,-47500.0,23.379043170095663,1090.5397289482532,-1606.8064401668921,-579.95214750401988,1080.5780939472993,-535.93863117520004,1692.5639525482609,464.7539466548169,-53.087340409673061,53.087340409673061,-464.7539466548169,3184.0792468796494,0.0
573523.2936376977,3687751.2368613081,-47500.0,256.71599914989883,1036.5547895216221,-1782.1376346884276,-490.91985412491152,1145.9588555740756,-535.76836003042899,1785.4537984692959,717.75035759057062,-249.91973825474702,249.91973825474702,-717.75035759057062,3324.9369144173265,0.0
578523.2936376977,3687751.2368613081,-47500.0,521.51067570974226,939.34170801509276,-1956.6166394847849,-366.90809930327242,1192.6418087384518,-515.28247412660005,1879.0971444084835,1001.7747122200858,-489.15874217853803,489.15874217853803,-1001.7747122200858,3459.0296682958237,0.0
583523.2936376977,3687751.2368613081,-47500.0,812.56601600558179,789.63769157360207,-2119.9216859068879,-202.95215530473263,1209.9222550671395,-466.92655670327514,1974.2395622154831,1310.6243040358017,-771.67696842332862,771.67696842332862,-1310.6243040358017,3587.5306974488408,0.0
588523.2936376977,3687751.2368613081,-47500.0,1120.2235468417048,578.9408990729562,-2257.5767575556088,4.5161928963771842,1184.2242864529039,-381.69380802608811,2073.0615884413446,1633.0416892257824,-1094.5081217431468,1094.5081217431468,-1633.0416892257824,3715.4884069951463,0.0
593523.2936376977,3687751.2368613081,-47500.0,1429.3356467010731,301.22174421527001,-2350.4474453649514,256.35993393965879,1099.1318646630509,-249.35391143881796,2179.8965039457175,1951.4612411607518,-1448.9705306950245,1448.9705306950245,-1951.4612411607518,3853.9997248958239,0.0
598523.2936376977,3687751.2368613081,-47500.0,1718.6776155028078,-44.630445695681004,-2374.8324891668162,549.01850791900995,935.9894368540738,-59.050869369855633,2301.8733217627914,2241.1771763896327,-1818.6180841390033,1818.6180841390033,-2241.1771763896327,4022.245927419624,0.0
603523.2936376977,3687751.2368613081,-47500.0,1961.3439716931412,-451.70421552587067,-2303.6548368666076,872.49778144980655,675.4109577512794,199.56307983607724,2449.0491819137701,2470.5296747875673,-2177.4685897411637,2177.4685897411637,-2470.5296747875673,4247.8818792008042,0.0
608523.2936376977,3687751.2368613081,-47500.0,2126.824629485639,-901.73211247566724,-2109.3414303925924,1208.4199779041396,300.04792375376428,534.5016475325483,2633.3949245015829,2602.9026968914645,-2489.311299941764,2489.311299941764,-2602.9026968914645,4563.5004108530875,0.0
613523.2936376977,3687751.2368613081,-47500.0,2185.3954180498858,-1362.4806616227875,-1768.8380060897739,1528.8180227588298,-201.19520242752003,948.87544949321773,2866.124212274306,2601.3186326078526,-2709.2227122628287,2709.2227122628287,-2601.3186326078526,4997.780291729935,0.0
618523.2936376977,3687751.2368613081,-47500.0,2114.9727223702394,-1787.3940196790879,-1270.6744505794484,1796.6963125735945,-827.75283116641538,1437.7874539957475,3153.5985550190107,2435.9724030892194,-2788.4899853124416,2788.4899853124416,-2435.9724030892194,5563.5137808836953,0.0
623523.2936376977,3687751.2368613081,-47500.0,1909.4711833004571,-2119.2712077683859,-622.92502792207324,1969.4670807641774,-1561.8353448249338,1985.3352750020179,3493.0212641279536,2093.9082061516351,-2683.5365426902895,2683.5365426902895,-2093.9082061516351,6248.1377950009701,0.0
628523.2936376977,3687751.2368613081,-47500.0,1586.1912606820838,-2299.1408431883142,140.42997878822595,2005.869483660731,-2364.6670414460095,2562.8690941922905,3869.5640006817453,1588.3719615753421,-2367.9358615394135,2367.9358615394135,-1588.3719615753421,7011.4051322729729,0.0
633523.2936376977,3687751.2368613081,-47500.0,1188.5856047403513,-2279.6073875015513,958.15106094357679,1875.6353954507324,-3176.9784045861893,3129.893271716513,4256.1624160902875,963.86302171047532,-1844.3755103514279,1844.3755103514279,-963.86302171047532,7790.5422896306127,0.0
638523.2936376977,3687751.2368613081,-47500.0,781.20727863190712,-2039.2382240921038,1748.1943212547142,1569.3536991547169,-3925.563899861193,3638.5822279469326,4616.6960650109231,292.95894789424898,-1151.7135850698269,1151.7135850698269,-292.95894789424898,8510.6320263713551,0.0
643523.2936376977,3687751.2368613081,-47500.0,436.38465318332084,-1592.5051017428962,2422.1162020040451,1104.7048232225552,-4535.585797187553,4041.5837458863739,4912.3936716095695,-336.49201561741899,-362.60747066996265,362.60747066996265,336.49201561741899,9097.5592337385751,0.0
648523.2936376977,3687751.2368613081,-47500.0,216.32629670449654,-990.32398399178805,2903.7421540479031,525.79441482623452,-4945.4907904048914,4301.1326881500981,5109.7277097659598,-840.79282229367436,429.51370411120524,-429.51370411120524,840.79282229367436,9490.8121532923287,0.0
653523.2936376977,3687751.2368613081,-47500.0,157.29882221169353,-309.836113426331,3145.7379692242171,-105.06464593066082,-5119.6042422124447,4396.4947530280979,5187.0211762952113,-1159.6946261401106,1130.5042815260892,-1130.5042815260892,1159.6946261401106,9653.2442932623053,0.0
658523.2936376977,3687751.2368613081,-47500.0,261.95963435626959,363.10460872282681,3138.2129583599203,-720.43874352798036,-5054.0958504774071,4327.2335174928876,5137.7400667588645,-1268.4860893794353,1665.5127501578258,-1665.5127501578258,1268.4860893794353,9575.5319866309401,0.0
663523.2936376977,3687751.2368613081,-47500.0,502.03067491461024,952.26069037197385,2907.0267432874116,-1261.0864556596712,-4774.8255226238034,4111.5366748938941,4970.0722035204471,-1179.2389549314366,1992.1500678060202,-1992.1500678060202,1179.2389549314366,9274.6960403985158,0.0
668523.2936376977,3687751.2368613081,-47500.0,828.89550346768044,1404.1840436774612,2503.7963191308636,-1685.3632532850415,-4328.8471947605813,3780.7868079578097,4703.6982001857959,-932.46963544551068,2103.6249684018831,-2103.6249684018831,932.46963544551068,8787.9537061297415,0.0
673523.2936376977,3687751.2368613081,-47500.0,1187.1395047288258,1693.4033461606143,1992.1941430158793,-1972.8510926627807,-3773.1900883579037,3372.5878871023538,4365.2024990396139,-583.81371545345337,2023.0235750714974,-2023.0235750714974,583.81371545345337,8164.254500819593,0.0
678523.2936376977,3687751.2368613081,-47500.0,1526.3569584191407,1820.2953428945079,1435.1461729729865,-2122.773669929752,-3164.4568774694872,2924.35058153311,3983.4975401204738,-190.77420998188154,1792.6199149093666,-1792.6199149093666,190.77420998188154,7455.9043200328952,0.0
683523.2936376977,3687751.2368613081,-47500.0,1808.617015345985,1804.398470243591,885.79377213370151,-2149.1643287913444,-2551.4038254122111,2468.6907525931906,3586.1170094041363,197.07185517940513,1462.4172665769074,-1462.4172665769074,-197.07185517940513,6711.90728179896,0.0
688523.2936376977,3687751.2368613081,-47500.0,2011.2158107944429,1676.2512166956335,382.99761899206089,-2074.9427693571215,-1971.0877803027904,2030.968283899492,3196.5979448699209,543.27295841625062,1080.8294658318964,-1080.8294658318964,-543.27295841625062,5973.677594419758,0.0
693523.2936376977,3687751.2368613081,-47500.0,2125.7770524142647,1470.0339510328347,-49.313503379010363,-1926.4947085022498,-1448.0590412132228,1628.6607388361949,2832.7347488205105,825.65310049509048,688.71717112584679,-688.71717112584679,-825.65310049509048,5273.0105778463339,0.0
698523.2936376977,3687751.2368613081,-47500.0,2155.2443718444574,1218.1642752156663,-400.27959220539014,-1729.5776955666313,-995.60059697548752,1271.9953658464447,2505.6020139099351,1034.7297096539139,316.68006309394883,-316.68006309394883,-1034.7297096539139,4631.7835443500699,0.0
703523.2936376977,3687751.2368613081,-47500.0,2110.1448681049933,948.0743607963559,-669.04917796755046,-1506.7479150262866,-618.01239179956622,965.25959533938715,2219.7582542538016,1170.7714627427722,-15.175842612285464,15.175842612285464,-1170.7714627427722,4062.7631322013153,0.0
708523.2936376977,3687751.2368613081,-47500.0,2005.0661372970492,680.84797228304285,-861.51145961105931,-1276.1206442763776,-313.17027440000493,708.33338965751261,1974.794112274988,1240.5533225704455,-295.94842438595714,295.94842438595714,-1240.5533225704455,3570.9856254219017,0.0
713523.2936376977,3687751.2368613081,-47500.0,1855.8391425447983,431.18123459279786,-987.41305964874891,-1051.1175299826048,-74.878399878050544,498.14764648617722,1767.3691758806594,1254.4569914456979,-521.9500184842567,521.9500184842567,-1254.4569914456979,3155.3551668061418,0.0
718523.2936376977,3687751.2368613081,-47500.0,1677.5759328642846,208.13078088832765,-1058.1205957700781,-840.83852492693609,105.22041866637571,329.91044422767334,1592.7929180126071,1224.2138417903382,-694.60096686321049,694.60096686321049,-1224.2138417903382,2810.2724987796469,0.0
723523.2936376977,3687751.2368613081,-47500.0,1483.500023015092,16.220159289600993,-1085.0653924502583,-650.75559680923368,236.23854905919538,198.04592937584943,1445.9772659822802,1161.3453382771763,-818.54710545485057,818.54710545485057,-1161.3453382771763,2527.2141518895864,0.0
558523.2936376977,3692751.2368613081,-47500.0,-123.32825848669928,955.15950547016098,-1283.0516290585015,-501.43317747097944,840.41871097998956,-403.92531106248208,1367.9535578804471,265.01973918985158,44.850666620659311,-44.850666620659311,-265.01973918985158,2590.0740547232763,0.0
563523.2936376977,3692751.2368613081,-47500.0,44.306964137890915,934.62924196516599,-1422.570420667761,-450.11554394087074,899.07386821866351,-412.71405988438596,1443.9610153289841,448.25172690966542,-89.281265328074028,89.281265328074028,-448.25172690966542,2709.9100730421578,0.0
568523.2936376977,3692751.2368613081,-47500.0,238.28671689875614,886.24712817831949,-1565.7173059764984,-375.91466628786776,949.0719338540207,-410.84649664643894,1521.2083916997899,657.28941320372155,-254.14185692915606,254.14185692915606,-657.28941320372155,2826.1662278345007,0.0
573523.2936376977,3692751.2368613081,-47500.0,457.24545590790763,803.1952459215612,-1706.9624598519495,-274.83525453665908,984.41382403573391,-394.01716888040869,1599.8539834354578,890.14643237622727,-451.96246507582237,451.96246507582237,-890.14643237622727,2938.5910636768417,0.0
578523.2936376977,3692751.2368613081,-47500.0,697.45466178547724,678.4206613790268,-1838.2894956442281,-143.20385835459774,997.2951619390526,-356.93956644669186,1680.7069197222042,1142.1653794436454,-683.29323898143298,683.29323898143298,-1142.1653794436454,3048.6308981545799,0.0
583523.2936376977,3692751.2368613081,-47500.0,952.07250834191791,505.34688478555802,-1948.6868059352314,21.74351818517265,977.92066436547611,-293.3408027554072,1765.619147488195,1405.1495224463604,-945.99143048399708,945.99143048399708,-1405.1495224463604,3160.5926491006999,0.0
588523.2936376977,3692751.2368613081,-47500.0,1210.4387530436911,278.9859674681968,-2023.7863228752435,221.03257147995384,914.5005588443895,-196.09164509902379,1857.9377402943596,1666.5188760822832,-1233.9803134972074,1233.9803134972074,-1666.5188760822832,3283.0630877832127,0.0
593523.2936376977,3692751.2368613081,-47500.0,1457.611760754636,-2.4868071772486129,-2045.8534671676364,452.87274736597976,793.57392840900559,-57.54743217054579,1962.8915604180602,1908.7019042672457,-1535.8832705933571,1535.8832705933571,-1908.7019042672457,3430.1963360845316,0.0
598523.2936376977,3692751.2368613081,-47500.0,1674.4488946656231,-335.71864350027812,-1994.4196863712557,711.38541737156265,600.84704409387837,129.81083849354309,2087.6646926168687,2109.0950903844778,-1833.7743746500371,1833.7743746500371,-2109.0950903844778,3621.9897192355197,0.0
603523.2936376977,3692751.2368613081,-47500.0,1838.6223483230794,-709.92117603702366,-1847.9077829744774,985.30735651671887,322.74794156718036,372.35161093565159,2240.8096364496523,2241.0363999908332,-2102.4738245698045,2102.4738245698045,-2241.0363999908332,3882.2619335379286,0.0
608523.2936376977,3692751.2368613081,-47500.0,1926.9705208652113,-1104.8325235415282,-1586.5667534000931,1256.9997495208816,-51.158547126755501,673.84260066381876,2430.7199559011874,2276.2725423118504,-2310.010215027201,2310.010215027201,-2276.2725423118504,4233.4765290401992,0.0
613523.2936376977,3692751.2368613081,-47500.0,1919.411277505106,-1489.6899658965758,-1196.8179288947517,1502.2751014804239,-524.93055284346167,1033.6386020403365,2663.2381669010156,2189.2466019788826,-2419.9746999238732,2419.9746999238732,-2189.2466019788826,4689.3371918527837,0.0
618523.2936376977,3692751.2368613081,-47500.0,1804.1778155950508,-1824.253415622924,-676.62806532466323,1691.6672613765779,-1092.5654712102182,1444.7534964460983,2938.9811933372066,1963.0597392459924,-2396.3272370497898,2396.3272370497898,-1963.0597392459924,5248.0411169148983,0.0
623523.2936376977,3692751.2368613081,-47500.0,1583.384007421073,-2062.8512114199862,-40.800755466317369,1793.67170226959,-1734.7321823794562,1892.3060901598119,3251.236195518331,1596.1473399677066,-2210.6143237621768,2210.6143237621768,-1596.1473399677066,5889.0476869007134,0.0
628523.2936376977,3692751.2368613081,-47500.0,1277.0926679163365,-2161.7570041091394,675.66518462029978,1780.0131093330706,-2417.2130140642271,2353.0331311138975,3585.0752530937602,1107.739204474203,-1850.4656168146382,1850.4656168146382,-1107.739204474203,6574.2025654590834,0.0
633523.2936376977,3692751.2368613081,-47500.0,923.6773173758088,-2088.8981647458832,1418.2594334858547,1632.1528363488637,-3092.421352119366,2796.5686646194135,3918.0167352671501,539.59470050560321,-1326.995694450259,1326.995694450259,-539.59470050560321,7252.4133659882027,0.0
638523.2936376977,3692751.2368613081,-47500.0,574.91412819237667,-1833.3497618926385,2119.0678743760864,1347.3038824374328,-3704.7561685717683,3188.8301607314957,4222.4676384194381,-48.030478183711182,-678.0497847725162,678.0497847725162,48.030478183711182,7866.7357710846854,0.0
643523.2936376977,3692751.2368613081,-47500.0,286.07654425762047,-1411.1666219972069,2707.8487805175328,941.73602177429598,-4199.2283893591793,3497.1130711474416,4469.9104860340058,-586.41634334669607,35.113886644119646,-35.113886644119646,586.41634334669607,8362.6950403647334,0.0
648523.2936376977,3692751.2368613081,-47500.0,103.65743287252413,-864.77278528288355,3125.3731228715856,449.68649818516565,-4531.2945820110917,3695.6953672416034,4635.9540200489137,-1012.053798273158,737.90533664925078,-737.90533664925078,1012.053798273158,8696.4030705295154,0.0
653523.2936376977,3692751.2368613081,-47500.0,54.808598608585996,-255.38616375999177,3334.9331402637949,-82.293312798528106,-4674.9812741665046,3770.3263393869638,4704.6347121615963,-1279.6873492308187,1356.6384475320706,-1356.6384475320706,1279.6873492308187,8840.7726331843696,0.0
658523.2936376977,3692751.2368613081,-47500.0,142.11987512615761,349.24975047355241,3328.373547651237,-603.93594136001207,-4626.8239781318907,3720.2635847902338,4670.6820295781172,-1370.4625779958262,1832.4612160109734,-1832.4612160109734,1370.4625779958262,8788.4636734308551,0.0
663523.2936376977,3692751.2368613081,-47500.0,345.11593259436387,887.80938967706925,3125.1483764204618,-1070.1162285104217,-4404.713251781176,3557.4157552826509,4539.4245040340684,-1292.9635501103915,2130.7559860332067,-2130.7559860332067,1292.9635501103915,8551.1234390113405,0.0
668523.2936376977,3692751.2368613081,-47500.0,627.1693208689486,1315.184206658904,2765.5335120199015,-1447.4868000617878,-4042.5675219763298,3303.1554850784728,4324.8190822590395,-1077.7838158512031,2243.8828818835177,-2243.8828818835177,1077.7838158512031,8155.5569697038018,0.0
673523.2936376977,3692751.2368613081,-47500.0,944.86479316302655,1607.0726155235127,2300.8419752011027,-1717.5817847394251,-3582.907856219626,2983.9816990891177,4046.4588304463473,-768.35965396412439,2187.7606757346525,-2187.7606757346525,768.35965396412439,7638.1719497063777,0.0
678523.2936376977,3692751.2368613081,-47500.0,1256.7628194532342,1759.4238115502678,1783.7269473628962,-1876.4606328918942,-3069.5301155292009,2627.2511568596615,3726.407510667997,-411.30935883396,1994.5846391195294,-1994.5846391195294,411.30935883396,7039.1623535965127,0.0
683523.2936376977,3692751.2368613081,-47500.0,1529.575155616498,1784.2811397555838,1260.747063765232,-1931.916210143085,-2541.8222792184424,2257.8385092000931,3386.4598441533808,-48.712855288990681,1704.438200591605,-1704.438200591605,48.712855288990681,6397.5677789568836,0.0
688523.2936376977,3692751.2368613081,-47500.0,1741.1334134432987,1704.0304039224463,768.06025588655586,-1899.5621433459153,-2031.3510861573229,1896.0729313851436,3046.0427788518773,286.57344100830369,1357.9443442487534,-1357.9443442487534,-286.57344100830369,5747.7799781832437,0.0
693523.2936376977,3692751.2368613081,-47500.0,1880.5756550468889,1545.7393943210507,330.04587650773578,-1798.9137808902981,-1560.5998914559616,1556.8983234559819,2720.6870505544948,572.63036371653334,991.07927754856928,-991.07927754856928,-572.63036371653334,5117.5831727670929,0.0
698523.2936376977,3692751.2368613081,-47500.0,1946.6758782329973,1336.6144100662734,-39.928850001780283,-1650.1584819119098,-1143.322412169942,1249.9733019426778,2421.0412003485444,797.94944987871327,632.34896685847662,-632.34896685847662,-797.94944987871327,4527.489580131667,0.0
703523.2936376977,3692751.2368613081,-47500.0,1945.2859421017652,1100.9559764793833,-337.51621491260528,-1471.8983359280589,-785.87032280575806,980.36285756444363,2152.7407815528363,959.58704288732883,301.9499084756406,-301.9499084756406,-959.58704288732883,3990.9994439449106,0.0
708523.2936376977,3692751.2368613081,-47500.0,1886.6472843275737,858.54317647458595,-564.95017045395696,-1279.85037670425,-488.93224129841747,749.50719184222316,1917.3227707080484,1060.8047852614609,12.299393612923154,-12.299393612923154,-1060.8047852614609,3515.4106789062744,0.0
713523.2936376977,3692751.2368613081,-47500.0,1783.0464327303416,624.1441700147501,-728.69703068976241,-1086.3304371442721,-249.28657650661449,556.23796595848091,1713.6460772839253,1108.7611701413068,-230.67248217096812,230.67248217096812,-1108.7611701413068,3102.8900682205358,0.0
718523.2936376977,3692751.2368613081,-47500.0,1647.0269108036739,407.78142150229689,-837.48711041387764,-900.28763116502273,-61.332376322752758,397.69631459051692,1539.0858959210464,1112.5688730678276,-425.95155419407331,425.95155419407331,-1112.5688730678276,2751.6091614985817,0.0
563523.2936376977,3697751.2368613081,-47500.0,218.78309523929343,759.84437504326195,-1376.4576461008994,-291.34550645390391,789.70362108700795,-318.70307484722275,1302.8974267005826,596.48746703950724,-249.62175077397114,249.62175077397114,-596.48746703950724,2415.3461516225916,0.0
568523.2936376977,3697751.2368613081,-47500.0,400.83374370489742,688.85984492877719,-1491.4287059241158,-208.97130859169462,816.82748600135506,-305.25053623511212,1369.0676362604549,788.30828012122242,-413.80964417675682,413.80964417675682,-788.30828012122242,2509.846116083997,0.0
573523.2936376977,3697751.2368613081,-47500.0,600.217560420003,584.53101586666196,-1597.7624223691921,-103.07606277760746,826.73291649434998,-277.04326472072188,1437.6674809117289,995.08808884080474,-604.1601575798353,604.1601575798353,-995.08808884080474,2603.8176437787306,0.0
578523.2936376977,3697751.2368613081,-47500.0,812.05161318534601,441.73801914017162,-1687.0285133210141,28.502591812730305,812.28791356095712,-229.67644347350611,1510.227049607769,1210.812928978786,-819.12088927230229,819.12088927230229,-1210.812928978786,2700.8344133882879,0.0
583523.2936376977,3697751.2368613081,-47500.0,1028.7590661236832,256.39286034198904,-1748.3532272593816,186.80176633407117,764.94137990290108,-158.13388864196992,1589.330748756842,1426.3825024335656,-1054.3948231649401,1054.3948231649401,-1426.3825024335656,2807.5318521443596,0.0
588523.2936376977,3697751.2368613081,-47500.0,1239.711438795013,26.472838098350863,-1768.3713453439887,371.04204044353315,674.8969359685658,-56.981352675852399,1678.8611957216003,1629.1650335913062,-1302.0150869076331,1302.0150869076331,-1629.1650335913062,2934.4491157089465,0.0
593523.2936376977,3697751.2368613081,-47500.0,1431.1793150914114,-246.65170003817312,-1731.5632380020754,577.80523853226941,531.58746014368012,79.266509784217007,1784.0483775456589,1802.8770390036484,-1549.4639452718179,1549.4639452718179,-1802.8770390036484,3096.2396678312898,0.0
598523.2936376977,3697751.2368613081,-47500.0,1586.8182438484407,-556.68720960467124,-1621.1870548988384,800.16552571994009,324.56815652394982,255.55710700159844,1911.1252815726812,1928.0449803888832,-1779.071756352294,1779.071756352294,-1928.0449803888832,3310.4971603372128,0.0
603523.2936376977,3697751.2368613081,-47500.0,1688.9384996786071,-890.91642689972787,-1421.0168228830778,1026.9405918716689,44.92715042107907,475.45845443502344,2066.4261985079406,1983.3416836876211,-1968.0459761448976,1968.0459761448976,-1983.3416836876211,3594.6571083208828,0.0
608523.2936376977,3697751.2368613081,-47500.0,1720.7452087299889,-1229.1412458925979,-1118.0081487396185,1242.3278731216153,-312.76479467333866,740.08136494631151,2254.9398474192012,1948.0387799795067,-2089.5601307425691,2089.5601307425691,-1948.0387799795067,3961.3539491427186,0.0
613523.2936376977,3697751.2368613081,-47500.0,1669.5400853022593,-1543.655290627207,-705.79524920020515,1426.2713300779983,-748.09869015529534,1046.8629427630603,2478.6052879997196,1805.6206513669381,-2115.3068721281284,2115.3068721281284,-1805.6206513669381,4413.7509441521534,0.0
618523.2936376977,3697751.2368613081,-47500.0,1530.5138536450688,-1800.8938117169919,-188.55310258760969,1555.9091106349822,-1252.4357093519998,1388.4248273849755,2734.8224515736756,1548.2195497860771,-2019.6895508156035,2019.6895508156035,-1548.2195497860771,4942.5823821763724,0.0
623523.2936376977,3697751.2368613081,-47500.0,1310.2829823205493,-1965.2168701308628,415.698178150437,1608.302419283144,-1807.1167638491179,1751.8409378498288,3015.5859790173513,1180.9968174152868,-1785.3298803022972,1785.3298803022972,-1180.9968174152868,5525.7055194093191,0.0
628523.2936376977,3697751.2368613081,-47500.0,1028.917977116032,-2004.7308060789389,1073.6238052680344,1564.2930734778233,-2383.0855446620117,2118.7165030891283,3307.4239252537177,725.09513638189424,-1408.8642433192892,1408.8642433192892,-725.09513638189424,6129.9351143311769,0.0
633523.2936376977,3697751.2368613081,-47500.0,719.17509597289381,-1898.2001212270902,1738.1851069284464,1412.8298162686835,-2942.6537861697607,2466.4154099315097,3592.1945193776719,217.64533854886088,-905.34877108938019,905.34877108938019,-217.64533854886088,6714.6231488707963,0.0
638523.2936376977,3697751.2368613081,-47500.0,422.2293555448914,-1641.2506317657644,2353.9319124214435,1154.6265726095694,-3443.6657030241963,2770.5133435888038,3848.8493988775122,-292.16960511162091,-309.40133742501206,309.40133742501206,292.16960511162091,7236.4926014380999,0.0
643523.2936376977,3697751.2368613081,-47500.0,180.39515375503839,-1249.7270025059615,2865.3646528359459,803.87388998935023,-3845.5240413094994,3008.1465278324795,4056.2066654693026,-750.76296570956856,328.15266199010694,-328.15266199010694,750.76296570956856,7655.1336204193676,0.0
648523.2936376977,3697751.2368613081,-47500.0,28.645817944603515,-758.644826121336,3226.4482389227655,387.12881414696614,-4115.7323756238211,3161.5265902311339,4196.2689373493668,-1109.7800606059179,947.93935005680783,-947.93935005680783,1109.7800606059179,7938.2957601003645,0.0
653523.2936376977,3697751.2368613081,-47500.0,-12.521850689555347,-216.59163270155167,3408.6367520674826,-60.605683878146088,-4235.2053343394864,3220.7097713564208,4257.1011171833397,-1334.9978941862523,1492.171406567169,-1492.171406567169,1334.9978941862523,8065.9384050105882,0.0
658523.2936376977,3697751.2368613081,-47500.0,59.317061287900877,322.92620063074583,3405.129673203206,-501.61579356762434,-4200.9029040177193,3184.8905087983121,4234.4255114898151,-1411.8851594147995,1914.4227234618656,-1914.4227234618656,1411.8851594147995,8032.219069651308,0.0
663523.2936376977,3697751.2368613081,-47500.0,229.33823955991252,810.67070314749787,3230.3892567205321,-901.44169656760175,-4025.2258079008288,3061.9576517498035,4131.6794487951111,-1346.4506640917455,2186.3857866125745,-2186.3857866125745,1346.4506640917455,7845.1185683368758,0.0
668523.2936376977,3697751.2368613081,-47500.0,470.00333489687029,1208.936193554209,2915.5495045012331,-1233.5602721861835,-3732.6514424552374,2866.5888447361972,3958.8020042918452,-1161.7003322887408,2300.1851589704215,-2300.1851589704215,1161.7003322887408,7524.0289093088331,0.0
673523.2936376977,3697751.2368613081,-47500.0,747.52866143849144,1495.4121917883151,2501.4811424977465,-1481.8885262977503,-3354.8086037794533,2617.5221562086972,3730.2659832520621,-891.33368442163192,2266.4055221016624,-2266.4055221016624,891.33368442163192,7096.0778768080118,0.0
678523.2936376977,3697751.2368613081,-47500.0,1028.3132394936927,1663.4682922857139,2031.5532870943382,-1641.0079108082559,-2925.3536152167076,2334.723093881968,3462.891327600551,-572.75280850073693,2109.1864901490362,-2109.1864901490362,572.75280850073693,6592.0965638224816,0.0
683523.2936376977,3697751.2368613081,-47500.0,1283.8713393646703,1719.6848850492088,1545.6842959341516,-1714.6171252026115,-2475.7092737529038,2037.0042688332062,3173.8388159812362,-241.09510199207671,1860.1652389962915,-1860.1652389962915,241.09510199207671,6042.985062771234,0.0
688523.2936376977,3697751.2368613081,-47500.0,1493.6390209755409,1679.9053753173446,1076.4842163533544,-1713.0039590407446,-2032.2188173258444,1740.397449764906,2878.9716712497357,74.777480539818384,1552.8081090706651,-1552.8081090706651,-74.777480539818384,5476.9497152115937,0.0
693523.2936376977,3697751.2368613081,-47500.0,1645.7386435572748,1565.0053224588316,647.54942095713216,-1650.2816773781155,-1614.7736925632728,1457.3190816366646,2591.5687002572799,354.1716983594323,1218.0707145740248,-1218.0707145740248,-354.1716983594323,4917.7536880185144,0.0
698523.2936376977,3697751.2368613081,-47500.0,1736.2154184462463,1397.21826361576,273.49479123710779,-1541.9293484065511,-1236.6621675543345,1196.4081939142368,2321.399274805764,584.69835113923841,881.71208176370669,-881.71208176370669,-584.69835113923841,4383.908214805344,0.0
703523.2936376977,3697751.2368613081,-47500.0,1767.3905510470397,1197.4339901657534,-38.881240752470681,-1402.9181756834364,-905.2466782523901,962.83716501659512,2074.4074126259547,761.23518297890041,563.13454400825367,-563.13454400825367,-761.23518297890041,3888.5960450402549,0.0
708523.2936376977,3697751.2368613081,-47500.0,1745.9029835471142,983.54221675311931,-288.87925254587719,-1246.4945039734794,-623.08237540991547,758.89133584438218,1853.2127851762452,884.29984515626961,275.38471889229032,-275.38471889229032,-884.29984515626961,3440.0848005263815,0.0
713523.2936376977,3697751.2368613081,-47500.0,1680.8472466874493,769.68206860796647,-480.07529671266275,-1083.55267250572,-389.16910737207411,584.6494124099205,1658.097099560654,958.2905633895225,25.891299623112388,-25.891299623112388,-958.2905633895225,3042.4144594752315,0.0
563523.2936376977,3702751.2368613081,-47500.0,351.32527069909622,593.01555951384682,-1305.8633964445958,-161.19473695083408,681.4058995902634,-239.21777105927197,1177.1895559118429,696.92256614853034,-376.52778354446411,376.52778354446411,-696.92256614853034,2154.5927033998655,0.0
568523.2936376977,3702751.2368613081,-47500.0,517.66199503775488,505.51156786607595,-1392.5516879286329,-75.766905042136486,689.22656589658436,-217.80740288292279,1235.353163323711,867.47915648369303,-533.91999747341538,533.91999747341538,-867.47915648369303,2234.6980394249531,0.0
573523.2936376977,3702751.2368613081,-47500.0,694.70987600023864,387.21334055851577,-1465.3150069787889,29.572197206495449,678.55364944228813,-182.48080849969611,1297.154857886635,1045.3746626975578,-710.76302978208503,710.76302978208503,-1045.3746626975578,2318.2209795016129,0.0
578523.2936376977,3702751.2368613081,-47500.0,877.03798203776955,234.78822029766306,-1515.8631173388007,155.78670230664369,643.13120838394173,-129.68334134631681,1364.5954851825927,1223.9633687381868,-903.98841701058268,903.98841701058268,-1223.9633687381868,2410.294007268144,0.0
583523.2936376977,3702751.2368613081,-47500.0,1057.0201010453818,46.268289959959752,-1534.051350217921,302.65719617866955,575.77520333745179,-55.529347440864115,1440.5899750736792,1394.0753520709463,-1107.9543723687971,1107.9543723687971,-1394.0753520709463,2518.8291089881109,0.0
588523.2936376977,3702751.2368613081,-47500.0,1224.739483425323,-178.06207803358294,-1508.0576624676412,468.24103634146854,468.64457945846362,43.986873027714665,1529.0042702172136,1543.8794193916324,-1313.8220450354061,1313.8220450354061,-1543.8794193916324,2654.6845659460109,0.0
593523.2936376977,3702751.2368613081,-47500.0,1368.2067661996716,-434.62331200262815,-1424.9245011845017,648.28598622420338,313.76329150780913,172.64818312876923,1634.4525928011121,1659.0877559016119,-1509.0772138806367,1509.0772138806367,-1659.0877559016119,2830.9802509262886,0.0
598523.2936376977,3702751.2368613081,-47500.0,1474.0449061431325,-715.4616282567124,-1271.6008823007446,835.68387247151122,103.8574747276904,333.51857593050687,1761.7530279795228,1723.6807626991294,-1677.3977536485136,1677.3977536485136,-1723.6807626991294,3061.2101437455831,0.0
603523.2936376977,3702751.2368613081,-47500.0,1528.7761757763426,-1007.353943114358,-1036.5861558418812,1020.1048558814327,-166.46041741340863,528.29358825707754,1915.0314316457104,1721.3181626943519,-1799.1227840966935,1799.1227840966935,-1721.3181626943519,3356.2931665383744,0.0
608523.2936376977,3702751.2368613081,-47500.0,1520.7633316405534,-1291.425671667808,-712.17719426479414,1188.004906824292,-499.20061039229807,756.53560799963395,2096.6157696283108,1637.5208242521658,-1852.5915897301302,1852.5915897301302,-1637.5208242521658,3721.3712353332194,0.0
613523.2936376977,3702751.2368613081,-47500.0,1442.6846274469008,-1543.6819001844972,-297.13499968429653,1323.2217317805673,-891.35526403126391,1014.8887622077373,2305.9849074791277,1462.5252382338078,-1816.5373300738854,1816.5373300738854,-1462.5252382338078,4153.413691881352,0.0
618523.2936376977,3702751.2368613081,-47500.0,1294.1689657878517,-1736.8202316490108,200.66874552402953,1408.3351682088526,-1333.4132621232397,1296.434766636344,2539.0396741251038,1194.4336182732286,-1673.5025476797737,1673.5025476797737,-1194.4336182732286,4640.2646143677375,0.0
623523.2936376977,3702751.2368613081,-47500.0,1083.940997510394,-1843.4854939964864,762.32742583588231,1426.8297963943673,-1808.4729429276215,1590.4067626287765,2787.8461609173919,841.96080786856282,-1413.8809192484937,1413.8809192484937,-841.96080786856282,5161.1431276064632,0.0
628523.2936376977,3702751.2368613081,-47500.0,830.65520475148833,-1840.7158100429108,1357.5385000751862,1365.8542409171339,-2292.4433067787459,1882.4850233679654,3040.8656560169866,425.85017997477121,-1039.7608446556562,1039.7608446556562,-425.85017997477121,5688.3237302366442,0.0
633523.2936376977,3702751.2368613081,-47500.0,561.69275465860733,-1714.7964409767505,1946.5078344470717,1219.0775146612712,-2755.7040413190398,2155.8286139784263,3283.6567786353494,-21.925567616043622,-567.43090319784244,567.43090319784244,21.925567616043622,6189.7611681069893,0.0
638523.2936376977,3702751.2368613081,-47500.0,309.65542760328879,-1465.2893045528861,2484.3188699755915,988.91317747876076,-3166.2608869278106,2392.8235838674859,3500.1206674146297,-461.61824949109155,-27.429977851028724,27.429977851028724,461.61824949109155,6632.4393015898168,0.0
643523.2936376977,3702751.2368613081,-47500.0,107.04169339483967,-1106.9177983716827,2927.1874267969583,687.36921589048825,-3493.9606133652196,2577.3039731820322,3674.3622264400196,-851.45285868661256,538.46390520172429,-538.46390520172429,851.45285868661256,6986.0883702541014,0.0
648523.2936376977,3702751.2368613081,-47500.0,-19.658642997179751,-668.43069687369143,3239.2585361559509,335.06733379859031,-3714.8878816621718,2696.7955116648805,3792.9190988130877,-1154.4429536128237,1082.9996877493077,-1082.9996877493077,1154.4429536128237,7226.7108914095488,0.0
653523.2936376977,3702751.2368613081,-47500.0,-54.845661765540271,-188.46164474873893,3398.2419286323247,-41.499368588931731,-3814.8883874344979,2744.2629097115168,3846.7414183747701,-1344.5275196290347,1560.7090278192925,-1560.7090278192925,1344.5275196290347,7339.2844217051606,0.0
658523.2936376977,3702751.2368613081,-47500.0,3.6871031405313244,290.62594923592081,3398.437512417961,-413.848369621909,-3791.3507488874138,2718.9444715396153,3832.3379092382193,-1410.4112835138462,1934.8268959222719,-1934.8268959222719,1410.4112835138462,7319.1225638569395,0.0
663523.2936376977,3702751.2368613081,-47500.0,145.19184274768631,729.30438034507142,3250.5210077470165,-755.57285230490027,-3652.9002716261361,2626.1208609335308,3751.8963943187691,-1356.2467672765852,2182.1839285740457,-2182.1839285740457,1356.2467672765852,7171.7043724722289,0.0
668523.2936376977,3702751.2368613081,-47500.0,348.96312939113903,1096.261637917089,2978.4386414013752,-1045.6551254694286,-3417.2549310046902,2475.9547945129416,3612.5296824278539,-1199.3112386367416,2295.1072335516174,-2295.1072335516174,1199.3112386367416,6911.1365899587354,0.0
673523.2936376977,3702751.2368613081,-47500.0,588.8153470269117,1371.555570852677,2614.5046888209986,-1270.423411338908,-3107.9423653606268,2281.7557503335506,3424.9682368327863,-965.66107715944111,2280.3364525395132,-2280.3364525395132,965.66107715944111,6557.7001616870721,0.0
678523.2936376977,3702751.2368613081,-47500.0,837.76264286870696,1547.2895094408136,2194.0474379166417,-1424.0051461822106,-2750.7248112673801,2058.0935890981,3202.0424365609083,-685.09225248469693,2155.7436992488001,-2155.7436992488001,685.09225248469693,6135.0425561204456,0.0
683523.2936376977,3702751.2368613081,-47500.0,1071.8695401266457,1626.2325286866667,1750.7444153549484,-1507.521864558006,-2370.4525120602539,1819.1237708346093,2957.2262966720809,-386.59185903775074,1946.0044368871584,-1946.0044368871584,386.59185903775074,5667.5273641268841,0.0
688523.2936376977,3702751.2368613081,-47500.0,1272.7191180896918,1619.171497252174,1313.3173375620154,-1527.4860275010465,-1988.7774051256163,1577.345788447519,2703.378576878139,-95.021680225692194,1678.2956776122305,-1678.2956776122305,95.021680225692194,5178.0860102827755,0.0
693523.2936376977,3702751.2368613081,-47500.0,1428.4236135303743,1541.8219710505289,903.76756420349864,-1493.8905134969957,-1622.8582263229036,1342.8695024470278,2451.6925009635224,170.72233323353873,1378.7688150014174,-1378.7688150014174,-170.72233323353873,4686.7339408715125,0.0
698523.2936376977,3702751.2368613081,-47500.0,1533.4350433083205,1411.9455337576121,536.96496734297557,-1418.3838306094283,-1284.9565781381993,1123.1474374230118,2210.8690769404348,398.21680776387285,1070.1424918101957,-1070.1424918101957,-398.21680776387285,4209.7503580179446,0.0
703523.2936376977,3702751.2368613081,-47500.0,1587.5638952352031,1247.05850792453,221.2151001597002,-1312.7752819243246,-982.69894978555988,923.06557265543051,1986.7124972808742,581.03518703764507,770.42892328223547,-770.42892328223547,-581.03518703764507,3759.4180181130837,0.0
708523.2936376977,3702751.2368613081,-47500.0,1594.6152365321382,1062.8719751026447,-40.605373204787583,-1187.9712152642162,-719.74980527356479,745.26615631716754,1782.3609265975322,717.69104864914095,492.60063504621814,-492.60063504621814,-717.69104864914095,3344.1746155935994,0.0
568523.2936376977,3707751.2368613081,-47500.0,596.01475119147233,340.56643587760163,-1277.1603228101778,27.794726768477997,569.95069364413393,-146.68736697691645,1118.7253936326538,904.68469158835114,-618.23964948151388,618.23964948151388,-904.68469158835114,1998.4958621011579,0.0
573523.2936376977,3707751.2368613081,-47500.0,749.87137416273526,214.6675728188217,-1319.1815125635237,128.83896455917275,543.37303259650412,-107.53566982629671,1176.0703628770186,1053.2761823058245,-777.75043556886123,777.75043556886123,-1053.2761823058245,2077.4777645434651,0.0
578523.2936376977,3707751.2368613081,-47500.0,903.46818862826092,59.482818996167119,-1335.7042785059391,246.32643859604312,492.74128966130814,-52.885738133501796,1240.4136348720283,1196.2927709006001,-946.48551888103464,946.48551888103464,-1196.2927709006001,2169.8136982461383,0.0
583523.2936376977,3707751.2368613081,-47500.0,1049.5944803873901,-125.27320742002047,-1317.675278805252,379.19435178641521,412.21292526218286,20.188697795518316,1314.6498255893341,1325.0659171659775,-1118.1372188665766,1118.1372188665766,-1325.0659171659775,2283.6297609256781,0.0
588523.2936376977,3707751.2368613081,-47500.0,1179.4277779904492,-337.65798967374684,-1255.0597141411563,524.8454922601544,295.71761574194039,114.54758425769805,1402.2384162185494,1429.055034988266,-1283.7604145777054,1283.7604145777054,-1429.055034988266,2428.793016104446,0.0
593523.2936376977,3707751.2368613081,-47500.0,1282.8989921563971,-572.73233113699155,-1137.4730867702908,678.75658442716008,137.46063068429777,232.68925789544912,1506.8695948635886,1496.23797660793,-1431.5963059698836,1431.5963059698836,-1496.23797660793,2615.7461489267307,0.0
598523.2936376977,3707751.2368613081,-47500.0,1349.4329658425186,-821.85777861080373,-955.20339056725527,834.16935942245971,-67.350820783273008,376.35584672559168,1631.9001727955699,1513.9270214384535,-1547.2425962112709,1547.2425962112709,-1513.9270214384535,2853.6141107891403,0.0
603523.2936376977,3707751.2368613081,-47500.0,1369.1216843417278,-1072.2456588317452,-700.65179117698347,981.97209140792438,-321.56486402265512,546.05300920101001,1779.6272163521057,1470.0865820247432,-1614.3413541489172,1614.3413541489172,-1470.0865820247432,3148.0137039896399,0.0
608523.2936376977,3707751.2368613081,-47500.0,1334.3068764630477,-1306.9989297037473,-370.12905698222863,1110.9013099238502,-624.99003775264089,740.52605305812574,1950.5480884740155,1355.1448419586882,-1615.9317603417012,1615.9317603417012,-1355.1448419586882,3499.2138481725824,0.0
613523.2936376977,3707751.2368613081,-47500.0,1241.415798007486,-1505.9018255049393,34.195103210381632,1208.1888853513119,-973.29274080928701,956.27066097009958,2142.7779678751399,1164.1468849898674,-1536.5203263563581,1536.5203263563581,-1164.1468849898674,3901.1196847626979,0.0
618523.2936376977,3707751.2368613081,-47500.0,1092.7288633659261,-1647.1438981527333,502.55779351358223,1260.7285153194457,-1357.1182567505653,1187.1915276298978,2351.7465212813004,898.90954679744345,-1364.7427611425805,1364.7427611425805,-898.90954679744345,4341.1798325295658,0.0
623523.2936376977,3707751.2368613081,-47500.0,897.60959341634702,-1709.9846982785568,1016.5880786077969,1256.7281627613975,-1761.7294514200419,1424.5440774847573,2570.2113274284825,569.65996222518879,-1096.2472335454997,1096.2472335454997,-569.65996222518879,4801.0867492688485,0.0
628523.2936376977,3707751.2368613081,-47500.0,672.67573890165932,-1678.0781402235762,1549.5463817197901,1187.6555990393747,-2167.4507475227174,1657.2815448949966,2788.5578063646249,195.55440955062841,-736.18023685198648,736.18023685198648,-195.55440955062841,5258.1292509880323,0.0
633523.2936376977,3707751.2368613081,-47500.0,440.51818198454703,-1542.8528976000891,2068.1924690096903,1050.1185243727082,-2551.0920287285148,1872.868965079781,2995.3579731416348,-196.41902979036564,-300.52346507091767,300.52346507091767,196.41902979036564,5687.107820724832,0.0
638523.2936376977,3707751.2368613081,-47500.0,226.90903811586151,-1306.119524969545,2536.2926375644456,847.21617298051024,-2888.3062987745484,2058.5209416549242,3178.2417779171674,-574.3119704499727,184.37414929958277,-184.37414929958277,574.3119704499727,6062.6949851053523,0.0
643523.2936376977,3707751.2368613081,-47500.0,56.910977759586046,-981.08711977094947,2919.2779573303392,588.92806688938015,-3156.548193172117,2202.6874097099953,3325.1590470377573,-905.50595242224608,684.34566946968903,-684.34566946968903,905.50595242224608,6361.9962054689149,0.0
648523.2936376977,3707751.2368613081,-47500.0,-49.270870457337551,-591.29934945958075,3189.1244727025523,291.30265274180351,-3338.0641284711528,2296.5114140581281,3425.9107693387778,-1161.5611987737873,1161.7325482184613,-1161.7325482184613,1161.5611987737873,6566.9491656749697,0.0
653523.2936376977,3707751.2368613081,-47500.0,-79.668727109038102,-167.56212450125378,3328.3398661341357,-25.478184571346649,-3422.2597479598167,2334.9511557217043,3473.5422524367068,-1322.492441950038,1580.6138704334339,-1580.6138704334339,1322.492441950038,6666.1555935910346,0.0
658523.2936376977,3707751.2368613081,-47500.0,-32.314871559761272,256.47327647926903,3332.1355249365752,-339.76256158320984,-3406.9235109083997,2317.3295529707821,3465.1883081774949,-1379.4541473176737,1911.753592102732,-1911.753592102732,1379.4541473176737,6655.8341418202954,0.0
663523.2936376977,3707751.2368613081,-47500.0,84.981399599913388,649.03860045604586,3208.3598122250173,-631.23201704062376,-3298.0792285476473,2247.2130574692578,3402.2111270534688,-1335.2810114457679,2136.1679551462476,-2136.1679551462476,1335.2810114457679,6539.7527058330606,0.0
668523.2936376977,3707751.2368613081,-47500.0,256.62991368396177,984.23927017260894,2975.3896305965504,-883.25660876864902,-3108.6039544283881,2131.6924082966279,3289.7253879125747,-1202.9545499531914,2246.6593276158937,-2246.6593276158937,1202.9545499531914,6328.2329721713586,0.0
673523.2936376977,3707751.2368613081,-47500.0,462.36978464745363,1244.5796054425784,2658.664988316812,-1084.3962684691533,-2856.0266374481689,1980.2668019551541,3135.7210392071142,-1002.5953898017319,2247.264661431263,-2247.264661431263,1002.5953898017319,6036.4989425607027,0.0
678523.2936376977,3707751.2368613081,-47500.0,680.66540908431728,1421.774788784867,2286.7489057418238,-1228.9086292311031,-2560.0330522100166,1803.5829520753741,2950.0043677170679,-757.83429669233101,2151.0749409314549,-2151.0749409314549,757.83429669233101,5682.7138116378455,0.0
683523.2936376977,3707751.2368613081,-47500.0,891.66601211611032,1516.0495209904304,1887.7188761629689,-1316.3714947798176,-2240.1609775904244,1612.2621323302835,2743.1422500728791,-492.37645030296369,1977.1606679731199,-1977.1606679731199,492.37645030296369,5286.0488127459093,0.0
688523.2936376977,3707751.2368613081,-47500.0,1079.2825354881663,1534.4021231634958,1486.4236802403625,-1350.6866997359932,-1914.0110673170595,1415.9751177624685,2525.5091154293705,-227.32531372726908,1747.3479622738905,-1747.3479622738905,227.32531372726908,4865.0378014981079,0.0
693523.2936376977,3707751.2368613081,-47500.0,1232.2449823129959,1488.3913019639374,1102.8164415433589,-1338.7794480550076,-1596.1112700444701,1222.836310178657,2306.4477116310977,20.484397974028752,1483.4122714544376,-1483.4122714544376,-20.484397974028752,4436.355859661192,0.0
698523.2936376977,3707751.2368613081,-47500.0,1344.2489519238811,1391.9281573208975,751.31262881888256,-1289.2717897261875,-1297.4172257352898,1039.11508703093,2093.556825201254,239.1667642403861,1205.0088427569524,-1205.0088427569524,-239.1667642403861,4014.0611366222183,0.0
703523.2936376977,3707751.2368613081,-47500.0,1413.4348714078772,1259.3974559612686,440.95346785196057,-1211.3237333979203,-1025.326624728714,869.20924487146499,1892.2578106543292,421.6741806379116,928.42045040439461,-928.42045040439461,-421.6741806379116,3609.2516940985033,0.0
573523.2936376977,3712751.2368613081,-47500.0,774.20865622052929,67.887072121317217,-1167.3044715976434,200.39607658974236,422.98357591114154,-49.312592923302795,1071.9271520792072,1029.765803081493,-811.77251107612597,811.77251107612597,-1029.765803081493,1876.1210514582426,0.0
578523.2936376977,3712751.2368613081,-47500.0,901.08300636698209,-84.767096310459593,-1155.1081470995493,307.30308266024736,362.09854719320271,4.678807021536695,1134.2769539440785,1140.2759761062807,-955.28392727843539,955.28392727843539,-1140.2759761062807,1971.4188222953287,0.0
583523.2936376977,3712751.2368613081,-47500.0,1017.1272534807039,-260.83985291808648,-1107.9395049638636,425.1912966012905,273.97402751007689,74.27808287105843,1207.1618659928718,1232.9328640263734,-1095.6494136008082,1095.6494136008082,-1232.9328640263734,2091.1519221839276,0.0
588523.2936376977,3712751.2368613081,-47500.0,1114.7726551285702,-457.30149678855946,-1017.5781293100728,551.18235305794531,154.05624602331753,161.46077987441259,1293.4259488639309,1298.6994930448839,-1224.3390886449617,1224.3390886449617,-1298.6994930448839,2243.4143600910761,0.0
593523.2936376977,3712751.2368613081,-47500.0,1185.8252496644016,-668.52319720533615,-876.01396262458843,680.84942314302498,-1.6960917477049986,267.79063185846104,1395.7756722946383,1327.7991787011983,-1330.7773050751512,1330.7773050751512,-1327.7991787011983,2435.6877797371149,0.0
598523.2936376977,3712751.2368613081,-47500.0,1222.1741661220765,-885.86463388298034,-676.37368883856311,808.07116931931512,-196.21401928416483,394.11803003190454,1516.298748328868,1310.513407824154,-1402.683538301781,1402.683538301781,-1310.513407824154,2673.3428582902193,0.0
603523.2936376977,3712751.2368613081,-47500.0,1216.7933458950158,-1097.5254444092611,-414.11858700232443,925.05983570156707,-430.59644340183513,540.23628567645483,1655.9451240797043,1238.3252926692039,-1426.8292195529557,1426.8292195529557,-1238.3252926692039,2958.2649474438431,0.0
608523.2936376977,3712751.2368613081,-47500.0,1164.9774834385923,-1288.8262104602445,-88.423983654824767,1022.6452550151295,-703.33153924217572,704.53292895001266,1814.0760511631242,1105.3539638102593,-1390.275843598632,1390.275843598632,-1105.3539638102593,3287.9411890665078,0.0
613523.2936376977,3712751.2368613081,-47500.0,1065.6604173782509,-1443.0703081135662,296.4461513275732,1090.8817649159985,-1009.5800287978445,883.6953665750973,1988.1730236408544,909.92236878862582,-1282.075852775931,1282.075852775931,-909.92236878862582,3655.1350282865487,0.0
618523.2936376977,3712751.2368613081,-47500.0,922.56171363195801,-1543.0637040323602,730.0559828214806,1119.9977724190464,-1340.686844404157,1072.5473850985857,2173.7525605086503,655.9821164971662,-1095.2839961025481,1095.2839961025481,-655.9821164971662,4048.0949492803593,0.0
623523.2936376977,3712751.2368613081,-47500.0,744.83561732408532,-1573.2285011509775,1195.3552872436467,1101.6294663724434,-1684.1097582284287,1264.0976714521507,2364.483945817025,354.02817777769269,-828.9690498657942,828.9690498657942,-354.02817777769269,4451.2073094764091,0.0
628523.2936376977,3712751.2368613081,-47500.0,546.90057884531643,-1522.0547107686898,1669.2058590275019,1030.1811409385009,-2023.9294951609215,1449.86556965506,2552.4753511296808,21.12332326501209,-489.78215894303833,489.78215894303833,-21.12332326501209,4846.0453486167426,0.0
633523.2936376977,3712751.2368613081,-47500.0,347.24656097912111,-1384.4430984876615,2124.063696939611,904.06173891235505,-2342.0144119534298,1620.503419567887,2728.6993869403423,-320.23599871523163,-92.594138466645191,92.594138466645191,320.23599871523163,5212.7769026983315,0.0
638523.2936376977,3712751.2368613081,-47500.0,166.251930592516,-1163.3857271526349,2530.7463679226826,726.50431093872123,-2619.7685233079583,1766.6699270608165,2883.5982368457221,-644.43517529704491,340.17624996833342,-340.17624996833342,644.43517529704491,5531.8512449760465,0.0
643523.2936376977,3712751.2368613081,-47500.0,23.335290719691358,-870.47755842607285,2861.9008830562825,505.71319496982875,-2840.2201090057001,1880.0342299073,3007.947242985374,-925.93524803187506,780.65204540662421,-780.65204540662421,925.93524803187506,5785.7934371478259,0.0
648523.2936376977,3712751.2368613081,-47500.0,-65.984267764472932,-524.98485869797639,3095.5263031271261,254.21471664400488,-2990.0757365315335,1954.2355881300332,3093.9248208457152,-1142.7449247314601,1198.7430303518197,-1198.7430303518197,1142.7449247314601,5960.8600326395435,0.0
653523.2936376977,3712751.2368613081,-47500.0,-92.454863412348118,-151.55687314249863,3217.8240012894944,-12.519937935144302,-3061.337761735836,1985.6201155398128,3136.1220054400237,-1279.4329571752589,1565.9445322839945,-1565.9445322839945,1279.4329571752589,6048.3121179685249,0.0
658523.2936376977,3712751.2368613081,-47500.0,-54.346050736833327,222.9742171116917,3224.7655235380935,-277.92608748468211,-3052.1493682005498,1973.6046290157758,3132.1732616993449,-1329.0251068691434,1858.9060202623361,-1858.9060202623361,1329.0251068691434,6045.0813610936457,0.0
663523.2936376977,3712751.2368613081,-47500.0,42.653560821435462,573.0249060590636,3122.1043106919378,-526.29977222198761,-2966.7326032966257,1920.6146994070389,3082.893205215099,-1293.4288910085104,2062.0508517037947,-2062.0508517037947,1293.4288910085104,5953.7568073003176,0.0
668523.2936376977,3712751.2368613081,-47500.0,186.77704622973954,877.22976947174755,2923.9390907138186,-744.48171814822285,-2814.4895524292424,1831.6331271323645,2991.9760493461968,-1182.4152257620553,2168.8014879243965,-2168.8014879243965,1182.4152257620553,5781.9356244145729,0.0
673523.2936376977,3712751.2368613081,-47500.0,362.35028616635572,1120.4388772968241,2650.2566475069843,-922.99739115846751,-2608.5140916972773,1713.4737917834912,2865.3983169107541,-1011.5248900111311,2181.3380112305658,-2181.3380112305658,1011.5248900111311,5541.0978936954471,0.0
678523.2936376977,3712751.2368613081,-47500.0,552.2542620281788,1294.5297852050535,2324.0384834349084,-1056.5376318462604,-2363.8463610529857,1573.9341214860067,2710.6748169598723,-799.45283144861946,2109.1554493322819,-2109.1554493322819,799.45283144861946,5245.2263117040602,0.0
683523.2936376977,3712751.2368613081,-47500.0,740.17722546762002,1398.1145640895354,1968.4952758244428,-1143.820054090754,-2095.7928457016983,1420.9754218884316,2536.0936280940628,-565.46776032955518,1966.889394038257,-1966.889394038257,565.46776032955518,4909.3995163797572,0.0
688523.2936376977,3712751.2368613081,-47500.0,912.31259319815263,1435.4288853248322,1604.8382698702524,-1186.9836265554827,-1818.5489041037235,1262.0425283391698,2350.0006701686038,-327.28829584336711,1771.9202896657921,-1771.9202896657921,327.28829584336711,4548.5409609956805,0.0
693523.2936376977,3712751.2368613081,-47500.0,1058.3553215055654,1414.7719817788629,1250.790146080147,-1190.7150356375068,-1544.2470574171659,1103.5824771697062,2160.1416556923746,-99.638862346675865,1542.1764462679362,-1542.1764462679362,99.638862346675865,4176.4358572993997,0.0
698523.2936376977,3712751.2368613081,-47500.0,1171.8228505447037,1346.8467428784056,919.85459834076846,-1161.2990511402008,-1282.4511060897664,950.77577617918644,1973.0648239524444,106.47772262183469,1294.4065397403442,-1294.4065397403442,-106.47772262183469,3805.0664104188891,0.0
583523.2936376977,3717751.2368613081,-47500.0,968.12787401479432,-364.3346946871942,-910.75263500546725,448.09624003137668,159.47085664938689,111.3422971795186,1114.385065492839,1128.1300753836092,-1049.8279209707446,1049.8279209707446,-1128.1300753836092,1931.6725042652511,0.0
588523.2936376977,3717751.2368613081,-47500.0,1039.1071714832487,-542.77540248589776,-800.53657854581343,555.64394425135561,40.489319035089459,190.39625203936947,1198.4901803875798,1162.9762866907693,-1145.8458394733664,1145.8458394733664,-1162.9762866907693,2087.6368839231809,0.0
593523.2936376977,3717751.2368613081,-47500.0,1084.5034574510269,-729.62986483562588,-643.77955572983717,663.61095231312186,-108.78696437624428,284.70493266793602,1297.1524734104357,1162.8402969562358,-1217.2674631181112,1217.2674631181112,-1162.8402969562358,2279.9305181232053,0.0
598523.2936376977,3717751.2368613081,-47500.0,1098.2702101647023,-916.69359780256843,-435.91112231305766,766.63337468385009,-289.94275453275782,394.54169698517012,1411.4718787480856,1120.5119889303976,-1253.8979795831262,1253.8979795831262,-1120.5119889303976,2511.1075417323277,0.0
603523.2936376977,3717751.2368613081,-47500.0,1075.623548174719,-1093.4273202604425,-174.69040684730535,858.20220022856529,-502.92810130648354,519.30789864160033,1541.4904261330998,1030.2356470496097,-1245.2875102978942,1245.2875102978942,-1030.2356470496097,2780.7006053849732,0.0
608523.2936376977,3717751.2368613081,-47500.0,1013.9773566639033,-1247.3517743401321,138.76822881105335,930.96449949178248,-745.51973954837911,657.30703964010911,1685.9384502254545,888.80696936360675,-1181.7989811727095,1181.7989811727095,-888.80696936360675,3084.8317144357547,0.0
613523.2936376977,3717751.2368613081,-47500.0,913.86411208708,-1364.8765610749897,499.05799319307943,977.25099153341671,-1012.8712031525118,805.57483254396789,1842.1090987817029,696.68142578202492,-1055.9570508428835,1055.9570508428835,-696.68142578202492,3416.1847774048201,0.0
618523.2936376977,3717751.2368613081,-47500.0,779.65192088745289,-1432.5798235280658,895.84360329719368,989.82442298705826,-1297.2674204016482,959.81600258681885,2005.8762886174616,458.88384646984872,-863.93359112197959,863.93359112197959,-458.88384646984872,3764.2856338359957,0.0
623523.2936376977,3717751.2368613081,-47500.0,619.83729007211991,-1438.8502352399253,1313.7611950695032,962.7873988830579,-1588.2018182329648,1114.4953964683978,2171.8419149755978,185.46661964987936,-606.92587689535696,606.92587689535696,-185.46661964987936,4116.0497706333344,0.0
628523.2936376977,3717751.2368613081,-47500.0,446.72007317152833,-1375.6789332371075,1733.0492137600936,892.52876289756432,-1872.866536919754,1263.1160898441638,2333.5808361174218,-108.71672032932476,-292.11741951041773,292.11741951041773,108.71672032932476,4456.5882334647795,0.0
633523.2936376977,3717751.2368613081,-47500.0,275.36404582943544,-1240.2791582650959,2130.9933529564132,778.53725031379179,-2137.0796462102571,1398.6869546340213,2483.9577984172151,-405.05965243911442,67.090288986416795,-67.090288986416795,405.05965243911442,4770.2525862228813,0.0
638523.2936376977,3717751.2368613081,-47500.0,121.90745236711169,-1036.1644281274937,2484.0880084639844,623.89599397927475,-2366.5764102884141,1514.3387845859825,2615.5436035261364,-683.03657635854483,451.78918150934851,-451.78918150934851,683.03657635854483,5041.853656478017,0.0
643523.2936376977,3717751.2368613081,-47500.0,1.4711276376792302,-773.37142721473879,2770.6220004680322,435.30707247678043,-2548.4933878800148,1604.0090877058281,2721.2098315327812,-922.58112342489744,839.24559711671668,-839.24559711671668,922.58112342489744,5257.9366255819286,0.0
648523.2936376977,3717751.2368613081,-47500.0,-73.943403457470055,-467.67432293133339,2973.2402982034537,222.5820629503001,-2672.7964903524858,1663.0838045800854,2794.8916091316155,-1106.5908223688009,1205.3396293647882,-1205.3396293647882,1106.5908223688009,5407.944194720234,0.0
653523.2936376977,3717751.2368613081,-47500.0,-97.131134838630217,-138.87091959397804,3080.997354678866,-2.3464735491298967,-2733.3969869756788,1688.886403724307,2832.3325973157189,-1223.0701851095773,1527.345459910302,-1527.345459910302,1223.0701851095773,5485.1085041060505,0.0
658523.2936376977,3717751.2368613081,-47500.0,-66.585027782937573,191.55584810695532,3090.4993722810004,-226.72642944097996,-2728.7432455400567,1680.923025853162,2831.5673298962456,-1266.4851530226499,1786.5288833197408,-1786.5288833197408,1266.4851530226499,5486.9254179389054,0.0
663523.2936376977,3717751.2368613081,-47500.0,13.540171819833114,502.94882655414472,3005.9565364990849,-438.36320822900888,-2661.8050659270048,1640.8536519152262,2793.0495819983389,-1238.0963809285515,1970.0868352960149,-1970.0868352960149,1238.0963809285515,5415.1716015438333,0.0
668523.2936376977,3717751.2368613081,-47500.0,134.33596098694304,777.69508736552643,2838.1951023777406,-626.83105941045233,-2539.4802943531599,1572.2029077867953,2719.4571120191463,-1145.2767246298713,2072.1172190133225,-2072.1172190133225,1145.2767246298713,5275.4703012205455,0.0
673523.2936376977,3717751.2368613081,-47500.0,283.66436837607489,1002.7948307146678,2602.9095609888836,-784.33466124391327,-2371.5817717457885,1479.8832390469743,2615.2805662349415,-1000.0456669506408,2093.5536599051652,-2093.5536599051652,1000.0456669506408,5076.5193080624895,0.0
678523.2936376977,3717751.2368613081,-47500.0,447.9450613727862,1170.6068601804684,2318.5377789712211,-906.12977956980581,-2169.611637071881,1369.6218710110586,2486.2962283561683,-817.17936747934743,2041.2149119632913,-2041.2149119632913,817.17936747934743,4829.1140068542745,0.0
683523.2936376977,3717751.2368613081,-47500.0,613.85909125265175,1278.7922567018836,2004.1536802211358,-990.5125036852553,-1945.5392544875831,1247.3878239474448,2339.0108819395105,-612.27840606079769,1926.2713131524943,-1926.2713131524943,612.27840606079769,4545.1214581980284,0.0
688523.2936376977,3717751.2368613081,-47500.0,769.71055154438216,1329.6231710741761,1677.6837581933501,-1038.4614173033813,-1710.752112042187,1118.8954223454948,2180.1281442589502,-400.10130154792785,1762.4744223185721,-1762.4744223185721,400.10130154792785,4236.5331291705843,0.0
693523.2936376977,3717751.2368613081,-47500.0,906.31157132257874,1328.8991466679634,1354.6245888958535,-1053.0578529461143,-1475.2809923570726,989.23107119076008,2016.0403926799295,-193.35019396134419,1564.4573092542701,-1564.4573092542701,193.35019396134419,3914.6851321928357,0.0
588523.2936376977,3722751.2368613081,-47500.0,958.50596475405416,-599.91193477457875,-606.35419911627775,544.84208213560373,-48.619542849818991,205.96371227083509,1114.3327867716375,1028.9008842017236,-1056.3623589113233,1056.3623589113233,-1028.9008842017236,1953.1556603081722,0.0
593523.2936376977,3722751.2368613081,-47500.0,984.03809815033105,-763.13388158391922,-441.47427002229631,633.87559745480223,-188.94138525018695,288.71284906914229,1208.1805830313988,1007.0579874458188,-1098.9406935311956,1098.9406935311956,-1007.0579874458188,2141.0229553523814,0.0
598523.2936376977,3722751.2368613081,-47500.0,981.36813716929282,-922.34098138576076,-232.31125378069308,716.52472694780533,-355.22172793032314,383.43489454756531,1315.1914427024797,947.66710665364235,-1107.8698975971197,1107.8698975971197,-947.66710665364235,2361.3029690639482,0.0
603523.2936376977,3722751.2368613081,-47500.0,947.40513042248654,-1068.3390745637878,21.719060365263726,787.43693618014311,-546.69919478689053,489.34616932769478,1434.8444176966807,847.06928722801058,-1075.0624329344209,1075.0624329344209,-847.06928722801058,2612.1925391193013,0.0
608523.2936376977,3722751.2368613081,-47500.0,881.03508909637776,-1190.6874231025872,318.27095767803905,840.78111568234806,-760.84209949356614,604.81848251412839,1565.5754359803743,703.93511102239734,-993.50900908190977,993.50900908190977,-703.93511102239734,2889.3156033617734,0.0
613523.2936376977,3722751.2368613081,-47500.0,783.74838737897983,-1278.4433727116539,651.45194383351009,870.6864727688004,-993.07795839939331,727.28696710714905,1704.7410028848576,520.02827912322664,-858.32218747501429,858.32218747501429,-520.02827912322664,3185.8074743319444,0.0
618523.2936376977,3722751.2368613081,-47500.0,660.06743963737085,-1321.2078781936621,1011.4834662027456,871.81957314162241,-1236.6935012394235,853.24035381111378,1848.6791896424402,300.76187014129277,-667.81378525601122,667.81378525601122,-300.76187014129277,3492.5830362531638,0.0
623523.2936376977,3722751.2368613081,-47500.0,517.62975158211691,-1310.3835611732482,1384.7930506128539,840.04645167966271,-1482.9784107972441,978.32184783983212,1992.8544467491163,55.378918937289001,-424.42330059380663,424.42330059380663,-55.378918937289001,3798.7811693360482,0.0
628523.2936376977,3722751.2368613081,-47500.0,366.81271367321182,-1240.4772078901005,1754.6498321629499,773.08942445634136,-1721.6594835461265,1097.5555070097823,2132.0576021292786,-203.38271703475186,-135.28380224675385,135.28380224675385,203.38271703475186,4092.3846277159696,0.0
633523.2936376977,3722751.2368613081,-47500.0,219.86085319844287,-1110.2174968666363,2102.3702675505297,671.06277374889225,-1941.6262817895745,1205.6933842969186,2260.6373582898746,-460.20471284579645,187.77166145797429,-187.77166145797429,460.20471284579645,4361.0011142073781,0.0
638523.2936376977,3722751.2368613081,-47500.0,89.585568128008447,-923.2428357822497,2408.9977041877214,536.76870611088464,-2131.8857521456007,1297.6520756259561,2372.7841978256615,-698.62591845541112,528.88122325233542,-528.88122325233542,698.62591845541112,4592.7549181765835,0.0
643523.2936376977,3722751.2368613081,-47500.0,-12.177742219209783,-688.16293753911475,2657.2357212977031,375.66356125987494,-2282.6228720983454,1368.983207029054,2462.939938685262,-902.8167667612762,869.49175969524083,-869.49175969524083,902.8167667612762,4777.2020809244459,0.0
648523.2936376977,3722751.2368613081,-47500.0,-76.0858444499396,-417.91065792246462,2833.3248293008778,195.46235091237881,-2386.204731927045,1416.3083730551334,2526.351830574843,-1059.3998639846948,1190.1986960084098,-1190.1986960084098,1059.3998639846948,4906.1600990006145,0.0
653523.2936376977,3722751.2368613081,-47500.0,-96.488183088722266,-128.45099277792951,2928.5335580129458,5.4232983968311332,-2437.9582871324851,1437.6473977113073,2559.6334057341633,-1158.9890513840955,1472.7963435563165,-1472.7963435563165,1158.9890513840955,4974.3385557502961,0.0
658523.2936376977,3722751.2368613081,-47500.0,-72.081152728475416,162.94205605805823,2940.0006382873185,-184.57660481860245,-2436.5919115990414,1432.58754052378,2561.1433951298759,-1197.167251825814,1702.1864339901638,-1702.1864339901638,1197.167251825814,4979.6863114870694,0.0
663523.2936376977,3722751.2368613081,-47500.0,-5.9069908924789152,439.53789770095796,2870.7997450239818,-365.02177187164506,-2384.1989952754147,1402.2696292750372,2531.0973980561057,-1174.7458653483,1867.8227134241397,-1867.8227134241397,1174.7458653483,4923.4144441679446,0.0
668523.2936376977,3722751.2368613081,-47500.0,95.266212408809082,686.81437726734339,2729.2584748514769,-527.63521336062422,-2285.8647212149076,1349.2022598211452,2471.4416666929869,-1097.3050257094637,1964.4770353082445,-1964.4770353082445,1097.3050257094637,4809.7072983507342,0.0
673523.2936376977,3722751.2368613081,-47500.0,222.02120759145163,893.68548361315106,2527.7085736526619,-666.028364112188,-2148.970558569612,1276.9453611701781,2385.5654426394699,-974.16075402277374,1992.2686830287798,-1992.2686830287798,974.16075402277374,4645.1867419754226,0.0
678523.2936376977,3722751.2368613081,-47500.0,363.59179224221111,1053.1546385572208,2280.9222732098833,-776.05423619647661,-1982.3288421944706,1189.7197730476871,2277.9230774217526,-816.99442882152539,1956.0410229681631,-1956.0410229681631,816.99442882152539,4438.2148192292707,0.0
683523.2936376977,3722751.2368613081,-47500.0,509.14768992900065,1162.3872180542712,2004.5127314195695,-855.85976136280658,-1795.2947704364913,1092.0065012017133,2153.6309116370776,-638.40759315687546,1864.2818755992771,-1864.2818755992771,638.40759315687546,4198.145325784476,0.0
688523.2936376977,3722751.2368613081,-47500.0,648.87242873470109,1222.2963045851066,1713.5201679023571,-905.68249678894858,-1596.9715232082108,988.18535992802049,2018.0695550216096,-450.62377461147946,1727.8190790774288,-1727.8190790774288,450.62377461147946,3934.6055189961753,0.0
598523.2936376977,3727751.2368613081,-47500.0,873.44743908540602,-909.46602756457958,-62.721817361497521,662.4220656230458,-397.93553537107738,365.06178795978639,1226.0493199688774,793.45426699648874,-969.10445130711378,969.10445130711378,-793.45426699648874,2220.7625370292567,0.0
603523.2936376977,3727751.2368613081,-47500.0,832.60105543086775,-1028.9084818242113,180.01773185635372,716.74414498030069,-568.71722300388683,454.61134456412356,1335.1993250178944,688.2454030031073,-919.07142154175642,919.07142154175642,-688.2454030031073,2451.4309643875536,0.0
608523.2936376977,3727751.2368613081,-47500.0,765.04175223942298,-1124.9495758784124,457.03147450165045,755.05428537066655,-756.71811929477212,551.01602003501819,1452.7303889798177,547.99082304787066,-826.29649552267392,826.29649552267392,-547.99082304787066,2701.7545637237963,0.0
613523.2936376977,3727751.2368613081,-47500.0,672.77912256524974,-1188.8500546379064,762.37432565333484,772.88221564093362,-957.78000163134016,652.10440950005489,1576.1913736767247,375.1880902945943,-687.77995307379547,687.77995307379547,-375.1880902945943,2965.5469662217711,0.0
618523.2936376977,3727751.2368613081,-47500.0,560.19680980831504,-1212.6001304319198,1087.0649125303844,766.31334484936292,-1166.1550691538325,755.03404030254706,1702.4032213485043,175.21642328782806,-503.25917072687196,503.25917072687196,-175.21642328782806,3235.0512537632576,0.0
623523.2936376977,3727751.2368613081,-47500.0,434.018636519795,-1189.8742811400175,1419.2751787125594,732.46877917061374,-1374.6702284154665,856.38631557125439,1827.5885780324334,-43.644260598945664,-275.82312393836088,275.82312393836088,43.644260598945664,3501.2959106671806,0.0
628523.2936376977,3727751.2368613081,-47500.0,302.93797294252113,-1116.9749532279363,1744.9207090012001,669.96093337208174,-1575.0954603306845,952.34604981036227,1947.5315116805798,-270.57806644294931,-12.225793783332449,12.225793783332449,270.57806644294931,3754.5744164292423,0.0
633523.2936376977,3727751.2368613081,-47500.0,176.90150087018617,-993.60320983445558,2048.6484955956234,579.24632949029012,-1758.7055972586343,1038.957544886724,2057.7435878057922,-493.00420457787419,277.22404277689458,-277.22404277689458,493.00420457787419,3985.0324597883482,0.0
638523.2936376977,3727751.2368613081,-47500.0,66.110703050433514,-823.29348787940182,2315.1390571012312,462.80020797208851,-1916.9873092448245,1112.4350619384597,2153.6539011890836,-697.69766304065081,579.26023732748615,-579.26023732748615,697.69766304065081,4183.3263895041382,0.0
643523.2936376977,3727751.2368613081,-47500.0,-20.121714934109914,-613.38924374598218,2530.5577151301832,325.05863934233912,-2042.4029180476268,1169.4891838518217,2230.8912384157666,-872.11740622430136,878.71698065926319,-878.71698065926319,872.11740622430136,4341.2879523433221,0.0
648523.2936376977,3727751.2368613081,-47500.0,-74.474793094094721,-374.51500214898914,2683.9388617171321,172.11323486695508,-2129.1022549168861,1207.6242380826975,2285.6925442065917,-1005.7393725191498,1159.9219671596386,-1159.9219671596386,1005.7393725191498,4452.5214132449464,0.0
653523.2936376977,3727751.2368613081,-47500.0,-92.487188913919127,-119.59839378712583,2768.2793160220185,11.189254616358848,-2173.4722351328601,1225.3624431183678,2315.3363888268364,-1091.1725504854526,1408.2204822095086,-1408.2204822095086,1091.1725504854526,4512.8576488603303,0.0
658523.2936376977,3727751.2368613081,-47500.0,-73.036497230462032,137.41006619003107,2781.1629747664279,-150.01755811963716,-2174.4386052641785,1222.3608547759668,2318.4441819607928,-1124.8711503588381,1611.388939886145,-1611.388939886145,1124.8711503588381,4520.6079915983573,0.0
663523.2936376977,3727751.2368613081,-47500.0,-18.355523713241134,382.91424200733633,2724.8282599823428,-304.04531380889438,-2133.4795780406239,1199.4065958062522,2295.0771568518612,-1107.3369276701299,1760.7190271653742,-1760.7190271653742,1107.3369276701299,4476.5904984368617,0.0
668523.2936376977,3727751.2368613081,-47500.0,66.394226378513125,604.92859307455194,2605.6947652004487,-444.30547629044537,-2054.3618898545801,1158.2954947567439,2246.6522914154193,-1042.8071162349195,1851.6213914269122,-1851.6213914269122,1042.8071162349195,4383.9338872315711,0.0
673523.2936376977,3727751.2368613081,-47500.0,173.88795800725376,794.03746225674649,2433.4657269797763,-565.57314643852726,-1942.6602401132416,1101.6206513131708,2175.7384195209443,-938.5219808587583,1883.7021101886901,-1883.7021101886901,938.5219808587583,4247.7037710732011,0.0
678523.2936376977,3727751.2368613081,-47500.0,295.58687421554657,943.95174314078338,2219.9742553074134,-664.27634019087009,-1805.1431128113552,1032.5046173959613,2085.7825995952198,-803.72671243085256,1860.3567755944316,-1860.3567755944316,803.72671243085256,4074.4015718359369,0.0
608523.2936376977,3732751.2368613081,-47500.0,664.47016046623844,-1054.6288870123076,561.61974190869887,675.40470100191646,-738.94314808364345,498.41062992836976,1347.2394877204981,417.7234821868351,-679.70915793235326,679.70915793235326,-417.7234821868351,2522.7814829522695,0.0
613523.2936376977,3732751.2368613081,-47500.0,578.44036494447721,-1099.6038780362298,839.59007657829852,684.44342749743464,-912.65614462632311,581.8706870985236,1456.4563774007581,257.49507071909539,-542.10179871090941,542.10179871090941,-257.49507071909539,2756.6126511423349,0.0
618523.2936376977,3732751.2368613081,-47500.0,476.84802154435323,-1109.0489560639546,1131.1340621291308,672.88162533393927,-1090.793519865704,666.1054198157774,1566.9981270506203,76.54778301591378,-366.37520239847947,366.37520239847947,-76.54778301591378,2992.9666598305093,0.0
623523.2936376977,3732751.2368613081,-47500.0,365.5305090946556,-1078.3409639960182,1426.04039392184,638.73047050785044,-1267.4725033464838,748.43583680448592,1675.7353640825877,-117.82925052683316,-155.88170337784214,155.88170337784214,117.82925052683316,3224.4487911571491,0.0
628523.2936376977,3732751.2368613081,-47500.0,251.738654833353,-1005.0559159457034,1712.4940674019251,581.19153687414996,-1436.0989615922133,825.93050739149612,1779.2566121587754,-316.51104548533061,83.170314073741622,-83.170314073741622,316.51104548533061,3443.2038096820415,0.0
633523.2936376977,3732751.2368613081,-47500.0,143.556907916114,-889.50001569059168,1977.8769921022333,500.88924042306166,-1589.8005623959482,895.59449841831849,1873.9856668316406,-509.17409140729279,341.87976390628904,-341.87976390628904,509.17409140729279,3641.3612103572873,0.0
638523.2936376977,3732751.2368613081,-47500.0,49.136950488115609,-734.98053992961127,2209.7764551468567,399.97124375433765,-1721.951164330917,954.59076091314751,1956.3040896720574,-685.16724861984017,609.16678074313427,-609.16678074313427,685.16724861984017,3811.5243677819662,0.0
643523.2936376977,3732751.2368613081,-47500.0,-24.154651254612808,-547.73940371355025,2397.0798842091513,282.04436674319948,-1826.7251542259903,1000.4686569847178,2022.7448690058357,-834.51017792680375,872.60676152650205,-872.60676152650205,834.51017792680375,3947.2589305214806,0.0
648523.2936376977,3732751.2368613081,-47500.0,-70.54537982792597,-336.52611404237337,2531.003125560223,151.93920246525781,-1899.6068307552366,1031.3694880132077,2070.2990860945738,-948.87653172562705,1119.4903392750575,-1119.4903392750575,948.87653172562705,4043.5269751480751,0.0
653523.2936376977,3732751.2368613081,-47500.0,-86.490127082085266,-111.85309489271749,2605.8987871337199,15.326890000476441,-1937.7825617529863,1046.1810613441576,2096.7585241277679,-1022.4104131303852,1337.96436779035,-1337.96436779035,1022.4104131303852,4097.0175238088759,0.0
658523.2936376977,3732751.2368613081,-47500.0,-71.025446619335781,114.96357306038401,2619.7233703107254,-121.76152195102229,-1940.359101686475,1044.619788772563,2100.9592546137465,-1052.2499039641464,1518.0878478425223,-1518.0878478425223,1052.2499039641464,4106.3341552274214,0.0
663523.2936376977,3732751.2368613081,-47500.0,-25.793443377349906,332.83527240232615,2574.1011860439426,-253.44524665532177,-1908.3807383791886,1027.2301686764672,2082.8643795254447,-1038.6849192247555,1652.6506327380494,-1652.6506327380494,1038.6849192247555,4072.0207441362622,0.0
668523.2936376977,3732751.2368613081,-47500.0,45.253946728515679,531.8544367320626,2473.9938879086499,-374.46367272836875,-1844.6510257057253,995.30517498196082,2043.5068362320155,-984.94429127509375,1737.6499459634788,-1737.6499459634788,984.94429127509375,3996.427960825657,0.0
628523.2936376977,3737751.2368613081,-47500.0,210.56724237599002,-904.21209335056108,1664.1059103063303,504.91580249104175,-1306.2907165539275,716.43405001551821,1626.2592851164295,-346.12956614698919,156.09427113513442,-156.09427113513442,346.12956614698919,3157.5597636589928,0.0
633523.2936376977,3737751.2368613081,-47500.0,117.59241679781485,-796.841268037036,1896.1725150465968,434.02950263489112,-1435.3465657408119,772.70824608188389,1707.9225409559135,-513.13360097966677,386.99628613656034,-386.99628613656034,513.13360097966677,3328.3659771452012,0.0
638523.2936376977,3737751.2368613081,-47500.0,36.933315266998179,-657.02247739869847,2098.2927111303129,346.5481903096819,-1546.0812839590158,820.30607372691918,1778.833714922627,-664.72522686578577,623.54698375472867,-623.54698375472867,664.72522686578577,3474.8362843972295,0.0
643523.2936376977,3737751.2368613081,-47500.0,-25.552152842975502,-490.0515943458509,2261.5014930621396,245.40758339706858,-1633.9643909516674,857.38851770516692,1836.2194278986615,-792.92535286578845,855.5403242226987,-855.5403242226987,792.92535286578845,3591.8673640996417,0.0
648523.2936376977,3737751.2368613081,-47500.0,-65.284667601001885,-303.15400875152176,2378.7263051649124,134.45537539447221,-1695.4865797035379,882.56054222045179,1877.6504561297661,-891.10969939833615,1072.6269066160696,-1072.6269066160696,891.10969939833615,3675.4621630949464,0.0
