x,y,z,stresses_full_xx,stresses_full_xy,stresses_full_yy,stresses_full_xz,stresses_full_yz,stresses_full_zz,stresses_full_max_shear,stresses_full_cfs_1,stresses_full_cfs_2,stresses_full_cfs_3,stresses_full_cfs_4,von_mises,aftershocksyn
603204.59901257406,4017374.0504322448,-2500.0,156.69087151120198,211.20683420739888,1300.2669611300651,9.4518966056482707,52.488986312644698,1.5108361436922055,670.38338310207132,-339.44468033272875,873.56866474916387,-873.56866474916387,339.44468033272875,1285.1714168567462,0.0
608204.59901257406,4017374.0504322448,-2500.0,132.89740083893389,134.76104054517663,1343.50131208164,5.8989289221087624,54.23198066966944,1.5570443128191804,680.57189977335258,-365.52719983760574,840.7070917863806,-840.7070917863806,365.52719983760574,1305.8417200789984,0.0
613204.59901257406,4017374.0504322448,-2500.0,116.27723245731143,50.279047972471822,1356.6804595412848,2.0087510022789909,54.821956072057425,1.5735578855549903,680.78486071747659,-375.55805671514622,783.39074663651354,-783.39074663651354,375.55805671514622,1307.9175435237939,0.0
618204.59901257406,4017374.0504322448,-2500.0,108.43229242094891,-37.398991135835594,1337.0152615737675,-2.0156459605007617,54.15137117304684,1.5576689706153717,670.49137546862994,-367.79804084844295,703.65573994472174,-703.65573994472174,367.79804084844295,1290.4061354997191,0.0
623204.59901257406,4017374.0504322448,-2500.0,109.94899010545979,-122.79866700971131,1283.9749482877867,-5.945773141051709,52.19712591933969,1.5087459582659231,649.71515790726221,-342.06769599803602,605.47706045447967,-605.47706045447967,342.06769599803602,1253.3659134317504,0.0
628204.59901257406,4017374.0504322448,-2500.0,120.2485921144893,-200.42297493689699,1199.5074907143492,-9.551873818413771,49.028967717050534,1.4284148349411971,619.06942982910152,-299.88365316498891,494.42852058002927,-494.42852058002927,299.88365316498891,1197.9770778074542,0.0
633204.59901257406,4017374.0504322448,-2500.0,137.63421002435382,-265.40744542538187,1087.9221025172963,-12.628895816737703,44.805518636010227,1.3205327832605454,579.72899965413274,-244.33273265470868,377.08643495316255,-377.08643495316255,244.33273265470868,1126.4946254093384,0.0
638204.59901257406,4017374.0504322448,-2500.0,159.53470892536203,-314.09426734794982,955.43650614955698,-15.01945331835014,39.757981115185601,1.1907419622254918,533.34103337022032,-179.69429090352304,260.27777752599849,-260.27777752599849,179.69429090352304,1042.0859849587478,0.0
643204.59901257406,4017374.0504322448,-2500.0,182.89642933187145,-344.41512779616352,809.46770043505592,-16.629523255646905,34.164259334403916,1.045900340618795,481.89024042105677,-110.88224338706739,150.31297557555439,-150.31297557555439,110.88224338706739,948.57790587298234,0.0
648204.59901257406,4017374.0504322448,-2500.0,204.63712343969149,-356.0180188206906,657.80030073500961,-17.434307927218541,28.318326424065638,0.8933154053720519,427.59596442329126,-42.820153473791841,52.344157905250846,-52.344157905250846,42.820153473791841,850.15394680016902,0.0
653204.59901257406,4017374.0504322448,-2500.0,222.06678058108361,-350.13521974716565,507.78354451222617,-17.474020425105493,22.500306555285739,0.74003775601007926,378.84548840098131,20.129202200251882,-30.048627074194016,30.048627074194016,-20.129202200251882,751.04939177734832,0.0
658204.59901257406,4017374.0504322448,-2500.0,233.196844246143,-329.24593183295457,365.68698103091083,-16.841431569718708,16.95205117093667,0.59223867428021715,336.36149737431288,74.58232474091723,-95.000162550072602,95.000162550072602,-74.58232474091723,655.28468877410978,0.0
593204.59901257406,4022374.0504322448,-2500.0,258.99276299213443,393.95447135126972,1287.0765768718497,18.902144724666716,54.531910074312144,1.6660630215931833,711.84897991839512,-274.00509367372359,995.42706411578706,-995.42706411578706,274.00509367372359,1365.0348755125613,0.0
598204.59901257406,4022374.0504322448,-2500.0,220.91713963673701,337.67150212674289,1400.6217197151948,16.022015320926659,59.189990789658289,1.7939790473466171,746.84327498699395,-335.90423387979172,1020.4581063371666,-1020.4581063371666,335.90423387979172,1432.3285453808464,0.0
603204.59901257406,4022374.0504322448,-2500.0,184.76712716030192,262.68462361190689,1490.9461525449904,12.315231469365553,62.913771379847418,1.8962469159993323,772.61367127790299,-387.0821586151107,1017.210492194713,-1017.210492194713,387.0821586151107,1482.4798718490217,0.0
608204.59901257406,4022374.0504322448,-2500.0,154.17931072137807,171.73467612405469,1550.1829511353612,7.9080883596815221,65.39185893154189,1.9647508359838357,787.27750419550011,-422.42285642926493,982.86395801869151,-982.86395801869151,422.42285642926493,1511.9463655145321,0.0
613204.59901257406,4022374.0504322448,-2500.0,132.42848211251282,69.51476453404041,1571.8198266849981,3.0086102844218225,66.365996711639326,1.9927446769530817,789.38883422641072,-437.68753496867794,916.97536992274445,-916.97536992274445,437.68753496867794,1518.0073765133707,0.0
618204.59901257406,4022374.0504322448,-2500.0,121.86244992327484,-37.638056515105873,1551.686689090415,-2.1067023758550252,65.669208273568302,1.975841958612707,778.12980912227476,-430.23977363877714,821.87886378400628,-821.87886378400628,430.23977363877714,1499.1288973680016,0.0
623204.59901257406,4022374.0504322448,-2500.0,123.42922413047927,-142.3860637803341,1488.7343832408621,-7.1195876374609641,63.255937340098782,1.9127807184229972,753.45153218915777,-399.60578687848601,702.68647737912738,-702.68647737912738,399.60578687848601,1455.234974328011,0.0
628204.59901257406,4022374.0504322448,-2500.0,136.42443454336359,-237.28408105203641,1385.4136041869274,-11.706759001504434,59.217009839854519,1.8057692845596822,716.1357075825947,-347.71788296946892,566.82915714715921,-566.82915714715921,347.71788296946892,1387.8312932800236,0.0
633204.59901257406,4022374.0504322448,-2500.0,158.54319239047135,-315.757274417639,1247.530548842002,-15.580134861522961,53.774673159251606,1.6604237567507292,667.75889105179044,-278.75048008308687,423.18711540370992,-423.18711540370992,278.75048008308687,1299.9462890299501,0.0
638204.59901257406,4022374.0504322448,-2500.0,186.24298267041166,-372.95938968496591,1083.5772439604848,-18.522460037260753,47.257569660847963,1.4851438584788228,610.56163908829978,-198.55922652481624,280.97019433905655,-280.97019433905655,198.55922652481624,1195.8925418306217,0.0
643204.59901257406,4022374.0504322448,-2500.0,215.33698312021735,-406.32892822226876,903.66298191854582,-20.411072162596412,40.06024155841228,1.2900744648979616,547.25076333292941,-113.83964367201801,148.57790948410175,-148.57790948410175,113.83964367201801,1080.887001544977,0.0
648204.59901257406,4022374.0504322448,-2500.0,241.67602840283359,-415.74084374520879,718.26866215084408,-21.225521794745703,32.595378762457905,1.0859648922299929,481.35457575915808,-31.192632257097053,32.668408586362524,-32.668408586362524,31.192632257097053,960.59765832284688,0.0
653204.59901257406,4022374.0504322448,-2500.0,261.76151453848269,-403.25716685162394,537.07416879447737,-21.038948845405237,25.248284701392731,0.88297140513886196,426.86611045982193,43.702875020365433,-62.400363830846992,62.400363830846992,-43.702875020365433,840.69447696983013,0.0
658204.59901257406,4022374.0504322448,-2500.0,273.16746843669904,-372.57679018691687,368.06124748277779,-19.996870292983758,18.341310697080985,0.68974552469309725,376.18415534404897,106.66001687398779,-134.70384905103242,134.70384905103242,-106.66001687398779,726.46721114907166,0.0
663204.59901257406,4022374.0504322448,-2500.0,274.71567506717736,-328.33752995761489,217.00263152262869,-18.289305819998358,12.112723726207223,0.51286340246263562,330.08082385442839,155.23025060086729,-184.50928841360303,184.50928841360303,-155.23025060086729,622.53766921906345,0.0
668204.59901257406,4022374.0504322448,-2500.0,266.41763844347321,-275.42625365789746,87.344106892689197,-16.122378683177768,6.7105942054499401,0.35661240684070677,289.99609424635281,188.64592682708619,-213.78214252418823,213.78214252418823,-188.64592682708619,532.63971393089503,0.0
583204.59901257406,4027374.0504322448,-2500.0,394.29468796611138,528.16027460857447,1121.8828715025534,27.293756242732339,50.373346096628509,1.6632505813710661,701.22222162681862,-129.1784862923941,987.83389176497508,-987.83389176497508,129.1784862923941,1347.562652040702,0.0
588204.59901257406,4027374.0504322448,-2500.0,357.41503424137488,514.71234809127623,1289.894364340161,26.222837287373086,57.578046339389608,1.8726137563610625,760.76975396398984,-211.93284672793834,1077.4441080604292,-1077.4441080604292,211.93284672793834,1460.9103605564846,0.0
593204.59901257406,4027374.0504322448,-2500.0,313.60540692749345,477.93063802274179,1452.1900485850897,24.044584290612118,64.527865964220098,2.0733996924970199,814.98298429591171,-296.02850555436044,1146.3465953264872,-1146.3465953264872,296.02850555436044,1564.4845104424148,0.0
598204.59901257406,4027374.0504322448,-2500.0,266.45364986607399,415.96903663575006,1598.6557503382992,20.690168406172113,70.802353483521443,2.2539775091940877,860.97429875011471,-375.26619684228768,1186.8067667669159,-1186.8067667669159,375.26619684228768,1652.8596882783081,0.0
603204.59901257406,4027374.0504322448,-2500.0,220.52106098496753,329.15594971975531,1718.1598080649142,16.188625006508936,75.940803301506861,2.4017024989869311,895.82569633754815,-442.55765187413385,1192.0960798104604,-1192.0960798104604,442.55765187413385,1720.5464316091952,0.0
608204.59901257406,4027374.0504322448,-2500.0,180.80960257627828,220.51140103774108,1799.7046306682007,10.68785330414596,79.489096984712006,2.5041790581264025,916.86427743878244,-490.74723576189069,1157.6376485764131,-1157.6376485764131,490.74723576189069,1762.5112124063392,0.0
613204.59901257406,4027374.0504322448,-2500.0,151.99607232660637,95.902033316840743,1833.877280543807,4.4599549709678623,81.058226949606237,2.5508027412307777,921.96967036224339,-513.67759018703009,1082.0685949900546,-1082.0685949900546,513.67759018703009,1774.7591554277949,0.0
618204.59901257406,4027374.0504322448,-2500.0,137.56772882111733,-36.30891656844635,1814.3720983821765,-2.1147426351779859,80.385538949381456,2.5343510127421318,909.87261229668422,-507.31237135031711,967.95585003003339,-967.95585003003339,507.31237135031711,1754.9032446662068,0.0
623204.59901257406,4027374.0504322448,-2500.0,139.06323068678989,-166.15713574591277,1739.2474381229706,-8.5864461544242339,77.385313966245846,2.4523903964951757,880.38413036652457,-470.64872636765233,821.91032396968956,-821.91032396968956,470.64872636765233,1702.6055772003103,0.0
628204.59901257406,4027374.0504322448,-2500.0,155.6390866275901,-283.40101464700058,1611.5843713465517,-14.49252564339322,72.175721995961581,2.3079165302090772,834.50471548880375,-406.15449613137901,653.97080192738156,-653.97080192738156,406.15449613137901,1619.7948708607737,0.0
633204.59901257406,4027374.0504322448,-2500.0,184.11735139135362,-379.01071127511312,1439.3218128646545,-19.421146560528353,65.073189711763646,2.1092708440254917,774.38084091429187,-319.56006758919767,476.31550897712663,-476.31550897712663,319.56006758919767,1510.59756283961,0.0
638204.59901257406,4027374.0504322448,-2500.0,219.53536456654004,-446.47838150468874,1234.2461191480074,-23.067814756998153,56.553159834823518,1.869153129800379,703.1092530030927,-219.00928347522637,301.56022122484825,-301.56022122484825,219.00928347522637,1380.9796262314715,0.0
643204.59901257406,4027374.0504322448,-2500.0,256.06450651658054,-482.64151688148036,1010.3465799306214,-25.272049767382004,47.185222824895455,1.6029023567438905,624.45116920679618,-113.76301412751127,141.0289922005108,-141.0289922005108,113.76301412751127,1238.1647093039501,0.0
648204.59901257406,4027374.0504322448,-2500.0,288.05417462543255,-487.85083882040198,781.91448785359842,-26.026934214009358,37.557223170923116,1.3265631139143035,548.01306765280606,-12.775684583160935,3.3835612983302292,-3.3835612983302292,12.775684583160935,1089.9418709184204,0.0
653204.59901257406,4027374.0504322448,-2500.0,310.9367011022801,-465.5065458876249,561.80432064067099,-25.461970432910547,28.204729312178625,1.0549542700999204,482.99307153192791,76.521251285302554,-106.12970258150807,106.12970258150807,-76.521251285302554,943.99207867078587,0.0
658204.59901257406,4027374.0504322448,-2500.0,321.7998890947776,-421.15010124425174,360.18200768231327,-23.806464886811646,19.558950509226516,0.80027332010529295,422.28535651321096,148.99161826585166,-185.75086776888011,185.75086776888011,-148.99161826585166,807.33184624068315,0.0
663204.59901257406,4027374.0504322448,-2500.0,319.55674313280753,-361.37905766498471,183.909764801043,-21.344148915591976,11.919475714109446,0.57130686818711363,368.24034451080257,202.04140787781367,-236.71359251355923,236.71359251355923,-202.04140787781367,685.90072930236852,0.0
668204.59901257406,4027374.0504322448,-2500.0,304.76152892290838,-292.83726810211004,36.538371179946587,-18.369572450689262,5.4513623251045669,0.37324917164178473,322.52376173095081,235.40617909969984,-262.41401624024149,262.41401624024149,-235.40617909969984,584.22116875622714,0.0
673204.59901257406,4027374.0504322448,-2500.0,279.19675739114535,-221.45000843993444,-81.249342883230767,-15.153688369639328,0.20082349558079357,0.20807112177429285,285.87157103409743,250.63683593812922,-267.48456131276242,267.48456131276242,-250.63683593812922,504.98023406944503,0.0
678204.59901257406,4027374.0504322448,-2500.0,245.37347632453714,-151.96977203085896,-170.94821580625012,-11.921933910704004,-3.8783121790787778,0.075161220224551711,258.02940915220233,250.46281745727026,-256.96296725996064,256.96296725996064,-250.46281745727026,448.472921573333,0.0
573204.59901257406,4032374.0504322448,-2500.0,521.27927680875314,567.10156512185074,840.33770021607165,32.116234456290023,40.590889623021567,1.4885781192078096,636.33040299745187,56.248329025597457,840.218067302387,-840.218067302387,-56.248329025597457,1229.0947981405186,0.0
578204.59901257406,4032374.0504322448,-2500.0,506.57632245928414,603.62017652042846,1026.0131341997621,33.476599440789563,49.006768744238293,1.7511478873818553,713.31066708696937,-20.054268401339527,976.03178343219452,-976.03178343219452,20.054268401339527,1374.9643007092557,0.0
583204.59901257406,4032374.0504322448,-2500.0,477.99912993874693,622.21210136475656,1226.6530317124286,33.884502236702488,58.06036938421169,2.0306289293695263,791.07833766281829,-110.21367591444255,1108.1916585810038,-1108.1916585810038,110.21367591444255,1522.6179918827088,0.0
588204.59901257406,4032374.0504322448,-2500.0,436.32489627261316,616.96846283610819,1435.0260086542846,33.071359857607021,67.42968125010195,2.3172934666414085,866.80377141956069,-210.75361644755912,1227.7953425657602,-1227.7953425657602,210.75361644755912,1666.7579516961114,0.0
593204.59901257406,4032374.0504322448,-2500.0,384.06024340615784,582.67060450598535,1640.8231734665849,30.807541136107385,76.66152314659908,2.5977391970107333,937.04913014728118,-315.94019056204093,1324.4828107809146,-1324.4828107809146,315.94019056204093,1800.9353181671456,0.0
598204.59901257406,4032374.0504322448,-2500.0,325.56510257927613,515.82168975260481,1830.9066340051008,26.948810796548273,85.183365433545134,2.855308060302526,997.9291092835989,-417.85567461228044,1387.3790228311791,-1387.3790228311791,417.85567461228044,1917.8494657581246,0.0
603204.59901257406,4032374.0504322448,-2500.0,266.81692633795819,415.750814491901,1990.1739481360532,21.484902052555153,92.341028862624086,3.0711352178806592,1045.3871025281089,-506.95075792328902,1406.4985955713173,-1406.4985955713173,506.95075792328902,2009.8659276543094,0.0
608204.59901257406,4032374.0504322448,-2500.0,214.73072708752679,285.54131157429686,2103.121029677362,14.579193067575229,97.46532903421307,3.2260581120554139,1075.5877747352713,-573.14573356607934,1374.47437191171,-1374.47437191171,573.14573356607934,2069.7567918257828,0.0
613204.59901257406,4032374.0504322448,-2500.0,176.05925067689677,132.46463695117109,2155.9797923231281,6.5859333197324279,99.962259556498651,3.3031078214415728,1085.3829662922465,-607.39590056159057,1288.282244034031,-1288.282244034031,607.39590056159057,2091.5835139314659,0.0
618204.59901257406,4032374.0504322448,-2500.0,156.05767558323947,-32.362459121132929,2139.091933576814,-1.9668563028477575,99.412576664853276,3.2902830667556064,1072.7830721651435,-603.44887678850284,1150.5169712677166,-1150.5169712677166,603.44887678850284,2071.5954939385829,0.0
623204.59901257406,4032374.0504322448,-2500.0,157.24361972979125,-195.21935203005799,2048.9707310106937,-10.433579549822243,95.658239415514487,3.1828848835947299,1037.3359003051416,-559.35564421570268,969.76035817661943,-969.76035817661943,559.35564421570268,2008.9591593013902,0.0
628204.59901257406,4032374.0504322448,-2500.0,178.63996154341416,-341.77491378994534,1889.4712808503732,-18.139849640176877,88.852148501434712,2.9849711190170822,980.32563069036405,-478.26591318400591,759.77056902756476,-759.77056902756476,478.26591318400591,1906.1521681640345,0.0
633204.59901257406,4032374.0504322448,-2500.0,215.79227902830047,-459.40452936824306,1671.6235774561512,-24.485481890111938,79.452710890333833,2.7091806178807722,904.7206803790549,-368.1762995455943,537.53682313883746,-537.53682313883746,368.1762995455943,1768.8856947886686,0.0
638204.59901257406,4032374.0504322448,-2500.0,261.6197396553352,-539.239462848588,1412.0805305382717,-29.036524042239023,68.161170891472963,2.375131622953671,814.87825462258297,-240.61842965371713,320.63483624677372,-320.63483624677372,240.61842965371713,1605.5601342394132,0.0
643204.59901257406,4032374.0504322448,-2500.0,307.87135155590346,-577.40905217575505,1130.5257726008799,-31.583100691827052,55.815097009618981,2.0064543841507101,716.2059329769429,-108.6138744412635,124.54408461828959,-124.54408461828959,108.6138744412635,1426.3508804643973,0.0
648204.59901257406,4032374.0504322448,-2500.0,346.75883339316323,-575.19532350252234,846.71030498973641,-32.150397744785288,43.264897132719739,1.6275065865302623,628.51444549947735,15.540445335530052,-39.404215737993169,39.404215737993169,-15.540445335530052,1242.1278115236821,0.0
653204.59901257406,4032374.0504322448,-2500.0,372.30981754213707,-538.17181675752181,577.8367093541608,-30.96490916252278,31.262789519479817,1.2602050002488889,548.94024476293703,122.0834667363127,-165.02817951177974,165.02817951177974,-122.0834667363127,1063.4260988331105,0.0
658204.59901257406,4032374.0504322448,-2500.0,381.13264383304244,-474.68517255989406,336.8151631599091,-28.390275378311465,20.386249404972162,0.92184703718180683,476.02123618113524,204.82180692520416,-251.18704776849023,251.18704776849023,-204.82180692520416,899.6205668513046,0.0
663204.59901257406,4032374.0504322448,-2500.0,372.51647164268809,-394.15371671462259,131.58327797453617,-24.852675018404845,11.004945743155856,0.62402512844562352,412.79148858804251,261.29865326085672,-300.8219003786549,300.8219003786549,-261.29865326085672,758.31346473917938,0.0
668204.59901257406,4032374.0504322448,-2500.0,347.99796932807999,-305.59329681659892,-34.633688694757318,-20.773703042330546,3.2872370445864205,0.37269165089672257,361.04400424052767,292.27042961944255,-319.56319449015712,319.56319449015712,-292.27042961944255,644.7687416487579,0.0
673204.59901257406,4032374.0504322448,-2500.0,310.63297969297525,-216.60724388274124,-162.43724845462992,-16.521876451288158,-2.7659262914571001,0.16897167828345594,321.14066038297329,300.79181163173126,-314.30962471612219,314.30962471612219,-300.79181163173126,561.16844573233072,0.0
678204.59901257406,4032374.0504322448,-2500.0,264.21356920627682,-132.8916051333924,-255.10082498472087,-12.386130823409514,-7.2741431393762577,0.010387842999467104,292.04161237832074,291.21035291974476,-292.05802341851563,292.05802341851563,-291.21035291974476,505.85152991147908,0.0
683204.59901257406,4032374.0504322448,-2500.0,212.60238674980434,-58.172744142716631,-317.43476919953918,-8.5686875786092074,-10.429933368171701,-0.10783758021477395,271.6497146931498,268.28836885599338,-259.10837635204012,259.10837635204012,-268.28836885599338,473.43376105860926,0.0
568204.59901257406,4037374.0504322448,-2500.0,613.04738449860531,573.60763896253854,680.06387175726024,35.522801513943165,35.574485213469352,1.4530081562984649,611.92513176638613,177.39863632603868,740.53873307596791,-740.53873307596791,-177.39863632603868,1189.1951934703463,0.0
573204.59901257406,4037374.0504322448,-2500.0,620.35260273541473,641.15855130250463,871.88070410280852,38.616929323335192,44.79725589002885,1.7624166274326392,701.37206478597125,112.80053497514388,901.00331377729594,-901.00331377729594,-112.80053497514388,1358.403499327331,0.0
578204.59901257406,4037374.0504322448,-2500.0,611.08927225071659,696.8745195225622,1091.3640145739357,40.974902693567394,55.281289321782616,2.1090255152641166,796.08868477327201,27.597885332326541,1070.2453289026885,-1070.2453289026885,-27.597885332326541,1537.8900411886705,0.0
583204.59901257406,4037374.0504322448,-2500.0,583.54390476376523,733.05278546169302,1334.4494160166155,42.215546366745087,66.827099269204282,2.4859727004809349,893.56682024073257,-77.494897828574835,1240.1128854582594,-1240.1128854582594,77.494897828574835,1722.9771357339152,0.0
588204.59901257406,4037374.0504322448,-2500.0,537.72002231156364,741.32063236345812,1593.1780281060314,41.935547293715913,79.058557358368219,2.8810751042372553,990.3261300905657,-199.13229049824668,1399.4542327237589,-1399.4542327237589,199.13229049824668,1907.1548775190315,0.0
593204.59901257406,4037374.0504322448,-2500.0,475.98108933438124,713.67511680428095,1855.1018401959971,39.76082982738135,91.398331393380161,3.2762351458073651,1081.9274216539318,-330.74532411621828,1534.5093546624817,-1534.5093546624817,330.74532411621828,2082.1002019168059,0.0
598204.59901257406,4037374.0504322448,-2500.0,403.44135516607798,643.95741988413374,2103.2752785786652,35.416768526849189,103.0698232427488,3.6475358703488792,1163.1341708293023,-462.36692216594588,1630.0183931705276,-1630.0183931705276,462.36692216594588,2237.9745854859211,0.0
603204.59901257406,4037374.0504322448,-2500.0,327.85934631180731,529.59391071231539,2317.1823179577873,28.808868689634451,113.14047445995658,3.9666643244802451,1228.2707727651205,-581.16019557938966,1671.1488274451233,-1671.1488274451233,581.16019557938966,2364.0940742720136,0.0
608204.59901257406,4037374.0504322448,-2500.0,258.82361588520217,373.22805035802577,2474.7990888688673,20.096352897787941,120.61445663165377,4.2036433643873412,1271.7761946189919,-672.8425304700429,1646.0878482912551,-1646.0878482912551,672.8425304700429,2449.9720214069307,0.0
613204.59901257406,4037374.0504322448,-2500.0,206.18937295865121,183.71115389003293,2555.7376752933114,9.7346447915001164,124.57171225410313,4.3309348750527361,1288.913084389088,-723.97571257779032,1548.8516514703545,-1548.8516514703545,723.97571257779032,2486.6620584914044,0.0
618204.59901257406,4037374.0504322448,-2500.0,177.99954723300488,-24.094880281953422,2544.987947916808,-1.5371549410116749,124.33204565458736,4.3281214135121679,1276.522981273607,-724.74395967231158,1381.5661219195867,-1381.5661219195867,724.74395967231158,2468.1973694573348,0.0
623204.59901257406,4037374.0504322448,-2500.0,178.42345592804665,-231.01761759343543,2436.3714170053368,-12.777107438080494,119.60621404372758,4.1863309836103646,1233.6688210629213,-671.50341072599531,1155.3838576377862,-1155.3838576377862,671.50341072599531,2392.8267913300729,0.0
628204.59901257406,4037374.0504322448,-2500.0,206.40497420804837,-416.62147861570134,2234.6405340272609,-22.981976572282463,110.58860736497216,3.9109071354532814,1161.9938933596636,-568.24583730342113,889.45053763889257,-889.45053763889257,568.24583730342113,2263.7233497302368,0.0
633204.59901257406,4037374.0504322448,-2500.0,255.58693778230469,-562.90047339543491,1955.3955355338246,-31.258195813005702,97.956253892515306,3.5214012467696185,1065.6763063808173,-426.3351495622768,607.92404584398184,-607.92404584398184,426.3351495622768,2088.9322167537457,0.0
638204.59901257406,4037374.0504322448,-2500.0,315.65752889501499,-657.57046904059223,1622.6354045467508,-36.975868311246245,82.765760104099641,3.048777626841733,950.97154662950106,-262.42990641776208,335.75418564683883,-335.75418564683883,262.42990641776208,1880.5151005421151,0.0
643204.59901257406,4037374.0504322448,-2500.0,374.72057628913399,-695.98440288501581,1264.5688892723058,-39.862158702598826,66.273790534788759,2.5302750080716314,828.5833954317352,-95.173229095217536,94.418175043383499,-94.418175043383499,95.173229095217536,1653.0804700294568,0.0
648204.59901257406,4037374.0504322448,-2500.0,421.90944500233303,-681.19160819163346,908.88489364451698,-40.011438338713106,49.731108846383144,2.0035638561644609,725.00421267505578,58.332715320184008,-101.20614367847989,101.20614367847989,-58.332715320184008,1422.0542211277409,0.0
653204.59901257406,4037374.0504322448,-2500.0,449.43512144418787,-622.328490419378,578.75760660431661,-37.818537413453825,34.20459271814903,1.5014662901663203,626.92773203859258,185.2559537395251,-244.13147459525501,244.13147459525501,-185.2559537395251,1202.0713771766293,0.0
658204.59901257406,4037374.0504322448,-2500.0,453.57290500422602,-532.04424206362978,290.44270627432502,-33.864610628390636,20.465232136596438,1.0485331678432435,539.22440219836938,278.36922809150064,-334.71691237045218,334.71691237045218,-278.36922809150064,1005.7233801663438,0.0
663204.59901257406,4037374.0504322448,-2500.0,434.54233968281255,-423.81500251005656,52.67067866653661,-28.793193989398539,8.9531822102354308,0.65975955737063885,465.58285915993827,335.95420323038917,-378.84630949491185,378.84630949491185,-335.95420323038917,842.60173795115691,0.0
668204.59901257406,4037374.0504322448,-2500.0,395.5929994335649,-309.81039547316158,-132.51024501341939,-23.207215333230536,-0.19276056904983668,0.34117157910645451,407.65623550112355,360.67526460999233,-385.60466403172569,385.60466403172569,-360.67526460999233,718.29419528795552,0.0
673204.59901257406,4037374.0504322448,-2500.0,341.74942580310233,-199.62004851089461,-268.0633230670378,-17.602769312108514,-7.0666735781239147,0.091645645438563059,364.92640615635815,357.99086251627398,-365.12054470116129,365.12054470116129,-357.99086251627398,633.14945686403689,0.0
678204.59901257406,4037374.0504322448,-2500.0,278.61042393277899,-99.817699656904523,-360.07583213118357,-12.340960927855877,-11.914287990385422,-0.094838386513332859,335.01144092341934,334.59792366553603,-326.96387967474851,326.96387967474851,-334.59792366553603,581.69150295723239,0.0
683204.59901257406,4037374.0504322448,-2500.0,211.43848964986591,-14.144307642072262,-416.08373774192427,-7.6494957115885107,-15.058334664693197,-0.22701765028379617,314.48405569646491,297.21042758563527,-279.20372703768322,279.20372703768322,-297.21042758563527,554.272145472734,0.0
688204.59901257406,4037374.0504322448,-2500.0,144.61257053895986,55.96195054562132,-443.8177697015177,-3.6424665547184762,-16.840719153694991,-0.3146021956130019,299.8806716994751,251.77518276443615,-228.03829483102291,228.03829483102291,-251.77518276443615,540.61118840560925,0.0
693204.59901257406,4037374.0504322448,-2500.0,81.404134905398081,110.72049783432222,-450.4038999970694,-0.34777127506234695,-17.584057032440299,-0.36705829659936173,288.4159257433252,203.08815247425051,-177.82439985276798,177.82439985276798,-203.08815247425051,532.65822287645028,0.0
563204.59901257406,4042374.0504322448,-2500.0,681.29020742087664,533.93511547647392,489.29856830216829,36.936520208340454,28.4548062861791,1.3410104992596468,565.18826655841656,295.12827751478699,590.69083310043436,-590.69083310043436,-295.12827751478699,1109.2471362350645,0.0
568204.59901257406,4042374.0504322448,-2500.0,718.06465314735885,627.89072381715346,670.36669740910509,41.798954062929745,37.764229793956268,1.6809470892857021,662.85861583233577,253.79207200106265,761.41978667877788,-761.41978667877788,-253.79207200106265,1293.6656534780877,0.0
573204.59901257406,4042374.0504322448,-2500.0,739.07930093333187,719.52897906061298,889.41864299144197,46.354642635766396,48.922526842653923,2.0803011269786906,770.77267833709072,188.21925135365109,954.18484431756428,-954.18484431756428,-188.21925135365109,1497.7856131363083,0.0
578204.59901257406,4042374.0504322448,-2500.0,739.88390663601456,801.03509841990149,1147.1759754139377,50.17677592274304,61.945284188006092,2.5383633744740375,887.35120910362639,95.502671117057616,1163.8757070647935,-1163.8757070647935,-95.502671117057616,1718.6962323527032,0.0
583204.59901257406,4042374.0504322448,-2500.0,716.98822920544751,862.40164727992976,1440.6902303335225,52.737188079651922,76.668791560537358,3.0485565660316798,1009.8181208076838,-25.147260953546606,1381.4157871769448,-1381.4157871769448,25.147260953546606,1951.2359570001368,0.0
588204.59901257406,4042374.0504322448,-2500.0,668.89830474168957,891.98128878543525,1761.8581621551268,53.439262906666784,92.681871015167857,3.5963920204515274,1133.9903025457888,-171.18189795300748,1593.2016356927174,-1593.2016356927174,171.18189795300748,2187.593444721173,0.0
593204.59901257406,4042374.0504322448,-2500.0,597.23232897335049,877.73980475492658,2096.1410607767684,51.684784687283852,109.26888472894886,4.1578396332994343,1254.1910735470287,-335.5589925413442,1781.2028611350779,-1781.2028611350779,335.5589925413442,2417.1354492109108,0.0
598204.59901257406,4042374.0504322448,-2500.0,507.61717044249076,809.30200734043501,2421.9892683236149,46.977733025495652,125.38697846359874,4.6988362936110661,1363.3778552167885,-506.04925133532095,1924.126290754537,-1924.126290754537,506.04925133532095,2626.6358386608208,0.0
603204.59901257406,4042374.0504322448,-2500.0,409.93376967579854,680.64113734235639,2711.5883509799669,39.056144923509429,139.70524196509493,5.1766564797794032,1453.5698670611025,-665.51903985401896,1999.9412663165513,-1999.9412663165513,665.51903985401896,2801.0710596160939,0.0
608204.59901257406,4042374.0504322448,-2500.0,317.47020325075204,492.90218805606349,2933.4570161900137,28.026495577743493,150.72867568637224,5.5439113976624892,1516.6211922294292,-793.65294689990787,1989.7286206329968,-1989.7286206329968,793.65294689990787,2925.0729287446893,0.0
613204.59901257406,4042374.0504322448,-2500.0,244.75260652076886,256.47826677959324,3057.0262544309167,14.458653082761758,157.01130800647957,5.7551009254421803,1545.3006798000636,-870.25977454631175,1882.2603806286588,-1882.2603806286588,870.25977454631175,2984.9719227785122,0.0
618204.59901257406,4042374.0504322448,-2500.0,204.29430417472622,-8.7034993197938686,3058.596928952039,-0.60664646511511888,157.42996537270457,5.774953240221242,1534.5213188898863,-879.6993374692986,1678.1001420608434,-1678.1001420608434,879.6993374692986,2971.1392848031123,0.0
623204.59901257406,4042374.0504322448,-2500.0,203.1065173146674,-275.43866249522029,2927.2253559308033,-15.771264741889608,151.45326351463973,5.5865334349503808,1482.4469535139519,-815.26023162591923,1391.6728372375057,-1391.6728372375057,815.26023162591923,2880.1155084265138,0.0
628204.59901257406,4042374.0504322448,-2500.0,240.22881083414399,-513.97127844335796,2668.5945428751575,-29.509063782679956,139.31955231330548,5.196594051677236,1391.1638806861147,-681.91230577705483,1050.0679989225996,-1050.0679989225996,681.91230577705483,2715.9318926175915,0.0
633204.59901257406,4042374.0504322448,-2500.0,306.40623159972785,-698.03665340060013,2305.197049614555,-40.457559577672143,122.04954334818693,4.6360633162838276,1266.6635311977077,-496.12977890664604,688.37325161846036,-688.37325161846036,496.12977890664604,2490.1344610501487,0.0
638204.59901257406,4042374.0504322448,-2500.0,386.27411071110794,-810.31163298915521,1872.4004827279348,-47.683781933013378,101.27386494767795,3.9550419384839137,1118.1504234406045,-282.52490205660263,342.76215354033002,-342.76215354033002,282.52490205660263,2220.4322008551067,0.0
643204.59901257406,4042374.0504322448,-2500.0,462.33106655546641,-845.43823103302543,1411.4562014417461,-50.838956835131981,78.92004014646588,3.2136022131129267,972.08033508463086,-68.32458392938247,43.511982744746661,-43.511982744746661,68.32458392938247,1928.2436612868196,0.0
648204.59901257406,4042374.0504322448,-2500.0,519.23147745914946,-809.78061589379274,961.76525357676655,-50.160531989451592,56.85999792058697,2.4711042635955831,841.4217835466485,122.38123547826771,-189.84095573478433,189.84095573478433,-122.38123547826771,1635.861454475677,0.0
653204.59901257406,4042374.0504322448,-2500.0,546.91716676317117,-718.3821933630212,554.68927895543823,-46.338891592172857,36.619818788497447,1.7773161783453639,719.89426411436239,272.79408170658519,-350.05644200263669,350.05644200263669,-272.79408170658519,1363.8763102760715,0.0
658204.59901257406,4042374.0504322448,-2500.0,541.79379252235071,-590.53377946252294,210.3209223802881,-40.31071780306516,19.218125899133213,1.166981158516792,614.48831207771411,375.01316459283771,-440.65861784189372,440.65861784189372,-375.01316459283771,1129.212910404684,0.0
663204.59901257406,4042374.0504322448,-2500.0,506.05365585675509,-445.5175563040566,-62.674637813856506,-33.051533518188783,5.1432046106212388,0.65863300653235068,529.4043456764548,429.25405184719153,-472.51963660919154,472.51963660919154,-429.25405184719153,943.53473722919227,0.0
668204.59901257406,4042374.0504322448,-2500.0,445.85413512561848,-299.5813863607749,-265.01736314661213,-25.419385341089033,-5.5658602744986432,0.25658991634713063,465.54175658097165,441.57904966306808,-460.00369245905051,460.00369245905051,-441.57904966306808,811.42544807250533,0.0
673204.59901257406,4042374.0504322448,-2500.0,369.20054938464358,-164.47412606235358,-403.77638545757338,-18.069837810503628,-13.186330518084434,-0.045289961712164366,420.62384490309563,421.19788848949798,-417.7506009914361,417.7506009914361,-421.19788848949798,728.74805252329247,0.0
678204.59901257406,4042374.0504322448,-2500.0,284.15980659683498,-47.304678761542611,-489.36058457246253,-11.435350092365297,-18.173949188240343,-0.25949366699201531,390.18752257025307,378.1255505541809,-358.58398427415898,358.58398427415898,-378.1255505541809,683.60835454358539,0.0
683204.59901257406,4042374.0504322448,-2500.0,197.68872679698555,48.766135233008043,-533.12923543009902,-5.7482918778503844,-21.049091117151963,-0.40129682698587044,369.17136716663583,321.56783477839667,-292.53166534666639,292.53166534666639,-321.56783477839667,661.15772180056547,0.0
688204.59901257406,4042374.0504322448,-2500.0,115.0808354457242,123.48401008931128,-545.811093752072,-1.0854274300307121,-22.318033904230415,-0.48618644348094925,353.27374876550755,259.06285464462439,-226.67922233959462,226.67922233959462,-259.06285464462439,648.84457861070587,0.0
693204.59901257406,4042374.0504322448,-2500.0,39.883442195978844,178.45426752215113,-536.65628370140087,2.5833577684329461,-22.427784558747817,-0.52828750651390632,339.53191367494088,196.21659577803888,-165.51547350729919,165.51547350729919,-196.21659577803888,638.59142683955713,0.0
698204.59901257406,4042374.0504322448,-2500.0,-25.900855550840014,216.27315325324267,-513.13089663362211,5.3520769258334182,-21.746948854512848,-0.53957910730630665,326.24496059376071,136.81699678269965,-111.48664289797564,111.48664289797564,-136.81699678269965,626.27472967530264,0.0
558204.59901257406,4047374.0504322448,-2500.0,710.12319899510533,448.22140493938076,287.57248613178245,35.88314489251912,19.834604025947819,1.1554210696930864,498.89015061665691,391.1351384054343,404.32373602178643,-404.32373602178643,-391.1351384054343,994.66571945981855,0.0
563204.59901257406,4047374.0504322448,-2500.0,779.48780739948677,558.28816252310139,441.70704326284556,42.240925396328151,28.406427648114082,1.5022404544276651,598.44873659897883,381.6283167942459,567.50782112188722,-567.50782112188722,-381.6283167942459,1182.9621750825499,0.0
568204.59901257406,4047374.0504322448,-2500.0,838.22618418154218,677.06971352780238,639.18519456587683,48.881770458346587,39.241674894782967,1.9284388205775596,713.36295164822764,348.99213354665517,763.71093066127037,-763.71093066127037,-348.99213354665517,1399.8613874658993,0.0
573204.59901257406,4047374.0504322448,-2500.0,879.95245410795303,798.73715794430291,885.9469938898261,55.438572402513287,52.622926472705124,2.4421959506776432,843.12122318811475,286.97715154690991,992.65165603534592,-992.65165603534592,-286.97715154690991,1645.2329389404219,0.0
578204.59901257406,4047374.0504322448,-2500.0,897.87063238805058,914.23935784731532,1185.7007845254648,61.375316608229213,68.710893992538956,3.047121811870912,986.44476685212112,190.03798401584572,1250.2903225808118,-1250.2903225808118,-190.03798401584572,1916.7883707863691,0.0
583204.59901257406,4047374.0504322448,-2500.0,885.77010841839297,1010.9816702770304,1537.9712479075313,65.977888408910985,87.446950251750593,3.7390468191512234,1140.4857697574901,54.750316675954764,1527.3152062024824,-1527.3152062024824,-54.750316675954764,2209.2665635741532,0.0
588204.59901257406,4047374.0504322448,-2500.0,839.50496819088494,1073.1373350662068,1935.7234589005941,68.379845261128651,108.43702389950951,4.5022952846387545,1300.4018175681874,-118.32241759654141,1807.8171237666993,-1807.8171237666993,118.32241759654141,2513.6515683116586,0.0
593204.59901257406,4047374.0504322448,-2500.0,758.82129713305278,1082.98362687645,2362.9377988381311,67.641634550485122,130.83617694383852,5.3061515028188797,1459.0677158685321,-322.57011958150815,2068.6977906565116,-2068.6977906565116,322.57011958150815,2816.6188952607836,1.0
598204.59901257406,4047374.0504322448,-2500.0,649.14132796592514,1023.5890436022992,2792.8756304655262,62.897369733300792,153.27044787579314,6.1026159054661031,1607.0710007331197,-543.64828278619859,2280.5511509170897,-2280.5511509170897,543.64828278619859,3100.5075404332183,0.0
603204.59901257406,4047374.0504322448,-2500.0,522.60755271006883,882.85776199600059,3188.1075891667219,53.565919983954444,173.84704919322769,6.8272570897480307,1733.1621908789941,-759.03686425635419,2410.7374380767478,-2410.7374380767478,759.03686425635419,3344.1474176717593,0.0
608204.59901257406,4047374.0504322448,-2500.0,397.51451050848033,658.32698217250754,3503.4611736112138,39.592742792661184,190.30621808007214,7.4043515069234012,1825.2969368447448,-939.83093304907811,2428.9585441447325,-2428.9585441447325,939.83093304907811,3524.8102543148361,0.0
613204.59901257406,4047374.0504322448,-2500.0,295.44776390816463,361.32051630159117,3692.548888572433,21.651501933515085,200.34265715737925,7.7576108232537795,1872.2744833591796,-1055.3774229681185,2314.7018207354304,-2314.7018207354304,1055.3774229681185,3621.3049675381876,0.0
618204.59901257406,4047374.0504322448,-2500.0,236.2099690472146,18.496477084262267,3717.3004686088016,1.2101973875092071,202.06593697247001,7.8248263524574604,1865.7617476127857,-1080.3500596385938,2064.6499997379251,-2064.6499997379251,1080.3500596385938,3617.8312386563593,0.0
623204.59901257406,4047374.0504322448,-2500.0,231.81289554101957,-330.93356938233973,3558.1937835976037,-19.618793424224567,194.4898539796921,7.5732983539955647,1802.2451616492033,-1002.4069344689117,1697.1809467974037,-1697.1809467974037,1002.4069344689117,3507.7320597367375,0.0
628204.59901257406,4047374.0504322448,-2500.0,281.84648855946119,-642.62566396481429,3221.559010954466,-38.456147375911719,177.88233928427047,7.0108065560641908,1684.3098072474377,-827.48068555148666,1251.2983288715541,-1251.2983288715541,827.48068555148666,3296.0049302259858,0.0
633204.59901257406,4047374.0504322448,-2500.0,372.53975230367263,-877.28137489560868,2740.5474894369704,-53.168190400627104,153.81864924100358,6.1874487076921394,1520.7387564657583,-579.99470128570499,779.20686970069289,-779.20686970069289,579.99470128570499,2999.5880842368556,0.0
638204.59901257406,4047374.0504322448,-2500.0,480.39885762691125,-1009.9756292385589,2168.5857583695233,-62.341622182236669,124.88195708968254,5.1865461860208431,1325.7066241570201,-297.23958821755321,334.60439757349479,-334.60439757349479,297.23958821755321,2645.1176174578936,0.0
643204.59901257406,4047374.0504322448,-2500.0,579.09737932953863,-1035.068653911017,1567.378016956347,-65.547807127701475,94.10214972811491,4.1073334837438535,1150.1133968258964,-19.863225259910468,-39.090937728989218,39.090937728989218,19.863225259910468,2264.7561114616619,0.0
648204.59901257406,4047374.0504322448,-2500.0,646.7227919585481,-965.14688684013458,993.85964036519499,-63.31583638728624,64.332261162076051,3.0453657092833142,983.04224850568517,217.78450182510201,-316.39606078398299,316.39606078398299,-217.78450182510201,1891.3584848319481,0.0
653204.59901257406,4047374.0504322448,-2500.0,670.59149828609179,-825.16842436000059,490.49822085982368,-56.86188832544746,37.767765218765255,2.0767932783650442,831.87760009169915,394.00830758196781,-491.31851490892547,491.31851490892547,-394.00830758196781,1554.2323880733443,0.0
658204.59901257406,4047374.0504322448,-2500.0,648.3866326668599,-644.71846555043987,81.215226453718543,-47.708676144966198,15.722476997327222,1.2501882829755457,705.6780047347836,501.37015509448293,-573.65207423989614,573.65207423989614,-501.37015509448293,1275.9260700193729,0.0
663204.59901257406,4047374.0504322448,-2500.0,586.19006774340971,-451.27552912890656,-227.41630066234947,-37.336587375906404,-1.3434960233544579,0.5864265050935229,608.59696550231547,544.30401243734889,-582.612889961007,582.612889961007,-544.30401243734889,1069.3794379246035,0.0
668204.59901257406,4047374.0504322448,-2500.0,494.97948720318891,-266.09556824185461,-441.74526301395633,-26.952716788450946,-13.63152855491192,0.083938822079543451,539.51771479607032,534.71735410437304,-540.50251322321719,540.50251322321719,-534.71735410437304,934.85362992763316,0.0
673204.59901257406,4047374.0504322448,-2500.0,387.1483346305173,-102.86721857473199,-575.69018006745011,-17.395428662177821,-21.754093458476571,-0.27369178578757958,493.03849516480051,487.51596109169276,-468.06560461358919,468.06560461358919,-487.51596109169276,859.1865350410701,0.0
678204.59901257406,4047374.0504322448,-2500.0,273.97210836776014,31.635091448532116,-646.09100951645519,-9.1442187377412836,-26.506700878822421,-0.51040224130495249,461.83051998277722,417.22113230035694,-381.9902976392836,381.9902976392836,-417.22113230035694,821.38697203065965,0.0
683204.59901257406,4047374.0504322448,-2500.0,164.26008754776217,135.9024375469584,-669.4742974761316,-2.3885440520357824,-28.701276079661504,-0.6520167381268096,439.15304355555344,336.01554173660378,-294.1885449199869,294.1885449199869,-336.01554173660378,801.6938055323003,0.0
688204.59901257406,4047374.0504322448,-2500.0,63.988593482292949,211.84636111566493,-660.24753956513689,2.8846356979802517,-29.066789530494521,-0.72264124615892789,420.20715484496861,253.00978484532371,-212.1946751217034,212.1946751217034,-253.00978484532371,786.7881202656298,0.0
693204.59901257406,4047374.0504322448,-2500.0,-23.445054607611155,263.21504632052336,-629.99360605333402,6.8099694216329478,-28.204567864894134,-0.7428424964994178,402.21944931882217,174.31662300334423,-140.07384041211949,140.07384041211949,-174.31662300334423,769.77830015576797,0.0
698204.59901257406,4047374.0504322448,-2500.0,-96.680041992916543,294.43922852694999,-587.4626264092766,9.5808876455983434,-26.580227964065433,-0.72907294784708765,383.91761714049716,103.53911161060074,-79.426028752041191,79.426028752041191,-103.53911161060074,748.09323072663653,0.0
703204.59901257406,4047374.0504322448,-2500.0,-155.79169729252163,309.8992021196886,-538.92401114593338,11.406714384342344,-24.536005948143618,-0.69385484499902095,364.95614187684055,42.389564494605999,-30.265740897208211,30.265740897208211,-42.389564494605999,721.51066415348021,0.0
553204.59901257406,4052374.0504322448,-2500.0,687.7331503396382,324.99354088486217,96.482990673419707,32.23610781297787,10.592101958657272,0.91019187141700497,440.1391439698167,448.75980463620687,202.2832636882577,-202.2832636882577,-448.75980463620687,857.63327033805524,0.0
558204.59901257406,4052374.0504322448,-2500.0,786.57190656403066,437.10437711913642,211.84016391884094,39.518316856572419,17.665834953286662,1.2365851506830827,524.23299695478897,473.88708861693948,340.54951423678034,-340.54951423678034,-473.88708861693948,1036.5872138860839,0.0
563204.59901257406,4052374.0504322448,-2500.0,883.65438209966817,567.75218052292269,369.60185764990746,47.716955452907065,27.134973345815542,1.6555775337896259,627.30878208864851,481.96481849385475,517.70981896901856,-517.70981896901856,-481.96481849385475,1250.937822761055,0.0
568204.59901257406,4052374.0504322448,-2500.0,972.41536575151861,714.77502259882272,579.82178834056867,56.634166576377183,39.530177153190763,2.1851372957165234,760.83896682714965,464.93562271411167,738.74834542752853,-738.74834542752853,-464.93562271411167,1503.8585195802673,0.0
573204.59901257406,4052374.0504322448,-2500.0,1044.4374643355645,872.79449349679271,852.56043724604456,65.880873059247421,55.369407004206671,2.8420077684450589,915.95398013446641,413.62829031635113,1006.3862067974686,-1006.3862067974686,-413.62829031635113,1797.0555124052337,0.0
578204.59901257406,4052374.0504322448,-2500.0,1089.883889852016,1032.049619556009,1196.2174234251406,74.818455528947936,75.065982456394764,3.6383133836828807,1091.5988732118212,318.73082474468151,1319.144322178156,-1319.144322178156,-318.73082474468151,2129.7459857785798,0.0
583204.59901257406,4052374.0504322448,-2500.0,1098.5928395107296,1177.4086864954297,1614.9225370060155,82.515017735878672,98.788659015460325,4.5765896915283548,1285.2581878051883,172.55440881757227,1668.9124591306309,-1668.9124591306309,-172.55440881757227,2497.3823130868182,0.0
588204.59901257406,4052374.0504322448,-2500.0,1062.0272117488194,1288.0505681952097,2104.952406773743,87.743379909425684,126.27415438803936,5.6432431798825924,1491.6820266046568,-28.296548950658234,2038.3668164772548,-2038.3668164772548,28.296548950658234,2890.2464419051234,0.0
593204.59901257406,4052374.0504322448,-2500.0,976.08158992430253,1338.5222048207318,2650.5116935671062,89.057703652440821,156.61233332190932,6.8014940359483482,1702.209879410892,-279.5168148183177,2398.9900211397471,-2398.9900211397471,279.5168148183177,3292.1896996782289,0.0
598204.59901257406,4052374.0504322448,-2500.0,844.32905910186366,1301.9420469543118,3219.835024738205,84.98582241518416,188.05527799083055,7.9854453908721457,1904.4331157613849,-565.64587153974026,2710.9124036749172,-2710.9124036749172,565.64587153974026,3679.9673762574917,0.0
603204.59901257406,4052374.0504322448,-2500.0,680.69568224626175,1155.8236667586277,3763.3659011605559,74.355945881736233,217.94048144558522,9.0982600429036573,2082.5217875515918,-857.94201303939985,2926.1031189903897,-2926.1031189903897,857.94201303939985,4023.8138345302923,0.0
608204.59901257406,4052374.0504322448,-2500.0,509.94253401172199,890.0320651987256,4216.305458359745,56.723505393803755,242.84045674897476,10.018271121535582,2218.5311284594241,-1115.513548166115,2996.07213586229,-2996.07213586229,1115.513548166115,4289.8705703443393,0.0
613204.59901257406,4052374.0504322448,-2500.0,364.29589243657932,514.84183771186679,4507.500585971864,32.786454918833776,259.03033558924182,10.615627046026553,2294.8540002550699,-1291.4339338741283,2883.8373908996437,-2883.8373908996437,1291.4339338741283,4444.8066269475603,0.0
618204.59901257406,4052374.0504322448,-2500.0,275.63585443092791,65.489497933373826,4574.6710078525211,4.6028091398396471,263.26385723301507,10.778296016930561,2297.5828660883712,-1343.9908999414224,2577.3737134081198,-2577.3737134081198,1343.9908999414224,4462.2122861900107,0.0
623204.59901257406,4052374.0504322448,-2500.0,264.99235031160975,-400.63507429940194,4382.5097707469731,-24.579291298129835,253.68121742783745,10.442250731500792,2220.0222325404288,-1250.308324845553,2099.2381042457428,-2099.2381042457428,1250.308324845553,4329.3487066030402,0.0
628204.59901257406,4052374.0504322448,-2500.0,333.61475553964459,-815.72313713657877,3936.8772944125835,-50.948859279339686,230.51829029636724,9.6143042404304868,2065.2055674677295,-1016.7876674208223,1506.6242755931034,-1506.6242755931034,1016.7876674208223,4052.0799621775036,0.0
633204.59901257406,4052374.0504322448,-2500.0,460.51054740118343,-1119.2348772594632,3287.8088627816137,-71.062322392617759,196.26742661980978,8.3776264376244658,1846.3116659883365,-680.54114638277781,879.33719325169056,-879.33719325169056,680.54114638277781,3655.8346500915186,0.0
638204.59901257406,4052374.0504322448,-2500.0,608.68634135120101,-1274.500030774223,2518.3483597487693,-82.72512224688775,155.14457483866815,6.8748366374716126,1597.7750768660014,-299.71880766057558,299.2659647723878,-299.2659647723878,299.71880766057558,3181.8286447718961,0.0
643204.59901257406,4052374.0504322448,-2500.0,737.55489157129693,-1276.930365499283,1723.1240396885755,-85.45742685478379,112.04148543171478,5.2744422208723654,1372.7082621413463,63.505394113944156,-170.20978072953721,170.20978072953721,-63.505394113944156,2679.6485767093172,0.0
648204.59901257406,4052374.0504322448,-2500.0,815.55353123794305,-1150.9008309696219,985.67812077782798,-80.383113670995527,71.388170883101296,3.7333235949292236,1157.0348014837168,359.62989522681238,-496.50657079096021,496.50657079096021,-359.62989522681238,2198.7488080736389,0.0
653204.59901257406,4052374.0504322448,-2500.0,827.51385276417193,-938.22423166283102,363.13120477650216,-69.667465436250566,36.344868940938412,2.3687032543740147,968.71426033484477,561.5178728800463,-678.44735109458566,678.44735109458566,-561.5178728800463,1781.193508398768,0.0
658204.59901257406,4052374.0504322448,-2500.0,774.98016738723436,-684.43714155093699,-118.20005289228463,-55.804615421580813,8.5208757047943031,1.246586215600701,818.85266442951661,665.02772600926721,-737.83232754358767,737.83232754358767,-665.02772600926721,1456.1160371142626,0.0
663204.59901257406,4052374.0504322448,-2500.0,671.37602161167763,-428.26441023681662,-458.1537401579161,-41.032443795771755,-11.847781640458953,0.38535194851167132,710.0262251775448,683.05257996812304,-707.63956631702615,707.63956631702615,-683.05257996812304,1234.4494074653148,0.0
668204.59901257406,4052374.0504322448,-2500.0,535.46016763732348,-196.50366965742685,-673.68018197071285,-27.010444312261505,-25.473708803030405,-0.23148855248856157,636.76950954840765,637.24552682491924,-621.80569857485341,621.80569857485341,-637.24552682491924,1105.0954879588726,0.0
673204.59901257406,4052374.0504322448,-2500.0,385.81654024655745,-3.6653870620826567,-789.70216216280289,-14.748795143205676,-33.559160138994137,-0.64033164268998022,588.76297263589743,550.8492061679367,-508.91360473058057,508.91360473058057,-550.8492061679367,1039.7006255232116,0.0
678204.59901257406,4052374.0504322448,-2500.0,237.55155149921836,145.60794116009416,-832.26348786121514,-4.699753141739663,-37.432248805012556,-0.88481619085626984,555.33206411818287,444.14281596364276,-389.73993175892974,389.73993175892974,-444.14281596364276,1007.049208415811,0.0
683204.59901257406,4052374.0504322448,-2500.0,101.09715587396752,253.23512638930865,-824.51706769672819,3.084337236937595,-38.31892910907078,-1.007294168323313,528.49321752494893,332.4683248296779,-277.44628296037303,277.44628296037303,-332.4683248296779,984.62953766927603,0.0
688204.59901257406,4052374.0504322448,-2500.0,-17.568046833070827,324.69395701354881,-785.04446815980782,8.7933906192979308,-37.234579155092938,-1.0442895596115083,503.57402283271125,226.06375575499644,-179.06655782544013,179.06655782544013,-226.06375575499644,960.54380218691972,0.0
693204.59901257406,4052374.0504322448,-2500.0,-116.00797250564332,366.81177264513593,-727.67817540817157,12.734603966140268,-34.957848151273446,-1.0248931098331553,478.44405774466003,130.84884992772686,-97.317291879303752,97.317291879303752,-130.84884992772686,930.32175223434524,0.0
698204.59901257406,4052374.0504322448,-2500.0,-194.25104668591212,386.38245843828133,-662.09299433071772,15.247749950345684,-32.050265005021174,-0.97092639754928001,452.5160261417538,49.528032484503335,-32.207681858109616,32.207681858109616,-49.528032484503335,893.48262067834935,0.0
703204.59901257406,4052374.0504322448,-2500.0,-253.82975369877579,389.43990515630446,-594.66936596470077,16.65541852098416,-28.895138866658581,-0.89797228897474268,426.58166341703134,-17.35337703937806,17.740444370689609,-17.740444370689609,17.35337703937806,851.28292175710908,0.0
553204.59901257406,4057374.0504322448,-2500.0,728.7418666334413,279.38338972831775,6.5715768094976745,33.717791269382325,6.7515106668643874,0.9085157959601915,457.36895868319385,512.88922474801893,108.75410173815925,-108.75410173815925,-512.88922474801893,873.70724191759177,0.0
558204.59901257406,4057374.0504322448,-2500.0,856.38231425525271,403.60704398664262,113.81364926369103,42.602465736197182,14.002566627004466,1.2844514010344543,549.51726396086985,561.02563623081983,247.46870661723204,-247.46870661723204,-561.02563623081983,1068.8127818154856,0.0
563204.59901257406,4057374.0504322448,-2500.0,988.16514208798094,554.47819559076993,268.58446958796287,52.97466781702196,24.147882218552471,1.7822767935972532,662.54319664576064,594.09345332410112,433.47311399046293,-433.47311399046293,-594.09345332410112,1308.9965510747504,0.0
568204.59901257406,4057374.0504322448,-2500.0,1116.7372930438407,731.9046038803948,484.96258919984547,64.724521989977958,37.987457870456637,2.4315634011493401,802.36196185605991,601.93474757212823,675.79112624123411,-675.79112624123411,-601.93474757212823,1600.2425887489198,0.0
573204.59901257406,4057374.0504322448,-2500.0,1231.6719126817991,932.15707708588752,778.50461036155218,77.501844121975054,56.386223668045204,3.2630436812850614,985.36270512560998,571.91456083168111,981.8720212681784,-981.8720212681784,-571.91456083168111,1947.3013365397685,0.0
578204.59901257406,4057374.0504322448,-2500.0,1319.5252802579996,1145.9474579639925,1164.5182876297004,90.608912229761174,80.168909043218477,4.3043481318392409,1199.3119793564229,489.69651298400299,1355.0777534903557,-1355.0777534903557,-489.69651298400299,2352.3313208041377,0.0
583204.59901257406,4057374.0504322448,-2500.0,1364.7604149357298,1356.3639085636601,1654.8720662405819,102.89325172480973,109.93400833807087,5.5726748590017481,1442.0816215242664,341.16178849444236,1791.0940175699982,-1791.0940175699982,-341.16178849444236,2813.0159904249194,0.0
588204.59901257406,4057374.0504322448,-2500.0,1352.0171945123368,1537.2806452572866,2252.9655273511175,112.6785891969254,145.76974327718588,7.0641107758262782,1708.6547101487799,115.90309199170088,2273.4690483665358,-2273.4690483665358,-115.90309199170088,3320.2215481560279,0.0
593204.59901257406,4057374.0504322448,-2500.0,1270.0741924396423,1653.3478675303045,2946.9059868293016,117.79760276265614,186.88016479803787,8.7402557424638694,1989.081338816605,-187.55442901476545,2769.1320058888791,-2769.1320058888791,187.55442901476545,3855.4963288495392,0.0
598204.59901257406,4057374.0504322448,-2500.0,1117.3231690178745,1663.1127949855402,3701.8914760825205,115.80997206506395,231.1828260891802,10.514514644697261,2267.4296494102214,-555.39672064066895,3225.7192123573495,-3225.7192123573495,555.39672064066895,4389.0826096138671,0.0
603204.59901257406,4057374.0504322448,-2500.0,907.48726430631427,1526.7733963664461,4454.329146181246,104.47788148514643,275.01923854601512,12.243531341766152,2521.6084102615937,-952.93499901812356,3573.5321768800259,-3573.5321768800259,952.93499901812356,4879.5083033463834,0.0
608204.59901257406,4057374.0504322448,-2500.0,672.88081426857627,1218.9070609847192,5111.9532472439869,82.499103840964082,313.20378354666451,13.731360384676528,2724.770137852815,-1323.2465016378007,3735.2327445176061,-3735.2327445176061,1323.2465016378007,5276.1506464606582,0.0
613204.59901257406,4057374.0504322448,-2500.0,461.53248980635641,743.6744879738834,5564.7387839212042,50.341103053918737,339.64983422554417,14.754006675242536,2848.8464830593848,-1594.1724986990791,3644.569811749564,-3644.569811749564,1594.1724986990791,5525.8639326624907,0.0
618204.59901257406,4057374.0504322448,-2500.0,325.60363142030877,146.19367496626589,5708.8679128431031,10.827305594400645,348.66686641115035,15.105968395509148,2870.1445524417186,-1695.8300684311621,3270.789995263151,-3270.789995263151,1695.8300684311621,5583.6018228247276,0.0
623204.59901257406,4057374.0504322448,-2500.0,302.8308586484813,-488.38873956711888,5479.2823512601608,-30.965277294567883,336.67642299731432,14.659501265885018,2775.8169178336061,-1585.1894694171035,2639.1832494128903,-2639.1832494128903,1585.1894694171035,5424.8408372077556,0.0
628204.59901257406,4057374.0504322448,-2500.0,398.7765071458366,-1053.3722286358409,4878.0582535711192,-68.749438855703005,303.69088926478702,13.414115822350755,2568.9400224717856,-1267.2643889338162,1835.1513927240424,-1835.1513927240424,1267.2643889338162,5055.5176730577559,0.0
633204.59901257406,4057374.0504322448,-2500.0,580.57824931677339,-1452.3105746168999,3982.7557173213872,-96.775421573033242,253.76361444057233,11.511551529716595,2269.831426795392,-800.02510771453899,984.52964080375273,-984.52964080375273,800.02510771453899,4514.8218907801256,0.0
638204.59901257406,4057374.0504322448,-2500.0,787.99181392935714,-1629.8882100531462,2926.7257516914292,-111.54057335205357,194.0084294556863,9.2036584343341978,1956.1472367058818,-277.18656556239512,216.10283675813889,-216.10283675813889,277.18656556239512,3868.6125353387833,0.0
643204.59901257406,4057374.0504322448,-2500.0,956.72718016777048,-1586.1226200979984,1859.1906331265416,-112.64003918203159,132.55938021897293,6.7845793468979085,1654.1959030070896,203.56775049879235,-375.9242548201874,375.9242548201874,-203.56775049879235,3195.6617326498358,0.0
648204.59901257406,4057374.0504322448,-2500.0,1041.1609173101515,-1368.0637359340046,904.46417756560811,-102.42222722371595,76.420000512246389,4.5169061167142175,1373.4952866954688,570.41756067925928,-751.88399275552126,751.88399275552126,-570.41756067925928,2572.0414250261492,0.0
653204.59901257406,4057374.0504322448,-2500.0,1025.3523140020661,-1046.5331501822272,137.77911658243718,-84.791702725411881,30.097402018823992,2.5811253915458918,1139.3811653472119,791.8391662898274,-923.44621360198801,923.44621360198801,-791.8391662898274,2058.1652396235927,0.0
658204.59901257406,4057374.0504322448,-2500.0,920.24356891646244,-691.5537311469368,-417.12473072960768,-63.852606846102312,-4.6594010666031176,1.061197934946112,963.90554964649141,873.41728708078745,-934.91578272863626,934.91578272863626,-873.41728708078745,1688.5500054558661,0.0
663204.59901257406,4057374.0504322448,-2500.0,752.66156638805137,-356.41250209109171,-775.16389001811569,-42.945296052085013,-28.287605257181575,-0.040420465531935783,844.53324649785543,844.15505006794706,-841.52728847749609,841.52728847749609,-844.15505006794706,1462.8180767910615,0.0
668204.59901257406,4057374.0504322448,-2500.0,553.4712386006496,-72.614459526484836,-972.21284818740071,-24.253113524060115,-42.513552814724271,-0.77374480601930273,767.70687742941811,741.37864784155465,-693.56129368911468,693.56129368911468,-741.37864784155465,1346.2177049818797,0.0
673204.59901257406,4057374.0504322448,-2500.0,349.38672685969914,147.44305097069923,-1050.1408961053787,-8.8563292717680167,-49.538993281125087,-1.2125114844455278,716.49129581812008,599.86881474757502,-528.74872172445043,528.74872172445043,-599.86881474757502,1289.8604861866659,0.0
678204.59901257406,4057374.0504322448,-2500.0,159.36043548828374,304.55012235084411,-1047.4641757439229,2.990761315821481,-51.493807236119842,-1.4331589707301629,677.23816055717634,446.51520577786334,-371.15959694556375,371.15959694556375,-446.51520577786334,1254.7766959725084,0.0
683204.59901257406,4057374.0504322448,-2500.0,-5.6292018635055676,406.75742009066221,-995.16670575747025,11.541974291136842,-50.160471634956252,-1.5030067359971102,641.78107811915697,299.21870737126994,-233.55027629814379,233.55027629814379,-299.21870737126994,1219.6668350733953,0.0
688204.59901257406,4057374.0504322448,-2500.0,-141.04373357012418,464.91957666462451,-915.95888141866783,17.298038986562126,-46.893850388853899,-1.4755833957058135,606.41552722865561,168.12357706268875,-120.75088823629319,120.75088823629319,-168.12357706268875,1176.4657381347135,0.0
693204.59901257406,4057374.0504322448,-2500.0,-246.76582413874129,489.94280164857264,-825.29056100105356,20.83002421676424,-42.650581108730222,-1.3904650022524143,570.11871200965697,57.664009445006513,-32.757004044155394,32.757004044155394,-57.664009445006513,1124.1647502501621,0.0
698204.59901257406,4057374.0504322448,-2500.0,-325.284550165285,491.39590150037094,-732.96571983666502,22.678464462038118,-38.063899922972183,-1.275243823300344,533.61939699956349,-31.444518191732605,32.96164345569094,-32.96164345569094,31.444518191732605,1064.6960953304672,0.0
703204.59901257406,4057374.0504322448,-2500.0,-380.3365695278215,477.01533999625627,-644.73609995045365,23.306656142293637,-33.526077851846694,-1.1481579619346356,504.92608592159525,-100.62748952654123,79.951309945582736,-79.951309945582736,100.62748952654123,1000.7900375396002,0.0
708204.59901257406,4057374.0504322448,-2500.0,-416.01066080787211,452.70989844414311,-563.61784318893228,23.087365745829764,-29.260792076732955,-1.0206087716494423,475.23137481821783,-152.34789925368406,111.89355871867534,-111.89355871867534,152.34789925368406,935.02222088823964,0.0
548204.59901257406,4062374.0504322448,-2500.0,606.54383364990872,107.14962391355284,-154.38720412104763,25.452099441952278,-3.1268908998409133,0.55214991362033294,395.88775273956145,490.65638553485064,-99.321293831926511,99.321293831926511,-490.65638553485064,722.17724304166438,0.0
553204.59901257406,4062374.0504322448,-2500.0,749.69402181855992,208.3457622248593,-99.04562830410525,33.992247399374797,1.4371709030450641,0.85480346481010006,473.58963402701215,569.53454719555248,-10.642055762424945,10.642055762424945,-569.53454719555248,882.74918147391907,0.0
558204.59901257406,4062374.0504322448,-2500.0,909.88389406312365,340.55798490452315,-7.3900824830102954,44.561207019036218,8.4608814745749541,1.2759086288319341,572.38704646699568,646.28604710205491,120.42724693877443,-120.42724693877443,-646.28604710205491,1089.7837609491548,0.0
563204.59901257406,4062374.0504322448,-2500.0,1083.3354315517281,508.72075202190393,135.24652140478699,57.378126520126258,18.86363608372827,1.8537777132029032,696.92001627407183,712.79326285150046,306.67359396765187,-306.67359396765187,-712.79326285150046,1352.9482827226693,0.0
568204.59901257406,4062374.0504322448,-2500.0,1262.7676516539098,716.14646604531822,347.48898163642639,72.51777775310218,33.790917467276813,2.63470816615644,852.11166416245635,757.1505127523202,562.37938861444889,-562.37938861444889,-757.1505127523202,1682.2890713428465,0.0
573204.59901257406,4062374.0504322448,-2500.0,1436.3434647886861,962.5709042010634,651.73802824924235,89.782445876663161,54.591461577851312,3.6712981873327424,1046.489512678497,763.10321112820861,901.83113835343647,-901.83113835343647,-763.10321112820861,2087.3007545500168,0.0
578204.59901257406,4062374.0504322448,-2500.0,1586.9457072054254,1241.3329077638318,1072.8130231521045,108.52661207716979,82.720358882012121,5.0176552138497588,1303.5690935309378,710.19415111690887,1336.4238163288751,-1336.4238163288751,-710.19415111690887,2575.284853514238,0.0
583204.59901257406,4062374.0504322448,-2500.0,1692.3857200053531,1535.7729727706628,1634.5708435067536,127.44560935378485,119.51942167036874,6.7196310074402934,1605.9897665859187,575.3409033133164,1869.8543550911461,-1869.8543550911461,-575.3409033133164,3148.767035677175,0.0
588204.59901257406,4062374.0504322448,-2500.0,1727.4568789882806,1815.44368187384,2353.5069796977814,144.37240429708905,165.82146891499571,8.7984238661019614,1949.4249425194298,336.80512032661613,2491.1714810373496,-2491.1714810373496,-336.80512032661613,3801.8705463323827,0.0
593204.59901257406,4062374.0504322448,-2500.0,1668.8614317354582,2033.5969263424033,3228.5974509871789,156.17795826289762,221.34571936662516,11.226746603491812,2323.6170708736654,-18.553893615826155,3166.2679877009077,-3166.2679877009077,18.553893615826155,4515.8285559950327,0.0
598204.59901257406,4062374.0504322448,-2500.0,1503.6185469410832,2128.5935873861617,4227.798846880818,158.93409170144628,283.92544817403046,13.900325750463862,2709.0746107126479,-484.64256159727574,3830.0624969347327,-3830.0624969347327,484.64256159727574,5254.429827623323,0.0
603204.59901257406,4062374.0504322448,-2500.0,1239.9992417040535,2032.7819148234953,5274.235675798931,148.53335274839588,348.76093630365239,16.61290626548908,3075.5791735802763,-1024.1174572558027,4384.0561094183986,-4384.0561094183986,1024.1174572558027,5961.1126009937989,0.0
608204.59901257406,4062374.0504322448,-2500.0,917.04515759059109,1691.6044734477664,6239.0897408676146,121.88799200394165,408.10328754167591,19.050375697511054,3383.0276197105609,-1560.4791517168424,4706.0440197489379,-4706.0440197489379,1560.4791517168424,6560.3744901443988,0.0
613204.59901257406,4062374.0504322448,-2500.0,605.36085547052335,1091.3537258567696,6951.7506234684561,78.561757782176571,451.93794144088116,20.82297001493334,3586.1467792307321,-1983.0982976847686,4677.8350099984546,-4677.8350099984546,1983.0982976847686,6966.525052353395,0.0
618204.59901257406,4062374.0504322448,-2500.0,391.43563671790537,285.50089826206579,7236.0029893672672,22.220353651642071,470.0892638388309,21.54717467439075,3643.6997447324911,-2173.0453888936599,4229.1217095221436,-4229.1217095221436,2173.0453888936599,7101.0993148762045,0.0
623204.59901257406,4062374.0504322448,-2500.0,344.84163873596532,-598.45484157735189,6969.1123591778014,-39.096879493913427,455.50477683852324,20.963710568909971,3530.6199581431174,-2047.7242974247479,3381.4401167747878,-3381.4401167747878,2047.7242974247479,6916.1259865592356,0.0
628204.59901257406,4062374.0504322448,-2500.0,481.85571887046774,-1387.235030842133,6140.4671902755363,-94.681072974965133,407.44149049354428,19.047113762518059,3248.6468377028741,-1605.2245918502281,2264.4540862963217,-2264.4540862963217,1605.2245918502281,6414.9132484282609,0.0
633204.59901257406,4062374.0504322448,-2500.0,749.51799802815015,-1921.0621277603093,4873.8585291499512,-134.55503340369589,332.68813155963613,16.045546382455925,2831.4709146223177,-938.90690258235463,1083.7493957015597,-1083.7493957015597,938.90690258235463,5659.5985070135948,0.0
638204.59901257406,4062374.0504322448,-2500.0,1045.8211549959974,-2114.1239697414871,3391.6425073195073,-152.95608664000829,243.70679876562784,12.418017128913133,2426.7744117357515,-205.67434517483784,49.194021835288083,-49.194021835288083,205.67434517483784,4759.4017682538761,0.0
643204.59901257406,4062374.0504322448,-2500.0,1265.8625677537077,-1980.0640081646545,1936.5587679958951,-149.95198432319614,154.46544381595871,8.6924856928291305,2014.915736321529,436.40765207694966,-696.7804562197316,696.7804562197316,-436.40765207694966,3843.7592468102175,0.0
648204.59901257406,4062374.0504322448,-2500.0,1344.2198246380838,-1610.4655563954152,695.57174476450973,-130.45537407818367,76.213694713587927,5.3158537695417412,1647.4248944865233,883.31944185287637,-1111.6448561236139,1111.6448561236139,-883.31944185287637,3032.1955750847505,0.0
653204.59901257406,4062374.0504322448,-2500.0,1270.192839176558,-1126.5056361192123,-237.29334354657419,-101.59881346372845,15.191248609477066,2.5626251812303833,1358.6191034236379,1105.0363354420838,-1237.5384056076023,1237.5384056076023,-1105.0363354420838,2409.8070548395335,0.0
658204.59901257406,4062374.0504322448,-2500.0,1075.6199922754497,-634.82294450803613,-854.00947073705822,-70.127104353317776,-27.293685368297695,0.52396853416942335,1157.3457884879595,1130.7286458838205,-1160.1869514192933,1160.1869514192933,-1130.7286458838205,2007.6735647288219,0.0
663204.59901257406,4062374.0504322448,-2500.0,810.94852315105379,-205.2732632854497,-1201.1734843014717,-40.884207352347637,-53.317190139745392,-0.84649656384374383,1028.8738345961879,1018.7944155795797,-969.66061680943585,969.66061680943585,-1018.7944155795797,1792.810520826238,0.0
668204.59901257406,4062374.0504322448,-2500.0,524.78408990496825,130.2297541433523,-1346.7949563256191,-16.501790864309339,-66.514030855620049,-1.6689720788655888,946.78997637333191,830.50005364167316,-737.48611694888984,737.48611694888984,-830.50005364167316,1691.0443743227313,0.0
673204.59901257406,4062374.0504322448,-2500.0,253.13403395789169,367.65926139369634,-1357.3920476033156,2.1743188274783494,-70.706183419231635,-2.0842608693637414,887.15562179965309,615.1244271290077,-510.06440229817213,510.06440229817213,-615.1244271290077,1633.5321211003061,0.0
678204.59901257406,4062374.0504322448,-2500.0,17.186514441426027,518.71062692080034,-1287.0014351961408,15.428048000269234,-69.162186371024248,-2.2212346008745025,835.09616894671376,405.57670838241859,-311.84411125703912,311.84411125703912,-405.57670838241859,1580.5751983945706,0.0
683204.59901257406,4062374.0504322448,-2500.0,-174.1890676953139,601.2620185505458,-1174.6109672344576,24.096489971419018,-64.350125958893983,-2.1828848510664631,783.88026842411705,220.12620405826641,-151.89520184938237,151.89520184938237,-220.12620405826641,1516.977798012123,0.0
688204.59901257406,4062374.0504322448,-2500.0,-320.47863726531585,633.53910163782086,-1045.9032572069336,29.178288128706395,-57.972405945163651,-2.0442732288862464,731.66478570068045,66.371536876523678,-30.185267524451447,30.185267524451447,-66.371536876523678,1440.6225556626387,0.0
693204.59901257406,4062374.0504322448,-2500.0,-425.9017241393019,631.29938110942931,-916.43806001863629,31.616132477414588,-51.116207040722152,-1.8563798545243346,679.20019945307502,-54.795176115257149,57.800553031339234,-57.800553031339234,54.795176115257149,1354.586307841729,0.0
698204.59901257406,4062374.0504322448,-2500.0,-496.76832504161297,606.93491441636945,-794.77254302383585,32.202221802256204,-44.422914373215718,-1.6516854241732482,637.00103475511094,-146.11763444051292,118.16345758309491,-118.16345758309491,146.11763444051292,1263.1844497160719,0.0
703204.59901257406,4062374.0504322448,-2500.0,-539.82148042893823,569.58177909344442,-684.95515092249491,31.556214152707504,-38.233768605461037,-1.4495668988062806,594.66261907248054,-211.92173699680222,157.00941942875659,-157.00941942875659,211.92173699680222,1170.3362969062944,0.0
708204.59901257406,4062374.0504322448,-2500.0,-561.33644588926518,525.64531608019456,-588.31169974120269,30.139054963702375,-32.699781075383378,-1.260601182359441,551.5009355834286,-256.8909835443414,179.71929892489248,-179.71929892489248,256.8909835443414,1079.056399884839,0.0
713204.59901257406,4062374.0504322448,-2500.0,-566.72017350409715,479.41833097943811,-504.6352213087149,28.280412530701646,-27.858317270189925,-1.0897664850595943,509.0630397742645,-285.41894891475914,190.70896356954239,-190.70896356954239,285.41894891475914,991.42754289611287,0.0
543204.59901257406,4067374.0504322448,-2500.0,432.03132172480457,-56.087508460005722,-261.29713234968995,15.721821438915811,-11.022313631658985,0.20393276992233531,351.663725834736,410.93631703774213,-261.39746042252841,261.39746042252841,-410.93631703774213,615.08084841508014,0.0
548204.59901257406,4067374.0504322448,-2500.0,571.99892851745585,11.226570821856489,-250.69700718203742,22.964559569837181,-9.1547014699374305,0.41461995211565961,412.13515856897067,505.22146616628731,-224.36993330356754,224.36993330356754,-505.22146616628731,731.78465629667778,0.0
553204.59901257406,4067374.0504322448,-2500.0,738.72294801576936,107.42161113370888,-217.80425317518817,32.423446793004679,-5.5405181660142162,0.72638477548984903,491.02378263594539,609.43642791886305,-156.10345590954643,156.10345590954643,-609.43642791886305,889.68172185003698,0.0
558204.59901257406,4067374.0504322448,-2500.0,933.19467849510875,240.52893251706399,-150.46856148223046,44.59178760656264,0.67159925085626748,1.1798185816985578,593.97554888115531,719.58304201358578,-43.52513830439608,43.52513830439608,-719.58304201358578,1101.1433202870126,0.0
563204.59901257406,4067374.0504322448,-2500.0,1153.8899333441998,419.26719375812917,-31.622372213863169,59.962505905619203,10.651599727399029,1.8288279844371591,727.65728673039621,828.0973935196273,130.15527254722042,-130.15527254722042,-828.0973935196273,1380.3562639089521,0.0
568204.59901257406,4067374.0504322448,-2500.0,1395.1944896431805,651.90575752766335,161.92920081650729,78.934562107436946,25.955478111803416,2.7426513387859104,899.61121275135235,922.37100235577873,385.47285230255056,-385.47285230255056,-922.37100235577873,1743.0603208118725,0.0
573204.59901257406,4067374.0504322448,-2500.0,1645.455699496197,944.08850723488945,460.36285447631292,101.64973020896771,48.562485948903237,4.006207800395825,1117.9198021057905,983.1982996128155,745.7662293710963,-745.7662293710963,-983.1982996128155,2205.7909496581469,0.0
578204.59901257406,4067374.0504322448,-2500.0,1884.9494039503393,1295.1782512940667,900.58622053490512,127.73597050284329,80.832098419908732,5.7163057555661059,1395.925050595614,983.65091788380391,1234.4486998660211,-1234.4486998660211,-983.65091788380391,2784.1787058407576,0.0
583204.59901257406,4067374.0504322448,-2500.0,2084.4911681055091,1692.7986180174603,1523.592428184968,155.9464471195115,125.29826133617928,7.9704277211471233,1767.4744054844209,889.37616435678319,1869.3918592660548,-1869.3918592660548,-889.37616435678319,3489.7831228408854,0.0
588204.59901257406,4067374.0504322448,-2500.0,2206.06773398113,2105.7571906414378,2367.5024600696033,183.72266862248409,184.18431321604805,10.843554781305967,2207.0624921953049,661.96570411086236,2653.2686638267851,-2653.2686638267851,-661.96570411086236,4324.942711784629,0.0
593204.59901257406,4067374.0504322448,-2500.0,2207.6115458855984,2476.7939429411413,3454.0180948175966,206.79741345960943,258.51175167836755,14.348870515433619,2705.5875222345335,267.6128605750921,3559.3856482781612,-3559.3856482781612,-267.6128605750921,5275.4082880645292,0.0
598204.59901257406,4067374.0504322448,-2500.0,2054.2969966465516,2718.8905574620717,4766.7666861487669,219.09557520237107,346.74377849150778,18.382576328648039,3241.3371513268567,-306.97087040451606,4514.74708062431,-4514.74708062431,306.97087040451606,6301.3169612562833,0.0
603204.59901257406,4067374.0504322448,-2500.0,1737.2696909208796,2721.9327433461626,6223.5029760351454,213.35548306774535,443.14077115326086,22.663344631957671,3774.6094159795366,-1031.9063966103781,5386.7269267262709,-5386.7269267262709,1031.9063966103781,7328.7600974742563,0.0
608204.59901257406,4067374.0504322448,-2500.0,1295.7398163451417,2378.1699185944635,7651.8484461318203,182.92832536008288,536.46733637169098,26.695082207587518,4246.2372940968698,-1811.6926592825776,5986.1820837475288,-5986.1820837475288,1811.6926592825776,8246.6741203887123,0.0
613204.59901257406,4067374.0504322448,-2500.0,829.67417885978864,1630.2533968610846,8789.0835323008159,124.84342591829049,610.26138305691723,29.797908639248945,4582.6755730608247,-2479.5696407552459,6103.6122004530152,-6103.6122004530152,2479.5696407552459,8916.0380715855717,0.0
618204.59901257406,4067374.0504322448,-2500.0,483.44990416313755,529.21752829054924,9331.4800394646336,43.22261771977869,646.00961976513133,31.246966433171313,4710.6157073565882,-2830.7673075917564,5585.7768890480575,-5585.7768890480575,2830.7673075917564,9197.3383888865737,0.0
623204.59901257406,4067374.0504322448,-2500.0,389.0413309434104,-734.2040590321858,9041.1659171098891,-49.137412945497488,629.44733650720264,30.510042285571966,4580.0049985378046,-2702.8713582074206,4429.8989570073827,-4429.8989570073827,2702.8713582074206,8994.6030497325701,0.0
628204.59901257406,4067374.0504322448,-2500.0,589.24245292542753,-1868.7795724137093,7871.2580563959054,-133.36916280091646,557.63489022394617,27.491226197351548,4187.1215754185459,-2071.5012762274237,2835.0929047194777,-2835.0929047194777,2071.5012762274237,8300.4361434912971,0.0
633204.59901257406,4067374.0504322448,-2500.0,996.01958671216823,-2597.3871674278421,6025.7978923716746,-191.39308728660399,442.30458816768873,22.636463159649097,3631.7395429308617,-1092.1726962049497,1151.322916645373,-1151.322916645373,1092.1726962049497,7216.5157872426053,0.0
638204.59901257406,4067374.0504322448,-2500.0,1428.586628898187,-2782.6482973903589,3892.2280508938211,-213.4079320388891,306.22338373273368,16.807176887213988,3055.4787382371633,-39.566412099804836,-264.9256202694865,264.9256202694865,39.566412099804836,5931.9567069815603,0.0
643204.59901257406,4067374.0504322448,-2500.0,1710.2092506918214,-2474.6622316410226,1879.2599833400395,-201.09748475959552,174.22248699272683,10.974978497616709,2484.7260374404914,822.23740632564852,-1195.4618424478062,1195.4618424478062,-822.23740632564852,4667.7052780619015,0.0
648204.59901257406,4067374.0504322448,-2500.0,1750.2621973025737,-1854.6149049073776,268.75452342273041,-164.85656841816652,64.560196987479245,5.9088288266191373,2002.8002424623439,1345.7214549880157,-1611.8681472744413,1611.8681472744413,-1345.7214549880157,3614.7181381947066,0.0
653204.59901257406,4067374.0504322448,-2500.0,1560.4478742952031,-1131.1531146864882,-836.70618517850448,-117.85504916569235,-14.764435702222142,2.0118666913091419,1652.0214806874433,1521.3862851040426,-1624.89128777111,1624.89128777111,-1521.3862851040426,2884.4591664142431,0.0
658204.59901257406,4067374.0504322448,-2500.0,1216.6093023915896,-462.3063641249459,-1475.9198226989311,-71.033875702767403,-64.525826804493619,-0.66076362968421298,1426.6201977234946,1430.6723735162036,-1394.6803156209439,1394.6803156209439,-1430.6723735162036,2474.4159112054681,0.0
663204.59901257406,4067374.0504322448,-2500.0,808.77369657582904,69.309226627821616,-1757.3481762255167,-31.001140964185634,-90.408149772023066,-2.2783602031373835,1287.8966237217139,1183.0101153208855,-1062.6386157112277,1062.6386157112277,-1183.0101153208855,2281.0839312791481,0.0
668204.59901257406,4067374.0504322448,-2500.0,408.77199335496238,443.19317758269545,-1800.3265278933679,-0.3410826602325171,-99.455718487619393,-3.1000268953425314,1193.0418924960443,873.1850570540754,-723.77333852017443,723.77333852017443,-873.1850570540754,2181.4729458710835,0.0
673204.59901257406,4067374.0504322448,-2500.0,59.966577353055179,675.33302604811524,-1704.1694371209658,21.041151113492372,-97.957996401748133,-3.3814220141374025,1113.6988796895325,565.37377507263955,-428.1281454120512,428.1281454120512,-565.37377507263955,2098.2788053476502,0.0
678204.59901257406,4067374.0504322448,-2500.0,-219.27531977274091,796.36216361058132,-1539.4724247280503,34.573082350684174,-90.65639600308738,-3.330332853566103,1036.985961381695,294.49439743387575,-193.88651059854973,193.88651059854973,-294.49439743387575,2001.3651109276093,0.0
683204.59901257406,4067374.0504322448,-2500.0,-427.38952300291425,838.22277042804615,-1351.0176637653524,42.081684874412851,-80.739336110942119,-3.0965892740611709,959.43301042862254,74.275862132697839,-20.970257504430091,20.970257504430091,-74.275862132697839,1886.1929100502575,0.0
688204.59901257406,4067374.0504322448,-2500.0,-571.90083709846078,828.03814757016426,-1164.4393187531698,45.288883811683441,-70.158811203034745,-2.7790613479081809,881.94592884022654,-94.326376146773555,99.079629009698493,-99.079629009698493,94.326376146773555,1757.8650538674106,0.0
693204.59901257406,4067374.0504322448,-2500.0,-663.96273367996571,786.41426717351669,-992.71535095800618,45.607435264693528,-59.999956379549545,-2.4381306983111428,818.24402935766295,-216.78357664902643,177.21817654049511,-177.21817654049511,216.78357664902643,1623.438734887869,0.0
698204.59901257406,4067374.0504322448,-2500.0,-715.1378421270698,727.88884711394326,-841.14430713391323,44.104924351400157,-50.790900599092524,-2.1078300075413354,756.35136770519409,-300.97858364982949,223.93849309545283,-223.93849309545283,300.97858364982949,1489.0188782360647,0.0
703204.59901257406,4067374.0504322448,-2500.0,-735.80668872096305,662.14023011803192,-710.71601853932384,41.543533934899088,-42.726597811275198,-1.8052231047895564,694.43388384233356,-354.99211246668676,248.08557653427729,-248.08557653427729,354.99211246668676,1359.0123030015218,0.0
708204.59901257406,4067374.0504322448,-2500.0,-734.57948303055821,595.27216992873127,-600.22076464038435,38.443661571324185,-35.816883867807142,-1.5371706215035184,634.64348380715592,-386.05956558475674,256.60153813927894,-256.60153813927894,386.05956558475674,1236.2207865500511,0.0
713204.59901257406,4067374.0504322448,-2500.0,-718.24599083035559,530.90240220831902,-507.48772055641882,35.146481966140087,-29.978306936258324,-1.3047225568007976,578.26362468843524,-400.20247805050263,254.69039025829596,-254.69039025829596,400.20247805050263,1122.1838233146082,0.0
543204.59901257406,4072374.0504322448,-2500.0,344.82178426118634,-160.65379548039357,-336.61436647054347,10.946691497832676,-16.856003524380228,0.0093282581772878639,377.2298451551477,380.28936913894074,-373.03336319327582,373.03336319327582,-380.28936913894074,653.3941959730862,0.0
548204.59901257406,4072374.0504322448,-2500.0,494.8099389965887,-108.64343574562793,-349.15300882723511,18.251718917571754,-16.351881632473376,0.19751397396696838,436.40921855994134,490.96654172330204,-362.83462611567779,362.83462611567779,-490.96654172330204,759.40243893129787,0.0
553204.59901257406,4072374.0504322448,-2500.0,680.88552656232798,-26.353065914368624,-344.67539350480274,28.225693591349458,-14.267388748367107,0.49598813825578647,514.32123845948286,620.11934670266373,-324.75354982334903,324.75354982334903,-620.11934670266373,906.64678925484009,0.0
558204.59901257406,4072374.0504322448,-2500.0,907.57212448666519,97.038273437749353,-310.92167908916474,41.635596036199871,-9.6443074105972695,0.95640409806895943,618.09365467753457,766.09627210073722,-244.00114558696868,244.00114558696868,-766.09627210073722,1111.6215463879703,0.0
563204.59901257406,4072374.0504322448,-2500.0,1177.4249295979273,274.63042506035794,-229.44145061461353,59.356225262507621,-1.0812894022284278,1.6511089826095049,756.77407956831144,923.52860674182534,-100.17441097790453,100.17441097790453,-923.52860674182534,1394.417094401095,0.0
568204.59901257406,4072374.0504322448,-2500.0,1488.9882486448885,521.11970388376631,-73.306451686669419,82.290417061800653,13.413578801076136,2.6787946614751048,941.35427564634711,1081.1078035824396,133.81431277151643,-133.81431277151643,-1081.1078035824396,1778.5891286383858,0.0
573204.59901257406,4072374.0504322448,-2500.0,1833.8371965548274,850.87777301452616,195.35194501885016,111.19303729581137,36.570131373515032,4.1692049519790801,1184.5544631388113,1218.7264400438494,492.06618128174853,-492.06618128174853,-1218.7264400438494,2290.7460818549725,0.0
578204.59901257406,4072374.0504322448,-2500.0,2192.7466989611239,1273.9420065226814,627.23888475707281,146.34292319403909,71.945851415793854,6.2837675167404701,1500.2090162165021,1304.3315373034031,1014.1812711462323,-1014.1812711462323,-1304.3315373034031,2959.2350600002183,0.0
583204.59901257406,4072374.0504322448,-2500.0,2531.5470714999979,1788.877152884884,1285.624177366361,187.00180205607975,123.84093988678168,9.2062892433163235,1911.3091044044556,1291.5243439077569,1740.0805224624689,-1740.0805224624689,-1291.5243439077569,3810.9116906554541,0.0
588204.59901257406,4072374.0504322448,-2500.0,2798.2747300919923,2371.6561044037408,2240.9487670694093,230.62828031911053,196.83407731934025,13.114591497736992,2466.0766193970485,1120.1550007737906,2698.5649559147109,-2698.5649559147109,-1120.1550007737906,4864.7244912694878,0.0
593204.59901257406,4072374.0504322448,-2500.0,2924.9378975303621,2960.9330191089025,3555.6755536129349,271.92329278754482,294.63908367345016,18.121176871880401,3125.7998026841842,723.89161174667606,3886.7700681152137,-3886.7700681152137,-723.89161174667606,6120.8241793620546,0.0
598204.59901257406,4072374.0504322448,-2500.0,2839.2783984448688,3443.4647440911067,5253.7125620384195,302.03805174736283,417.96049770985547,24.173919578336069,3870.1670652810894,50.345667215908634,5239.4558962250503,-5239.4558962250503,-50.345667215908634,7544.6200834479168,0.0
603204.59901257406,4072374.0504322448,-2500.0,2492.4650750673609,3650.0782729174339,7271.2369743177187,308.70558838065921,561.27563629505357,30.924537585633978,4651.1010504956121,-901.62214977959229,6593.6875786258133,-6593.6875786258133,901.62214977959229,9047.6066486100863,0.0
608204.59901257406,4072374.0504322448,-2500.0,1903.1046410801778,3381.1421634497137,9397.2476367991094,278.49214658173315,709.29318098788269,37.611062409046781,5384.0227909357636,-2031.4332987729381,7668.6481431905468,-7668.6481431905468,2031.4332987729381,10471.907764766938,0.0
613204.59901257406,4072374.0504322448,-2500.0,1200.464080892981,2482.0273590010411,11237.422237998253,202.17665598290577,835.3551229142322,43.053847261420486,5949.7380478281284,-3098.7010395410766,8098.5555544733052,-8098.5555544733052,3098.7010395410766,11592.86270768623,0.0
618204.59901257406,4072374.0504322448,-2500.0,623.76286749311612,964.23846987204729,12263.70178970266,82.43190891621542,905.3961003022356,45.879719758950706,6215.4791159270644,-3750.0172500640565,7557.279200135732,-7557.279200135732,3750.0172500640565,12158.023294248849,0.0
623204.59901257406,4072374.0504322448,-2500.0,430.38673365409056,-893.85704448086221,12001.522720673976,-60.604137085129629,889.81264580792219,44.997327211960709,6078.4440575816961,-3657.658824890811,5958.7270338515546,-5958.7270338515546,3657.658824890811,11970.061224602063,0.0
628204.59901257406,4072374.0504322448,-2500.0,730.07390387522616,-2584.7812207723759,10304.613883874095,-192.53739184091484,779.58740469760551,40.138368707042453,5517.6959745014055,-2731.4535026278782,3607.8990115507331,-3607.8990115507331,2731.4535026278782,10987.784381785394,0.0
633204.59901257406,4072374.0504322448,-2500.0,1371.8048975288452,-3600.9973871028806,7520.9117337054731,-278.98668555354379,595.64290947154416,32.120520924040228,4758.5317206177997,-1240.0138347983359,1129.6200712772009,-1129.6200712772009,1240.0138347983359,9383.1524635837468,0.0
638204.59901257406,4072374.0504322448,-2500.0,2017.3860084475716,-3714.7516661422592,4361.6588109809109,-302.68034118157561,381.55492047507892,22.59246288747331,3912.2262010053478,309.68870913007493,-840.17274889873431,840.17274889873431,-309.68870913007493,7500.7262968182631,0.0
643204.59901257406,4072374.0504322448,-2500.0,2359.0329100375984,-3071.7141307848406,1541.4477589789669,-270.12694888571542,183.08663242400084,13.369472927826392,3109.8728240805099,1461.4131119612139,-1966.5292463936189,1966.5292463936189,-1461.4131119612139,5733.9823681375974,0.0
648204.59901257406,4072374.0504322448,-2500.0,2284.0398788500752,-2038.0150739777512,-522.09828911867965,-203.69900039476371,29.8044422885526,5.7752347012735825,2481.3674020666231,2020.189137775466,-2288.7651509938091,2288.7651509938091,-2020.189137775466,4388.5574987388845,0.0
653204.59901257406,4072374.0504322448,-2500.0,1871.6236196349323,-971.54057053816518,-1761.8933827064352,-127.80977009038904,-70.077023218035151,0.3575419073561622,2065.3620507892174,2050.0129766839182,-2067.5611802651592,2067.5611802651592,-2050.0129766839182,3577.739097639148,0.0
658204.59901257406,4072374.0504322448,-2500.0,1285.7793752649884,-91.666033714957095,-2332.1907855566633,-59.571716186582336,-123.54095171023127,-2.9875696122734596,1815.8838198458793,1741.0536739294323,-1591.1238549475718,1591.1238549475718,-1741.0536739294323,3188.9730989070204,0.0
663204.59901257406,4072374.0504322448,-2500.0,677.07737548626164,526.85669107225772,-2453.9727989390858,-6.8408850891329243,-143.65050368532678,-4.7068359447641361,1656.2791773304589,1284.6734451681718,-1067.5782665516094,1067.5782665516094,-1284.6734451681718,3004.7271165848729,0.0
668204.59901257406,4072374.0504322448,-2500.0,140.61504506841993,900.96189787734284,-2321.2525969846924,29.327026144375672,-143.13754343276017,-5.3181407292258687,1529.769178530132,815.02680315771465,-607.77377552468272,607.77377552468272,-815.02680315771465,2867.4139761073566,0.0
673204.59901257406,4072374.0504322448,-2500.0,-282.77008892169948,1085.4467607733377,-2070.4076204360235,51.369751668102282,-131.69007881530206,-5.2612763006953633,1410.1509302621023,403.86187937250804,-251.19900829611177,251.19900829611177,-403.86187937250804,2713.5348993670018,0.0
678204.59901257406,4072374.0504322448,-2500.0,-588.67224492928494,1139.5839870903892,-1784.1647546723384,62.804001295279335,-115.65115697035492,-4.8524191240649852,1290.5170037461671,77.637041509190993,2.2569699234524947,-2.2569699234524947,-77.637041509190993,2532.9654059234485,0.0
683204.59901257406,4072374.0504322448,-2500.0,-791.3526491154289,1112.5878981679682,-1506.6311421540031,66.948932752303079,-98.715078834004771,-4.2942753910105758,1172.1564523032887,-163.17272338644656,169.39209127172589,-169.39209127172589,163.17272338644656,2334.5847824294865,0.0
688204.59901257406,4072374.0504322448,-2500.0,-911.61484317648853,1040.2365927578894,-1257.8112905136932,66.449180698653308,-82.789972437404344,-3.7049539380451195,1073.1591511424676,-329.97939272694191,270.8807177549329,-270.8807177549329,329.97939272694191,2130.3880049125514,0.0
693204.59901257406,4072374.0504322448,-2500.0,-970.19170862496355,946.39277798254295,-1044.1541344443322,63.219287897204381,-68.700098390499846,-3.1464741895954842,980.0599731493428,-437.77248561317771,325.49310120474587,-325.49310120474587,437.77248561317771,1930.103353084743,0.0
698204.59901257406,4072374.0504322448,-2500.0,-984.87648117914023,845.91840639522161,-865.21488428950829,58.557828006091654,-56.667130823260706,-2.646759344083101,888.97178572130099,-500.98872778458013,348.21484687339608,-348.21484687339608,500.98872778458013,1740.1762401674703,0.0
703204.59901257406,4072374.0504322448,-2500.0,-969.74830838844093,747.45682333353852,-717.49651774423251,53.300887585792502,-46.608391332741725,-2.2144314669719325,802.85119546632575,-531.86575812394892,350.18365911545777,-350.18365911545777,531.86575812394892,1564.2268711524218,0.0
708204.59901257406,4072374.0504322448,-2500.0,-935.38643531450134,655.60401583722148,-596.50327602690652,47.960249945554196,-38.308513324765912,-1.8479981916983694,723.2352221849851,-540.07903487689396,339.30289960602295,-339.30289960602295,540.07903487689396,1403.8263476639497,0.0
713204.59901257406,4072374.0504322448,-2500.0,-889.45250528351028,572.44501263278221,-497.75144692885988,42.830738141302476,-31.511913018906355,-1.5413030674351909,650.71975954294919,-532.95147744780206,320.99385505348141,-320.99385505348141,532.95147744780206,1259.1991742150719,0.0
718204.59901257406,4072374.0504322448,-2500.0,-837.33305421790351,498.57835916137435,-417.20817691763409,38.067287161013404,-25.968805798424764,-1.2865286672601055,585.32232047823288,-515.85990302692835,298.8705695322983,-298.8705695322983,515.85990302692835,1129.755014947453,0.0
538204.59901257406,4077374.0504322448,-2500.0,96.885731760270673,-288.57175030056817,-364.41458590212176,-0.63566760088334728,-21.366036522989866,-0.3271405566687921,369.96153245231886,217.0002692307111,-450.61676806054447,450.61676806054447,-217.0002692307111,654.67220555286895,0.0
543204.59901257406,4077374.0504322448,-2500.0,211.35936255985987,-279.13595641213288,-405.18523808771351,3.9380273562620935,-23.24886693655046,-0.25796059014457373,416.49856313006637,314.37406082084874,-484.50285416399299,484.50285416399299,-314.37406082084874,727.9123011458488,0.0
548204.59901257406,4077374.0504322448,-2500.0,362.39345041648886,-250.48179728391588,-443.13633166146536,10.704821551201382,-24.546959035619295,-0.11827464260262591,475.04877895510896,436.22968622672374,-507.38367147188569,507.38367147188569,-436.22968622672374,823.80447998968873,0.0
553204.59901257406,4077374.0504322448,-2500.0,558.64837753136146,-193.00253832245724,-471.79184281619223,20.494682179361568,-24.647948519171145,0.1330845037037684,551.10937134484197,586.01005783077255,-509.35696540004727,509.35696540004727,-586.01005783077255,955.54296508792947,0.0
558204.59901257406,4077374.0504322448,-2500.0,809.39654153001572,-93.532672923653152,-480.12231526808853,34.387703797176655,-22.563201381657382,0.55809373215745972,652.70985996294303,765.79373407335117,-475.22218719087175,475.22218719087175,-765.79373407335117,1142.534903420948,0.0
563204.59901257406,4077374.0504322448,-2500.0,1123.3788768560473,65.356670017739617,-450.05189272652404,53.738475099957554,-16.739662221827547,1.2485299708160866,791.06794734359391,974.55622695245859,-382.33302424028932,382.33302424028932,-974.55622695245859,1411.235306296549,0.0
568204.59901257406,4077374.0504322448,-2500.0,1506.6181669971857,305.62541900251063,-352.95998064601355,80.15026132152731,-4.8049202897658079,2.3373962604301233,981.08154126253191,1205.3579595431916,-198.06507735450356,198.06507735450356,-1205.3579595431916,1795.3066647196022,0.0
573204.59901257406,4077374.0504322448,-2500.0,1958.6886813120577,652.88607046051686,-145.1244752200235,115.33975021602872,16.750107400242467,4.011762196856818,1241.5214930297891,1441.1280380248731,122.64612926876407,-122.64612926876407,-1441.1280380248731,2335.390496630615,0.0
578204.59901257406,4077374.0504322448,-2500.0,2466.9613513487952,1133.1314223364134,237.48792076712689,160.79482534211314,52.906753575850104,6.5235466505852182,1594.7487730444454,1648.9245315734865,638.55132792920824,-638.55132792920824,-1648.9245315734865,3078.432720953153,0.0
583204.59901257406,4077374.0504322448,-2500.0,2998.7131130228304,1765.1096012661403,883.61898763921749,217.08300167623071,110.34244096750071,10.189909630605104,2065.5988658455954,1773.2375513811801,1419.7497843549438,-1419.7497843549438,-1773.2375513811801,4075.3678840701609,0.0
588204.59901257406,4077374.0504322448,-2500.0,3492.1289019700976,2545.7246941422122,1906.750423442074,282.64223686992528,197.252218249973,15.367120330140544,2698.1743431676809,1730.4976961080752,2537.5134656370451,-2537.5134656370451,-1730.4976961080752,5374.7411075297214,0.0
593204.59901257406,4077374.0504322448,-2500.0,3849.8937686885688,3426.0024549228365,3433.6048458439773,351.95474948202639,322.22244827485133,22.371228213826193,3558.0836778997405,1410.1241546732808,4039.6873994137077,-4039.6873994137077,-1410.1241546732808,7008.9547614865651,0.0
598204.59901257406,4077374.0504322448,-2500.0,3944.0235525707981,4278.1909562977553,5568.9408994627784,413.3286797502704,491.31929834295727,31.312937574888053,4585.1154055949064,692.54604417607743,5903.8830326806419,-5903.8830326806419,-692.54604417607743,8969.5569243712307,0.0
603204.59901257406,4077374.0504322448,-2500.0,3647.0997083603966,4864.6289395675585,8320.9746639352525,447.34327426821113,702.52405480401103,41.833603346556387,5730.3854271806767,-500.18215760080648,7965.6947594997891,-7965.6947594997891,500.18215760080648,11169.978785189664,0.0
608204.59901257406,4077374.0504322448,-2500.0,2906.1390885405231,4840.7264717723901,11480.762757510356,428.43716966993043,937.67547107873474,52.805077211879123,6881.1805220587348,-2109.5118661494298,9841.3784662227881,-9841.3784662227881,2109.5118661494298,13402.172615269681,0.0
613204.59901257406,4077374.0504322448,-2500.0,1851.4629260540344,3850.6486423754995,14492.785004220967,333.19692725233307,1155.2992527437575,62.201174991921874,7848.2724916654688,-3824.0783273926741,10913.89321629388,-10913.89321629388,3824.0783273926741,15311.525402236486,0.0
618204.59901257406,4077374.0504322448,-2500.0,864.45964384859258,1760.4233428527807,16444.400430254555,156.63798805067015,1292.7451427893718,67.452222055319609,8388.4838095255982,-5044.5818891573035,10502.013730639208,-10502.013730639208,5044.5818891573035,16436.896045326674,0.0
623204.59901257406,4077374.0504322448,-2500.0,458.26414117581885,-1057.607491475701,16362.28284835496,-71.038522176359123,1287.2829535792716,66.402735107371242,8284.113204281688,-5094.0857668326298,8273.1023416287098,-8273.1023416287098,5094.0857668326298,16360.488072588392,0.0
628204.59901257406,4077374.0504322448,-2500.0,917.57657502386155,-3687.7334789386246,13826.39991629559,-285.18014025675905,1113.3351177629859,58.456027596590218,7479.6259255617324,-3693.3718258981239,4675.8098295350255,-4675.8098295350255,3693.3718258981239,14940.773292314781,0.0
633204.59901257406,4077374.0504322448,-2500.0,1976.1116611819348,-5137.9115134726317,9450.144672732371,-416.93411817148825,809.2822539197565,45.125864204208405,6387.511823230514,-1323.6945532388329,889.2974948625249,-889.2974948625249,1323.6945532388329,12478.094679652037,0.0
638204.59901257406,4077374.0504322448,-2500.0,2958.820947003037,-5015.9377680340995,4623.5597308567576,-434.75379341932927,462.78933719543119,29.523152893749916,5107.5544202712163,1017.9171824192786,-1883.5102932011891,1883.5102932011891,-1017.9171824192786,9639.3519494448828,0.0
643204.59901257406,4077374.0504322448,-2500.0,3312.9574114756692,-3722.6616465146249,646.62925346534314,-358.9923642432056,161.18374043473315,15.002501864511903,3968.1560284290035,2517.4705417874461,-3142.8242422927219,3142.8242422927219,-2517.4705417874461,7157.6238196255918,0.0
648204.59901257406,4077374.0504322448,-2500.0,2947.1748489883812,-2014.4399648981528,-1903.4857098958591,-238.64679838712919,-49.124254055506015,3.808772718603183,3161.747242408796,2972.7338683858306,-3153.1556776578191,3153.1556776578191,-2972.7338683858306,5501.5491960554818,0.0
653204.59901257406,4077374.0504322448,-2500.0,2120.8114716147202,-488.18925050299725,-3134.0878258142397,-118.44630906031298,-166.3909785506381,-3.4201812166905889,2679.7457874831334,2658.095521495879,-2492.9928441211437,2492.9928441211437,-2658.095521495879,4669.4577856009428,0.0
658204.59901257406,4077374.0504322448,-2500.0,1161.8152331376325,597.97248672164801,-3454.9828352538466,-22.907917447795235,-213.30938666894653,-7.2357031141463271,2391.7480989429259,1973.7637603554736,-1651.519086975311,1651.519086975311,-1973.7637603554736,4300.5839926122617,0.0
663204.59901257406,4077374.0504322448,-2500.0,296.34038845468899,1237.3600096184109,-3272.5128706525034,41.798062133562894,-216.86066097230335,-8.6541359950627825,2178.4846338483881,1223.9237909463661,-898.89441763982302,898.89441763982302,-1223.9237909463661,4059.6503292065713,0.0
668204.59901257406,4077374.0504322448,-2500.0,-376.42233798792887,1532.266356997731,-2872.0492521721894,79.583091478318323,-198.28299617579694,-8.6396876957350148,1982.6357613243558,569.81054606230464,-329.8413459836359,329.8413459836359,-569.81054606230464,3802.8588541677973,0.0
673204.59901257406,4077374.0504322448,-2500.0,-843.92922084163069,1600.6407240847093,-2417.7274985243857,97.603070611210356,-171.1363867068502,-7.899476258668467,1789.4713107057348,66.694299730077745,55.523197301560906,-55.523197301560906,-66.694299730077745,3506.2976448555519,0.0
678204.59901257406,4077374.0504322448,-2500.0,-1135.2966709183283,1537.6588146032273,-1989.4020983820888,102.67021623450793,-142.86558058463913,-6.8764933298330524,1601.1062493015941,-287.47410496477835,292.99153777488925,-292.99153777488925,287.47410496477835,3186.3234470441221,0.0
683204.59901257406,4077374.0504322448,-2500.0,-1291.8862691847505,1408.6297840392167,-1618.1009119777448,100.02068361544256,-116.97548450339069,-5.8157006131449762,1441.9673897441614,-517.87235793828211,423.93317096480894,-423.93317096480894,517.87235793828211,2864.2109490182524,0.0
688204.59901257406,4077374.0504322448,-2500.0,-1352.8314156780873,1254.0143035027779,-1310.0333575112318,93.245231505192166,-94.745278673683046,-4.8356810678114588,1297.2544094008736,-654.44201367392304,483.47200283245013,-483.47200283245013,654.44201367392304,2555.7586383907083,0.0
693204.59901257406,4077374.0504322448,-2500.0,-1349.8412035023587,1096.8623888833924,-1060.4243474606139,84.625487532438669,-76.328609749599664,-3.9824308847991077,1159.3849816231459,-723.98205295315802,497.80974072502505,-497.80974072502505,723.98205295315802,2270.2131238290667,0.0
698204.59901257406,4077374.0504322448,-2500.0,-1306.5544816423665,949.11870111723545,-860.66480065307394,75.521854178969832,-61.380780588009983,-3.2641039300773169,1032.2523988016605,-747.75974423770617,485.13575323714895,-485.13575323714895,747.75974423770617,2011.7534799223536,0.0
703204.59901257406,4077374.0504322448,-2500.0,-1239.68653043168,816.09785424259712,-701.67322609138182,66.692122429421048,-49.387300366188335,-2.6710358640050336,917.41425703426432,-741.57562575242457,457.49503353124226,-457.49503353124226,741.57562575242457,1781.2475439107529,0.0
708204.59901257406,4077374.0504322448,-2500.0,-1160.6053253241384,699.37665711451575,-575.2745844219437,58.51929065649248,-39.821007048250038,-2.1868727312422758,815.02953991617323,-716.68861309938745,422.57626637298893,-422.57626637298893,716.68861309938745,1577.6251905683146,0.0
713204.59901257406,4077374.0504322448,-2500.0,-1076.7851199312718,598.56100797620923,-474.62184441736855,51.163102028699626,-32.208218786557687,-1.7939700575487953,724.49244658079454,-680.8846248273569,385.11989308405799,-385.11989308405799,680.8846248273569,1398.8128283070391,0.0
718204.59901257406,4077374.0504322448,-2500.0,-992.96879449051266,512.31897650670692,-394.19283753438265,44.656250981119925,-26.149483931571989,-1.4759441340615154,644.82488338055305,-639.41583847565141,347.93214120970777,-347.93214120970777,639.41583847565141,1242.3183040190279,0.0
538204.59901257406,4082374.0504322448,-2500.0,-74.742755055740389,-389.09419695068084,-402.02375123540389,-8.8817450591660538,-26.304721454346527,-0.60766237246717936,422.78862301437209,111.10136354056641,-524.19218594506583,524.19218594506583,-111.10136354056641,770.30333182007575,0.0
543204.59901257406,4082374.0504322448,-2500.0,23.820985375133255,-405.77293971174106,-461.01640606520306,-5.6512518932442664,-29.867305329608051,-0.60764016514370911,473.45963778830355,204.9497689177891,-586.57748976682592,586.57748976682592,-204.9497689177891,848.85049115542097,0.0
548204.59901257406,4082374.0504322448,-2500.0,162.39968236235791,-408.5803182227869,-524.5219111547741,-0.26033621861891043,-33.369445520736356,-0.55044659707572241,534.67930061212201,328.71939451944661,-646.90128931762672,646.90128931762672,-328.71939451944661,943.7343112573592,0.0
553204.59901257406,4082374.0504322448,-2500.0,353.30394337979931,-387.86438566070484,-588.52517870417807,8.2860883491161825,-36.31592505839069,-0.39319618316274269,611.16594799609027,489.36957448010401,-697.19794416159459,697.19794416159459,-489.36957448010401,1065.1292678886884,0.0
558204.59901257406,4082374.0504322448,-2500.0,611.35941957140221,-329.31494871510358,-644.8442666361118,21.372951499467355,-37.812499332729189,-0.067172671233947157,710.52464847408146,693.94156336098524,-723.85117418744778,723.85117418744778,-693.94156336098524,1230.779675956969,0.0
563204.59901257406,4082374.0504322448,-2500.0,953.37692679646284,-212.31216180389265,-678.2101897588816,40.880705432200891,-36.315936969477427,0.5359093767712314,844.68042040307728,948.05344672357353,-704.55039134927608,704.55039134927608,-948.05344672357353,1469.5370003687096,0.0
568204.59901257406,4082374.0504322448,-2500.0,1396.4808040095029,-8.2055535432656264,-661.70321998492545,69.270177781451736,-29.257020783290674,1.5833900759553705,1031.4807828258495,1252.9940253106115,-604.08367747724333,604.08367747724333,-1252.9940253106115,1824.2997794406074,0.0
573204.59901257406,4082374.0504322448,-2500.0,1954.420223740342,320.8405352576703,-549.9657828569924,109.57985019823816,-12.501230605821856,3.3273383039708069,1296.0951443961706,1600.6252092849898,-369.00755632498772,369.00755632498772,-1600.6252092849898,2353.2384107829307,0.0
578204.59901257406,4082374.0504322448,-2500.0,2630.645909284844,821.02871177908298,-269.81881226411741,165.20123049293781,20.360708705893941,6.1340499834476256,1671.801218300546,1965.1806295257002,78.090802155434062,-78.090802155434062,-1965.1806295257002,3129.5105836402308,0.0
583204.59901257406,4082374.0504322448,-2500.0,3406.7550897157585,1541.418211585428,291.20722891536974,239.1896848277166,78.809038934287429,10.507831649882165,2199.7689614889005,2291.3173910508017,842.50806099185274,-842.50806099185274,-2291.3173910508017,4240.0638025978278,0.0
588204.59901257406,4082374.0504322448,-2500.0,4225.4262525636404,2519.0448502665913,1295.5755520447733,332.72517370604618,175.9712764846748,17.084471150611346,2927.0904878373885,2479.1033719966204,2054.3241654737908,-2054.3241654737908,-2479.1033719966204,5781.5334667613661,0.0
593204.59901257406,4082374.0504322448,-2500.0,4969.3828694699687,3747.6274153083132,2957.6106270226837,442.22252174242419,328.20637326929676,26.543117944474169,3947.6021154427253,2370.3500929730799,3847.8846345253187,-3847.8846345253187,-2370.3500929730799,7847.2287358176163,0.0
598204.59901257406,4082374.0504322448,-2500.0,5445.0682301992838,5121.8595802674045,5518.051282688918,554.75625681602935,552.11011202272209,39.352775732905869,5339.7964087758128,1749.5501039606515,6305.6977528079642,-6305.6977528079642,-1749.5501039606515,10495.698577804078,0.0
603204.59901257406,4082374.0504322448,-2500.0,5395.9037569197853,6356.7717237750749,9155.68840975682,642.56298194990768,856.36928503077695,55.268844260329182,7007.002152791094,389.79230185515007,9342.3149840473779,-9342.3149840473779,-389.79230185515007,13689.499842797675,0.0
608204.59901257406,4082374.0504322448,-2500.0,4594.4048518219679,6916.0639772380327,13786.196135151895,660.50938569705875,1226.0504331138652,72.6328092462429,8821.394534082985,-1805.8827062720138,12519.250367946428,-12519.250367946428,1805.8827062720138,17199.211435371624,0.0
613204.59901257406,4082374.0504322448,-2500.0,3061.458894583674,6066.569053735303,18737.753456400318,555.52704637705745,1601.9291860327214,87.926412665643866,10499.470853017026,-4537.8150591700414,14870.76282734491,-14870.76282734491,4537.8150591700414,20499.663904213565,0.0
618204.59901257406,4082374.0504322448,-2500.0,1338.9304013465569,3257.8092866555498,22490.723374834608,297.97753771952563,1871.2220626142175,96.458153355959411,11598.2873881709,-6850.9789464938385,15016.385832652375,-15016.385832652375,6850.9789464938385,22755.951989569287,0.0
623204.59901257406,4082374.0504322448,-2500.0,454.94515680965293,-1148.9584116566525,23009.723674591165,-72.701969796447059,1900.0203854946772,94.522649993558844,11643.684606473013,-7329.989957697785,11934.770256618824,-11934.770256618824,7329.989957697785,23060.433508586339,0.0
628204.59901257406,4082374.0504322448,-2500.0,1171.415281898594,-5458.6002595414784,19098.488800712112,-432.58440734174155,1618.2990970205074,81.515451303034098,10563.330042552447,-5143.7051221420934,6183.2561128582474,-6183.2561128582474,5143.7051221420934,20974.116788841995,0.0
633204.59901257406,4082374.0504322448,-2500.0,3014.0876817020539,-7574.3252489498718,11864.714398774058,-636.75137105152089,1097.6583489601398,60.204861890116376,8821.8898352934029,-1180.3944901783075,133.76481807111088,-133.76481807111088,1180.3944901783075,17033.639030213973,0.0
638204.59901257406,4082374.0504322448,-2500.0,4524.8830040316607,-6794.0869451230637,4241.3357893730663,-625.73799110097525,523.18586899945581,35.701026321419896,6825.9319416318522,2441.2665433947168,-3770.2473760217354,3770.2473760217354,-2441.2665433947168,12626.754354180737,0.0
643204.59901257406,4082374.0504322448,-2500.0,4693.0922936263751,-4230.3099776591253,-1316.2520536157469,-459.22014500782484,66.151532932147774,13.683445659103892,5206.0358477972795,4236.3890107354237,-4873.6655830867639,4873.6655830867639,-4236.3890107354237,9177.2137690649979,0.0
648204.59901257406,4082374.0504322448,-2500.0,3647.3875567389628,-1468.2416342563972,-4192.5687037188827,-245.50342910855036,-207.8131441359487,-2.0838125211366672,4198.1623926047232,4217.354932224498,-4116.4206158657871,4116.4206158657871,-4217.354932224498,7276.6362236667892,0.0
653204.59901257406,4082374.0504322448,-2500.0,2089.9820921594292,582.32611396765049,-5053.707295309925,-62.869573606625963,-324.66489255799712,-10.972649589066341,3630.7799752962383,3198.006697532116,-2712.1488597654297,2712.1488597654297,-3198.006697532116,6463.9872784216659,0.0
658204.59901257406,4082374.0504322448,-2500.0,609.80291036763606,1759.5883184858599,-4815.13918811652,60.752276098964444,-342.42467976795842,-14.51310135871384,3245.0572978178993,1933.7634448489764,-1399.4367166836698,1399.4367166836698,-1933.7634448489764,6007.0107950946312,0.0
663204.59901257406,4082374.0504322448,-2500.0,-523.7468676105857,2259.8328205166267,-4137.2389872828762,129.64008518508498,-311.32035428719132,-14.771509406277872,2904.430598299572,830.30977646257065,-436.18441688490248,436.18441688490248,-830.30977646257065,5551.3307894832651,0.0
668204.59901257406,4082374.0504322448,-2500.0,-1272.6241874381872,2339.1521724350901,-3376.5033192716619,159.1680131716704,-262.92654888872272,-13.405184768212262,2574.6194060143907,15.657097160449837,175.53670002452719,-175.53670002452719,-15.657097160449837,5035.8194583584036,0.0
673204.59901257406,4082374.0504322448,-2500.0,-1702.0452368488841,2196.6295132360606,-2686.3920861242241,164.36826786276143,-213.42925183849189,-11.452691952348275,2259.4893956954543,-522.23505677198443,518.91785318204631,-518.91785318204631,522.23505677198443,4492.7076348050978,0.0
678204.59901257406,4082374.0504322448,-2500.0,-1900.8085117925141,1958.5798304889431,-2113.9384308481381,156.30257096305169,-169.59734999574349,-9.4613828978494539,1993.1794405553451,-842.92436598548352,682.68550441788852,-682.68550441788852,842.92436598548352,3961.4905157657736,0.0
683204.59901257406,4082374.0504322448,-2500.0,-1947.2613005706849,1695.7718878320932,-1659.2204752909706,142.04857063303331,-133.33947295119779,-7.6726073278206348,1759.5615046835528,-1009.7123984742119,735.93191470156091,-735.93191470156091,1009.7123984742119,3468.0094592086589,0.0
688204.59901257406,4082374.0504322448,-2500.0,-1900.277062766454,1443.7179892113315,-1305.5601619187894,125.7335063945975,-104.39599325654623,-6.1630828362296679,1544.0697238129046,-1074.415053037955,725.88157781860264,-725.88157781860264,1074.415053037955,3024.5630389126895,0.0
693204.59901257406,4082374.0504322448,-2500.0,-1800.4944539193459,1217.7258773473411,-1032.9581565992087,109.57297140052889,-81.721924398267703,-4.9313536465575165,1351.2166997435763,-1074.9341845441299,682.55464846069549,-682.55464846069549,1074.9341845441299,2634.3162348563696,0.0
698204.59901257406,4082374.0504322448,-2500.0,-1674.4666848395445,1022.3748719725945,-823.24710095238936,94.637398417677602,-64.122859546750121,-3.9446143031661913,1181.7139464175061,-1037.3261911045142,624.10419313644013,-624.10419313644013,1037.3261911045142,2295.2543950063537,0.0
703204.59901257406,4082374.0504322448,-2500.0,-1538.8025734411315,856.98799000737495,-661.55117184118899,81.349983540887422,-50.510569937955069,-3.1616167481790751,1034.3086749737656,-978.79378477420835,561.03216801941824,-561.03216801941824,978.79378477420835,2002.8511291187026,0.0
708204.59901257406,4082374.0504322448,-2500.0,-1403.447139108488,718.61715343214837,-536.27261379175968,69.78874859043971,-39.98116483798043,-2.5428187343018713,906.87825915200506,-910.34395705745931,499.10939470422898,-499.10939470422898,910.34395705745931,1751.6662814881015,0.0
713204.59901257406,4082374.0504322448,-2500.0,-1274.024731946688,603.58360452635657,-438.58687732331009,59.860949372047941,-31.817454165531252,-2.0540941922037526,797.03039042607463,-838.80667365114311,441.26716993590537,-441.26716993590537,838.80667365114311,1536.2095707958301,0.0
718204.59901257406,4082374.0504322448,-2500.0,-1153.4372875082829,508.22723518836727,-361.85870971205151,51.400438977626564,-25.464186537901575,-1.6674801220796185,702.41751533052809,-768.2688083363247,388.78161640282349,-388.78161640282349,768.2688083363247,1351.3734071247559,0.0
723204.59901257406,4082374.0504322448,-2500.0,-1042.9125664845619,429.23079051336202,-301.12095857286221,44.219440312611439,-20.496946513153418,-1.3607116467113702,620.88251425841008,-701.04801524594563,341.99465328882565,-341.99465328882565,701.04801524594563,1192.6081906849197,0.0
533204.59901257406,4087374.0504322448,-2500.0,-331.85864868912705,-437.6015678644485,-360.98364934465633,-19.12521336168615,-26.183558816410969,-0.84156214467816126,438.6098465264904,-88.419831423075038,-498.26101089359724,498.26101089359724,88.419831423075038,835.28492403352777,0.0
538204.59901257406,4087374.0504322448,-2500.0,-291.51278692526006,-484.97293878657212,-423.87959936517387,-19.148631049647548,-30.85452008217128,-0.94794893614435494,490.35610470447625,-33.746240172064233,-577.91302979573447,577.91302979573447,33.746240172064233,921.93400416215582,0.0
543204.59901257406,4087374.0504322448,-2500.0,-223.0968986599147,-531.57446946349739,-498.14782816327835,-18.04325618963825,-36.222486370315202,-1.0452333229081798,550.10727867046523,45.389524302194161,-667.87843312949872,667.87843312949872,-45.389524302194161,1019.147980149512,0.0
548204.59901257406,4087374.0504322448,-2500.0,-115.17232671948942,-572.59475613396967,-584.5234162632961,-15.099334215428415,-42.210738241777868,-1.1118881037647348,620.01774355835266,157.28694572017389,-766.58105896954771,766.58105896954771,-157.28694572017389,1129.804449122794,0.0
553204.59901257406,4087374.0504322448,-2500.0,47.631901510570827,-599.844331283835,-682.30939447054561,-9.2440474139845943,-48.550137597570533,-1.1091206343852638,703.54859913960831,312.39482943159288,-869.58095634377673,869.58095634377673,-312.39482943159288,1259.5154894190275,0.0
558204.59901257406,4087374.0504322448,-2500.0,285.51689889810285,-599.911430424728,-787.76263490439726,1.1214328340568211,-54.609944128476322,-0.96917214813427199,806.55200347902974,523.28356924674608,-967.34140920401433,967.34140920401433,-523.28356924674608,1419.5616484323912,0.0
563204.59901257406,4087374.0504322448,-2500.0,624.1568789219117,-551.545851792078,-891.17482042819529,18.336866718085044,-59.107428131436372,-0.57659912526005108,939.14006172719564,803.92884184903335,-1041.6058428089455,1041.6058428089455,-803.92884184903335,1632.1586628846078,0.0
568204.59901257406,4087374.0504322448,-2500.0,1094.4984105695287,-422.19594506219147,-971.78454646999853,45.740665755800627,-59.624489563943015,0.26081302970192416,1118.5955728713825,1167.5755884810092,-1059.7442724887778,1059.7442724887778,-1167.5755884810092,1938.4444259593381,0.0
573204.59901257406,4087374.0504322448,-2500.0,1730.59994667465,-163.95297093116798,-989.26617950811806,87.920806237431307,-51.832737826787032,1.8550318280161777,1373.2293383154383,1621.9569307029076,-966.38705401408765,966.38705401408765,-1621.9569307029076,2407.5231718374225,0.0
578204.59901257406,4087374.0504322448,-2500.0,2563.6000915353602,290.02828004217685,-870.22563873967283,150.82036165652758,-28.316573373466444,4.6961888707213815,1746.3905366069098,2160.014223230849,-672.00783972253419,672.00783972253419,-2160.014223230849,3142.5011226451916,0.0
583204.59901257406,4087374.0504322448,-2500.0,3608.863651782005,1025.8791897544384,-488.29368805376123,241.38226824400553,23.069046997928375,9.5190501477309937,2299.3234993565916,2743.6852232808251,-39.383726755088901,39.383726755088901,-2743.6852232808251,4281.1885910888686,0.0
588204.59901257406,4087374.0504322448,-2500.0,4842.3188056109993,2140.2596101327949,362.04738644698824,366.10313849705136,121.15595148641768,17.346106432735603,3111.7635449420272,3278.3311994036308,1127.9460414952123,-1127.9460414952123,-3278.3311994036308,5993.6859000876666,0.0
593204.59901257406,4087374.0504322448,-2500.0,6161.8077482865274,3711.1467043150647,1992.870458096523,527.37735620834303,292.96901907842772,29.419293869097942,4278.8169786952039,3577.3150017831199,3084.0182593119612,-3084.0182593119612,-3577.3150017831199,8475.2808878907545,0.0
598204.59901257406,4087374.0504322448,-2500.0,7333.2879829608009,5727.9033405577084,4833.474959905072,716.00718497049593,572.54114685398804,46.829119300579542,6019.8590451204454,3324.2649119109019,6099.342962121832,-6099.342962121832,-3324.2649119109019,11919.513503509324,0.0
603204.59901257406,4087374.0504322448,-2500.0,7941.6804598416848,7950.4459876703368,9373.5402660892887,898.68372493573065,991.87727600245694,69.547881308140916,8392.7740576395208,2067.1126881866066,10324.552007376362,-10324.552007376362,-2067.1126881866066,16440.669608636523,0.0
608204.59901257406,4087374.0504322448,-2500.0,7429.1859159846108,9684.5791498022572,15917.931312797578,1003.799021913825,1555.315470655737,94.762611351634675,11229.97088124967,-653.3009124925984,15467.213046849163,-15467.213046849163,653.3009124925984,21903.554316235077,0.0
613204.59901257406,4087374.0504322448,-2500.0,5412.0344687766246,9605.2541852729646,23964.460058064091,922.800433267156,2191.7685852481741,115.57979841432579,14164.036146469125,-4846.0837253540931,20250.058523503187,-20250.058523503187,4846.0837253540931,27645.17974049093,0.0
618204.59901257406,4087374.0504322448,-2500.0,2413.0756546091566,6138.7581274917866,31244.861737659572,561.73874130249897,2708.4562427128012,123.2489459139989,16421.783377052645,-9237.1987227407826,22058.747833294794,-22058.747833294794,9237.1987227407826,32226.416180938169,0.0
623204.59901257406,4087374.0504322448,-2500.0,411.96934718809831,-915.89218736478142,33522.556255686934,-46.141648895159847,2825.6429640475249,114.33148180067387,16954.921861430259,-10923.617931139448,18032.979034669934,-18032.979034669934,10923.617931139448,33656.058225319066,0.0
628204.59901257406,4087374.0504322448,-2500.0,1524.0705999469976,-8443.2429241628979,27313.177644370771,-664.75244998493122,2361.13157251965,93.824983732858996,15514.175392220994,-7417.3588779265283,8359.1888264053596,-8359.1888264053596,7417.3588779265283,30592.874490060938,0.0
633204.59901257406,4087374.0504322448,-2500.0,4950.0214167806071,-11577.142109045997,14589.360333152114,-980.05013986291101,1446.8414857706368,66.657456013197503,12608.565918822222,-356.23697259777168,-1842.6266700684234,1842.6266700684234,356.23697259777168,23981.007120463943,0.0
638204.59901257406,4087374.0504322448,-2500.0,7218.4417464321286,-9020.2971086153411,2161.3999448569189,-877.97245939330048,485.61177505291818,34.980917440041196,9405.1812414756532,5303.2423656647634,-7150.4726732408608,7150.4726732408608,-5303.2423656647634,16969.559884157417,0.0
643204.59901257406,4087374.0504322448,-2500.0,6534.8017420034403,-3996.7104811350709,-5228.9014749881489,-527.66570698192891,-184.2919887308507,5.2609297712495264,7132.7640145311461,6894.2815971868831,-7182.9499306737262,7182.9499306737262,-6894.2815971868831,12371.99677716093,0.0
648204.59901257406,4087374.0504322448,-2500.0,3999.8384042228563,221.14921460831218,-7722.2118719473228,-165.00485995679495,-498.02031190921525,-15.08575031496283,5884.8070968238972,5533.6631343866529,-4808.1549946159112,4808.1549946159112,-5533.6631343866529,10365.105367494662,0.0
653204.59901257406,4087374.0504322448,-2500.0,1280.7615709011752,2609.5542628432436,-7481.0941104461608,88.96504195670029,-565.28953696128394,-24.506483827912458,5119.9628920779487,3259.9017363256148,-2327.2953949800635,2327.2953949800635,-3259.9017363256148,9404.7323632562984,0.0
658204.59901257406,4087374.0504322448,-2500.0,-778.31844376101674,3525.059775129319,-6244.1740792108003,224.24467360184224,-512.72068564372057,-26.110240434595255,4480.2611552308372,1253.0920269317548,-569.01748389428667,569.01748389428667,-1253.0920269317548,8530.562715084774,0.0
663204.59901257406,4087374.0504322448,-2500.0,-2048.4940638574126,3589.3328442057687,-4883.306874793876,274.83268454872746,-421.45104453390729,-23.693965246849512,3876.4342948458234,-146.89527963549475,452.11175376657388,-452.11175376657388,146.89527963549475,7568.7053802679638,0.0
668204.59901257406,4087374.0504322448,-2500.0,-2694.2093888597437,3261.9571126581172,-3714.4364265069999,276.67756449966237,-330.11404019959576,-19.868805097283342,3315.9502013682004,-991.01137751881583,951.91039567584835,-951.91039567584835,991.01137751881583,6587.7966889471463,0.0
673204.59901257406,4087374.0504322448,-2500.0,-2924.7503878349116,2803.8265826798747,-2800.5090848218169,254.94932565847066,-252.60093025346464,-15.98658764612531,2848.3207899191934,-1432.8699454536124,1137.0307468931612,-1137.0307468931612,1432.8699454536124,5664.4244036842001,0.0
678204.59901257406,4087374.0504322448,-2500.0,-2907.7110806339865,2341.3603133550941,-2114.2521650961726,224.36754894915234,-191.39970306812185,-12.593423753359701,2454.350758435156,-1615.1611443851095,1150.7646161070827,-1150.7646161070827,1615.1611443851095,4839.5200859564975,0.0
683204.59901257406,4087374.0504322448,-2500.0,-2756.8814212734565,1926.5432802881403,-1607.1534690144406,192.57232433580484,-144.72043189127663,-9.8255622697297404,2105.1671298404553,-1642.2075444345401,1080.2430681570022,-1080.2430681570022,1642.2075444345401,4125.3623710129714,0.0
688204.59901257406,4087374.0504322448,-2500.0,-2543.098731988729,1574.6229337549967,-1233.7484071947654,163.07459765430218,-109.68289812283946,-7.6450524410425924,1803.7772003249418,-1582.7484207652744,974.62637814053937,-974.62637814053937,1582.7484207652744,3518.1400872475128,0.0
693204.59901257406,4087374.0504322448,-2500.0,-2307.906841463926,1284.4900046471655,-957.87087477103728,137.18414725269014,-83.53854851956045,-5.9567666989594912,1547.3536650337255,-1479.5076197020001,860.0633822038792,-860.0633822038792,1479.5076197020001,3006.8245904549826,0.0
698204.59901257406,4087374.0504322448,-2500.0,-2074.33535197429,1048.8007623297908,-752.58959993713643,115.12357011261372,-64.032505836632694,-4.6594468855854574,1330.7639892946895,-1357.9582774865651,749.54692103718185,-749.54692103718185,1357.9582774865651,2578.1766350032321,0.0
703204.59901257406,4087374.0504322448,-2500.0,-1854.2383609512979,858.66833899751953,-598.42659339973443,96.628678263988803,-49.431775016887357,-3.664321356517191,1148.3533053465399,-1232.7024179258437,648.84457097756422,-648.84457097756422,1232.7024179258437,2219.2319776485601,0.0
708204.59901257406,4087374.0504322448,-2500.0,-1652.9404560770645,705.64288289690012,-481.45547288333239,81.254493563120988,-38.445311233651651,-2.8996779464856677,994.75651688045662,-1111.6925240241656,559.89816379737022,-559.89816379737022,1111.6925240241656,1918.3457145921868,0.0
713204.59901257406,4087374.0504322448,-2500.0,-1472.0902834448452,582.41945892177262,-391.74505117342329,68.523546451894092,-30.125638099248892,-2.3098520036783903,865.22520588960435,-998.91526322880588,482.7243717240616,-482.7243717240616,998.91526322880588,1665.5258706503371,0.0
718204.59901257406,4087374.0504322448,-2500.0,-1311.3542562264568,482.96792681349245,-322.19326650557377,57.991093712359827,-23.781422971820838,-1.8525534930961196,755.70435520681076,-896.04316129746542,416.44725497420347,-416.44725497420347,896.04316129746542,1452.4068978104535,0.0
723204.59901257406,4087374.0504322448,-2500.0,-1169.4047464351156,402.43050356927859,-267.69129659731908,49.269050294310659,-18.908513742564736,-1.4958889481926512,662.79840893940934,-803.43664560331331,359.84587728392194,-359.84587728392194,803.43664560331331,1272.0789929362782,0.0
528204.59901257406,4092374.0504322448,-2500.0,-539.08056423612925,-434.23152233703371,-302.21963678190048,-26.342592551985465,-23.837420147668226,-0.96794695793757946,450.96018717093261,-261.23054755944014,-429.05049700038529,429.05049700038529,261.23054755944014,887.50658788738576,0.0
533204.59901257406,4092374.0504322448,-2500.0,-552.43320095359945,-496.52759627648379,-358.32178032811947,-28.93916892526121,-28.66654909610487,-1.1431834450424829,506.91809028542974,-247.24970720813053,-508.11026161556845,508.11026161556845,247.24970720813053,989.53774043459146,0.0
538204.59901257406,4092374.0504322448,-2500.0,-552.13966172466485,-566.78566744682803,-427.18848660081551,-31.359095698992089,-34.551320933475154,-1.3447396793103481,571.37819271996227,-218.28026414041796,-602.89985790557489,602.89985790557489,218.28026414041796,1104.7329577808937,0.0
543204.59901257406,4092374.0504322448,-2500.0,-530.24070299343737,-644.39727202191398,-511.72665695241818,-33.247067437613218,-41.679923126911902,-1.569447768360491,645.8284916664461,-167.52383537928989,-715.85386327271226,715.85386327271226,167.52383537928989,1234.6333484339877,0.0
548204.59901257406,4092374.0504322448,-2500.0,-475.12955047605425,-727.19823998339939,-615.13337262556263,-34.002233852973006,-50.215762186561804,-1.8063372664496227,732.17069319725283,-85.518409528667121,-848.91846414481574,848.91846414481574,85.518409528667121,1381.0822416071892,0.0
553204.59901257406,4092374.0504322448,-2500.0,-370.07045387074982,-810.22685907216839,-740.44700323139534,-32.632834939612692,-60.225230751597913,-2.0293221001722435,833.02203516032353,40.704352380544492,-1002.5480398151907,1002.5480398151907,-40.704352380544492,1546.7467465266998,0.0
558204.59901257406,4092374.0504322448,-2500.0,-191.2828605716808,-883.67855668044308,-889.46888576575031,-27.53343084409531,-71.531084068488283,-2.1844083651490869,952.37232657172831,228.50646581692848,-1173.7773414066264,1173.7773414066264,-228.50646581692848,1736.5297518719051,0.0
563204.59901257406,4092374.0504322448,-2500.0,94.333337568074143,-929.63855984363408,-1060.4407945940218,-16.153266775304299,-83.428703102548923,-2.1671830028788985,1096.9872296076956,500.2797785772164,-1352.6777793863639,1352.6777793863639,-500.2797785772164,1961.0524539942253,0.0
568204.59901257406,4092374.0504322448,-2500.0,531.4624126696641,-917.0789227987193,-1243.3693306594002,5.4749625478448429,-94.157595894689166,-1.7847898013028236,1279.2785024794678,883.14463254587304,-1516.1054497077932,1516.1054497077932,-883.14463254587304,2244.4920071696365,0.0
573204.59901257406,4092374.0504322448,-2500.0,1177.6348397343838,-794.67132337027726,-1411.0996338737405,43.352248857921438,-99.952993594574338,-0.69368645837276321,1522.7100448686035,1406.3045449841943,-1617.1565460366405,1617.1565460366405,-1406.3045449841943,2640.026932681852,0.0
578204.59901257406,4092374.0504322448,-2500.0,2101.3495822013069,-481.50568284795702,-1503.1670445638663,106.19920981679331,-93.417828009447646,1.6956851255165588,1870.6331047740082,2093.4871889223373,-1568.3872917515896,1568.3872917515896,-2093.4871889223373,3253.9833856032405,0.0
583204.59901257406,4092374.0504322448,-2500.0,3373.0584005056576,142.628705999945,-1398.3584039964762,205.92028244935602,-60.888317394505727,6.3490462041439466,2397.7203715583692,2946.2840220300527,-1217.1883754397854,1217.1883754397854,-2946.2840220300527,4270.4258690113129,0.0
588204.59901257406,4092374.0504322448,-2500.0,5042.2470701500424,1242.2920803220572,-871.63387257972795,357.0792359652358,21.465199557808063,14.740910800353454,3220.2351756574403,3912.3389709310368,-313.85200312104644,313.85200312104644,-3912.3389709310368,5960.8305601642605,0.0
593204.59901257406,4092374.0504322448,-2500.0,7089.7079890506138,3014.9641224376055,466.84415862216406,573.64912593845736,192.53194829210284,28.852116639843121,4500.9816769671597,4830.5196434688196,1521.2756229914294,-1521.2756229914294,-4830.5196434688196,8678.9040546179967,0.0
598204.59901257406,4092374.0504322448,-2500.0,9337.2795197579562,5637.0164275826855,3245.2846405591654,859.50205319214933,510.02388562322864,50.62263339636695,6446.6131691722094,5343.8495178758558,4810.6115020235511,-4810.6115020235511,-5343.8495178758558,12849.303427857669,0.0
603204.59901257406,4092374.0504322448,-2500.0,11293.669017543783,9104.2825691056569,8383.5997666534313,1186.7496689528732,1045.617380922889,79.936265458442975,9620.6197641081162,4780.4634913627151,10147.020155365502,-10147.020155365502,-4780.4634913627151,18914.346966182318,0.0
608204.59901257406,4092374.0504322448,-2500.0,11973.908076792151,12830.591567662012,16976.498321310333,1458.0632597511876,1851.8471187057926,110.02323177522555,13920.460712737475,2091.5964563219222,17837.017063165687,-17837.017063165687,-2091.5964563219222,27123.16216719769,0.0
613204.59901257406,4092374.0504322448,-2500.0,10037.671615109801,14901.688391891386,29499.796967631461,1475.0148410540851,2869.4203636220404,122.41965795245568,18998.890789671983,-3720.1050298585178,26837.27782420985,-26837.27782420985,3720.1050298585178,36979.279304818774,0.0
618204.59901257406,4092374.0504322448,-2500.0,5129.448286114859,11687.286179188603,43500.970835053275,1004.7009040066482,3789.5089763601259,95.145780021767592,23670.266447766113,-11803.741602863967,32931.092502002197,-32931.092502002197,11803.741602863967,46333.348441973285,0.0
623204.59901257406,4092374.0504322448,-2500.0,476.99404559385397,443.4195799319113,50729.505333366025,37.766876277122286,4065.9456213684039,39.505234031984699,25671.027386784008,-16782.844501555403,28772.578155002877,-28772.578155002877,16782.844501555403,50967.451199754971,0.0
628204.59901257406,4092374.0504322448,-2500.0,2053.3066260133392,-13763.106819879702,40773.807328902076,-992.677854434241,3302.2307887630832,11.570660699098685,23885.463222247454,-11144.975486534691,11590.082174921939,-11590.082174921939,11144.975486534691,46759.412312769753,0.0
633204.59901257406,4092374.0504322448,-2500.0,8958.5264282088592,-18350.282049163958,16536.098607858356,-1448.7847216108291,1725.126526641136,21.63344200393373,18817.656145525601,2476.2133100392771,-6801.5783010796094,6801.5783010796094,-2476.2133100392771,35077.503873687165,0.0
638204.59901257406,4092374.0504322448,-2500.0,11864.156741330258,-10925.394475110488,-4085.9671613505534,-1112.9167200688364,169.05030244307912,16.094754328116931,13565.686727865133,10983.496840154516,-12931.134971663505,12931.134971663505,-10983.496840154516,23826.438820382045,0.0
643204.59901257406,4092374.0504322448,-2500.0,8287.6379373842137,-1453.1301837641158,-12317.63028346713,-427.7611217082503,-719.08689371523462,-13.149555077619958,10435.482557237103,10375.083184431529,-9418.8299050480819,9418.8299050480819,-10375.083184431529,18189.974088176878,0.0
648204.59901257406,4092374.0504322448,-2500.0,2846.9768416086667,4069.3950095888949,-12484.400277321218,126.19595058879133,-968.25033879263322,-37.497684885531385,8715.2611987358814,5985.6710703564231,-4226.2686915225649,4226.2686915225649,-5985.6710703564231,15864.696043194888,0.0
653204.59901257406,4092374.0504322448,-2500.0,-1285.6515023898414,5920.9566998573027,-9989.8766826820538,415.5234564830954,-887.39698039605435,-45.766437670874716,7385.4934936493046,1952.7951561574455,-679.3574563266526,679.3574563266526,-1952.7951561574455,14005.237374632665,0.0
658204.59901257406,4092374.0504322448,-2500.0,-3594.0867790630932,5850.9977365137365,-7345.2103301627585,506.96415450989809,-706.37970622050716,-42.907399716574254,6176.7758771765739,-634.61061336651437,1123.719047204163,-1123.719047204163,634.61061336651437,12040.481462631706,0.0
663204.59901257406,4092374.0504322448,-2500.0,-4563.5620242166724,5063.9693672740741,-5250.5014873043738,493.15186740447115,-528.79855779471916,-35.684839926747507,5101.7491540530737,-1993.1891161247131,1829.1899019575039,-1829.1899019575039,1993.1891161247131,10128.364746546466,0.0
668204.59901257406,4092374.0504322448,-2500.0,-4746.6590204751346,4137.4056358844973,-3741.2178210337197,436.25124354221253,-385.76715154448101,-27.997374184643459,4232.147368090441,-2563.8179648795508,1967.305105750846,-1967.305105750846,2563.8179648795508,8420.4580295823325,0.0
673204.59901257406,4092374.0504322448,-2500.0,-4528.1009211928676,3293.8691814591857,-2688.7365483307613,368.66017064528455,-279.16442598422992,-21.370617946982076,3533.8380007965216,-2690.9704280711958,1850.1137401309916,-1850.1137401309916,2690.9704280711958,6970.9835756962148,0.0
678204.59901257406,4092374.0504322448,-2500.0,-4134.4043111283327,2595.1306194374156,-1959.7284228915137,304.63210885006237,-202.26406089039662,-16.134768804224475,2945.1135314535381,-2591.4176555595791,1638.4288568384832,-1638.4288568384832,2591.4176555595791,5773.9675249516658,0.0
683204.59901257406,4092374.0504322448,-2500.0,-3687.3616208429116,2039.9843711930175,-1452.0356089087102,249.19316326372461,-147.43942125465486,-12.160018976448791,2458.922377042752,-2389.2687522252199,1408.3695353022579,-1408.3695353022579,2389.2687522252199,4798.3987959572833,0.0
688204.59901257406,4092374.0504322448,-2500.0,-3247.6681291154132,1607.0708907340518,-1094.4538538862555,203.19107090115952,-108.39791032624865,-9.1952707338066269,2061.0213330960287,-2151.5770942279137,1192.7060954392905,-1192.7060954392905,2151.5770942279137,4007.2500395184838,0.0
693204.59901257406,4092374.0504322448,-2500.0,-2842.587475618709,1271.8526029061404,-839.03188066929033,165.81013486823309,-80.470914835454877,-6.9966868651334417,1736.2176079846311,-1912.6660492830738,1003.2047590521246,-1003.2047590521246,1912.6660492830738,3365.7509104149085,0.0
698204.59901257406,4092374.0504322448,-2500.0,-2481.9003036186646,1012.4909696064913,-653.78864461142803,135.72598507739661,-60.344594036056705,-5.3650905300438394,1470.7849998170166,-1688.8024933668025,841.98703663895958,-841.98703663895958,1688.8024933668025,2844.1938984964972,0.0
703204.59901257406,4092374.0504322448,-2500.0,-2166.6803731172286,811.27795359093443,-517.35190457910517,111.59378947692019,-45.709262083997608,-4.1489120602631075,1253.1617077119047,-1486.5854909809793,707.10281069351663,-707.10281069351663,1486.5854909809793,2418.3145576577122,0.0
708204.59901257406,4092374.0504322448,-2500.0,-1893.9819186455748,654.44475635085792,-415.32479167804826,92.227637357197764,-34.963678129937271,-3.2364923355276356,1073.9336546639142,-1307.6108553698461,595.17676356964603,-595.17676356964603,1307.6108553698461,2068.7339053966348,0.0
713204.59901257406,4092374.0504322448,-2500.0,-1659.2777149485626,531.49560413511358,-337.90244754454511,76.644937046626737,-26.996132198224963,-2.5467239726578725,925.56380119183348,-1151.019006041332,502.60989222449496,-502.60989222449496,1151.019006041332,1780.1402365488568,0.0
718204.59901257406,4092374.0504322448,-2500.0,-1457.683938575266,434.49780723771789,-278.32369719393279,64.05650609426263,-21.030724657345267,-2.0210294733331438,802.0646125649771,-1014.863694275957,426.08087319180936,-426.08087319180936,1014.863694275957,1540.4855531873177,0.0
723204.59901257406,4092374.0504322448,-2500.0,-1284.5400193984296,357.47002931909731,-231.86508636909494,53.838528943860744,-16.521956990355999,-1.6170270168442866,698.69184946526946,-896.83023898109263,362.71681690472343,-362.71681690472343,896.83023898109263,1340.292578615444,0.0
528204.59901257406,4097374.0504322448,-2500.0,-743.42959482205583,-457.9313840672956,-285.61854016313856,-34.953313227948975,-24.582835983055197,-1.2162316076133779,515.10974701495377,-415.57727819543595,-405.5872399066385,405.5872399066385,415.57727819543595,1027.2583720953398,0.0
533204.59901257406,4097374.0504322448,-2500.0,-798.98876022648506,-533.9635904475582,-341.27682724583696,-39.834446057728016,-30.035091150829555,-1.4737530743295815,582.46512066745856,-431.77212555377105,-488.53182824690009,488.53182824690009,431.77212555377105,1159.0152207247033,0.0
538204.59901257406,4097374.0504322448,-2500.0,-850.51190014375447,-623.93242026857274,-411.12419014325599,-45.221640001710369,-36.885876142256507,-1.7884509856142963,663.05095996159116,-439.11045306387803,-591.2193364824426,591.2193364824426,439.11045306387803,1310.940917447208,0.0
543204.59901257406,4097374.0504322448,-2500.0,-892.0024152543026,-729.74194211816405,-499.29572282405087,-50.969589875508291,-45.503811332240609,-2.1696087764908265,757.51416471541518,-431.62837592503456,-718.46156287974259,718.46156287974259,431.62837592503456,1485.9855536271336,0.0
548204.59901257406,4097374.0504322448,-2500.0,-913.84205846123984,-852.7447648277664,-611.06213036796498,-56.740431462525784,-56.326864688355116,-2.623654781386457,868.24541819420222,-400.35329956105795,-875.85390380379306,875.85390380379306,400.35329956105795,1687.2443509716022,0.0
553204.59901257406,4097374.0504322448,-2500.0,-900.88042824018385,-992.8103035913274,-752.914753057908,-61.85463184636383,-69.836234691765398,-3.148401700480759,998.17266037326044,-331.94055141746514,-1069.3886661656843,1069.3886661656843,331.94055141746514,1917.8397454660176,0.0
558204.59901257406,4097374.0504322448,-2500.0,-829.63388101146381,-1146.5577196853874,-932.31137630699959,-65.040071523324528,-86.472362042014055,-3.7214702706175435,1150.8550556892378,-206.83379889927392,-1304.3553652365181,1304.3553652365181,206.83379889927392,2180.9134440727844,0.0
563204.59901257406,4097374.0504322448,-2500.0,-664.32386799269761,-1304.1353993315358,-1156.5548505260742,-64.017905804133918,-106.42677047888317,-4.2776810072658282,1330.9384449176778,3.0230441867222453,-1582.7818934646596,1582.7818934646596,-3.0230441867222453,2480.2076043831967,0.0
568204.59901257406,4097374.0504322448,-2500.0,-351.61250671070974,-1443.578105352653,-1429.6790461787493,-54.838680348118956,-129.17958847684693,-4.6663110407749473,1545.4393145972967,336.57146300005331,-1898.0343032342589,1898.0343032342589,-336.57146300005331,2822.6702588759294,0.0
573204.59901257406,4097374.0504322448,-2500.0,185.629987849739,-1521.3939822210932,-1745.0836714316968,-30.865864884885919,-152.54022473330789,-4.5738202320618928,1807.1419939604164,845.00734989301463,-2224.1770415861415,2224.1770415861415,-845.00734989301463,3226.9468922155925,0.0
578204.59901257406,4097374.0504322448,-2500.0,1053.9981149231758,-1457.9287575499288,-2069.7009369416851,18.662907258844971,-170.76496212682721,-3.3913448644392972,2142.8949862973432,1589.4712243357837,-2496.3186886785807,2496.3186886785807,-1589.4712243357837,3746.7048854649215,0.0
583204.59901257406,4097374.0504322448,-2500.0,2390.8186561472339,-1116.9853971254418,-2312.6399767348948,110.38739206429003,-171.0732798802089,-0.0078480890406174564,2611.4624864487223,2629.8063945499616,-2576.9425606679815,2576.9425606679815,-2629.8063945499616,4523.3554344026725,0.0
588204.59901257406,4097374.0504322448,-2500.0,4353.5307043132843,-282.39118323669885,-2268.403138075786,268.23855050354672,-127.65188392362556,7.4528852506790146,3334.4894412478443,3995.7433571509177,-2203.5956490525364,2203.5956490525364,-3995.7433571509177,5870.5140781761584,0.0
593204.59901257406,4097374.0504322448,-2500.0,7084.73366294687,1359.7444102083673,-1524.1499106417525,522.50638157417063,7.6487892459638669,21.764488648823328,4533.9306647861868,5628.4799897290986,-916.98787860889115,916.98787860889115,-5628.4799897290986,8340.2673510432414,0.0
598204.59901257406,4097374.0504322448,-2500.0,10628.426482592433,4216.5850451597835,678.30308745776017,901.2478258381683,317.1829508834349,45.80275988889418,6559.0532295076855,7272.7785403793096,2026.525316450949,-2026.525316450949,-7272.7785403793096,12719.111403021729,0.0
603204.59901257406,4097374.0504322448,-2500.0,14723.832804784384,8720.1682202627435,5646.2079317690932,1400.9750430035792,924.26083419347253,78.169119634239777,10113.546665714603,8261.7234763828328,7748.1485717999512,-7748.1485717999512,-8261.7234763828328,20013.142332348642,0.0
608204.59901257406,4097374.0504322448,-2500.0,18290.303286282615,14981.543723105453,15520.75962165831,1912.1114901607059,1961.5530473732026,98.981016195821041,16165.46632407077,7068.3072849325854,17714.010933339567,-17714.010933339567,-7068.3072849325854,31369.801653939583,0.0
613204.59901257406,4097374.0504322448,-2500.0,18628.362707118034,21396.874913753531,33132.875202318042,2101.0551844669394,3408.3536589005671,43.456250655231514,24552.764365196592,875.07180819222594,32671.186470639012,-32671.186470639012,-875.07180819222594,47401.659565042341,0.0
618204.59901257406,4097374.0504322448,-2500.0,12316.223495588481,21655.811243766329,58627.454875014679,1467.7358085587302,4730.3121068097425,-184.3735523239161,34056.214662046485,-12391.332492095098,48219.492167671604,-48219.492167671604,12391.332492095098,66033.521075825134,0.0
623204.59901257406,4097374.0504322448,-2500.0,1948.3196977412213,5392.2404698108503,79254.804418783315,58.326032914166518,4897.104274438404,-512.61400514992977,40384.329863069426,-25703.662939090966,48506.550545526101,-48506.550545526101,25703.662939090966,79572.474994636854,0.0
628204.59901257406,4097374.0504322448,-2500.0,3123.5925996851843,-23815.088178812719,64565.916799545186,-1190.2063278289691,3672.4285301748446,-538.56656678612092,38972.794096683967,-17583.10040619189,16761.199743767236,-16761.199743767236,17583.10040619189,75893.131611161531,0.0
633204.59901257406,4097374.0504322448,-2500.0,18443.617255561585,-29726.301552945275,13039.659564171039,-1682.7243153267079,1492.0100701023277,-192.98704748843448,29903.976886957869,11542.989449608835,-19376.361352990687,19376.361352990687,-11542.989449608835,54239.711790125446,0.0
638204.59901257406,4097374.0504322448,-2500.0,18856.339425467319,-8638.4917552933966,-19665.292058568451,-969.26680540182645,-687.35817789585258,0.18319765707670888,21142.67550663268,21208.245896970417,-20988.498209203382,20988.498209203382,-21208.245896970417,36622.496584742425,0.0
643204.59901257406,4097374.0504322448,-2500.0,6977.3422673600744,6721.5812868291287,-23004.643285820286,157.33788606800181,-1622.1966052866474,-19.844958996408216,16484.426533436654,12366.981929997153,-8687.5535875424139,8687.5535875424139,-12366.981929997153,29691.721347109989,0.0
648204.59901257406,4097374.0504322448,-2500.0,-2550.8097258418693,11006.871794113258,-17192.145847072014,821.5951134121342,-1584.1000491818252,-62.816232046687929,13287.862606817071,3046.9189382532295,-462.43677548179971,462.43677548179971,-3046.9189382532295,25099.666105644377,0.0
653204.59901257406,4097374.0504322448,-2500.0,-7084.5446728865199,10269.591083814175,-11486.225266833841,1001.4477065996789,-1226.1572412844719,-73.312462493986828,10565.957005263625,-2159.9313690581002,2887.6491603244731,-2887.6491603244731,2159.9313690581002,20574.400459644305,0.0
658204.59901257406,4097374.0504322448,-2500.0,-8411.0253818422989,8241.1214633445161,-7510.0406394775273,933.67655981870064,-869.64391640655128,-64.202296711424225,8303.7261078799056,-4317.9477126173533,3717.1917430553235,-3717.1917430553235,4317.9477126173533,16480.085411593391,0.0
663204.59901257406,4097374.0504322448,-2500.0,-8199.1791081378742,6266.7525616358289,-4961.2172085082029,784.73741138880928,-598.05026959669635,-50.081678921142142,6575.9680759332605,-4865.2510666109129,3539.3368250951507,-3539.3368250951507,4865.2510666109129,13085.973902535785,0.0
668204.59901257406,4097374.0504322448,-2500.0,-7386.7897865207751,4681.1239249581131,-3350.8478754196517,630.65434713049615,-408.95833213633796,-37.217630665157436,5268.5150048628748,-4684.2390473795713,3047.3808400187522,-3047.3808400187522,4684.2390473795713,10395.973776554654,0.0
673204.59901257406,4097374.0504322448,-2500.0,-6419.880538753544,3488.9186592171541,-2322.8542281829386,497.61694559167387,-281.33470171141812,-27.17092031511071,4233.8079998101375,-4224.0555516854729,2517.2098511760964,-2517.2098511760964,4224.0555516854729,8304.1698622610675,0.0
678204.59901257406,4097374.0504322448,-2500.0,-5488.3446247756665,2613.3185172429248,-1653.4617651466256,390.59311249478122,-195.73338658363113,-19.78251409364395,3424.2001592022425,-3694.036004200972,2043.9407489461578,-2043.9407489461578,3694.036004200972,6685.8901899853408,0.0
683204.59901257406,4097374.0504322448,-2500.0,-4661.118872739914,1973.7672241030343,-1207.3337940645347,307.05930177392617,-138.02037425714138,-14.473438924407034,2791.5415035853584,-3184.2577210594854,1650.4689479003271,-1650.4689479003271,3184.2577210594854,5431.2711930495825,0.0
688204.59901257406,4097374.0504322448,-2500.0,-3953.5351552230522,1505.2577926838519,-902.81457124795281,242.61933345935572,-98.699928328457162,-10.681016426135066,2295.2508847293111,-2728.4191582879575,1333.2735090952103,-1333.2735090952103,2728.4191582879575,4452.8270882940715,0.0
693204.59901257406,4097374.0504322448,-2500.0,-3359.0109232328909,1159.6336072139075,-690.051335022844,193.02580609517429,-71.565271038062917,-7.9646971277384617,1903.4156329972334,-2334.6751220113492,1080.8696941839476,-1080.8696941839476,2334.6751220113492,3683.8079613011369,0.0
698204.59901257406,4097374.0504322448,-2500.0,-2863.4076001271455,902.37628650287525,-538.06127824397856,154.75806397391972,-52.583337808168878,-6.0052479915890267,1591.6617677800127,-2000.3259912988906,880.83289349243478,-880.83289349243478,2000.3259912988906,3074.1710677310753,0.0
703204.59901257406,4097374.0504322448,-2500.0,-2451.2585744901803,709.02141195302602,-427.20030051508354,125.07258985225468,-39.12250791509603,-4.5785381443207092,1341.5834152957175,-1718.6641273038776,722.1764576192254,-722.1764576192254,1718.6641273038776,2586.5976461874075,0.0
708204.59901257406,4097374.0504322448,-2500.0,-2108.2561567938292,562.24800824695251,-344.75573457895729,101.88943038297214,-29.449847141715004,-3.5289312910660557,1139.3141916678078,-1482.0629980435465,595.90729039943028,-595.90729039943028,1482.0629980435465,2193.2254327810533,0.0
713204.59901257406,4097374.0504322448,-2500.0,-1822.063451470907,449.74110982510331,-282.33340818334176,83.649928724026708,-22.41102230922527,-2.7484986096955799,974.38351632849083,-1283.2877881200839,494.91945983918407,-494.91945983918407,1283.2877881200839,1873.1581630694172,0.0
718204.59901257406,4097374.0504322448,-2500.0,-1582.3964629489838,362.68218982905483,-234.28105664653495,69.189588608318957,-17.227347092173442,-2.162010336384562,838.84230118499102,-1115.968304014978,413.68861184451856,-413.68861184451856,1115.968304014978,1610.6162538709711,0.0
723204.59901257406,4097374.0504322448,-2500.0,-1380.8365418865887,294.70457522847937,-196.72231999596676,57.637348097830582,-13.366827382154755,-1.7167033062020749,726.61886218004361,-974.70397619303503,347.95080179421939,-347.95080179421939,974.70397619303503,1393.5986412833972,0.0
528204.59901257406,4102374.0504322448,-2500.0,-957.55216771452911,-458.23788461391086,-260.26589407324099,-43.936949393902687,-24.213439678875677,-1.4730932367478626,593.80213459935737,-581.92235070977961,-356.96213335566017,356.96213335566017,581.92235070977961,1170.9528787058387,0.0
533204.59901257406,4102374.0504322448,-2500.0,-1061.7495327418094,-542.66979158049537,-311.85616726205785,-51.385749432990842,-29.96582336170502,-1.8208339751333675,675.03914677709406,-634.67588129462445,-436.45774676804137,436.45774676804137,634.67588129462445,1336.0547340953929,0.0
538204.59901257406,4102374.0504322448,-2500.0,-1174.9078007415162,-645.9272298088423,-377.53457011212453,-60.19851548935938,-37.365673193397171,-2.2624086539738055,770.06038853587199,-687.80107278501282,-537.43848136417182,537.43848136417182,687.80107278501282,1530.552633156899,0.0
543204.59901257406,4102374.0504322448,-2500.0,-1294.7476726292707,-772.43101938148334,-462.03008661261458,-70.547189053540009,-46.94264935942644,-2.8237169861448486,882.2107407426613,-737.67531753231265,-666.45665253536185,666.45665253536185,737.67531753231265,1760.1616065891849,0.0
548204.59901257406,4102374.0504322448,-2500.0,-1416.2972818832907,-927.32722924406585,-571.83009761392657,-82.530691140867603,-59.396983954921559,-3.5357344753840252,1022.0601936229278,-778.04150037019599,-832.06642471878786,832.06642471878786,778.04150037019599,2031.4562681732655,0.0
553204.59901257406,4102374.0504322448,-2500.0,-1529.9848756157051,-1116.1686072115508,-715.78716605545105,-96.062860619450774,-75.636209312751674,-4.4325951600605649,1191.6841354214516,-798.42275917422751,-1045.2189300176426,1045.2189300176426,798.42275917422751,2351.6951982171659,0.0
558204.59901257406,4102374.0504322448,-2500.0,-1618.525851993498,-1343.982637318808,-905.7839917975931,-110.6564538507388,-96.790187045098108,-5.5448663694411913,1394.8182684588232,-781.67735944267065,-1319.395638922507,1319.395638922507,781.67735944267065,2728.3286298777048,0.0
563204.59901257406,4102374.0504322448,-2500.0,-1651.9444572437992,-1613.0650904310937,-1157.181431892006,-125.0192519006941,-124.15209159635604,-6.8828602745649246,1637.3658824404858,-700.35230183849058,-1669.9046273987462,1669.9046273987462,700.35230183849058,3167.9914898804209,0.0
568204.59901257406,4102374.0504322448,-2500.0,-1579.8679795589519,-1918.2602665941158,-1488.2449812286411,-136.32122634608029,-158.92284562274403,-8.3986274705683481,1925.5445229156528,-511.56908046929561,-2111.0387808795012,2111.0387808795012,511.56908046929561,3674.8626040404247,0.0
573204.59901257406,4102374.0504322448,-2500.0,-1320.2538278799482,-2237.5658349779815,-1916.4924769346521,-138.91408480171415,-201.48936023684044,-9.9063565814003383,2265.5774873250675,-150.68666209868707,-2648.3510122332282,2648.3510122332282,150.68666209868707,4248.9503034939535,0.0
578204.59901257406,4102374.0504322448,-2500.0,-744.47853557066844,-2514.745980644057,-2447.1838132906819,-122.21501845033566,-249.68071488619992,-10.926791319085481,2664.7824088927387,474.43817965887911,-3260.7273453943553,3260.7273453943553,-474.43817965887911,4887.7396414444001,0.0
583204.59901257406,4102374.0504322448,-2500.0,338.76248669427468,-2630.1878751702416,-3043.9784328558171,-67.519834353087546,-294.94983869709705,-10.409577607447432,3138.4269732706543,1483.1293073070874,-3863.2550415753149,3863.2550415753149,-1483.1293073070874,5604.6432903105706,0.0
588204.59901257406,4102374.0504322448,-2500.0,2193.4697202096231,-2359.3127773750007,-3564.2001442976948,56.014648511122481,-314.72820089843793,-6.3114712349661373,3734.9636394156196,3004.1730176245583,-4239.2956728547551,4239.2956728547551,-3004.1730176245583,6506.137907600727,0.0
593204.59901257406,4102374.0504322448,-2500.0,5149.3924158548425,-1328.4692849680048,-3636.8542454399717,294.40403112901322,-258.599807661363,4.7979851992494327,4605.5973725342483,5126.1026236208008,-3935.648772717891,3935.648772717891,-5126.1026236208008,8013.640952432047,0.0
598204.59901257406,4102374.0504322448,-2500.0,9577.0489116109675,1012.1795586241263,-2475.6549899953425,704.57589280916682,-26.469964079960445,26.978667366523574,6137.4714073509822,7813.6256354199522,-2131.8522454094978,2131.8522454094978,-7813.6256354199522,11221.953931301268,0.0
603204.59901257406,4102374.0504322448,-2500.0,15844.500181957243,5429.0546165619153,1368.9314916305573,1321.6757710538125,556.74070435932333,57.37804523175997,9120.0128501450981,10788.99803030496,2538.3248711302722,-2538.3248711302722,-10788.99803030496,18023.373896454243,0.0
608204.59901257406,4102374.0504322448,-2500.0,23948.221206933151,13090.629975241973,10569.13138542794,2029.5301486156238,1722.3417511963746,48.186991415296511,16200.937748415578,13056.752685499878,12508.815357905803,-12508.815357905803,-13056.752685499878,31077.34087869553,0.0
613204.59901257406,4102374.0504322448,-2500.0,31340.926087054992,24995.160203196276,30855.58386130679,2221.2658825634312,3454.0142383130506,-219.1882285569589,28499.637325289954,10729.008775068487,32207.100157052137,-32207.100157052137,-10729.008775068487,53905.711448348899,0.0
618204.59901257406,4102374.0504322448,-2500.0,29315.387175497126,35049.860717107986,71169.222990748211,657.7394276556106,4410.1344096520979,-1242.1221650196744,46456.302229065746,-5145.3751731822485,63202.298547060396,-63202.298547060396,5145.3751731822485,87804.201820131886,0.0
623204.59901257406,4102374.0504322448,-2500.0,13003.053550216997,19237.453491680317,122553.52810000945,-1868.5551911909968,1507.444344433299,-2964.7357472793369,64578.169399949518,-33242.035331929364,82087.568059571393,-82087.568059571393,33242.035331929364,123016.60934841992,0.0
628204.59901257406,4102374.0504322448,-2500.0,7743.7750639349579,-42873.713799757235,114801.21229141751,581.99886838416057,-1386.877201642284,-3657.7698258807827,68591.461203889849,-29607.730827802021,29025.658193293537,-29025.658193293537,29607.730827802021,135400.01006663483,0.0
633204.59901257406,4102374.0504322448,-2500.0,44589.189894129318,-44221.395454480182,-16392.938784206246,701.04216009916092,667.37855889881973,-699.10062410307251,53725.896745077305,41878.011508408308,-51703.13035431692,51703.13035431692,-41878.011508408308,94220.374265750623,0.0
638204.59901257406,4102374.0504322448,-2500.0,20029.769559752371,11785.849371579916,-49657.021072055504,318.59816578331902,-1648.0799248249837,316.86540822185066,36809.858938479636,30571.965818784414,-21728.954096975434,21728.954096975434,-30571.965818784414,65546.09147168514,0.0
643204.59901257406,4102374.0504322448,-2500.0,-7091.5993693042738,23668.667964812681,-32281.615168176064,1599.2479193693123,-2563.5005251987031,99.543027518716201,26908.9044375173,3787.8324498225197,1898.5184610242754,-1898.5184610242754,-3787.8324498225197,50748.392405506362,0.0
648204.59901257406,4102374.0504322448,-2500.0,-16385.992100417647,19557.317041843136,-18286.611844004088,2049.7052185937832,-2083.0264922343026,-64.052364506101597,19696.049742340489,-7455.9160148888895,7982.5452747976542,-7982.5452747976542,7455.9160148888895,38394.357596463167,0.0
653204.59901257406,4102374.0504322448,-2500.0,-17165.207111024953,13897.349197836505,-10476.795112281248,1850.4259677236191,-1414.6045305035611,-99.765146846856126,14391.702932259874,-10216.409271953511,7979.4894220809547,-7979.4894220809547,10216.409271953511,28592.095911276912,0.0
658204.59901257406,4102374.0504322448,-2500.0,-15162.711370503102,9539.2630348531329,-6262.0398654305191,1471.346771776653,-911.52295508028737,-86.611757037225374,10717.66351445118,-9817.4495879611077,6545.8963210852216,-6545.8963210852216,9817.4495879611077,21314.388252184475,0.0
663204.59901257406,4102374.0504322448,-2500.0,-12626.045420542579,6548.4687993576581,-3925.0580359040246,1115.9344180288274,-583.47872663042483,-64.841186144318499,8134.5428213424857,-8499.6407535997296,5062.0744592113824,-5062.0744592113824,8499.6407535997296,16049.945660479154,0.0
668204.59901257406,4102374.0504322448,-2500.0,-10295.825549762598,4550.292252578326,-2574.7374046130672,834.58905800472598,-377.65136994841646,-46.259008124903986,6245.7766364550098,-7079.693670483387,3849.4080513045201,-3849.4080513045201,7079.693670483387,12254.140803401351,0.0
673204.59901257406,4102374.0504322448,-2500.0,-8353.7359414493403,3213.2704217838664,-1760.3455600836987,624.67457640876523,-248.77105678747816,-32.613306632926211,4860.7766186706504,-5817.3144407382842,2925.9956584409788,-2925.9956584409788,5817.3144407382842,9496.3732649906833,0.0
678204.59901257406,4102374.0504322448,-2500.0,-6793.3985318251025,2307.8981555612813,-1248.7923548491922,471.09081669032656,-167.08967934655183,-23.071654580309712,3835.3447509314756,-4768.2726739160444,2238.6182692750799,-2238.6182692750799,4768.2726739160444,7467.9251270789337,0.0
683204.59901257406,4102374.0504322448,-2500.0,-5555.9332221638424,1685.1363015379725,-915.22404922746387,359.00169662122488,-114.41027694048191,-16.487127538862286,3066.6390310967208,-3919.5018853009124,1728.9701559424473,-1728.9701559424473,3919.5018853009124,5954.8010220276719,0.0
688204.59901257406,4102374.0504322448,-2500.0,-4576.687405871352,1249.5897705053087,-690.20307317795039,276.75373999445463,-79.782103301672151,-11.93434144477348,2482.6914357814171,-3239.231666513595,1349.4855141708495,-1349.4855141708495,3239.231666513595,4809.8011365787288,0.0
693204.59901257406,4102374.0504322448,-2500.0,-3799.3999899925439,939.95323654318793,-533.6794526695686,215.85221092147484,-56.584109629976112,-8.7585398764363855,2033.2128578548845,-2694.6591369612911,1064.6477953245999,-1064.6477953245999,2694.6591369612911,3931.2384402234447,0.0
698204.59901257406,4102374.0504322448,-2500.0,-3178.9001090676829,716.37116192925339,-421.75230495820307,170.27313759305457,-40.759119990901567,-6.5168133519741804,1682.835429237567,-2257.403700974859,848.77722568866454,-848.77722568866454,2257.403700974859,3248.1803856531542,0.0
703204.59901257406,4102374.0504322448,-2500.0,-2680.1094061478725,552.55209134370079,-339.70151771224647,135.77757263345569,-29.778688269704787,-4.9136832168222071,1406.432116512505,-1904.498662747435,683.49180117619323,-683.49180117619323,1904.498662747435,2710.5424672275476,0.0
708204.59901257406,4102374.0504322448,-2500.0,-2276.1492708854908,430.880763246573,-278.1946504678088,109.37760603151671,-22.038529987228614,-3.7519048935383608,1185.941066026656,-1617.8892431567381,555.63186307809269,-555.63186307809269,1617.8892431567381,2282.4959597621064,0.0
713204.59901257406,4102374.0504322448,-2500.0,-1946.4995639414549,339.36985655222048,-231.1548575849705,88.953571594864599,-16.502305175631669,-2.89896457100066,1008.2189906300109,-1383.5537248075248,455.72779102135917,-455.72779102135917,1383.5537248075248,1938.0703399599827,0.0
718204.59901257406,4102374.0504322448,-2500.0,-1675.4734423770301,269.73849586218489,-194.52696175082616,72.98857906346565,-12.488888206750126,-2.2648830629978378,863.58530001184408,-1190.6436941807278,376.9133330223421,-376.9133330223421,1190.6436941807278,1658.1988775862017,0.0
723204.59901257406,4102374.0504322448,-2500.0,-1451.0271696551254,216.18316913461581,-165.54277330517959,60.38625566138338,-9.5431718141769828,-1.7878744741195072,744.82437093048134,-1030.7575090571711,314.16514053271567,-314.16514053271567,1030.7575090571711,1428.7086376438112,0.0
523204.59901257406,4107374.0504322448,-2500.0,-1036.0924483609504,-362.76232793522075,-194.12991589888125,-44.587870247555713,-18.235258407843421,-1.3862552741866052,586.72052496697506,-669.63325524475408,-230.93141927855362,230.93141927855362,669.63325524475408,1144.5895742888401,0.0
528204.59901257406,4107374.0504322448,-2500.0,-1171.0029925575966,-431.5508640536595,-229.46576042054849,-52.864872699798454,-22.580899312659799,-1.7268293567941646,671.06552335824665,-751.73702288347931,-283.84785861574363,283.84785861574363,751.73702288347931,1312.0229735642424,0.0
533204.59901257406,4107374.0504322448,-2500.0,-1327.2478884391946,-517.06501892506469,-274.11126569551493,-63.014474569601227,-28.216494777749887,-2.1678214157447897,771.38451033511285,-845.10883477837092,-351.8886789381333,351.8886789381333,845.10883477837092,1511.890627219178,0.0
538204.59901257406,4107374.0504322448,-2500.0,-1507.9902880823158,-624.13671115169063,-331.27915621789617,-75.507745011763987,-35.595824796584083,-2.7429567325170416,891.2872273121236,-950.61622849308844,-440.2023206008538,440.2023206008538,950.61622849308844,1751.7770049015078,0.0
543204.59901257406,4107374.0504322448,-2500.0,-1716.2906291341562,-759.12142372387757,-405.52857860457306,-90.925720977377225,-45.352595508666198,-3.4980112805565544,1035.2405493085541,-1068.4770551193096,-555.9257861284193,555.9257861284193,1068.4770551193096,2041.1911186378825,0.0
548204.59901257406,4107374.0504322448,-2500.0,-1954.4739122490548,-930.33682162918944,-503.40402819803438,-109.96422420597388,-58.375103472130036,-4.494636746172711,1208.7160786299376,-1197.5431673280543,-708.99583357436143,708.99583357436143,1197.5431673280543,2391.9753211632092,0.0
553204.59901257406,4107374.0504322448,-2500.0,-2222.8717643014234,-1148.5231376016216,-634.38679182711269,-133.40997779454659,-75.907826449203455,-5.8144910940064651,1418.3202152081797,-1334.0162232827249,-913.25419727554277,913.25419727554277,1334.0162232827249,2818.6631853676195,0.0
558204.59901257406,4107374.0504322448,-2500.0,-2517.4211153381884,-1427.1526726140664,-812.27858177092412,-162.04816513501973,-99.680064261312836,-7.5620398192009652,1672.9240686639048,-1469.186952013695,-1187.8601022258101,1187.8601022258101,1469.186952013695,3338.5801769271156,0.0
563204.59901257406,4107374.0504322448,-2500.0,-2825.218858202571,-1782.1309273312199,-1057.1019968960777,-196.41916008663375,-132.04243512864684,-9.861427722996547,1997.2936435587173,-1585.5415968429554,-1558.8382454244477,1558.8382454244477,1585.5415968429554,3971.2230802336239,0.0
568204.59901257406,4107374.0504322448,-2500.0,-3116.5387098911892,-2229.7909703524329,-1397.3537151179614,-236.26150781140026,-176.0349771475048,-12.836736995635224,2399.5685587795765,-1650.2764381210518,-2060.0352498786606,2060.0352498786606,1650.2764381210518,4735.9319966520561,0.0
573204.59901257406,4107374.0504322448,-2500.0,-3331.0782286343906,-2780.7476646182777,-1871.5433141612966,-279.33683785323768,-235.1617273138157,-16.551437720391359,2887.4990813828922,-1605.1267885714069,-2731.3045824167521,2731.3045824167521,1605.1267885714069,5645.9122807321774,0.0
578204.59901257406,4107374.0504322448,-2500.0,-3355.8403503454983,-3424.6661672652535,-2525.1941153771018,-319.12226496423324,-312.28890022263408,-20.858466349808634,3465.780588949151,-1352.2760965158068,-3608.2458761730404,3608.2458761730404,1352.2760965158068,6695.1469283239903,0.0
583204.59901257406,4107374.0504322448,-2500.0,-2993.988087839045,-4097.427578833669,-3392.1251499026648,-340.6705341633633,-406.31225567387855,-25.079470909684979,4122.043295884645,-740.29805553679444,-4690.5293297676344,4690.5293297676344,740.29805553679444,7833.5905258942212,0.0
588204.59901257406,4107374.0504322448,-2500.0,-1932.602091985892,-4621.2946101245807,-4432.0766995961003,-314.1800556662148,-503.82936472674822,-27.418988733131517,4810.1774012874866,433.86558498399017,-5864.3317469930025,5864.3317469930025,-433.86558498399017,8931.1703482552584,0.0
593204.59901257406,4107374.0504322448,-2500.0,264.43396430624807,-4626.9597824436732,-5370.2494977116348,-187.51000785964388,-561.15700884696673,-24.129144767849091,5440.5164177815614,2369.915501753942,-6751.1557786416561,6751.1557786416561,-2369.915501753942,9771.5611171674409,0.0
598204.59901257406,4107374.0504322448,-2500.0,4117.50106076257,-3538.2142096005814,-5389.5057178880279,116.26920017102235,-470.4274093440236,-8.9348694588819306,5944.8558705579599,5130.5397809810866,-6516.4033510919244,6516.4033510919244,-5130.5397809810866,10317.070214814778,0.0
603204.59901257406,4107374.0504322448,-2500.0,10324.788632907912,-768.79504787835288,-2827.2499653403597,673.01638318090397,-0.88736236811357383,23.337479683124922,6642.7898907560439,8623.7117785416231,-3871.2973438291569,3871.2973438291569,-8623.7117785416231,12113.749418002646,0.0
608204.59901257406,4107374.0504322448,-2500.0,20669.989272467803,4355.9604994396532,4611.9163074091775,1360.9182183243288,1268.9451181206953,28.439300758104455,11099.944175835719,13337.227621791633,2723.3820447738963,-2723.3820447738963,-13337.227621791633,20488.580062450939,0.0
613204.59901257406,4107374.0504322448,-2500.0,38459.087998533359,15795.228211832922,21302.038396047399,838.49750801923994,3462.3533654736448,-466.02897395275824,24537.693818065694,19921.273923931298,18348.964499190206,-18348.964499190206,-19921.273923931298,43911.610414457726,0.0
618204.59901257406,4107374.0504322448,-2500.0,54447.556263616469,40085.036416243332,70674.481141043696,-5106.5638160779199,2403.0499188220629,-3728.5468805470728,54175.852901794933,13148.546060440123,62877.456295756587,-62877.456295756587,-13148.546060440123,97507.828842788629,0.0
623204.59901257406,4107374.0504322448,-2500.0,49039.446609462328,24478.240068880521,174209.64450975577,-16045.645658602731,-13280.65957995467,-11140.925723525363,97799.593347122718,-24505.692334322848,109457.64465329633,-109457.64465329633,24505.692334322848,172977.20506534533,0.0
628204.59901257406,4107374.0504322448,-2500.0,81147.897930401174,-17487.035963609316,341868.16587716044,6476.6702158934904,-48356.988842871273,-40747.48630141998,198011.37590870517,-54043.23361401369,164958.9669474386,-164958.9669474386,54043.23361401369,350246.43640603923,0.0
633204.59901257406,4107374.0504322448,-2500.0,80317.903732772189,29500.421827042177,-173035.10707284865,9861.4755475372476,16620.029665883048,8321.4607641060575,131600.69831468735,115198.96582538186,-86648.944404514623,86648.944404514623,-115198.96582538186,234226.31622671132,0.0
638204.59901257406,4107374.0504322448,-2500.0,-37217.230033607026,62182.338804517189,-64622.741488338615,571.13282542681588,80.126252449299486,2545.3329384299273,63686.603487018758,-10552.578752570629,19333.397059659295,-19333.397059659295,10552.578752570629,122567.38743875292,0.0
643204.59901257406,4107374.0504322448,-2500.0,-46621.274765302442,38389.147102299496,-26588.424880661416,3393.2257264347027,-2632.9941724137311,530.88222458710834,39794.090722695706,-28428.127404299368,23234.667681400177,-23234.667681400177,28428.127404299368,78463.804800288301,0.0
648204.59901257406,4107374.0504322448,-2500.0,-38823.507260200509,22555.42975803361,-12621.925195416583,3525.5540286335904,-2005.5048288219043,-13.69558825722963,26245.143454209938,-26139.77820638613,17185.346975760047,-17185.346975760047,26139.77820638613,52454.198082313436,0.0
653204.59901257406,4107374.0504322448,-2500.0,-29690.714824652034,13499.01305523241,-6719.6090930502633,2758.3434358217755,-1244.8946000410838,-115.78583212004727,18161.191383726517,-20683.630117851626,11797.818617706635,-11797.818617706635,20683.630117851626,36015.608091147595,0.0
658204.59901257406,4107374.0504322448,-2500.0,-22304.888429766837,8346.0626983147577,-3922.0839759358637,1990.7110835424664,-747.05065707305835,-104.6754787373003,12888.884979758404,-15776.386784677972,8063.3145651746854,-8063.3145651746854,15776.386784677972,25400.947123018537,0.0
663204.59901257406,4107374.0504322448,-2500.0,-16824.875569951895,5336.1620090103434,-2465.8112328221982,1410.975321177104,-452.68336303414384,-76.742216391053788,9374.967463808387,-11990.753230759041,5593.5272245641672,-5593.5272245641672,11990.753230759041,18390.388001005078,0.0
668204.59901257406,4107374.0504322448,-2500.0,-12842.449589160184,3518.7944725359698,-1647.1388544230842,1004.8517674225396,-280.50237447872144,-53.308895266862777,6980.0920585028171,-9188.0666066457979,3959.2879646863789,-3959.2879646863789,9188.0666066457979,13642.934714594994,0.0
673204.59901257406,4107374.0504322448,-2500.0,-9943.633649275178,2384.9870411429388,-1156.4969256107927,725.22028374507045,-178.21787426097038,-36.69844477784148,5309.0760768274704,-7127.4092841803304,2861.4358956718238,-2861.4358956718238,7127.4092841803304,10346.262637460995,0.0
678204.59901257406,4107374.0504322448,-2500.0,-7812.0095849382951,1656.0102825415465,-846.11841578277085,531.93144503319763,-116.01614165068659,-25.450621616695521,4116.2788173849749,-5603.3877488216249,2109.4080144877871,-2109.4080144877871,5603.3877488216249,8001.8848116401878,0.0
683204.59901257406,4107374.0504322448,-2500.0,-6223.5484638700455,1174.458320742249,-640.49876813871276,396.68618463989043,-77.234533981906509,-17.892983475084716,3246.5874608999607,-4463.915121695125,1583.7939868600806,-1583.7939868600806,4463.915121695125,6297.7895529449061,0.0
688204.59901257406,4107374.0504322448,-2500.0,-5023.008439774585,848.57355189013253,-498.76568490956214,300.60024169375106,-52.465036280804554,-12.78002650646596,2600.0488934697614,-3601.1085665023547,1209.2342077363846,-1209.2342077363846,3601.1085665023547,5034.2072001495771,0.0
693204.59901257406,4107374.0504322448,-2500.0,-4102.9330052999321,623.23253096932172,-397.66792055791768,231.23401753001642,-36.286229489730864,-9.2765009541106664,2110.8589137453928,-2939.2556291051033,937.42888765575913,-937.42888765575913,2939.2556291051033,4080.2627802897337,0.0
698204.59901257406,4107374.0504322448,-2500.0,-3388.3779332996933,464.38688347933362,-323.39103776247225,180.36382853938022,-25.49963587012002,-6.8395167719497367,1734.769685474475,-2425.0886893617535,736.85090566134909,-736.85090566134909,2425.0886893617535,3348.2958886159181,0.0
703204.59901257406,4107374.0504322448,-2500.0,-2826.4827152058147,350.46713109843694,-267.40611173680753,142.49492659118383,-18.172948001103823,-5.1178781687849266,1441.4243590192468,-2020.8198119055739,586.53235965886256,-586.53235965886256,2020.8198119055739,2778.3575493717121,0.0
708204.59901257406,4107374.0504322448,-2500.0,-2379.4848574119155,267.49094708544658,-224.26335465189905,113.90550875413629,-13.111846399900189,-3.8829017084963056,1209.6002838380498,-1699.349759288777,472.27112230695627,-472.27112230695627,1699.349759288777,2328.6496811693169,0.0
713204.59901257406,4107374.0504322448,-2500.0,-2020.0537209053834,206.20303026958766,-190.371629605826,92.037463055775845,-9.5621792459812589,-2.9839915385637763,1024.2000529338191,-1441.0145590434531,384.27972893812159,-384.27972893812159,1441.0145590434531,1969.5066758798878,0.0
718204.59901257406,4107374.0504322448,-2500.0,-1728.1521720624016,160.35929035014917,-163.29808926838089,75.106355239749774,-7.0381674844500166,-2.3206094532969992,874.30901517647817,-1231.3730903385463,315.70221462181814,-315.70221462181814,1231.3730903385463,1679.5252672028748,0.0
723204.59901257406,4107374.0504322448,-2500.0,-1488.9062782356111,125.67332117654772,-141.35263203464271,61.849401272536959,-5.2211007188797902,-1.8246652919076298,751.91788689213195,-1059.6938914242228,261.66241869985197,-261.66241869985197,1059.6938914242228,1443.0278857950595,0.0
523204.59901257406,4112374.0504322448,-2500.0,-1197.4523515745577,-314.54036745776864,-168.78234812423236,-51.035382779556365,-15.782073596896675,-1.5605622529494831,644.45118649718233,-800.91340935241283,-152.12177783255657,152.12177783255657,800.91340935241283,1250.4035818192783,0.0
528204.59901257406,4112374.0504322448,-2500.0,-1371.6447132946082,-376.45181512592211,-197.63264095380057,-61.241805226226226,-19.633866452377628,-1.9640449082689604,742.81288744439598,-914.6990511544634,-189.55521806635926,189.55521806635926,914.6990511544634,1443.55945115133,0.0
533204.59901257406,4112374.0504322448,-2500.0,-1579.2443039292978,-454.44616837693206,-233.83808264355767,-74.027885888835684,-24.67900086309518,-2.4950562457575867,861.49145144128863,-1049.3607979267144,-238.5498723518275,238.5498723518275,1049.3607979267144,1677.1163781561734,0.0
538204.59901257406,4112374.0504322448,-2500.0,-1827.8855167089025,-553.68969506861583,-279.96661637600204,-90.171781601269387,-31.366111309289497,-3.2009395736212989,1005.7387405596564,-1209.2527831760726,-303.43566458795601,303.43566458795601,1209.2527831760726,1961.6636227020415,0.0
543204.59901257406,4112374.0504322448,-2500.0,-2127.0150156319096,-681.29445901880308,-339.7322765865535,-110.7150498133246,-40.340750880387056,-4.1488129456175997,1182.3928637674107,-1399.5251658036045,-390.44574749860465,390.44574749860465,1399.5251658036045,2311.0431405347404,0.0
548204.59901257406,4112374.0504322448,-2500.0,-2488.1646514887639,-847.12502767093304,-418.61250814942247,-137.05288253479048,-52.542059085816589,-5.4343097506497768,1400.3871209257272,-1626.0535963630941,-508.66279113168548,508.66279113168548,1626.0535963630941,2743.4195893048231,0.0
553204.59901257406,4112374.0504322448,-2500.0,-2925.0358563852401,-1064.9315479136224,-524.84548819036934,-171.04615905203337,-69.349001552448897,-7.193704188802565,1671.3916928348244,-1895.075906299342,-671.46962120271121,671.46962120271121,1895.075906299342,3282.6476847124973,0.0
558204.59901257406,4112374.0504322448,-2500.0,-3453.0502505786185,-1353.880501678228,-671.05632959260276,-215.14443036418388,-92.798190759406239,-9.6199884093863037,2010.5587397572722,-2212.192021233685,-898.75674448309246,898.75674448309246,2212.192021233685,3959.8956070811064,0.0
563204.59901257406,4112374.0504322448,-2500.0,-4087.6227939905611,-1740.4473473071671,-876.9085703925864,-272.47829224011372,-125.89596837678206,-12.981015008023995,2437.2223020358492,-2580.0481682854079,-1220.201138877597,1220.201138877597,2580.0481682854079,4815.2502205836645,0.0
568204.59901257406,4112374.0504322448,-2500.0,-4839.6147238949015,-2260.2310141778494,-1173.3445311837975,-346.80461795159999,-173.023491441657,-17.631914343277106,2975.084346389513,-2993.4129852737638,-1679.8312873276905,1679.8312873276905,2993.4129852737638,5898.3835009579316,0.0
573204.59901257406,4112374.0504322448,-2500.0,-5704.9442904683247,-2958.0376894008627,-1608.9419270937951,-442.01780416448622,-240.32838190800493,-23.996521290219569,3650.6359708859363,-3429.3706545200948,-2341.3448649876909,2341.3448649876909,3429.3706545200948,7265.7140567829574,0.0
578204.59901257406,4112374.0504322448,-2500.0,-6643.0497552395955,-3881.3089977933842,-2257.7160420159285,-560.59991286191712,-335.64860219282377,-32.453123538110496,4487.8947554564529,-3829.3349206952448,-3290.7308410256951,3290.7308410256951,3829.3349206952448,8967.493667591616,0.0
583204.59901257406,4112374.0504322448,-2500.0,-7537.1418290129959,-5054.02928902434,-3221.7569089781841,-699.83620910937839,-466.5295266634032,-42.985601128391771,5527.8774938403794,-4070.9208902363634,-4623.3598472902404,4623.3598472902404,4070.9208902363634,11008.935167455713,0.0
588204.59901257406,4112374.0504322448,-2500.0,-8136.2472123048728,-6402.7433419840745,-4599.7105178050169,-844.26926419850031,-632.53747668363417,-54.384684054342252,6685.2303299518644,-3941.6848349564698,-6376.6225922648409,6376.6225922648409,3941.6848349564698,13250.126036593989,0.0
593204.59901257406,4112374.0504322448,-2500.0,-8024.8927153125178,-7594.3442088831598,-6322.0651083387565,-954.39395375739673,-803.92609199108767,-62.900825222251392,7695.8508353296247,-3185.0904846490248,-8312.8819295453522,8312.8819295453522,3185.0904846490248,15179.878917502538,0.0
598204.59901257406,4112374.0504322448,-2500.0,-6811.675733337649,-7836.2627065886818,-7596.105334990124,-955.75326481452112,-875.33069637181279,-60.098007916204878,7907.962975327162,-1842.3446621416633,-9417.7682563032504,9417.7682563032504,1842.3446621416633,15516.291857969631,0.0
603204.59901257406,4112374.0504322448,-2500.0,-4846.1832956947555,-6261.2785503909645,-5676.1454078181187,-712.39039302164736,-569.57953828150198,-18.420024290859601,6318.8771787830983,-1164.9930444348847,-7400.4857664667252,7400.4857664667252,1164.9930444348847,12170.028181483245,0.0
608204.59901257406,4112374.0504322448,-2500.0,-3253.2111968301942,-4720.5675291892167,4501.3802911222829,93.684791924061884,977.78694334461954,216.31606224033033,6184.9119066267158,-3542.900939148848,-711.84148082688421,711.84148082688421,3542.900939148848,10724.380999824516,0.0
613204.59901257406,4112374.0504322448,-2500.0,5106.3902970073523,-10233.33567087088,21971.868459702964,596.34001779172843,6897.901942250377,1082.773295399408,15771.904924752542,-2835.3771060196696,3351.2160675652776,-3351.2160675652776,2835.3771060196696,28748.348940956239,0.0
618204.59901257406,4112374.0504322448,-2500.0,57873.05560905068,2408.027155400182,38177.889472282288,-17281.397031720942,13431.717799431699,-724.1917803976728,35994.425490588903,29598.015124310248,14007.336310933893,-14007.336310933893,-29598.015124310248,64202.986004240338,0.0
623204.59901257406,4112374.0504322448,-2500.0,51722.803793542713,102895.39555519377,347885.33546605689,-41005.625504985284,-80617.566804212256,-36000.579452521975,227799.61279804533,-87252.418961403149,269149.44634043315,-269149.44634043315,87252.418961403149,421535.720769523,0.0
628204.59901257406,4112374.0504322448,-2500.0,-3130501.313720339,773581.33901604987,-898481.06679672375,1583618.5522722316,-795369.69902819197,-685832.61284296971,2244018.2838538089,-2065550.0037253432,618807.98286699061,-618807.98286699061,2065550.0037253432,4088818.3743311805,0.0
633204.59901257406,4112374.0504322448,-2500.0,-252152.89881220189,23960.757448620861,-180609.66777187958,-57561.223978396098,-3641.3505135774512,33807.434526413388,157228.15379079891,-126865.71628489974,-41555.676731478561,41555.676731478561,126865.71628489974,279526.80634476728,0.0
638204.59901257406,4112374.0504322448,-2500.0,-138369.76521982095,44783.511302046136,-30822.0449670124,-5280.0627081721905,-1772.3336890522571,5437.2437919766844,80414.196046739758,-95130.488732317273,40796.360337394508,-40796.360337394508,95130.488732317273,151296.40226140842,0.0
643204.59901257406,4112374.0504322448,-2500.0,-87453.24418743774,23913.348879126093,-10293.132429684334,4292.8408300251604,-1946.2616194676498,1004.0510958070334,47911.481515100873,-62875.405120628362,27441.488282438349,-27441.488282438349,62875.405120628362,93462.265965184197,0.0
648204.59901257406,4112374.0504322448,-2500.0,-57164.806400111767,12880.583892605871,-4883.2886807969735,4513.2462833940845,-1193.8338386549974,42.404610103244124,30467.847119196886,-41504.198706784024,16779.070815449617,-16779.070815449617,41504.198706784024,59818.512924421535,0.0
653204.59901257406,4112374.0504322448,-2500.0,-38599.517788253295,7281.6840549619965,-2820.6339148472339,3333.040527104321,-670.57684700929201,-120.87468703530533,20239.605419851683,-28074.026795303937,10467.981392801563,-10467.981392801563,28074.026795303937,39720.987757493269,0.0
658204.59901257406,4112374.0504322448,-2500.0,-26914.1030018973,4309.5291017916707,-1826.3682956353637,2297.2130977299003,-377.48218303847574,-113.47276208099288,13955.694173330341,-19561.816935627947,6765.2360824398911,-6765.2360824398911,19561.816935627947,27336.354515704039,0.0
663204.59901257406,4112374.0504322448,-2500.0,-19333.615133605177,2651.6105220812751,-1273.0670301311866,1574.0967939235104,-217.46085506114096,-82.493864142063202,9944.0112269675828,-14030.22646891258,4527.2657301950594,-4527.2657301950594,14030.22646891258,19436.347164509392,0.0
668204.59901257406,4112374.0504322448,-2500.0,-14264.157023572119,1685.1492898826034,-934.68792810607272,1093.3291226634476,-128.63717059598235,-56.571321992117383,7292.2709334542978,-10331.523619864191,3126.3654969027075,-3126.3654969027075,10331.523619864191,14223.417169171173,0.0
673204.59901257406,4112374.0504322448,-2500.0,-10775.275353061121,1100.0650885665648,-713.22719962501526,774.31803311433578,-77.991180564106116,-38.487606628741489,5483.3563328249429,-7788.4813286523931,2219.7012340666115,-2219.7012340666115,7788.4813286523931,10674.115024459259,0.0
678204.59901257406,4112374.0504322448,-2500.0,-8310.4461278137514,734.22082029206001,-560.58163130300784,559.75089887664126,-48.294160316261433,-26.427847345418641,4214.1181206122237,-5994.3308859358895,1614.9236291289526,-1614.9236291289526,5994.3308859358895,8188.3783649851184,0.0
683204.59901257406,4112374.0504322448,-2500.0,-6527.5571653426005,499.01802002272689,-450.9748669518537,412.71172900245216,-30.419553074158333,-18.428822036106851,3300.971882334974,-4698.6134039687058,1200.4927910833608,-1200.4927910833608,4698.6134039687058,6403.2160719579369,0.0
688204.59901257406,4112374.0504322448,-2500.0,-5210.4525289328622,344.13493518079827,-369.63892966080215,309.93281159575469,-19.40623512010934,-13.074823929836231,2629.2709220803454,-3743.0163684743993,909.59572616615242,-909.59572616615242,3743.0163684743993,5092.2751345797315,0.0
693204.59901257406,4112374.0504322448,-2500.0,-4218.9184820631599,240.00245003044739,-307.64052571563246,236.68945102129095,-12.480377728981431,-9.438382338059391,2125.3392443072498,-3024.8717924541079,700.98184663629331,-700.98184663629331,3024.8717924541079,4110.3172306130173,0.0
698204.59901257406,4112374.0504322448,-2500.0,-3459.7624971876212,168.71936615801832,-259.3247990651879,183.53497964580723,-8.0481355597221373,-6.9273276372996069,1740.5790160234062,-2475.9846596620123,548.47309301827465,-548.47309301827465,2475.9846596620123,3361.6865682100711,0.0
703204.59901257406,4112374.0504322448,-2500.0,-2869.638444100623,119.15651204743016,-220.97044404137813,144.30272878108056,-5.1699075966220169,-5.1640982815846872,1442.1623169553168,-2050.0411292877029,435.03545345590521,-435.03545345590521,2050.0411292877029,2781.8624615815074,0.0
708204.59901257406,4112374.0504322448,-2500.0,-2404.595251571975,84.229551236097009,-190.04538840439159,114.89271022405224,-3.2786485316781691,-3.9056894042988874,1207.430122611436,-1714.940994046292,349.3308481391615,-349.3308481391615,1714.940994046292,2326.3731072317037,0.0
713204.59901257406,4112374.0504322448,-2500.0,-2033.5611838721657,59.332343783305433,-164.77620686527464,92.529108999569431,-2.0247711287405989,-2.9936351818695659,1020.4325989675797,-1448.0167310633969,283.65525525566488,-283.65525525566488,1448.0167310633969,1963.9566997462621,0.0
718204.59901257406,4112374.0504322448,-2500.0,-1734.1923049676329,41.412599419029611,-143.88961219224214,75.299765085704294,-1.1885651258593624,-2.322976730000426,869.74179882506178,-1232.9877720857414,232.67499739198615,-232.67499739198615,1232.9877720857414,1672.2430985375606,0.0
723204.59901257406,4112374.0504322448,-2500.0,-1490.1643180535686,28.412122776597965,-126.45101699851531,61.865550525459241,-0.62950900333417703,-1.8231417913436396,747.03422729814827,-1057.9746737956123,192.63283174023167,-192.63283174023167,1057.9746737956123,1434.9591422363217,0.0
523204.59901257406,4117374.0504322448,-2500.0,-1337.810803216591,-245.63644680797628,-146.94461701580005,-56.6415621446613,-12.41508257080055,-1.7119951517628338,694.81768509871756,-917.16177773567597,-62.1782014002236,62.1782014002236,917.16177773567597,1342.8724440224069,0.0
528204.59901257406,4117374.0504322448,-2500.0,-1546.823675614723,-294.27722922576351,-169.73900237186072,-68.552797782019013,-15.441368460010006,-2.1708648997886613,805.52959352417065,-1059.7003280508054,-79.990115389507537,79.990115389507537,1059.7003280508054,1558.7840840110803,0.0
533204.59901257406,4117374.0504322448,-2500.0,-1800.3654839688029,-355.95578853401821,-197.83179366316156,-83.687552641734626,-19.420708179974493,-2.7817034328639485,940.48710664698888,-1232.2458619303202,-103.97961654151277,103.97961654151277,1232.2458619303202,1822.3580845836575,0.0
538204.59901257406,4117374.0504322448,-2500.0,-2110.4511825921518,-435.11415085924978,-232.96899305470205,-103.116870681997,-24.724225968099681,-3.6045641477737274,1106.496626377274,-1442.7154602293822,-136.72862483304834,136.72862483304834,1442.7154602293822,2147.0633771281941,0.0
543204.59901257406,4117374.0504322448,-2500.0,-2492.966612352292,-538.03518561745841,-277.67307777065815,-128.3316733642699,-31.895698810684422,-4.7268770733515471,1312.6926597280922,-1701.4724385948671,-182.098001571856,182.098001571856,1701.4724385948671,2550.9969955662782,0.0
548204.59901257406,4117374.0504322448,-2500.0,-2969.0600966706315,-673.7354375553972,-335.68624716157132,-161.42872853024141,-41.744420894638615,-6.2772095789539391,1571.4623373582237,-2022.1322440711238,-245.96385923966284,245.96385923966284,2022.1322440711238,3058.723443423306,0.0
553204.59901257406,4117374.0504322448,-2500.0,-3567.0249816624491,-855.34190936698144,-412.72382268776568,-205.3836467571131,-55.493455376078572,-8.4462248271258069,1899.7689246178957,-2422.5875076758357,-337.43483316675338,337.43483316675338,2422.5875076758357,3703.9012833380762,0.0
558204.59901257406,4117374.0504322448,-2500.0,-4324.762001045844,-1102.222790231112,-517.79215374795115,-264.44719527086107,-75.017261347431599,-11.517713277261105,2321.0336034855841,-2926.2107391562622,-470.89424310580603,470.89424310580603,2926.2107391562622,4532.9978734071155,0.0
563204.59901257406,4117374.0504322448,-2500.0,-5292.767738457359,-1443.2596035209624,-665.55986264852561,-344.70373480836497,-103.2196190049563,-15.911975514873362,2867.7526445538597,-3562.9997377475893,-669.45958300166217,669.45958300166217,3562.9997377475893,5610.3984382692006,0.0
568204.59901257406,4117374.0504322448,-2500.0,-6537.1014805838158,-1921.714470028204,-880.73089442799733,-454.80336804292398,-144.6151725701356,-22.238423986412904,3584.9288706231068,-4369.9065440669738,-970.84268962325132,970.84268962325132,4369.9065440669738,7024.9361246978588,0.0
573204.59901257406,4117374.0504322448,-2500.0,-8140.4147808409143,-2601.8220886463223,-1206.2390719681446,-606.75914285206989,-206.14262097437512,-31.331001751344758,4533.9119610886801,-5388.3143520134417,-1437.0459743683723,1437.0459743683723,5388.3143520134417,8896.662834534749,0.0
578204.59901257406,4117374.0504322448,-2500.0,-10195.618018002437,-3575.2680733197226,-1718.5270908847344,-816.32306971494177,-297.98967096655269,-44.169692738961196,5794.5208651603834,-6653.7083615334086,-2169.1382370624165,2169.1382370624165,6653.7083615334086,11378.549651632815,0.0
583204.59901257406,4117374.0504322448,-2500.0,-12778.890808950431,-4957.7389035621909,-2554.3725582796928,-1101.5118518202344,-433.19650253991227,-61.402788882093915,7457.9601378405678,-8167.0122918341194,-3323.9355391248491,3323.9355391248491,8167.0122918341194,14635.080268014512,0.0
588204.59901257406,4117374.0504322448,-2500.0,-15875.761752803797,-6837.8554651454742,-3947.3968785494594,-1476.2378288047823,-621.48376940164474,-81.839196773570166,9587.3948393357787,-9831.8245604286967,-5105.7183130323547,5105.7183130323547,9831.8245604286967,18743.093926305577,0.0
593204.59901257406,4117374.0504322448,-2500.0,-19239.130991554001,-9055.3005695803367,-6217.1680202318994,-1936.6139368125894,-844.73413698412969,-99.47062739245851,12081.570051625407,-11370.939366018698,-7606.0415666796216,7606.0415666796216,11370.939366018698,23367.706842131585,0.0
598204.59901257406,4117374.0504322448,-2500.0,-22349.387300688508,-10493.582031469157,-9358.7091754641679,-2454.1130090806291,-999.09999449535542,-103.75708499408474,14303.80221577454,-12491.083099499407,-10015.306121279729,10015.306121279729,12491.083099499407,26945.284670165973,0.0
603204.59901257406,4117374.0504322448,-2500.0,-25723.200750899421,-7638.9429925409022,-10725.725680306339,-2981.7026133428858,-891.9285162934267,-95.892805278362104,14751.900437627733,-14742.140399642327,-7959.883496466171,7959.883496466171,14742.140399642327,26485.031054909829,0.0
608204.59901257406,4117374.0504322448,-2500.0,-37478.064575041579,4306.108092270526,2525.3936697471909,-2396.5274844271134,-548.82319803645328,135.93636924436035,20639.647411923157,-28814.793421400005,10915.423765606172,-10915.423765606172,28814.793421400005,39801.519766850812,0.0
613204.59901257406,4117374.0504322448,-2500.0,-83932.795125384335,11921.375341807076,57212.924817487678,11048.445824146969,4773.4424170740604,3930.0095939533185,72497.137618751891,-82089.325164881608,55223.581540163359,-55223.581540163359,82089.325164881608,126891.47794893332,0.0
618204.59901257406,4117374.0504322448,-2500.0,-213473.54801024671,-62029.504660397637,116822.98102303589,77606.354788970188,70360.224463699997,30539.872884760545,205228.75736464077,-191831.63864491749,50653.024978002941,-50653.024978002941,191831.63864491749,364011.62278839934,0.0
623204.59901257406,4117374.0504322448,-2500.0,-180542.79406604081,-309563.37564116053,-559712.55924711807,2477.482650639919,172714.05865055206,26777.030027822602,436970.69169217208,80000.27442840024,-532202.55702043232,532202.55702043232,-80000.27442840024,801472.35251839971,0.0
628204.59901257406,4117374.0504322448,-2500.0,-917319.13445845584,228803.25523059943,-72555.536168155348,-300975.62114366534,207535.39262054826,-38074.017980893601,623794.29193697567,-669715.1218862104,290154.86155639647,-290154.86155639647,669715.1218862104,1141038.0464395387,1.0
633204.59901257406,4117374.0504322448,-2500.0,-218349.75636343885,29735.76859363983,-31477.164289637418,-34149.693807641896,-15278.383338689269,18964.958956330789,128564.91186231542,-152674.05148440725,41356.527646115406,-41356.527646115406,152674.05148440725,231826.58031810206,0.0
638204.59901257406,4117374.0504322448,-2500.0,-124922.26921782942,-5920.8726015620659,-21311.192843069661,-1569.4883149826101,-5424.6337009336939,4507.5422445105232,65444.351646349685,-84426.341279344953,3507.5978722598011,-3507.5978722598011,84426.341279344953,119489.78697901436,0.0
643204.59901257406,4117374.0504322448,-2500.0,-84137.724492707101,-5518.5842674286969,-7696.8425672637723,4657.8821011118962,-907.79849630331364,867.4992467211008,43034.938642528898,-58985.953769923392,4880.2795705928984,-4880.2795705928984,58985.953769923392,82037.469670277278,0.0
648204.59901257406,4117374.0504322448,-2500.0,-56211.324403277787,-2972.8116375247137,-3406.6482097658154,4477.2355926403006,-49.63993618813285,21.076351809644553,28563.629966947767,-40049.051417606635,4805.0874684180271,-4805.0874684180271,40049.051417606635,55387.183934992041,0.0
653204.59901257406,4117374.0504322448,-2500.0,-38165.486270426736,-1636.5414739891448,-1923.3930341891205,3270.5278318384394,75.788385769620945,-120.27197477532165,19339.330326581527,-27353.315199415974,3786.037301292683,-3786.037301292683,27353.315199415974,37712.471965830387,0.0
658204.59901257406,4117374.0504322448,-2500.0,-26606.932963062969,-992.56048364127457,-1279.6799291509808,2249.5701325049818,74.966532071195758,-110.50038420737418,13457.261605215817,-19101.595191781813,2792.1692892680994,-2792.1692892680994,19101.595191781813,26279.32494292815,0.0
663204.59901257406,4117374.0504322448,-2500.0,-19074.563233927864,-663.07713811139831,-936.17329911328557,1540.3517816938672,58.098400276982979,-80.162158327306429,9633.4292156238498,-13691.469135511827,2029.8599764652236,-2029.8599764652236,13691.469135511827,18807.120974257563,0.0
668204.59901257406,4117374.0504322448,-2500.0,-14039.205368867939,-478.2108729386382,-723.21344215414547,1069.2497363042423,43.4214325233607,-55.002500132586846,7082.0112935154912,-10066.411610075,1482.6549566688964,-1482.6549566688964,10066.411610075,13812.372589088465,0.0
673204.59901257406,4117374.0504322448,-2500.0,-10581.448854519811,-364.38723320291234,-577.6138902394016,756.80335128564457,32.651381759753335,-37.452439378971214,5332.7216940805229,-7575.8515041008541,1096.0621033648972,-1096.0621033648972,7575.8515041008541,10387.105508125771,0.0
678204.59901257406,4117374.0504322448,-2500.0,-8145.295971604045,-288.46570172405916,-471.69100454555519,546.77625117907655,24.944639306665845,-25.736235434448279,4101.8946689476306,-5821.9234877693671,822.15688932633429,-822.15688932633429,5821.9234877693671,7978.3185241475721,0.0
683204.59901257406,4117374.0504322448,-2500.0,-6387.9261795936845,-234.53858708763852,-391.45827161866316,402.94813237218409,19.380173848383542,-17.957287544966096,3214.9896001604238,-4557.9132250918537,626.04653064432023,-626.04653064432023,4557.9132250918537,6244.2029461841166,0.0
688204.59901257406,4117374.0504322448,-2500.0,-5092.8536612853486,-194.39295258219977,-328.98099685264049,302.48468579255342,15.291843170872978,-12.7464823721988,2561.9902285458807,-3627.5774201184176,483.73044489870222,-483.73044489870222,3627.5774201184176,4968.8576480939755,0.0
693204.59901257406,4117374.0504322448,-2500.0,-4119.9693842359829,-163.46110036484257,-279.34055699857049,230.9386215433876,12.232633920981545,-9.2051793824152153,2071.811161120404,-2929.6638384087619,378.95722551249469,-378.95722551249469,2929.6638384087619,4012.6672022649223,0.0
698204.59901257406,4117374.0504322448,-2500.0,-3376.4153783842871,-139.01677165515341,-239.28214748090386,179.04581603714334,9.9044536946362065,-6.7587236043834515,1697.408169726805,-2397.0416158432695,300.7131713131912,-300.7131713131912,2397.0416158432695,3283.2259299095563,0.0
703204.59901257406,4117374.0504322448,-2500.0,-2799.2617479643523,-119.32681695143947,-206.54686203658866,140.7629614426763,8.1056831151473538,-5.0401934855544406,1406.9393777367748,-1984.2250126462111,241.47282339750086,-241.47282339750086,1984.2250126462111,2718.0105158585825,0.0
708204.59901257406,4117374.0504322448,-2500.0,-2344.9753969851058,-103.22983948592534,-179.51137051929567,112.07539297316606,6.6972926694829953,-3.8133155219112385,1178.4013758329916,-1659.7657933884379,196.03441483745871,-196.03441483745871,1659.7657933884379,2273.8422363177874,0.0
713204.59901257406,4117374.0504322448,-2500.0,-1982.8624342723808,-89.912511225604433,-156.97766405585824,90.267217108463257,5.581425817187208,-2.9238315995013031,996.2947304956524,-1401.508321394318,160.75593799130684,-160.75593799130684,1401.508321394318,1920.3288966474843,0.0
718204.59901257406,4117374.0504322448,-2500.0,-1690.9029114349821,-78.785484002575117,-138.04332152104556,73.468926290699486,4.6879185760803983,-2.2695962908933787,849.50897723289904,-1193.5729781243929,133.05341008373625,-133.05341008373625,1193.5729781243929,1635.7033283373091,0.0
723204.59901257406,4117374.0504322448,-2500.0,-1453.0456291937885,-69.409933798450822,-122.01721438623927,60.372266088926629,3.9656078168645181,-1.7818676266749123,729.95086580941677,-1024.3964484026797,111.06934172580168,-111.06934172580168,1024.3964484026797,1404.1241643959524,0.0
523204.59901257406,4122374.0504322448,-2500.0,-1448.6650299961236,-159.44343379752118,-132.07198281652131,-61.074387342591741,-8.2835760511382759,-1.8320009354341544,735.52394243181584,-1010.6790021394861,32.876188220802987,-32.876188220802987,1010.6790021394861,1417.5738006817594,0.0
528204.59901257406,4122374.0504322448,-2500.0,-1684.8411006746426,-189.31239735848314,-150.55788659411778,-74.321696427606625,-10.200221069994857,-2.3344669254939112,856.05796072015914,-1176.1712544642,36.855178225270151,-36.855178225270151,1176.1712544642,1651.6091233911311,0.0
533204.59901257406,4122374.0504322448,-2500.0,-1974.2749296201926,-226.99931255395106,-172.77950496981308,-91.299333000102507,-12.701494187354756,-3.0082152725443776,1003.9609650152825,-1379.0425943117191,41.110869870015676,-41.110869870015676,1379.0425943117191,1939.1046928030512,0.0
538204.59901257406,4122374.0504322448,-2500.0,-2332.5103441713554,-275.18564196876446,-199.79480448549813,-113.31323229834673,-16.012459249180683,-3.9234579318336387,1187.2957910049006,-1630.1818770741274,45.423261545764035,-45.423261545764035,1630.1818770741274,2295.8765858000916,0.0
543204.59901257406,4122374.0504322448,-2500.0,-2780.7048209292343,-337.70857544902583,-233.08013051776783,-142.21917226156336,-20.463931943974291,-5.1839874100758347,1417.0749093311606,-1944.3834609864689,49.323051959924896,-49.323051959924896,1944.3834609864689,2743.5375883103411,0.0
548204.59901257406,4122374.0504322448,-2500.0,-3348.0472716397471,-420.16784838033186,-274.75885954441077,-180.69278311061819,-26.551338186473231,-6.945316162194529,1708.5545169375873,-2342.0043657271935,51.870038547545164,-51.870038547545164,2342.0043657271935,3312.0358763362019,0.0
553204.59901257406,4122374.0504322448,-2500.0,-4075.371343572564,-530.90933092166586,-327.99727186600313,-232.64864595507342,-35.030960865624571,-9.4430985979940392,2083.1868351924686,-2851.4165354585821,51.230304972837303,-51.230304972837303,2851.4165354585821,4043.4740853595545,0.0
558204.59901257406,4122374.0504322448,-2500.0,-5020.6058511681131,-682.65561532580944,-397.72357747779597,-303.89574706351721,-47.079385770186249,-13.037535478294187,2571.601455479054,-3512.6532547929269,43.852759637129111,-43.852759637129111,3512.6532547929269,4997.9141149239349,0.0
563204.59901257406,4122374.0504322448,-2500.0,-6267.0287164654455,-895.26472438370502,-492.00267890139241,-403.16241471511074,-64.558559227363276,-18.279476691259422,3218.1965655485014,-4382.8119640779378,22.830607891517502,-22.830607891517502,4382.8119640779378,6262.2458619108438,0.0
568204.59901257406,4122374.0504322448,-2500.0,-7935.6851107002185,-1200.4714163326394,-624.81454971298899,-543.67483380135741,-90.44896724228721,-25.999178422144023,4088.2139173789833,-5543.8969344271181,-25.434063878440611,25.434063878440611,5543.8969344271181,7963.6646566695927,0.0
573204.59901257406,4122374.0504322448,-2500.0,-10203.525677815136,-1650.0840167709009,-822.00183347429834,-745.47229778894007,-129.51149838461555,-37.384881063258618,5278.4682075220026,-7113.5373171027022,-128.17798605585858,128.17798605585858,7113.5373171027022,10289.57503319874,0.0
578204.59901257406,4122374.0504322448,-2500.0,-13327.627909991674,-2329.8393811735014,-1134.7740909372105,-1038.3607264931841,-189.0760928639522,-53.888034581492718,6932.6970791529566,-9257.1956169184286,-340.99991967498318,340.99991967498318,9257.1956169184286,13514.413325324336,0.0
583204.59901257406,4122374.0504322448,-2500.0,-17669.110004463015,-3380.501336352379,-1672.1529468114247,-1464.1054062725714,-278.92714156090034,-76.328889537028189,9259.7768639545593,-12193.193895824059,-779.05262858097376,779.05262858097376,12193.193895824059,18025.681714433958,0.0
588204.59901257406,4122374.0504322448,-2500.0,-23683.689108287221,-5017.1065765134445,-2682.6122767199095,-2072.2706900402,-405.07815476908979,-101.15573342503518,12539.889414153873,-16156.71835967365,-1679.7850646080233,1679.7850646080233,16156.71835967365,24306.619895544845,0.0
593204.59901257406,4122374.0504322448,-2500.0,-31757.294833369739,-7471.5335784505369,-4761.9876621698431,-2896.4653582966612,-536.01285040154028,-108.9096933991348,17051.371768485271,-21213.103149122013,-3500.4912717472671,3500.4912717472671,21213.103149122013,32703.377791811839,0.0
598204.59901257406,4122374.0504322448,-2500.0,-41531.751901101401,-10444.424584439661,-9325.5745672731628,-3926.5409600967432,-476.75555542478651,-47.399689381833817,22658.710409899999,-26644.897563602608,-6855.2458871683066,6855.2458871683066,26644.897563602608,42383.133520155658,0.0
603204.59901257406,4122374.0504322448,-2500.0,-50232.408180555911,-10136.337258872521,-18928.867888356486,-5508.7349476760182,297.9230869094261,49.22122234535771,27242.772039794127,-29845.200849839064,-10596.720783949751,10596.720783949751,29845.200849839064,48308.401277729128,0.0
608204.59901257406,4122374.0504322448,-2500.0,-53863.522110428879,11593.527141979996,-29908.697944849559,-11110.634527923774,-55.750742631134479,-817.47314833688063,30973.984301159915,-30534.08194949017,1160.906967796047,-1160.906967796047,30534.08194949017,53764.167191332293,0.0
613204.59901257406,4122374.0504322448,-2500.0,-71496.725952092689,85284.56074458173,10435.555182234957,-19841.882526467627,-23444.433981617654,-2089.7371336495216,100624.00310308735,-62940.695525190371,85472.132352062923,-85472.132352062923,62940.695525190371,174625.17038813338,0.0
618204.59901257406,4122374.0504322448,-2500.0,-105864.20952253576,185687.89103304301,250189.81690044826,7511.4750923344554,-36186.019011710909,-22471.370880426664,259905.68313788809,-177003.40582057339,305816.26076325157,-305816.26076325157,177003.40582057339,459971.74762617348,0.0
623204.59901257406,4122374.0504322448,-2500.0,-516470.81474155176,257160.32124094281,397775.0227598889,648457.00896258117,-974528.49954723881,-21799.829080446059,1282299.6633833027,-535032.31410365063,512149.73135851912,-512149.73135851912,535032.31410365063,2222002.4988824711,0.0
628204.59901257406,4122374.0504322448,-2500.0,111566.22619307389,212557.64545641711,94458.427445041059,156029.14379193823,30603.905031407761,-47917.06880322154,272455.83851160214,33632.117323996528,204614.00725901168,-204614.00725901168,-33632.117323996528,484134.8222542833,0.0
633204.59901257406,4122374.0504322448,-2500.0,-27356.873716291884,-388.85651110300438,-44867.121528445146,9521.6014747781301,-17757.37757505781,-1080.9174737311944,29554.138515648563,-5009.8856168683105,-21088.919049071912,21088.919049071912,5009.8856168683105,51725.649800985368,0.0
638204.59901257406,4122374.0504322448,-2500.0,-52909.381736789059,-20076.532855855061,-27359.587629358728,3241.9062927114296,-3190.1077109325461,1334.3839423262525,33165.757065915248,-28192.74834471241,-22830.690979924038,22830.690979924038,28192.74834471241,58995.955748344786,0.0
643204.59901257406,4122374.0504322448,-2500.0,-48725.65156378103,-17900.318363508482,-14213.43236855026,3908.9779694364588,369.30234353956149,315.88144763956723,28666.291733373582,-29711.834316350374,-14386.423356906729,14386.423356906729,29711.834316350374,53955.043957297865,0.0
648204.59901257406,4122374.0504322448,-2500.0,-38646.658995675476,-12277.111518054884,-7141.9998824169816,3444.5384249940043,826.13858422854264,-45.789143973859012,21716.222264088858,-25109.884945239224,-7557.5478144119188,7557.5478144119188,25109.884945239224,41908.088771054834,0.0
653204.59901257406,4122374.0504322448,-2500.0,-29037.944275082555,-7918.3925976350174,-3837.0293853357966,2604.3123860154078,650.71379827670262,-110.31644664167473,15836.189024591069,-19485.288461706416,-3777.2458850128132,3777.2458850128132,19485.288461706416,30864.40530026042,0.0
658204.59901257406,4122374.0504322448,-2500.0,-21555.677998736632,-5130.0985398499524,-2270.3599483028815,1863.1657654926689,440.02243521604481,-95.801893375925331,11530.100532647273,-14718.271139520984,-1882.5164549152651,1882.5164549152651,14718.271139520984,22550.786928050595,0.0
663204.59901257406,4122374.0504322448,-2500.0,-16100.223710557108,-3411.1156187210649,-1471.891357735017,1316.4608466337727,289.42050067762449,-70.041075036185745,8500.7973115901841,-11101.901290612041,-944.71259582783478,944.71259582783478,11101.901290612041,16637.837988680662,0.0
668204.59901257406,4122374.0504322448,-2500.0,-12188.169303337962,-2340.4152055376976,-1027.8780538027388,935.80210224392795,192.14225180637666,-48.793025642004544,6377.1285451218755,-8452.5310745913594,-473.6687397727228,473.6687397727228,8452.5310745913594,12474.29937914632,0.0
673204.59901257406,4122374.0504322448,-2500.0,-9373.4027104940815,-1656.1306233238317,-759.50265822725487,674.36968690052072,130.32291639422266,-33.699946391406286,4872.251461012841,-6522.2674208646586,-232.14509962910779,232.14509962910779,6522.2674208646586,9519.5397599014887,0.0
678204.59901257406,4122374.0504322448,-2500.0,-7324.4699711065441,-1205.5952158837915,-585.17281293078042,494.00474736953618,90.596375756225001,-23.435925026798866,3788.5707625020486,-5106.3458861313175,-106.10203882285259,106.10203882285259,5106.3458861313175,7391.6514382497007,0.0
683204.59901257406,4122374.0504322448,-2500.0,-5810.8593579616218,-900.10615519183398,-465.07588668229016,368.02927960533754,64.532294888765009,-16.513319351253166,2994.3447156973384,-4055.2771273282342,-39.679905504580574,39.679905504580574,4055.2771273282342,5833.1750215402235,0.0
688204.59901257406,4122374.0504322448,-2500.0,-4675.2373612367619,-687.20478418255846,-378.39795146117598,278.68112847661575,47.025530106166286,-11.816107792737968,2402.0299518297329,-3264.2474642945008,-4.7752835266749116,4.7752835266749116,3264.2474642945008,4672.1225835858777,0.0
693204.59901257406,4122374.0504322448,-2500.0,-3810.1707397117771,-535.07893729344039,-313.51786196908193,214.27726576696068,34.987706002098641,-8.5901672721659761,1952.9363905644518,-2660.4965988608078,13.1478549011631,-13.1478549011631,2660.4965988608078,3792.9056953182544,0.0
698204.59901257406,4122374.0504322448,-2500.0,-3141.6451004461665,-423.90993065322965,-263.5449782324863,167.1071310948891,26.524365988481023,-6.3422768843387551,1607.1640584015638,-2193.3560595142812,21.80343011281002,-21.80343011281002,2193.3560595142812,3116.8658236972301,0.0
703204.59901257406,4122374.0504322448,-2500.0,-2618.0254712044052,-341.01862197913374,-224.17063455512644,132.02878798022067,20.450345654844675,-4.7519003901035548,1337.1538758702818,-1827.2193150434023,25.377711054586939,-25.377711054586939,1827.2193150434023,2589.6665252446228,0.0
708204.59901257406,4122374.0504322448,-2500.0,-2202.7806707895593,-278.08706305512811,-192.57378360328605,105.56647252460861,16.008107757200523,-3.6096468154588872,1123.5583000352001,-1536.7670754907256,26.18421706451204,-26.18421706451204,1536.7670754907256,2173.1762575333914,0.0
713204.59901257406,4122374.0504322448,-2500.0,-1869.6941492324017,-229.52952436558968,-166.8338164112065,85.335978536162884,12.702943531247007,-2.7772830121287839,952.57750533782507,-1303.7637120839408,25.518775098577407,-25.518775098577407,1303.7637120839408,1840.2161318714732,0.0
718204.59901257406,4122374.0504322448,-2500.0,-1599.6868955622058,-191.51364581653516,-145.59938426125441,69.677348941654984,10.205028758003706,-2.1623712187697279,814.21844038825998,-1114.9043302300884,24.112754640475828,-24.112754640475828,1114.9043302300884,1571.1219853530222,0.0
723204.59901257406,4122374.0504322448,-2500.0,-1378.6856345377901,-161.35741897991761,-127.89281913109495,57.417891203312642,8.2901212551561674,-1.7022006714725373,701.13997341561537,-960.35695293249432,22.379309106511585,-22.379309106511585,960.35695293249432,1351.4622929267455,0.0
523204.59901257406,4127374.0504322448,-2500.0,-1523.3443105691395,-61.180338947458623,-126.85671192780813,-64.072291322173157,-3.6128618431373285,-1.9138229219575786,764.75237863482585,-1075.2292626260135,126.28608607275169,-126.28608607275169,1075.2292626260135,1471.0042723209006,0.0
528204.59901257406,4127374.0504322448,-2500.0,-1776.4711776062832,-68.49331665120198,-143.84502583729483,-78.171386827701525,-4.2219443177748825,-2.444683045426141,891.89250017405902,-1255.4988732147995,151.84480429193752,-151.84480429193752,1255.4988732147995,1717.2000118703666,0.0
533204.59901257406,4127374.0504322448,-2500.0,-2087.9936861227529,-76.897668718837465,-164.0109364686781,-96.309363980078814,-4.9576159152738821,-3.1589510379666859,1048.3996663097778,-1477.6530971834568,184.19170494455932,-184.19170494455932,1477.6530971834568,2020.5690773641868,0.0
538204.59901257406,4127374.0504322448,-2500.0,-2475.460810950507,-86.573321648040036,-188.14994285048675,-119.93089612795755,-5.8498836983845424,-4.1330251144718115,1243.11646000922,-1754.3444516985119,225.57444600078304,-225.57444600078304,1754.3444516985119,2398.3942278559889,0.0
543204.59901257406,4127374.0504322448,-2500.0,-2963.0173464490172,-97.730217345363073,-217.32349660225552,-151.10627120357358,-6.9358132920753466,-5.4806964052380458,1488.2176883957563,-2102.9950310930985,279.13403920214421,-279.13403920214421,2102.9950310930985,2874.4851331974633,0.0
548204.59901257406,4127374.0504322448,-2500.0,-3584.4156572892412,-110.61687759868542,-252.98049494538989,-192.8508204692958,-8.2602335804894196,-7.37372260296927,1800.7368998042277,-2547.9747546493263,349.31683992270018,-349.31683992270018,2547.9747546493263,3482.1678961654438,0.0
553204.59901257406,4127374.0504322448,-2500.0,-4387.6571307710083,-125.54136280205938,-297.15636077983032,-249.63095622363463,-9.8748869832582251,-10.074928257386928,2204.9218241775447,-3123.9536908311165,442.49662525710687,-442.49662525710687,3123.9536908311165,4268.8921751899006,0.0
558204.59901257406,4127374.0504322448,-2500.0,-5442.2892898212922,-142.9279288581408,-352.81702184034987,-328.1768448170597,-11.832977495820568,-13.990218369111663,2735.942877002657,-3881.1601364198218,567.9162766827053,-567.9162766827053,3881.1601364198218,5303.4692937969994,0.0
563204.59901257406,4127374.0504322448,-2500.0,-6851.0995712261138,-163.47154140265536,-424.49333208730178,-438.7976134866388,-14.170254960133247,-19.74809724276431,3445.844844283758,-4893.7737350775897,739.09927642533285,-739.09927642533285,4893.7737350775897,6687.6472671118127,0.0
568204.59901257406,4127374.0504322448,-2500.0,-8769.2289351226154,-188.56740630640874,-519.53775153217816,-597.50516403935239,-16.846491996227577,-28.307021856730138,4413.2904178074086,-6273.5561087972492,975.89219052139788,-975.89219052139788,6273.5561087972492,8574.9504809241644,0.0
573204.59901257406,4127374.0504322448,-2500.0,-11435.914370509809,-221.50708871675215,-650.82658071560797,-829.34616685493438,-19.561324428719178,-41.045552705374682,5759.7673110079731,-8192.2421824301091,1307.1258788454152,-1307.1258788454152,8192.2421824301091,11201.708921234151,0.0
578204.59901257406,4127374.0504322448,-2500.0,-15227.735742185372,-270.84781297627836,-843.11353525810989,-1173.1403564003031,-21.136752630833779,-59.579933838101596,7676.8235391886137,-10918.379615331634,1772.9694497579239,-1772.9694497579239,10918.379615331634,14938.283253814732,0.0
583204.59901257406,4127374.0504322448,-2500.0,-20747.283418915224,-360.11927934931566,-1149.5345695295428,-1686.0205527362111,-17.249911964055578,-84.196599744318704,10471.559482112249,-14876.354442779428,2422.2537409763409,-2422.2537409763409,14876.354442779428,20371.619405492562,0.0
588204.59901257406,4127374.0504322448,-2500.0,-28963.626914358061,-556.48532589172157,-1699.5608903965383,-2437.4474317739696,8.8113990340952668,-106.37401350391313,14639.493768452372,-20731.502817507637,3285.3831817714799,-3285.3831817714799,20731.502817507637,28426.343475863836,0.0
593204.59901257406,4127374.0504322448,-2500.0,-41396.047477457876,-1057.4579212628205,-2857.5115570974822,-3447.0479708454263,128.13168600690858,-78.124513656800019,20966.141326135144,-29465.267275372404,4245.821279683747,-4245.821279683747,29465.267275372404,40485.893527559783,0.0
598204.59901257406,4127374.0504322448,-2500.0,-60156.015135901267,-2451.5505622400783,-5831.4035063445945,-4410.3045747221759,675.97209866889671,193.61261423527563,30604.863513076736,-42180.3575267497,4496.9019106491396,-4496.9019106491396,42180.3575267497,58245.380790285592,0.0
603204.59901257406,4127374.0504322448,-2500.0,-86619.724662648514,-6334.6863979421369,-15420.53447537273,-4100.7165419920329,3331.0533747688555,1170.0433457002819,44734.681915165049,-58147.577706038981,291.94305397642893,-291.94305397642893,58147.577706038981,82036.137127921334,0.0
608204.59901257406,4127374.0504322448,-2500.0,-109756.34129440732,-12092.561047051402,-52729.591186383594,-5086.2925051599204,14970.82724583993,980.51905631293869,58841.00862068031,-62171.073498727696,-21517.829729471283,21517.829729471283,62171.073498727696,101923.58619524119,0.0
613204.59901257406,4127374.0504322448,-2500.0,-95657.9819394363,70108.607286019949,-114410.44966188846,-62593.366615481158,25009.491862395043,8144.9435318687974,116056.53713690108,-37470.586039520189,7141.9887696378046,-7141.9887696378046,37470.586039520189,203590.58554034738,0.0
618204.59901257406,4127374.0504322448,-2500.0,-1393884.275936235,556108.51369231124,-313118.33040355536,350563.94542015379,155636.47069727935,-175432.79068802873,925016.03155425563,-965699.95970783406,493249.89135276357,-493249.89135276357,965699.95970783406,1644670.6627495049,0.0
623204.59901257406,4127374.0504322448,-2500.0,-252623.75875811322,-83043.373877005142,103916.01919953414,-72676.074917945298,-37294.032679541582,19778.355860172745,209077.47778210384,-214680.54999854171,32967.641619224931,-32967.641619224931,214680.54999854171,380667.7184960366,0.0
628204.59901257406,4127374.0504322448,-2500.0,-97992.373958253069,58790.571972478043,147766.89684368492,14276.298004091017,33069.347989984686,-7785.6291672007155,140003.47114112691,-126671.1788368221,145759.97149470641,-145759.97149470641,126671.1788368221,246225.32284827897,1.0
633204.59901257406,4127374.0504322448,-2500.0,-9575.9675411732787,35868.219342618679,15079.519910717487,9876.8211861383352,428.03060732146747,-2988.2108129369781,39256.47852933094,-14969.378700965193,38638.011522409884,-38638.011522409884,14969.378700965193,68129.722912349433,0.0
638204.59901257406,4127374.0504322448,-2500.0,-8822.6651390746811,-1922.6065290881634,-15928.566423468706,2793.0914916297588,-538.5350230211036,-211.41301659831316,8550.6949561783331,-982.2667012128345,-9054.6389271768821,9054.6389271768821,982.2667012128345,14872.847456009678,0.0
643204.59901257406,4127374.0504322448,-2500.0,-16325.920434445405,-12380.915694052657,-14667.805736414146,2096.9769912454444,864.30539120945309,-13.204250687641274,14199.97615751732,-6112.9920861623141,-15477.56088969218,15477.56088969218,6112.9920861623141,26778.721559804471,0.0
648204.59901257406,4127374.0504322448,-2500.0,-18300.221727060365,-12075.383244009354,-9608.8671371225792,1963.3919934969731,1079.780776946247,-71.039069483685012,13566.322136892111,-9297.5078944449488,-12072.769335921908,12072.769335921908,9297.5078944449488,26493.652070219807,0.0
653204.59901257406,4127374.0504322448,-2500.0,-16783.672127676538,-9337.6077764270867,-5901.885817292924,1652.6487703569626,865.23504646058575,-85.153436723759199,11193.076017662386,-9645.1028734623233,-8051.2937830276551,8051.2937830276551,9645.1028734623233,22080.68122981241,0.0
658204.59901257406,4127374.0504322448,-2500.0,-14140.90854427396,-6746.7068758423211,-3669.1276136642746,1290.8910817232388,612.69564577009146,-72.401508079871647,8803.4368508877233,-8654.0980906136265,-5157.2469964579959,5157.2469964579959,8654.0980906136265,17405.123113773909,0.0
663204.59901257406,4127374.0504322448,-2500.0,-11503.865726563647,-4802.892158047358,-2371.0275091601125,974.58245834835043,418.56499514839459,-54.550990014230898,6837.8191845427073,-7301.2385149535912,-3303.5965857927731,3303.5965857927731,7301.2385149535912,13509.594544920454,0.0
668204.59901257406,4127374.0504322448,-2500.0,-9249.4047349288485,-3439.9232628014961,-1603.5875862412631,728.06253759267463,285.27303442384675,-39.293086148088108,5322.7671584950467,-6005.6969704742914,-2149.6082493032527,2149.6082493032527,6005.6969704742914,10497.591643750076,0.0
673204.59901257406,4127374.0504322448,-2500.0,-7433.6923813209314,-2499.6142633730628,-1133.3141091800364,544.83185344096478,196.69444020257563,-27.937616273133859,4178.9002405793572,-4900.0499440097956,-1428.8250059072966,1428.8250059072966,4900.0499440097956,8223.8506402139737,0.0
678204.59901257406,4127374.0504322448,-2500.0,-6004.8855202160476,-1848.2117798681736,-832.92066598181634,410.91367759841506,137.96755045712058,-19.898831139970749,3317.2845390838957,-3999.5368595957048,-971.41107584122665,971.41107584122665,3999.5368595957048,6513.559775489206,0.0
683204.59901257406,4127374.0504322448,-2500.0,-4887.9191550318565,-1391.1970229456933,-632.97538609786034,313.2265498872606,98.622001715720387,-14.297135965358819,2664.4222992399773,-3279.6860937787096,-675.08923563960366,675.08923563960366,3279.6860937787096,5220.1100947817658,0.0
688204.59901257406,4127374.0504322448,-2500.0,-4013.3804124400476,-1065.3824522755699,-494.71662052523783,241.57672934205496,71.839956535656867,-10.394897065509094,2164.9705614922254,-2707.3834111509323,-478.89519879545264,478.89519879545264,2707.3834111509323,4232.6596744502049,0.0
693204.59901257406,4127374.0504322448,-2500.0,-3324.7962637609112,-829.13012514571483,-395.80005238011194,188.54214997633986,53.282406426401941,-7.6571244982636575,1778.6338888989144,-2251.8190913017188,-346.18818247483739,346.18818247483739,2251.8190913017188,3470.4574149119417,0.0
698204.59901257406,4127374.0504322448,-2500.0,-2778.5019498047423,-654.92932082766822,-322.88845061092161,148.86081478663189,40.189406901212692,-5.7157362979901833,1476.3669756022821,-1887.4740100548843,-254.58745184164707,254.58745184164707,1887.4740100548843,2875.3454096208579,0.0
703204.59901257406,4127374.0504322448,-2500.0,-2341.427022931633,-524.41367153740248,-267.73929539855732,118.83133579152987,30.788661492236248,-4.3221682035819189,1237.2120589419317,-1594.1994605280088,-190.15692230507477,190.15692230507477,1594.1994605280088,2405.420923439523,0.0
708204.59901257406,4127374.0504322448,-2500.0,-1988.6969634516245,-425.1518205804972,-225.08686299021304,95.846701960817057,23.926047609236925,-3.309072515918829,1045.9529983463053,-1356.4163297749417,-144.04265378182276,144.04265378182276,1356.4163297749417,2030.3139845495025,0.0
713204.59901257406,4127374.0504322448,-2500.0,-1701.5914480328934,-348.60077011499885,-191.46114175660753,78.059165960369896,18.837917072948006,-2.5632133313644632,891.44204597692158,-1162.1696923180855,-110.50660263475766,110.50660263475766,1162.1696923180855,1727.8160342205877,0.0
718204.59901257406,4127374.0504322448,-2500.0,-1465.9635013158863,-288.7988395804208,-164.50965076225594,64.147775941248312,15.01060981686387,-2.0073419521645794,765.43012434433024,-1002.2952725520161,-85.75845713773532,85.75845713773532,1002.2952725520161,1481.5240318466228,0.0
723204.59901257406,4127374.0504322448,-2500.0,-1271.053195975973,-241.52234549512005,-142.59559241403159,53.1587148760186,12.092955775963754,-1.5882048841754801,661.7480574042952,-869.74700712631682,-67.248886683585397,67.248886683585397,869.74700712631682,1279.1934571250847,0.0
523204.59901257406,4132374.0504322448,-2500.0,-1557.8340573154326,42.659534461059202,-132.77850988210156,-65.475738129803048,1.3182141860158594,-1.9532741647266161,781.32901965945825,-1106.8427359987281,211.39012376631536,-211.39012376631536,1106.8427359987281,1500.8856455548125,0.0
528204.59901257406,4132374.0504322448,-2500.0,-1816.2200651062442,59.384723995089857,-151.64881917107144,-79.873966758698202,2.1007572298615069,-2.4952428372225293,911.43098701900328,-1292.2498358099861,255.92198879629439,-255.92198879629439,1292.2498358099861,1752.4421257471295,0.0
533204.59901257406,4132374.0504322448,-2500.0,-2133.8662466053747,82.25881304911438,-174.41733017421538,-98.385665523651141,3.2488451105317013,-3.2243262503310781,1071.5775145436728,-1520.5067967680429,312.75400376733398,-312.75400376733398,1520.5067967680429,2062.4164143627681,0.0
538204.59901257406,4132374.0504322448,-2500.0,-2528.4144753666828,113.83398850492264,-202.20504291834578,-122.47559588460051,4.9447202477915164,-4.2183670684141799,1270.8042625214628,-1804.4403287671523,386.14593173133221,-386.14593173133221,1804.4403287671523,2448.4599683557412,0.0
543204.59901257406,4132374.0504322448,-2500.0,-3024.0574236751741,157.89239041272066,-236.56911461367955,-154.23902179902225,7.4729726170045172,-5.5931588592399715,1521.5486816810669,-2161.6555172260937,482.15331559589595,-482.15331559589595,2161.6555172260937,2934.8952836476956,0.0
548204.59901257406,4132374.0504322448,-2500.0,-3654.4891682142461,220.13513510421564,-279.72514880618968,-196.72115987357046,11.286099702364451,-7.5233217767569815,1841.2099844102838,-2616.6900343235066,609.52955723350726,-609.52955723350726,2616.6900343235066,3555.7841833684138,0.0
553204.59901257406,4132374.0504322448,-2500.0,-4467.434955715571,309.31865076638229,-334.91280838746655,-254.42165976337489,17.11805026945461,-10.275605314552628,2254.5630716599344,-3204.3192654731415,781.1597800642262,-781.1597800642262,3204.3192654731415,4359.6792717197532,0.0
558204.59901257406,4132374.0504322448,-2500.0,-5531.7418993735491,439.16949233368092,-407.01685515661649,-334.10084004389654,26.185555978700641,-14.261086153134857,2797.5726603728626,-3974.724313138453,1016.3865135021458,-1016.3865135021458,3974.724313138453,5417.136318346832,0.0
563204.59901257406,4132374.0504322448,-2500.0,-6948.724826256328,631.69611965467857,-503.65999715793328,-446.07723797938229,40.554854762839753,-20.113453767095638,3523.5638460803216,-5001.7474727669805,1344.8731284292792,-1344.8731284292792,5001.7474727669805,6832.8746138921324,0.0
568204.59901257406,4132374.0504322448,-2500.0,-8870.7174962115078,923.06809262195839,-637.20009122915519,-606.30151292450466,63.828091139074459,-28.790979027942964,4513.4443541993969,-6396.3561986596296,1813.1730616932628,-1813.1730616932628,6396.3561986596296,8765.928831609599,0.0
573204.59901257406,4132374.0504322448,-2500.0,-11532.11685042327,1374.3686773847435,-828.52996561441921,-839.54554390428052,102.46621642643504,-41.641939746688962,5893.0821759730179,-8329.0919971083476,2496.1953154359708,-2496.1953154359708,8329.0919971083476,11463.907067004709,0.0
578204.59901257406,4132374.0504322448,-2500.0,-15302.535161871723,2091.9052202321427,-1114.6299115080669,-1183.6760781337546,168.41263301133009,-60.117296791715006,7863.6374617270012,-11068.303165365571,3517.7633838524171,-3517.7633838524171,11068.303165365571,15322.745683486906,0.0
583204.59901257406,4132374.0504322448,-2500.0,-20779.833116697373,3267.0107326621701,-1564.3729520537643,-1692.42581797715,284.42717921599143,-83.729054165243014,10755.986392096127,-15046.527795045844,5088.5398807333177,-5088.5398807333177,15046.527795045844,20993.64567720782,0.0
588204.59901257406,4132374.0504322448,-2500.0,-28956.688774048929,5257.6050853576817,-2313.9635178815161,-2421.3735873406204,495.03055203536616,-100.23734332799127,15131.784126723043,-20977.752993154078,7578.1345855382988,-7578.1345855382988,20977.752993154078,29579.835031724484,0.0
593204.59901257406,4132374.0504322448,-2500.0,-41529.926294428456,8765.9612473875295,-3656.4669774753106,-3322.6363269583771,887.88028260718272,-42.300449731512174,21985.158603457865,-30069.251859554228,11656.676856728736,-11656.676856728736,30069.251859554228,43015.730491540693,0.0
598204.59901257406,4132374.0504322448,-2500.0,-61549.789909574669,15267.593288152211,-6328.6050046450855,-3700.9528379551157,1622.5503205452956,393.43890164029841,33248.263639933524,-44437.293523630331,18580.923455378819,-18580.923455378819,44437.293523630331,64915.728023817115,0.0
603204.59901257406,4132374.0504322448,-2500.0,-95459.090737827923,28248.765061258186,-12887.69356790577,299.57396912511678,2835.1071349959425,2295.3642878596729,53771.905453709296,-68243.5953548166,30737.971886671268,-30737.971886671268,68243.5953548166,103540.3693756932,0.0
608204.59901257406,4132374.0504322448,-2500.0,-164516.92804990965,57753.424855574653,-38116.951821752584,25124.341885121565,2848.0327438145791,4215.3280647820557,100645.33556938329,-112966.63084359856,51275.785412495388,-51275.785412495388,112966.63084359856,187200.91043279856,0.0
613204.59901257406,4132374.0504322448,-2500.0,-397929.15168405243,159000.9820629587,-254211.064849519,22684.782516445419,-19543.514126668626,-126080.83253070131,189868.07387206651,-220152.68464486985,48423.161842572939,-48423.161842572939,220152.68464486985,366088.04756458069,0.0
618204.59901257406,4132374.0504322448,-2500.0,287595.48982720688,-107126.18629378703,447114.74262451031,45335.485277335749,-36158.171185789841,-65935.008198500524,289237.42171858024,69716.119350762543,119169.01576157511,-119169.01576157511,-69716.119350762543,501339.5496163104,0.0
623204.59901257406,4132374.0504322448,-2500.0,30873.52882781253,-40111.518700593871,120781.71699836689,-21081.324689435532,-52921.350669944426,98.692952039957362,93347.496338092518,-14793.119292408375,30848.360044369336,-30848.360044369336,14793.119292408375,162356.2723694765,0.0
628204.59901257406,4132374.0504322448,-2500.0,-10848.253513858232,-5383.9786043454487,84658.611118401968,-9817.5766426612317,-6706.581497912639,962.59642158244708,51221.921668968425,-36107.374181114188,45013.26538091222,-45013.26538091222,36107.374181114188,92973.603450175418,0.0
633204.59901257406,4132374.0504322448,-2500.0,1620.4577798795679,15186.257801698794,32981.320927694971,-699.69150087482615,-1386.7741680664124,-416.74627029256777,21861.115226148391,-11120.152317868253,30381.239262121722,-30381.239262121722,11120.152317868253,41840.743606770135,0.0
638204.59901257406,4132374.0504322448,-2500.0,6709.6510348172387,5210.0642851677476,225.16842365617043,-48.334658189353824,-390.40376446294391,-125.66773475997103,6158.8718746614904,4458.7611381374836,3198.4304849630416,-3198.4304849630416,-4458.7611381374836,11240.3360846252,0.0
643204.59901257406,4132374.0504322448,-2500.0,1572.9593961718226,-4179.8950736444731,-8714.0571299395251,314.20963105452984,545.45472589322026,-33.631814208568343,6648.6525677172358,4426.2407778421866,-8484.3592237909143,8484.3592237909143,-4426.2407778421866,12061.514337952894,0.0
648204.59901257406,4132374.0504322448,-2500.0,-3583.9513679282531,-7419.8246792199252,-8502.3729549507534,648.10039528072173,836.50847326877363,-42.920468091081915,7857.3533688102843,809.35733262274061,-10116.564814189456,10116.564814189456,-809.35733262274061,14922.023656833111,0.0
653204.59901257406,4132374.0504322448,-2500.0,-6221.0591457014571,-7313.469301459063,-6369.2007526859034,757.2632348987861,765.32292733971724,-50.143426182092121,7356.3240622196299,-1861.7965229558067,-8406.9731666972657,8406.9731666972657,1861.7965229558067,14246.203570238025,0.0
658204.59901257406,4132374.0504322448,-2500.0,-6941.5225940806622,-6106.3617858445859,-4436.4684898858841,712.84175577511303,596.28781858421974,-45.933494286811104,6269.7591935044866,-3139.4825904286545,-6241.6605134604752,6241.6605134604752,3139.4825904286545,12288.396628357765,0.0
663204.59901257406,4132374.0504322448,-2500.0,-6659.3642823777636,-4784.9131725354546,-3053.5836935437874,607.96885665263267,436.83411325868821,-37.206257075912468,5141.7130884621611,-3501.8434061790404,-4456.1250301350183,4456.1250301350183,3501.8434061790404,10165.830729884548,0.0
668204.59901257406,4132374.0504322448,-2500.0,-5970.4509130496226,-3663.6255627158425,-2128.2716532746472,494.80542381897868,313.39460615976014,-28.441380839003401,4158.6248262739646,-3394.3787387920015,-3153.1063739591605,3153.1063739591605,3394.3787387920015,8278.5962282423825,0.0
673204.59901257406,4132374.0504322448,-2500.0,-5181.8865419876038,-2792.152122124498,-1516.9609071964358,394.33084225831283,224.39973912802398,-21.203906641577074,3366.8841297903568,-3087.9246445661352,-2241.9091594571842,2241.9091594571842,3087.9246445661352,6719.8737841937054,0.0
678204.59901257406,4132374.0504322448,-2500.0,-4430.1498771782744,-2137.2468508503734,-1109.1996473262691,311.94785352616265,161.84503682677393,-15.684054003456522,2753.2214931312742,-2722.9273493900209,-1611.8917607004332,1611.8917607004332,2722.9273493900209,5470.8304474906745,0.0
683204.59901257406,4132374.0504322448,-2500.0,-3765.3620818089871,-1650.1848351253195,-831.92837384382574,246.78296561171445,118.08892535484136,-11.615815480908426,2264.2212131738524,-2364.7981102685285,-1175.0321955118138,1175.0321955118138,2364.7981102685285,4480.8647571265201,0.0
688204.59901257406,4132374.0504322448,-2500.0,-3197.9118769008596,-1287.674818859346,-639.00471314791037,196.0264174691246,87.326729604840438,-8.6557882281006862,1874.9690897256669,-2040.1610907659724,-869.18954102211228,869.18954102211228,2040.1610907659724,3697.4080487574147,0.0
693204.59901257406,4132374.0504322448,-2500.0,-2721.6735362705181,-1016.1510451770416,-501.53732918620415,156.67988612136838,65.483557078820368,-6.506081820750631,1564.3370979807505,-1756.886411400284,-652.34380447004685,652.34380447004685,1756.886411400284,3075.2717601084223,0.0
698204.59901257406,4132374.0504322448,-2500.0,-2324.8830769809274,-810.92155137954512,-401.29428469410254,126.14579402111501,49.782760535015015,-4.9385611046579205,1315.1531566920833,-1514.3956888417042,-496.45475567495942,496.45475567495942,1514.3956888417042,2578.3079083677208,0.0
703204.59901257406,4132374.0504322448,-2500.0,-1994.9177373891553,-654.19277322400467,-326.59109064914867,102.34836206954614,38.348360510316432,-3.7873016474257151,1113.9406516390479,-1308.7266390267218,-382.80305409321807,382.80305409321807,1308.7266390267218,2178.4857481307549,0.0
708204.59901257406,4132374.0504322448,-2500.0,-1720.1988289490603,-533.21449914085974,-269.79603680493784,83.688383216409491,29.910391215690208,-2.9342684824875853,950.28719089788274,-1134.9227727862085,-298.80108141726794,298.80108141726794,1134.9227727862085,1854.3432136444749,0.0
713204.59901257406,4132374.0504322448,-2500.0,-1490.7961872305177,-438.83322216316134,-225.82281574000891,68.95430987713263,23.602855983633599,-2.296103932850885,816.19295138333916,-988.10108571962087,-235.8941963945893,235.8941963945893,988.10108571962087,1589.5082023475775,0.0
718204.59901257406,4132374.0504322448,-2500.0,-1298.4671591148126,-364.43777272305749,-191.21191523749192,57.233949962869509,18.829207700734649,-1.8139834488225994,705.5096463063303,-863.87357133118041,-188.19715912444019,188.19715912444019,863.87357133118041,1371.4711326335578,0.0
723204.59901257406,4132374.0504322448,-2500.0,-1136.4838084562152,-305.21421612204415,-163.56320408992832,47.840907101550336,15.173794423688262,-1.4461748913926096,613.49640425917266,-758.46987226728038,-151.60883741657403,151.60883741657403,758.46987226728038,1190.6332659723746,0.0
523204.59901257406,4137374.0504322448,-2500.0,-1551.2482310261644,145.08505167593063,-149.85445112806795,-65.245618914873916,6.2087932018794962,-1.9492087631467712,784.82305680237369,-1104.309317280592,282.45726958276248,-282.45726958276248,1104.309317280592,1506.3497635283347,0.0
528204.59901257406,4137374.0504322448,-2500.0,-1803.0486898879592,184.82126432472313,-173.9251719490214,-79.380062673854596,8.3426602263460587,-2.4846023936181796,914.12641291308159,-1284.9239894273392,341.36314836820441,-341.36314836820441,1284.9239894273392,1756.2238614743326,0.0
533204.59901257406,4137374.0504322448,-2500.0,-2110.6919795380854,237.35782468472561,-203.84252795856037,-97.465941294010634,11.306614321642835,-3.2022490746315082,1072.7930172143094,-1505.7374267409343,416.22915114038233,-416.22915114038233,1505.7374267409343,2063.2064164282665,0.0
538204.59901257406,4137374.0504322448,-2500.0,-2490.0193732918733,307.62648781991027,-241.60559328288718,-120.8690301896808,15.476118627234699,-4.1765720569520317,1269.4494337301514,-1778.1408322530006,512.42923933270174,-512.42923933270174,1778.1408322530006,2444.1817476404167,0.0
543204.59901257406,4137374.0504322448,-2500.0,-2962.3695850439481,402.815677032005,-290.1180739868596,-151.51978176120701,21.424169994305419,-5.5173406403493468,1515.8714926456591,-2117.4504352405866,637.51885368175442,-637.51885368175442,2117.4504352405866,2922.2394806833345,0.0
548204.59901257406,4137374.0504322448,-2500.0,-3556.8290474423161,533.5837890874202,-353.70359316658522,-192.18388175226519,30.041310887630157,-7.3884835099028496,1828.3724688296747,-2544.4880921848826,802.2774707280862,-802.2774707280862,2544.4880921848826,3529.4311054578679,0.0
553204.59901257406,4137374.0504322448,-2500.0,-4313.5268088222992,716.03247692038781,-438.97704802393275,-246.87700348166777,42.739059744737766,-10.037426599520645,2229.9132506586343,-3087.8717514641257,1022.3264617229349,-1022.3264617229349,3087.8717514641257,4310.9749622979007,0.0
558204.59901257406,4137374.0504322448,-2500.0,-5288.4896786010304,974.98981527499211,-556.36513237582062,-321.50247929605376,61.801979232338404,-13.839662560497738,2753.3676677008184,-3787.3404062187246,1320.679769134179,-1320.679769134179,3787.3404062187246,5331.7914536497428,0.0
563204.59901257406,4137374.0504322448,-2500.0,-6560.804352974922,1349.6076774335172,-722.84990313472622,-424.82330530142838,91.009489179094942,-19.362611208395002,3446.6690986392014,-4698.5496868238642,1731.8271458019808,-1731.8271458019808,4698.5496868238642,6686.8623918190679,0.0
568204.59901257406,4137374.0504322448,-2500.0,-8243.0604441074265,1903.1694731944906,-967.11242263167424,-569.89230815731742,136.75365161337959,-27.440489379447023,4381.0675549717243,-5899.8087182765539,2308.3592136045208,-2308.3592136045208,5899.8087182765539,8517.9813125187957,0.0
573204.59901257406,4137374.0504322448,-2500.0,-10495.991296514891,2740.7861510944854,-1339.606515720342,-775.94031177670354,210.06721331338758,-39.193385256827746,5664.5926607076453,-7500.871263353798,3131.7959995664664,-3131.7959995664664,7500.871263353798,11041.37222192566,0.0
578204.59901257406,4137374.0504322448,-2500.0,-13546.687740230871,4042.336929970515,-1933.3414520522726,-1070.0006512380476,330.25314690149094,-55.689202907308655,7464.239172747134,-9651.9528046327723,4330.1414481907059,-4330.1414481907059,9651.9528046327723,14593.991398046086,0.0
583204.59901257406,4137374.0504322448,-2500.0,-17702.370245323433,6125.769348306756,-2929.6485792812332,-1484.4831781432752,530.86284381313044,-76.023980457272643,10042.529242783032,-12543.446419524002,6104.9089299146599,-6104.9089299146599,12543.446419524002,19712.025467529274,0.0
588204.59901257406,4137374.0504322448,-2500.0,-23321.709360264213,9571.7674424210836,-4708.0108869589139,-2034.948688297349,866.1880237146471,-89.02167922904259,13816.357784142408,-16357.594036906936,8764.260671572727,-8764.260671572727,16357.594036906936,27263.737711565787,0.0
593204.59901257406,4137374.0504322448,-2500.0,-30587.905081477289,15467.035499280102,-8142.1493704490285,-2618.3948483328481,1396.2563319319765,-40.34382817402826,19448.17005583024,-21020.611344568777,12714.104431682525,-12714.104431682525,21020.611344568777,38670.485927782654,0.0
598204.59901257406,4137374.0504322448,-2500.0,-38451.121543324021,25799.393516429518,-15527.088145913845,-2636.8916113728228,2002.9772368607214,284.38602469021168,28364.033734955876,-25141.854473097526,18081.549706177801,-18081.549706177801,25141.854473097526,56282.308477831335,0.0
603204.59901257406,4137374.0504322448,-2500.0,-40055.635862592746,43169.24274722785,-33935.93001486914,-86.837321241104206,1213.9088448553407,1509.38128836743,43352.479848177005,-21489.078363443721,21859.577715829106,-21859.577715829106,21489.078363443721,84296.676543159178,0.0
608204.59901257406,4137374.0504322448,-2500.0,-3005.7503103814961,57454.049177209607,-85470.958551974953,5263.5267383197161,-8256.5298073560261,3237.715129008644,71136.235324902111,22063.896415137577,-1682.9469282487535,1682.9469282487535,-22063.896415137577,132457.11911315547,0.0
613204.59901257406,4137374.0504322448,-2500.0,118145.74129836875,-81995.877639118786,-91378.543396077861,-25989.125504644955,-6512.8689617710179,725.49223537302566,135623.87324566714,124348.57384741286,-135859.85961632218,135859.85961632218,-124348.57384741286,235391.32363454608,0.0
618204.59901257406,4137374.0504322448,-2500.0,38164.757330703811,2868.7964086606967,251646.53890339695,20365.617874528481,46063.69828838043,7046.4481643876898,134803.10939158435,-56918.883288646641,137472.46612536715,-137472.46612536715,56918.883288646641,246618.26850807763,0.0
623204.59901257406,4137374.0504322448,-2500.0,73182.066381022771,33413.476007636811,99397.820134157068,13781.925942430704,-8170.9047771969426,-1488.0003120810998,64109.196544460887,17801.4791244671,70659.050108383439,-70659.050108383439,-17801.4791244671,111085.16248975311,0.0
628204.59901257406,4137374.0504322448,-2500.0,39989.172836183308,14399.449398400004,52759.330799529816,-1570.1768355815993,-8218.7087470160404,-47.990211127916481,32194.207197167369,10555.768604850098,34658.116844421638,-34658.116844421638,-10555.768604850098,55762.017279016203,0.0
633204.59901257406,4137374.0504322448,-2500.0,22797.269565815783,12666.14820038429,26864.561256851273,-2406.3126343755685,-3359.9197133103648,66.864860263222624,19246.888153473956,6749.1702465324952,21509.775627003004,-21509.775627003004,-6749.1702465324952,34032.300533404683,0.0
638204.59901257406,4137374.0504322448,-2500.0,16243.685930178104,7841.4654244191597,6972.8660714324978,-1544.1075902983437,-1137.494965927518,50.453266928902018,10516.895729993745,9004.0740181110468,7546.4607059774662,-7546.4607059774662,-9004.0740181110468,19837.957836898422,0.0
643204.59901257406,4137374.0504322448,-2500.0,10315.475062680753,1519.8339620460645,-2770.8148015134461,-781.0405256719921,-47.026710422668792,26.375062740931533,6746.6539911548716,8417.3578699801092,-2012.0188343605291,2012.0188343605291,-8417.3578699801092,12297.837591904201,0.0
648204.59901257406,4137374.0504322448,-2500.0,4835.2092852031701,-2497.4742674249524,-5523.5891397802061,-223.33366833951001,405.33052418326895,-0.89695188776324564,5768.624519910577,5622.671531410605,-5877.3961371522155,5877.3961371522155,-5622.671531410605,9997.5509054534632,0.0
653204.59901257406,4137374.0504322448,-2500.0,906.50568590414173,-4080.4145746283571,-5304.5625165091096,100.78249496513146,506.91748986722502,-16.961150404093097,5147.8369951827108,2777.9298987693428,-6382.0132556271537,6382.0132556271537,-2777.9298987693428,9189.4047887121287,0.0
658204.59901257406,4137374.0504322448,-2500.0,-1410.6014964535286,-4245.2128421184234,-4265.0234376536664,247.00898557955279,460.64491180290185,-22.086957282650186,4498.4433528934733,732.65299117916948,-5554.8420991235671,5554.8420991235671,-732.65299117916948,8302.0612715168972,0.0
663204.59901257406,4137374.0504322448,-2500.0,-2555.0770406189049,-3803.6805080985982,-3218.16664952266,288.46943568469658,372.9902155358804,-21.209082211835863,3835.3773361448357,-498.58874277657424,-4429.4173081309964,4429.4173081309964,498.58874277657424,7253.3662078602447,0.0
668204.59901257406,4137374.0504322448,-2500.0,-2980.7605196609902,-3191.8769509207482,-2380.7655843058837,278.47504848445328,287.410795740232,-18.054147247028467,3220.0772373481022,-1142.8544928407277,-3402.0361359034091,3402.0361359034091,1142.8544928407277,6197.153339805961,0.0
673204.59901257406,4137374.0504322448,-2500.0,-3011.7996844546756,-2599.1732846860968,-1761.8826931318667,247.78178027972945,217.02398057020693,-14.523081963211883,2684.447557064771,-1421.0769754962364,-2576.4641723498844,2576.4641723498844,1421.0769754962364,5233.7561570742864,0.0
678204.59901257406,4137374.0504322448,-2500.0,-2847.4057997383024,-2090.3406919416075,-1317.0268585607207,211.84922831518315,162.97990327910571,-11.371318880005381,2234.7902072783754,-1489.9783275642792,-1947.172939264877,1947.172939264877,1489.9783275642792,4400.8912838935876,0.0
683204.59901257406,4137374.0504322448,-2500.0,-2600.2721447494282,-1675.9910173079284,-998.87525492112934,177.55850830631002,122.6847976541102,-8.8014144865485608,1864.5257966998029,-1447.73590825308,-1477.8221264443403,1477.8221264443403,1447.73590825308,3700.9178317911474,0.0
688204.59901257406,4137374.0504322448,-2500.0,-2330.3929400478046,-1346.6125289374318,-769.95952081327846,147.45907027628593,92.960722354382824,-6.7923204170525988,1563.9361979219093,-1351.9492739763964,-1130.0731643038357,1130.0731643038357,1351.9492739763964,3120.8174834139973,0.0
693204.59901257406,4137374.0504322448,-2500.0,-2067.7059386130059,-1087.3331088941991,-603.33235447107324,122.0866673664339,71.055901225036067,-5.2521722810738636,1328.6073539474019,-1234.9405615502176,-872.08122634104234,872.08122634104234,1234.9405615502176,2642.8478718409324,0.0
698204.59901257406,4137374.0504322448,-2500.0,-1825.7085042038655,-883.66038804479251,-480.31354493088349,101.13173049667519,54.843916588385056,-4.0806994437183235,1135.7884379027209,-1114.0976263315829,-679.60708237466997,679.60708237466997,1114.0976263315829,2249.4177201700554,0.0
703204.59901257406,4137374.0504322448,-2500.0,-1609.2190323448517,-723.31042808231757,-388.10360334946051,83.994380020039344,42.758999835184405,-3.1906895647717635,975.67546208434169,-998.25494075717847,-534.88050701795578,534.88050701795578,998.25494075717847,1924.9644230256085,0.0
708204.59901257406,4137374.0504322448,-2500.0,-1418.6736102037185,-596.47560735969694,-317.92707888677614,70.031931747166468,33.672172538909649,-2.5127195880632947,842.34638587950724,-891.4652499187124,-425.07621314654864,425.07621314654864,891.4652499187124,1656.4373567123689,0.0
713204.59901257406,4137374.0504322448,-2500.0,-1252.4476159784504,-495.54335790332385,-263.72467592323284,58.658204073066926,26.775447428627082,-1.993725095498907,730.91990391338607,-795.17378399744166,-340.97931221198479,340.97931221198479,795.17378399744166,1433.1846793679508,0.0
718204.59901257406,4137374.0504322448,-2500.0,-1108.0834293877638,-414.68077806181071,-221.26827153105896,49.374593031624727,21.490652782116381,-1.5939701625668872,637.3966759759071,-709.45422530073358,-275.95821771195699,275.95821771195699,709.45422530073358,1246.6306437735573,0.0
723204.59901257406,4137374.0504322448,-2500.0,-982.92026259837712,-349.43991465858687,-187.57133260582762,41.771680730565301,17.402420827940393,-1.2839399351648055,558.53100079803289,-633.70279486336779,-225.21666410117552,225.21666410117552,633.70279486336779,1089.9148159810604,0.0
523204.59901257406,4142374.0504322448,-2500.0,-1505.8544608201348,239.46322320943744,-176.648668121399,-63.46487353809966,10.770896697684531,-1.9035861916709069,775.56406455093952,-1069.2613657539364,335.36842257431181,-335.36842257431181,1069.2613657539364,1487.9702184940766,0.0
528204.59901257406,4142374.0504322448,-2500.0,-1740.3935705506046,298.89202790665047,-208.56016113144744,-76.820748340149237,14.100278731938161,-2.4159948813686976,900.50967788886055,-1236.063125137875,402.79090524932047,-402.79090524932047,1236.063125137875,1729.4789970555914,0.0
533204.59901257406,4142374.0504322448,-2500.0,-2023.734195724425,376.22280894110526,-249.12934331900982,-93.75978910821263,18.641447674404109,-3.0981483329327779,1052.8999366866922,-1437.3284544962057,487.52626978683372,-487.52626978683372,1437.3284544962057,2024.4524924853547,0.0
538204.59901257406,4142374.0504322448,-2500.0,-2368.4412751882137,477.93302135058389,-301.55986606009509,-115.45120798806039,24.912963669781973,-4.0168756439574791,1240.4301718297081,-1681.7495204443112,594.97527780212249,-594.97527780212249,1681.7495204443112,2388.0170636113039,0.0
543204.59901257406,4142374.0504322448,-2500.0,-2790.8181833999342,613.26441546378078,-370.56588545123037,-143.50946716300388,33.691465722071193,-5.2692483839753521,1473.4294246152203,-1980.4828097348504,732.5003963869035,-732.5003963869035,1980.4828097348504,2840.5356572272972,0.0
548204.59901257406,4142374.0504322448,-2500.0,-3312.0677867356994,795.58771825681754,-463.23983780572496,-180.18245177983908,46.158894177485728,-6.9975084678476538,1765.92070753796,-2347.8200182505507,910.21498202547082,-910.21498202547082,2347.8200182505507,3409.7510430577463,0.0
553204.59901257406,4142374.0504322448,-2500.0,-3959.7223178563409,1044.5295915290835,-590.51153493655897,-228.61977176928471,64.144145050295265,-9.4114102253650493,2137.1631094063746,-2801.9178693766153,1142.0919928261007,-1142.0919928261007,2801.9178693766153,4133.9301007297199,0.0
558204.59901257406,4142374.0504322448,-2500.0,-4769.2275258925356,1389.3283256314583,-769.6672001344831,-293.24483341801721,90.525112346783231,-12.820266059691928,2613.9079846383884,-3365.3812592398544,1447.4826521130617,-1447.4826521130617,3365.3812592398544,5066.5191823651894,0.0
563204.59901257406,4142374.0504322448,-2500.0,-5785.2043843933343,1874.1747433066339,-1028.8277347845888,-380.23564290335736,129.90362356017582,-17.674281056061048,3233.6969886433981,-4065.1048795410443,1853.0663980965821,-1853.0663980965821,4065.1048795410443,6283.0670860978435,0.0
568204.59901257406,4142374.0504322448,-2500.0,-7060.9502731666926,2566.7292926847485,-1415.1639645019964,-498.0354863915374,189.73780192127802,-24.601931616582657,4049.628226131058,-4929.8080325580522,2394.9512154097902,-2394.9512154097902,4929.8080325580522,7891.5016961506644,0.0
573204.59901257406,4142374.0504322448,-2500.0,-8652.1557623801709,3571.4973120070126,-2010.4871853129994,-657.52213822612259,282.19674446524641,-34.38123170277521,5136.9791085084216,-5981.203015219603,3119.571904177873,-3119.571904177873,5981.203015219603,10047.093474637144,0.0
578204.59901257406,4142374.0504322448,-2500.0,-10593.966197066513,5049.638058302744,-2961.9064946064823,-870.55421721581206,426.94875821135031,-47.618257935388726,6601.4719355084926,-7208.3161793267218,4078.5648952200345,-4078.5648952200345,7208.3161793267218,12973.065029594749,0.0
583204.59901257406,4142374.0504322448,-2500.0,-12832.146676115908,7242.7151825244746,-4544.1320655418122,-1142.9371310538411,654.17911032038171,-63.369238892733009,8586.2681226762707,-8497.6237824246782,5301.5891260596572,-5301.5891260596572,8497.6237824246782,16984.657367601802,0.0
588204.59901257406,4142374.0504322448,-2500.0,-15030.453617178406,10474.968397521299,-7288.3344770425647,-1450.739182487468,1002.2160769664372,-74.352732660137818,11265.45536259337,-9447.8154591535858,6694.6029477408474,-6694.6029477408474,9447.8154591535858,22501.901698232694,0.0
593204.59901257406,4142374.0504322448,-2500.0,-16057.405772886113,15002.13252045198,-12236.442900284246,-1675.1558239317737,1483.2138623012167,-52.780911529403355,15208.482821720887,-8893.8701312095309,7693.3926243596843,-7693.3926243596843,8893.8701312095309,29996.747298871058,0.0
598204.59901257406,4142374.0504322448,-2500.0,-12768.091881674185,20120.495154404955,-21281.051532591937,-1484.5610835018088,1921.7979512857462,77.708160154017378,20644.196310205429,-3824.3348140422913,6164.7568049289548,-6164.7568049289548,3824.3348140422913,39737.079672222637,0.0
603204.59901257406,4142374.0504322448,-2500.0,1663.1658231246736,20369.036044532062,-36135.943978948104,-490.57932467585152,1526.6720897027828,399.87628743399256,27815.788201366733,11800.089254341088,-4315.1302115112594,4315.1302115112594,-11800.089254341088,51332.489300529051,0.0
608204.59901257406,4142374.0504322448,-2500.0,30870.183690870035,-3728.2502851746453,-44775.886407608385,-292.05918531656368,-387.00854170559046,350.36229803129226,38009.323732182056,38140.174760962087,-33118.777375537167,33118.777375537167,-38140.174760962087,66238.113226622925,0.0
613204.59901257406,4142374.0504322448,-2500.0,32327.472080275413,-55232.820589187853,20535.186643974099,-3328.8236338039433,3044.3024832958486,-1946.1755398908467,55667.541902045392,21261.132033777823,-37762.653712785475,37762.653712785475,-21261.132033777823,100611.21321810447,0.0
618204.59901257406,4142374.0504322448,-2500.0,-160.22445877850083,-18498.71971304018,122311.31299176931,2687.7645855090245,7116.3367324299916,-3974.5537160681274,66376.584310150327,-39887.034990634245,53971.043761553301,-53971.043761553301,39887.034990634245,129155.64345239069,0.0
623204.59901257406,4142374.0504322448,-2500.0,21498.510051322402,28668.206825851928,94787.394704004459,3454.0459951018856,-2442.0019837631621,-2200.0017220989685,53999.808008322623,-18364.761381596491,72641.481209410864,-72641.481209410864,18364.761381596491,100940.56290617792,0.0
628204.59901257406,4142374.0504322448,-2500.0,30209.880809305749,26076.240926108912,50967.539208681628,-1012.6973564233613,-5098.6425172385816,-435.41870910906897,35025.406687739414,3030.9388068970511,44549.941868821254,-44549.941868821254,-3030.9388068970511,64242.630554956879,0.0
633204.59901257406,4142374.0504322448,-2500.0,24873.017361045233,17720.408842574812,25909.692876843328,-2253.6266673618088,-3303.8390965714216,57.081821274938335,21917.751191074025,8202.4566702507836,24670.446343575892,-24670.446343575892,-8202.4566702507836,40406.096718867033,0.0
638204.59901257406,4142374.0504322448,-2500.0,18742.053450793785,11047.98201631041,10488.739558334086,-1859.207782079993,-1577.3905882565382,99.30239766543491,13386.10077625347,9407.6038691425438,11675.807572751766,-11675.807572751766,-9407.6038691425438,25412.851957399242,0.0
643204.59901257406,4142374.0504322448,-2500.0,13342.542782680015,5403.951182965493,1686.7567762468664,-1207.3649142484887,-531.15817882662577,63.530568049147107,8007.3955096836535,8839.7268838461569,3101.4483708644484,-3101.4483708644484,-8839.7268838461569,15818.970585295054,0.0
648204.59901257406,4142374.0504322448,-2500.0,8591.2074363170013,1331.5292975642874,-2277.3329197667008,-662.46300633086923,3.401250151321614,28.756743626970234,5621.055708270781,6994.9597021721111,-1606.2116115251242,1606.2116115251242,-6994.9597021721111,10247.678159304389,0.0
653204.59901257406,4142374.0504322448,-2500.0,4807.5816196088599,-1030.5737387375948,-3457.2123126393003,-290.05920009558133,224.98563055718344,6.8506272806216533,4273.9439079942831,4790.1214657432392,-3541.7736978530997,3541.7736978530997,-4790.1214657432392,7434.1973165201498,0.0
658204.59901257406,4142374.0504322448,-2500.0,2121.7105224704155,-2106.4038657762944,-3377.4647859219463,-67.457147494692435,282.6689294760863,-4.1856784769970901,3475.288740166372,2868.3954947225284,-3921.0038884985115,3921.0038884985115,-2868.3954947225284,6052.5908619176853,0.0
663204.59901257406,4142374.0504322448,-2500.0,389.94934539247112,-2412.0739225223933,-2869.0807991961533,50.601015971311099,267.84283645501262,-8.5069186233060989,2921.0223072846356,1444.705650190373,-3599.2584635877342,3599.2584635877342,-1444.705650190373,5211.3977461573259,0.0
668204.59901257406,4142374.0504322448,-2500.0,-636.04422581762572,-2328.4532301531417,-2299.3370857175901,104.51899333566107,228.08414991254352,-9.3481724672360293,2481.2752172928613,489.83726985392559,-3046.5738753700057,3046.5738753700057,-489.83726985392559,4544.8424928927761,0.0
673204.59901257406,4142374.0504322448,-2500.0,-1188.9256990516053,-2082.2907356920537,-1799.3710682572469,122.53248966685435,184.87754523195861,-8.6510319448428188,2111.909227666727,-105.61072304312961,-2479.907741983252,2479.907741983252,105.61072304312961,3954.9425938484083,0.0
678204.59901257406,4142374.0504322448,-2500.0,-1444.719402905966,-1791.8096075773481,-1398.7374060848281,122.04894031679989,146.40536571509313,-7.4250529959489704,1798.0116087544866,-452.09646087917668,-1981.7233809021279,1981.7233809021279,452.09646087917668,3426.7442510834767,0.0
683204.59901257406,4142374.0504322448,-2500.0,-1523.1847273402036,-1511.800308685954,-1089.9344040432622,112.9992795211424,114.81955401318359,-6.1384576088353677,1532.1575284626529,-636.09933168034513,-1572.1557906133512,1572.1557906133512,636.09933168034513,2960.8026043325344,0.0
688204.59901257406,4142374.0504322448,-2500.0,-1501.0106321494377,-1263.7119695970819,-855.52556043288325,100.72820116175909,89.858754994766386,-4.9796218743511149,1308.2612647527965,-718.330566939086,-1246.1221581519694,1246.1221581519694,718.330566939086,2556.2981443760245,0.0
693204.59901257406,4142374.0504322448,-2500.0,-1425.4301931461243,-1052.8572775062905,-678.14742889417937,87.949495575461597,70.484167587749013,-4.0042405394062941,1120.4691566434785,-739.03810348654724,-990.46930836623233,990.46930836623233,739.03810348654724,2209.1425686903881,0.0
698204.59901257406,4142374.0504322448,-2500.0,-1324.6882393522817,-877.45244746506978,-543.45530613411938,75.934259667507149,55.55298265898174,-3.2106569795376521,963.32294317897833,-724.0162376695373,-791.14839981650903,791.14839981650903,724.0162376695373,1913.261853094675,0.0
703204.59901257406,4142374.0504322448,-2500.0,-1215.2012491168132,-733.08600538957648,-440.44213899998795,65.192034711507475,44.058171762436444,-2.5760821958671234,833.00363819443385,-689.42310523542494,-635.80173550168672,635.80173550168672,689.42310523542494,1661.937942430731,0.0
708204.59901257406,4142374.0504322448,-2500.0,-1106.1731268345516,-614.79034777897493,-360.93404744727206,55.84706548902048,35.186243112429885,-2.0728036702420267,728.50428220785511,-645.18953257200144,-514.3857845306926,514.3857845306926,645.18953257200144,1448.6450618154361,0.0
713204.59901257406,4142374.0504322448,-2500.0,-1002.4859665050828,-517.92239068238541,-298.94506649738628,47.841055465744098,28.306632381193143,-1.6747778928657162,640.11156604111693,-597.2977910827758,-419.04388353025655,419.04388353025655,597.2977910827758,1267.4707622844878,0.0
718204.59901257406,4142374.0504322448,-2500.0,-906.47178954308765,-438.46998761799142,-250.10763002434618,41.039269185106626,22.940334199930678,-1.3598260684795238,564.33881252462049,-549.25529960326003,-343.74428343304135,343.74428343304135,549.25529960326003,1113.2644586618928,0.0
523204.59901257406,4147374.0504322448,-2500.0,-1426.6542999055541,320.28791728705346,-210.5372542377327,-60.323268276486232,14.761141764712873,-1.8211195182069422,754.5748749190011,-1005.8356480812174,368.01307537557449,-368.01307537557449,1005.8356480812174,1447.6359199328763,0.0
528204.59901257406,4147374.0504322448,-2500.0,-1635.4935764019156,394.38337116670391,-251.79261047903157,-72.482128555024147,19.040565456265305,-2.2968367474879035,872.08107868037939,-1151.7017685473697,437.73300286830573,-437.73300286830573,1151.7017685473697,1674.9828010903764,0.0
533204.59901257406,4147374.0504322448,-2500.0,-1883.6201354317409,489.31867953670451,-304.80672783540524,-87.705473847283258,24.792418855152132,-2.923894063065112,1014.1288983364963,-1324.2051712762659,523.82930107626476,-523.82930107626476,1324.2051712762659,1950.2873480008898,0.0
538204.59901257406,4147374.0504322448,-2500.0,-2179.5284512441867,612.03838848784574,-373.98059715058639,-106.90521122619074,32.609917355956043,-3.758676373074342,1187.1133244554521,-1528.6710435076418,630.74455854063467,-630.74455854063467,1528.6710435076418,2286.2130430659081,0.0
543204.59901257406,4147374.0504322448,-2500.0,-2533.4522500634353,772.14122734688851,-465.74470702614838,-131.29325834931791,43.360823838319355,-4.8811588950447229,1399.3915734090999,-1771.2317314745242,764.18036832563018,-764.18036832563018,1771.2317314745242,2699.3890411374423,0.0
548204.59901257406,4147374.0504322448,-2500.0,-2957.4123332203617,982.99202662608923,-589.66602069870692,-162.47748843180167,58.329782640227393,-6.4052761865655645,1661.9448093244062,-2058.5765380297598,931.37043480470652,-931.37043480470652,2058.5765380297598,3211.7990348412677,0.0
553204.59901257406,4147374.0504322448,-2500.0,-3464.8460373364751,1263.3018994981473,-760.24871716085693,-202.57343095105642,79.44017621488122,-8.4931106985725009,1989.2534721324218,-2397.1962332192174,1141.2699406389552,-1141.2699406389552,2397.1962332192174,3852.663316747698,0.0
558204.59901257406,4147374.0504322448,-2500.0,-4069.2468815698739,1639.3146019904304,-999.91307112283289,-254.30737223725015,109.59903367811482,-11.373123249647414,2400.4123322067121,-2791.5486847891516,1404.4067141906353,-1404.4067141906353,2791.5486847891516,4660.9323112064712,0.0
563204.59901257406,4147374.0504322448,-2500.0,-4780.5945726104428,2147.6543569240357,-1344.0004043621232,-321.03478988110982,153.22521055135593,-15.358272229665626,2920.4406093329117,-3239.9650532418937,1731.7647314288304,-1731.7647314288304,3239.9650532418937,5688.440455021323,0.0
568204.59901257406,4147374.0504322448,-2500.0,-5596.9815209679709,2838.4734934801686,-1849.2690062657341,-406.46633209048025,217.02202369182064,-20.848652310375648,3581.513142500286,-3725.8624096156373,2131.1690467742146,-2131.1690467742146,3725.8624096156373,7003.470536777354,0.0
573204.59901257406,4147374.0504322448,-2500.0,-6485.9649870770163,3777.1178186175766,-2608.3156856696023,-513.57434238253938,310.97549490558629,-28.26888399797361,4423.2116973725033,-4199.2691683278999,2597.4978768228984,-2597.4978768228984,4199.2691683278999,8693.5937574476884,0.0
578204.59901257406,4147374.0504322448,-2500.0,-7344.3891821462475,5038.083514447676,-3773.3995568438313,-641.41986646022644,449.16801467999528,-37.797954936867619,5489.2680503416977,-4538.704279380263,3087.9808309327877,-3087.9808309327877,4538.704279380263,10864.292491644957,0.0
583204.59901257406,4147374.0504322448,-2500.0,-7915.0568583203803,6671.8246875436562,-5591.9248156144022,-777.1440339390972,648.57045824621775,-48.533012582743936,6814.9002331046795,-4475.1806873109044,3462.3074403484334,-3462.3074403484334,4475.1806873109044,13624.158313195125,0.0
588204.59901257406,4147374.0504322448,-2500.0,-7627.2712837086065,8587.697301118973,-8440.120104291349,-878.3129111018593,919.53276460353834,-56.370067806274719,8645.8047883517647,-3454.0907753333813,3344.5229725235276,-3344.5229725235276,3454.0907753333813,17036.132882261449,0.0
593204.59901257406,4147374.0504322448,-2500.0,-5356.5124788785524,10204.309646181977,-12757.152574659887,-843.31468562845066,1230.7415246989781,-50.225907248340121,10910.297277273912,-452.70778426495986,1842.1908024191564,-1842.1908024191564,452.70778426495986,21006.13213596437,0.0
598204.59901257406,4147374.0504322448,-2500.0,622.87579836558234,9587.0487208029499,-18429.741937648691,-501.19870270591031,1420.7319845554398,-12.909027538327955,13566.282458188343,5915.2674258431953,-2803.7408775780505,2803.7408775780505,-5915.2674258431953,25176.112641727974,0.0
603204.59901257406,4147374.0504322448,-2500.0,11050.087778063005,2265.7434525620747,-22157.738504598816,228.07867045758266,1110.7697851773232,37.157309150121506,16788.561416705496,15434.776843982308,-12425.746598152171,12425.746598152171,-15434.776843982308,29624.097461747067,0.0
608204.59901257406,4147374.0504322448,-2500.0,19644.212283017787,-15704.867833403354,-11541.5408714063,899.44690606417612,80.151752347421521,-85.254177467630413,22148.043884774219,19607.890029024038,-22190.801080127636,22190.801080127636,-19607.890029024038,38586.26289022564,0.0
613204.59901257406,4147374.0504322448,-2500.0,12298.812662718594,-30080.147950029714,28362.878604603433,1038.0156550153436,-954.42774741082269,-606.3929837690074,31155.441261420099,1876.7160344205877,-10057.535042535383,10057.535042535383,-1876.7160344205877,57899.220637452563,0.0
618204.59901257406,4147374.0504322448,-2500.0,-280.86430477650362,-13447.815144397273,69262.194140097956,1096.6259073269857,-2236.9822304139011,-960.62321545270379,37433.605224183186,-22492.903863469146,28221.714734905108,-28221.714734905108,22492.903863469146,73791.075299188626,0.0
623204.59901257406,4147374.0504322448,-2500.0,5348.3290106534796,12301.183012557489,68436.635179852063,135.0837023316947,-3980.4736862324539,-579.37706171746959,35969.761257629609,-20095.914457188541,47392.446926940451,-47392.446926940451,20095.914457188541,69934.151712874096,0.0
628204.59901257406,4147374.0504322448,-2500.0,14775.865389437813,20074.641571391934,46066.620802733953,-1313.4982470858754,-4096.9692636981299,-95.950417858431592,28341.114098064303,-6219.8242799353211,39504.407683800222,-39504.407683800222,6219.8242799353211,54130.745771294285,0.0
633204.59901257406,4147374.0504322448,-2500.0,17292.497408351923,17213.133324094564,26359.084447623391,-1856.0241866113392,-2921.2062328494321,93.736553558218091,20075.791886820381,2503.5968188695606,25744.073260253179,-25744.073260253179,-2503.5968188695606,38193.522083544623,0.0
638204.59901257406,4147374.0504322448,-2500.0,15604.717826191714,12173.054009647636,13111.671057897956,-1655.032063203651,-1680.1965836205343,107.29950251225945,13455.689630718303,6122.3332687501752,14554.228968531585,-14554.228968531585,-6122.3332687501752,25864.759327204112,0.0
643204.59901257406,4147374.0504322448,-2500.0,12545.025783511217,7463.2725367949233,4995.1565614923784,-1216.53783583883,-802.99607828027365,74.549510288915684,8655.4934791674496,6974.3488163749635,6731.9379907955454,-6731.9379907955454,-6974.3488163749635,17083.279856344492,0.0
648204.59901257406,4147374.0504322448,-2500.0,9267.5675702118933,3770.3129978892875,575.01625537611062,-794.14088636770077,-280.07984334987026,42.327894526401693,5786.9994591379518,6339.7337046977018,1832.5132010502903,-1832.5132010502903,-6339.7337046977018,11191.412773490832,0.0
653204.59901257406,4147374.0504322448,-2500.0,6313.7757414709804,1251.4430467652903,-1455.4174419785259,-467.8089723804863,-6.5084181167444104,20.199116819268156,4098.9725876449302,5045.6012742399989,-840.11025648905343,840.11025648905343,-5045.6012742399989,7511.8871610727292,0.0
658204.59901257406,4147374.0504322448,-2500.0,3938.2465010590022,-254.33540670859941,-2141.8608096779535,-243.77865108688533,115.66766234947202,7.1712799582088564,3061.0509845210418,3644.783231215908,-2042.9676283503368,2042.9676283503368,-3644.783231215908,5378.8640740394339,0.0
663204.59901257406,4147374.0504322448,-2500.0,2183.2670951226978,-1033.9473360951331,-2174.583851281945,-102.23475388931527,155.76573962443499,0.32739091873711479,2418.9824744696894,2423.743510290105,-2399.5723338846478,2399.5723338846478,-2423.743510290105,4189.8031911350836,0.0
668204.59901257406,4147374.0504322448,-2500.0,968.26027146886304,-1356.5742036673216,-1942.1628878630663,-18.86723891306514,156.11895844764064,-2.8319181017127391,1995.1726157232852,1475.2947505485342,-2329.9422360024623,2329.9422360024623,-1475.2947505485342,3490.3240285807105,0.0
673204.59901257406,4147374.0504322448,-2500.0,170.81959132326568,-1419.877581090409,-1636.8725612185431,26.716964606072782,139.9648584936576,-3.9841891634820588,1687.9611598328197,789.61125151398483,-2079.9984197777262,2079.9984197777262,-789.61125151398483,3015.1923267173788,0.0
678204.59901257406,4147374.0504322448,-2500.0,-326.52658081832215,-1350.6254409764497,-1342.1970228797957,49.142872706408653,118.94584301838022,-4.1298863277355773,1447.0250330508511,318.24425710449736,-1778.7847361090974,1778.7847361090974,-318.24425710449736,2642.9588571663912,0.0
683204.59901257406,4147374.0504322448,-2500.0,-618.43083053871931,-1223.175812420558,-1087.7292768468824,58.03037541065396,98.337583858573211,-3.8221245272755664,1248.9157152090688,7.2664113845449947,-1486.9462053256043,1486.9462053256043,-7.2664113845449947,2326.8026179526623,0.0
688204.59901257406,4147374.0504322448,-2500.0,-774.53426607356755,-1078.121125137666,-878.91662810739899,59.374019926297223,80.178222452524267,-3.3484916013869213,1082.2536341750349,-189.615758300111,-1228.6683918430213,1228.6683918430213,189.615758300111,2050.1264144330707,0.0
693204.59901257406,4147374.0504322448,-2500.0,-843.42643884519896,-935.99436129996877,-711.71797755294756,56.770679418919727,64.976259943373464,-2.8491120924914357,940.69609710466557,-307.95925372290515,-1010.2063159685598,1010.2063159685598,307.95925372290515,1806.5981902660867,0.0
698204.59901257406,4147374.0504322448,-2500.0,-857.89947144560404,-806.06971498086921,-579.27480441557407,52.312773979655788,52.583861905829295,-2.3860667372585991,820.01032449399804,-373.51471301615095,-829.80393183368949,829.80393183368949,373.51471301615095,1592.7705346275789,0.0
703204.59901257406,4147374.0504322448,-2500.0,-839.59203049449741,-691.60971506183603,-474.67838434433367,47.179725599244343,42.618834082820023,-1.981923607977309,716.94878891928352,-404.30284574464883,-682.68412101580918,682.68412101580918,404.30284574464883,1405.7724462483986,0.0
708204.59901257406,4147374.0504322448,-2500.0,-802.54124921431014,-592.84763805602506,-391.9448231437695,42.009834401282617,34.655671394252778,-1.6403597881062422,628.841716201949,-412.66862330947885,-563.4015980571919,563.4015980571919,412.66862330947885,1242.7739569346154,0.0
713204.59901257406,4147374.0504322448,-2500.0,-755.71510862382922,-508.62194154005726,-326.22269534693424,37.12706508435916,28.303533611202507,-1.3567635150134878,553.50407742456161,-406.94895448952866,-466.85409809559815,466.85409809559815,406.94895448952866,1100.9797568344663,0.0
718204.59901257406,4147374.0504322448,-2500.0,-704.74630964133485,-437.23837073848199,-273.70415735158548,32.676498930073841,23.231371547956527,-1.1235490256266343,490.21456723734667,-392.7126537848269,-388.63990560445359,388.63990560445359,392.7126537848269,977.72480091706052,0.0
523204.59901257406,4152374.0504322448,-2500.0,-1320.6196068617733,383.72168086405583,-248.16005609044976,-56.088950724343391,18.003732572639038,-1.708557109268908,723.43401186164249,-920.00093519632139,380.3443505100405,-380.3443505100405,920.00093519632139,1388.2918975165496,0.0
528204.59901257406,4152374.0504322448,-2500.0,-1498.1976472297642,466.55309792338227,-298.91845373501229,-66.759155754870918,22.934682764558552,-2.1375424087006047,831.09478067593125,-1040.3109566455275,446.64087546736187,-446.64087546736187,1040.3109566455275,1596.9459597790767,0.0
533204.59901257406,4152374.0504322448,-2500.0,-1704.4417354399343,570.8283485162035,-364.20849629097359,-79.89321909332439,29.462063095020838,-2.6957816480402323,959.74207008718679,-1178.5426200646657,526.52039145219453,-526.52039145219453,1178.5426200646657,1846.8123250546039,0.0
538204.59901257406,4152374.0504322448,-2500.0,-1943.72381976165,702.91708155902973,-449.29927628995392,-96.127047549054168,38.182883653605877,-3.4278963692634425,1114.290020080525,-1336.6445725122289,622.81244408480859,-622.81244408480859,1336.6445725122289,2147.7428694362457,0.0
543204.59901257406,4152374.0504322448,-2500.0,-2220.3691393696522,871.21772701406098,-561.73455959057515,-116.2543808603431,49.944211199057143,-4.3951328205149709,1300.9086006693321,-1515.9242826719926,738.68003080761696,-738.68003080761696,1515.9242826719926,2512.2117449135453,0.0
548204.59901257406,4152374.0504322448,-2500.0,-2537.8781871274132,1086.7483541391828,-712.44901186986419,-141.24291925807776,65.955000075013004,-5.6812460839289134,1527.3067417747588,-1716.1449153834253,877.33820382913041,-877.33820382913041,1716.1449153834253,2955.9823539614904,0.0
553204.59901257406,4152374.0504322448,-2500.0,-2897.3591261765969,1363.7759589963473,-917.47393419114883,-172.2195425976947,87.94577268944002,-7.3994363822196654,1803.0043684810532,-1933.8445780898869,1041.3445070397224,-1041.3445070397224,1933.8445780898869,3498.8370461039826,0.0
558204.59901257406,4152374.0504322448,-2500.0,-3294.4970961644126,1720.2652390317826,-1200.5373185904641,-210.37592008850351,118.3882061696527,-9.6985894779112449,2139.4826696433674,-2159.2614670496077,1231.0064054552831,-1231.0064054552831,2159.2614670496077,4165.2240866961265,0.0
563204.59901257406,4152374.0504322448,-2500.0,-3713.8521159759134,2177.536479154352,-1596.9574665576013,-256.6892625271135,160.77113806315336,-12.763454534806442,2549.9484308034853,-2370.7916116126771,1440.9990230109495,-1440.9990230109495,2370.7916116126771,4984.4449054325614,0.0
568204.59901257406,4152374.0504322448,-2500.0,-4118.3869569487033,2757.5950296265173,-2159.2047861232181,-311.23950782961094,219.87177932875468,-16.794122202927248,3048.1244469156713,-2525.1848686140333,1653.416593173863,-1653.416593173863,2525.1848686140333,5989.5177552703808,0.0
573204.59901257406,4152374.0504322448,-2500.0,-4430.8427642120314,3474.4367106962377,-2963.8988376910975,-371.68972220088182,301.78263117020316,-21.929672557041862,3644.8095613979822,-2540.7733257425089,1823.8927522971878,-1823.8927522971878,2540.7733257425089,7212.8787761239946,0.0
578204.59901257406,4152374.0504322448,-2500.0,-4502.5353226843199,4310.8384192589256,-4117.302274753778,-430.15224540224324,412.96722077349983,-28.038999839389597,4339.7554917583548,-2270.789934204814,1854.9495986587378,-1854.9495986587378,2270.789934204814,8675.3962594118657,0.0
583204.59901257406,4152374.0504322448,-2500.0,-4067.7706076730292,5162.5051788044138,-5746.9118285641844,-467.35216416799273,556.42250560129867,-34.244871229081362,5256.3577040276541,-1468.1997566644598,1548.7847421771401,-1548.7847421771401,1468.1997566644598,10363.404640834178,0.0
588204.59901257406,4152374.0504322448,-2500.0,-2701.288572459951,5716.9123096305548,-7937.6152756408919,-443.78089765448811,720.60517913985279,-38.0758037989496,6318.8244805948088,233.70106497396358,539.58061020826835,-539.58061020826835,-233.70106497396358,12192.422676662398,0.0
593204.59901257406,4152374.0504322448,-2500.0,130.77368125250877,5236.5542352071525,-10494.745107901912,-293.26011823375268,854.12758076556213,-34.766717909532616,7492.3717944520913,3220.9456218819755,-1738.0988340280305,1738.0988340280305,-3220.9456218819755,13995.756770502936,0.0
598204.59901257406,4152374.0504322448,-2500.0,4651.544438810105,2356.1567791066022,-12285.923242383975,57.335322349083086,826.29817372419097,-19.766387036271983,8819.2701025399656,7383.9599459392748,-5773.5928667588805,5773.5928667588805,-7383.9599459392748,15757.264117797682,0.0
603204.59901257406,4152374.0504322448,-2500.0,9579.6454309537403,-4378.5462964445433,-10042.840653451975,596.4134055021716,421.07900551670127,-1.1533944770949465,10768.682370640057,10791.29795832675,-10684.132430408283,10684.132430408283,-10791.29795832675,18653.381116686032,0.0
608204.59901257406,4152374.0504322448,-2500.0,11008.211876308384,-13577.147427003667,1644.1475462997585,1093.1482885902944,-510.4664405715161,-14.19844471162155,14398.659855377413,8630.2476212524089,-11689.777023121682,11689.777023121682,-8630.2476212524089,25755.54532544118,0.0
613204.59901257406,4152374.0504322448,-2500.0,6037.2271351389509,-17361.062701473351,23701.785316495374,1182.6543066742106,-1788.8951290527434,-76.126533254255435,19545.660729295334,-2170.3428486064099,-1514.7210565419223,1514.7210565419223,2170.3428486064099,37086.592533217743,0.0
618204.59901257406,4152374.0504322448,-2500.0,456.40609946568196,-8822.4632944575478,43274.836693054771,696.99652961031848,-2961.0725706135363,-100.26077770092084,23263.629483879926,-13554.617232000586,17195.306553599599,-17195.306553599599,13554.617232000586,46030.775781993776,0.0
623204.59901257406,4152374.0504322448,-2500.0,1706.8652261396555,4651.6431185694591,46439.834247289858,-191.79485900423808,-3521.6391239471091,-20.521643225890791,23741.736476908318,-14762.250278027237,29521.768208149264,-29521.768208149264,14762.250278027237,46728.182710521476,0.0
628204.59901257406,4152374.0504322448,-2500.0,6795.6764464077587,12304.48848056608,36694.283226275387,-989.14884799038487,-3230.4626200909884,75.782473812064794,20796.119486753676,-8329.942587196043,29330.61263094638,-29330.61263094638,8329.942587196043,40353.975674326328,0.0
633204.59901257406,4152374.0504322448,-2500.0,10266.357924615557,13233.060495881926,24242.267168839673,-1332.0203852884572,-2418.473868200424,111.76648045865171,16291.405959454887,-1647.8075739369851,22515.640256607137,-22515.640256607137,1647.8075739369851,31441.580236578979,0.0
638204.59901257406,4152374.0504322448,-2500.0,11021.795912805401,10913.738426353035,14087.074298537942,-1275.914593615378,-1558.7446237128231,99.102526757849816,11910.621595339084,2514.9143588320503,14838.504381610783,-14838.504381610783,-2514.9143588320503,23058.279341939404,0.0
643204.59901257406,4152374.0504322448,-2500.0,10037.316317307646,7771.8634864407231,7077.4740134714039,-1031.2499142616775,-885.86783104359586,70.752950371883315,8311.4371681039338,4399.7654223674726,8553.3982001734003,-8553.3982001734003,-4399.7654223674726,16289.379874269092,0.0
648204.59901257406,4152374.0504322448,-2500.0,8269.2750565311453,4884.6551059469821,2732.9851084144047,-750.50353847400709,-434.8793241418345,44.537345793771365,5648.2862381488076,4788.6619201851781,4095.2611971581327,-4095.2611971581327,-4788.6619201851781,11251.621099283324,0.0
653204.59901257406,4152374.0504322448,-2500.0,6321.7004822803274,2638.0326442438636,311.75025090550236,-505.22407730340097,-163.05370542045659,25.433591190147368,4018.3044435811462,4346.4434632202638,1257.6107677546797,-1257.6107677546797,-4346.4434632202638,7723.042808520464,0.0
658204.59901257406,4152374.0504322448,-2500.0,4531.8206073037945,1077.6864513393377,-871.44451272605716,-317.14145867883684,-14.320005430280412,13.068509588289739,2920.0162654717719,3549.0342055032738,-362.53502385015645,362.53502385015645,-3549.0342055032738,5383.7676813360104,0.0
663204.59901257406,4152374.0504322448,-2500.0,3050.2253263677426,92.76976459402492,-1334.9633487065998,-184.16029430750908,58.057068642789787,5.6733081188649503,2201.4614561824847,2690.8959464807058,-1169.1503503897745,1169.1503503897745,-2690.8959464807058,3909.7208693267112,0.0
668204.59901257406,4152374.0504322448,-2500.0,1907.2051857990909,-471.52758890373514,-1419.9754581546615,-95.468496125110079,86.784499259501615,1.5395582074820131,1733.7779943038258,1921.5606353569297,-1482.2976981713696,1482.2976981713696,-1921.5606353569297,3012.9969933935054,0.0
673204.59901257406,4152374.0504322448,-2500.0,1069.3148029136639,-755.80080016916736,-1328.3816794781299,-39.068486626033732,92.462606568398471,-0.60298874942665748,1420.7181989997885,1295.5180373800349,-1522.1598128546857,1522.1598128546857,-1295.5180373800349,2464.1968197494475,0.0
678204.59901257406,4152374.0504322448,-2500.0,479.13068605152694,-866.71953672482016,-1169.653237306203,-4.8073466971688044,87.111956726309586,-1.5937022795203846,1199.0322909262377,815.75383007164533,-1426.0530183931794,1426.0530183931794,-815.75383007164533,2105.5680462039886,0.0
683204.59901257406,4152374.0504322448,-2500.0,77.608389950794759,-877.29460482474781,-998.30536382628406,14.910928647284763,77.312479735308017,-1.9500314546710451,1031.5103743677871,462.88072747804461,-1273.3054327259715,1273.3054327259715,-462.88072747804461,1845.4967041628529,0.0
688204.59901257406,4152374.0504322448,-2500.0,-186.12061397649398,-834.20171768197781,-838.67841889605666,25.384985249378303,66.440064859959151,-1.9761487539123017,897.79306198815266,211.28997977474501,-1106.6050174203447,1106.6050174203447,-211.28997977474501,1637.9131043135626,0.0
693204.59901257406,4152374.0504322448,-2500.0,-352.11198150302351,-765.77635483587142,-699.62265521211225,30.151685447524763,56.08564565820663,-1.844248292493333,786.98902105086449,36.675232889699885,-947.05380937216228,947.05380937216228,-36.675232889699885,1461.7035874097564,0.0
698204.59901257406,4152374.0504322448,-2500.0,-450.29230333339183,-688.43516640114467,-582.59210908522027,31.50256831451615,46.893280344142845,-1.6483614723416902,693.09089141357219,-81.236918246633195,-803.7274227533112,803.7274227533112,81.236918246633195,1307.4950253057928,0.0
703204.59901257406,4152374.0504322448,-2500.0,-502.29627265806971,-611.20003838430262,-485.86285546981219,30.889871742640846,39.030972747608182,-1.4376458621387085,612.51702904190665,-158.2624620728489,-679.35712803180263,679.35712803180263,158.2624620728489,1170.9089914517426,0.0
708204.59901257406,4152374.0504322448,-2500.0,-523.42939234490154,-538.66523638251192,-406.61762071261427,29.216874078736499,32.444882464308485,-1.2361743294037426,542.89794342490507,-206.26999266482687,-573.55086260089149,573.55086260089149,206.26999266482687,1049.5389611876014,0.0
713204.59901257406,4152374.0504322448,-2500.0,-524.35813012714664,-472.85887648837729,-341.91025161858272,27.034843812161753,26.991442359949435,-1.0543936093698376,482.50272848299369,-233.95459619244008,-484.54690514023827,484.54690514023827,233.95459619244008,941.71289994662152,0.0
523204.59901257406,4157374.0504322448,-2500.0,-1195.7533100269195,427.83312603108311,-285.95095549897712,-51.072966464408282,20.401493480875803,-1.5738458859727875,684.09391319630026,-818.70569468376425,374.11864106011785,-374.11864106011785,818.70569468376425,1313.5962798302817,0.0
528204.59901257406,4157374.0504322448,-2500.0,-1339.5353921949827,513.40304685347974,-345.09248603582222,-60.099329812340535,25.671816537796587,-1.9500629268917229,780.27921878925986,-911.49591447282148,432.42561379580582,-432.42561379580582,911.49591447282148,1500.4865694135092,0.0
533204.59901257406,4157374.0504322448,-2500.0,-1501.5495364062961,618.93204708390442,-420.70417282724395,-70.974551436616878,32.532566756495044,-2.4320788299134679,893.59746990191707,-1013.7466907024994,500.35458958177617,-500.35458958177617,1013.7466907024994,1721.2738304451632,0.0
538204.59901257406,4157374.0504322448,-2500.0,-1682.6010282094501,749.43562103029228,-518.38453320080919,-84.076809736569274,41.525120221796215,-3.0528288781601898,1027.482639651357,-1124.559966375132,578.89279321318554,-578.89279321318554,1124.559966375132,1982.994067097922,0.0
543204.59901257406,4157374.0504322448,-2500.0,-1882.1803170876442,911.05354917400234,-645.90107369280838,-99.825023573663515,53.388028825736171,-3.8555880010303865,1185.9887048235655,-1241.4261066497936,668.49349515205654,-668.49349515205654,1241.4261066497936,2294.0919641265432,0.0
548204.59901257406,4157374.0504322448,-2500.0,-2097.2868576006467,1111.0591618860356,-814.07751084350218,-118.64062039161414,69.125560151257304,-4.8962025217386245,1373.776956476426,-1359.058659811659,768.39481910209111,-768.39481910209111,1359.058659811659,2664.5203768509596,0.0
553204.59901257406,4157374.0504322448,-2500.0,-2320.4474651872974,1357.540907051877,-1038.0068124556753,-140.85681158350835,90.089735241944155,-6.2445359285882152,1595.9551882091237,-1467.4997534486697,875.36379843336135,-875.36379843336135,1467.4997534486697,3105.6373997410487,0.0
558204.59901257406,4157374.0504322448,-2500.0,-2536.4457056267511,1658.3277251250374,-1338.6142056351525,-166.52611922310425,118.06113970802092,-7.9826878091114963,1857.6083416607232,-1549.0978383987799,981.43203549363909,-981.43203549363909,1549.0978383987799,3629.6574990721861,0.0
563204.59901257406,4157374.0504322448,-2500.0,-2717.0678290530313,2018.2828053574699,-1744.4076693106163,-195.03732910375965,155.28126910140233,-10.194586535627282,2162.7183703641149,-1573.8316301775562,1069.9034263297845,-1069.9034263297845,1573.8316301775562,4248.2013512750591,0.0
568204.59901257406,4157374.0504322448,-2500.0,-2813.0529066386098,2433.2476025854221,-2292.6826647759726,-224.39173596029804,204.31123113839598,-12.936020737670169,2511.94058031031,-1492.4931704646065,1108.5435887270792,-1108.5435887270792,1492.4931704646065,4969.1758008382676,0.0
573204.59901257406,4157374.0504322448,-2500.0,-2742.8370107792148,2877.4320997391324,-3027.8848995071025,-249.91335323517202,267.41689247477723,-16.162847622791617,2898.7271735211425,-1227.9490288536763,1038.6180445882437,-1038.6180445882437,1227.9490288536763,5790.8539012563106,0.0
578204.59901257406,4157374.0504322448,-2500.0,-2379.9344369723017,3278.9068983255424,-3990.9215876186554,-262.15076239858678,344.82503181503267,-19.582533192664364,3390.7845206334832,-667.50969594710728,759.30099885466097,-759.30099885466097,667.50969594710728,6692.2052131755563,0.0
583204.59901257406,4157374.0504322448,-2500.0,-1548.2446306581753,3476.5209671705761,-5184.2630543224313,-244.04158887969476,430.59110157901802,-22.391058401936231,3940.1309984328232,332.16348757723517,112.14474258339587,-112.14474258339587,-332.16348757723517,7621.7045264721719,0.0
588204.59901257406,4157374.0504322448,-2500.0,-53.591988400355476,3158.4096689416497,-6480.6910211172572,-168.80389827317453,504.236078196015,-22.933606719406725,4524.3935313354013,1895.9017794705655,-1111.6252289031968,1111.6252289031968,-1895.9017794705655,8501.7931999335688,0.0
593204.59901257406,4157374.0504322448,-2500.0,2185.8563021665032,1820.9049606670947,-7425.4707638140626,-3.8071306471545756,517.44722521761275,-18.627844166263266,5157.3753783950669,3970.4597924630616,-3071.6793598712029,3071.6793598712029,-3970.4597924630616,9316.636902941078,0.0
598204.59901257406,4157374.0504322448,-2500.0,4834.64818282132,-1097.742094929793,-6922.872309244819,268.44168547294629,383.00980866825171,-7.0977846712041099,5997.5401991687431,5983.5422690857395,-5546.4840704897924,5546.4840704897924,-5983.5422690857395,10441.563588944087,0.0
603204.59901257406,4157374.0504322448,-2500.0,6770.8816413406412,-5590.7474426248909,-3092.8343662284192,604.06255933710042,-7.2020465742014323,10.695077001755513,7476.8402299839145,6473.9779270989993,-7293.1160305530148,7293.1160305530148,-6473.9779270989993,13083.449723626882,0.0
608204.59901257406,4157374.0504322448,-2500.0,6388.4100728107942,-9934.3849441263483,5742.040621921562,857.41083018240886,-698.48494939722468,28.671877216196528,9978.6207631481448,3556.5978935489456,-5734.2505618215837,5734.2505618215837,-3556.5978935489456,18343.893785705935,0.0
613204.59901257406,4157374.0504322448,-2500.0,3475.3340537767776,-10642.66797658979,18252.120790559908,835.1617228219551,-1557.4225572177359,43.201614174058726,13021.26787836057,-2751.4844717375236,1198.9263391295326,-1198.9263391295326,2751.4844717375236,25100.142904265111,0.0
618204.59901257406,4157374.0504322448,-2500.0,706.88467262324446,-5841.5509727387644,28695.095690497379,463.23261033505224,-2275.7869105028608,61.306021288156252,15254.407122799335,-8690.6405694208588,11343.462062116469,-11343.462062116469,8690.6405694208588,30337.729713007706,0.0
623204.59901257406,4157374.0504322448,-2500.0,850.25202794546328,1567.8147802859235,31707.152649487507,-107.16142757018368,-2565.3317179345408,85.503366821678782,16057.434379303113,-10184.501056919806,18924.067035340857,-18924.067035340857,10184.501056919806,31677.788601144723,0.0
628204.59901257406,4157374.0504322448,-2500.0,3336.6294913845941,7103.1291144468505,27642.499176763151,-608.77361165249522,-2372.3237641021869,101.73904468240436,14934.679560673449,-7418.2649340056414,20655.319740717914,-20655.319740717914,7418.2649340056414,29141.474717560221,0.0
633204.59901257406,4157374.0504322448,-2500.0,5888.3737776959242,9161.1464581412765,20485.440373631707,-873.43781460551895,-1880.4512125318149,99.096021616372184,12572.812777471439,-3287.2907305648732,17864.430376810826,-17864.430376810826,3287.2907305648732,24408.46876618265,0.0
638204.59901257406,4157374.0504322448,-2500.0,7243.0245894618629,8662.9857189095928,13469.383659010478,-905.72641644858788,-1322.820755207782,81.909219589241218,9871.0495158154499,115.37619636765157,13306.796626630365,-13306.796626630365,-115.37619636765157,19170.011638195341,0.0
643204.59901257406,4157374.0504322448,-2500.0,7365.2678920237386,6971.8239624946655,7941.5144810982601,-796.08946716482717,-843.03138076209859,60.152593260018321,7377.2536746005308,2202.1180793611038,8832.5380141221958,-8832.5380141221958,-2202.1180793611038,14413.836636074597,0.0
648204.59901257406,4157374.0504322448,-2500.0,6670.5046308456585,5011.9273769573565,4091.8577654737742,-631.52794027587788,-487.61323582929185,40.562168400297757,5318.0630069511153,3142.1814239203022,5218.6776775367807,-5218.6776775367807,-3142.1814239203022,10525.079908496968,0.0
653204.59901257406,4157374.0504322448,-2500.0,5577.4056486473137,3253.9097063043819,1649.4161279585878,-466.1158476695278,-249.16174263496708,25.569248798341022,3819.8995123760897,3298.3923460212291,2620.7790099022086,-2620.7790099022086,-3298.3923460212291,7552.8971718681478,0.0
658204.59901257406,4157374.0504322448,-2500.0,4386.7458562544334,1873.8089913111887,230.72528004952773,-324.96410687659068,-101.24531547640304,15.140663823598906,2809.8671867625158,3007.8169533018499,915.25799588158816,-915.25799588158816,-3007.8169533018499,5394.0703665495539,0.0
663204.59901257406,4157374.0504322448,-2500.0,3277.4101953154736,884.95033201183469,-512.4543401235577,-215.21454753307324,-16.105141148156818,8.3407791602792436,2098.6214957258876,2518.6370078976752,-111.79728904447779,111.79728904447779,-2518.6370078976752,3892.2614380270225,0.0
668204.59901257406,4157374.0504322448,-2500.0,2333.6107365120465,226.98570478913757,-844.07019135314749,-134.96616159259759,28.724046545743754,4.1228152857821359,1609.5574408154037,1986.650561339871,-670.42217023749595,670.42217023749595,-1986.650561339871,2886.7786636483042,0.0
673204.59901257406,4157374.0504322448,-2500.0,1577.5860945246825,-180.82912333845627,-942.91754213170395,-78.854561291072585,49.230092868458108,1.6214635794524379,1276.266990432478,1494.8827699561966,-929.0714326874471,929.0714326874471,-1494.8827699561966,2233.4728482862533,0.0
678204.59901257406,4157374.0504322448,-2500.0,997.46973179391568,-413.19109401215536,-920.65599583281039,-40.997134484903427,55.899086524911013,0.20889889102391948,1046.576561559719,1078.1145098077291,-1008.1475816867141,1008.1475816867141,-1078.1145098077291,1813.1356469729449,0.0
683204.59901257406,4157374.0504322448,-2500.0,566.66987171453763,-529.26657299106921,-842.61491752209167,-16.264820079796614,55.212678728883333,-0.53784525417363183,883.09467803604753,743.43187440883685,-987.25529281546187,987.25529281546187,-743.43187440883685,1535.8252739657664,0.0
688204.59901257406,4157374.0504322448,-2500.0,255.27612995959984,-571.95178025823043,-744.78835948846802,-0.64535046003027319,50.988090409442613,-0.89044260815707299,761.22630896582041,484.30385790360481,-916.00246676724453,916.00246676724453,-484.30385790360481,1341.1764707493321,0.0
693204.59901257406,4157374.0504322448,-2500.0,35.711065326015792,-570.59672835911044,-645.71042989285854,8.8096112212460795,45.372697778647655,-1.0176249320742705,665.8690466613931,288.96558825939513,-823.75827899336309,823.75827899336309,-288.96558825939513,1193.2339602544039,0.0
698204.59901257406,4157374.0504322448,-2500.0,-115.11371035886837,-544.45244162578092,-554.02734968039442,14.182410919397562,39.512418453582292,-1.0214513260285683,588.12731132628937,144.83168200222838,-727.00576627467285,727.00576627467285,-144.83168200222838,1072.5256987763223,0.0
703204.59901257406,4157374.0504322448,-2500.0,-215.48306881497535,-505.71678622053344,-473.04613380575933,16.905251155716655,33.974197884574018,-0.9622599893006889,522.81322866452308,40.501430288654376,-634.37801412359158,634.37801412359158,-40.501430288654376,969.11250709264925,0.0
708204.59901257406,4157374.0504322448,-2500.0,-279.38149941698902,-461.86562246576233,-403.34624098987859,17.944778446040015,29.001825959353216,-0.87483099845516388,466.8320008191497,-33.547915140292616,-549.90381198255545,549.90381198255545,33.547915140292616,878.01318400014634,0.0
713204.59901257406,4157374.0504322448,-2500.0,-317.26243217066633,-417.30906459735706,-344.22549851276614,17.944051412391428,24.666126704027171,-0.77862237856763739,418.24096019472267,-84.910206202585755,-475.01695612687581,475.01695612687581,84.910206202585755,796.65184950208163,0.0
528204.59901257406,4162374.0504322448,-2500.0,-1170.3511522398655,535.48279335436746,-386.04166893118941,-52.948030949474635,27.253373701826813,-1.7464936981062766,722.54470292728138,-774.73334837178413,399.67975809917493,-399.67975809917493,774.73334837178413,1391.0768076044146,0.0
533204.59901257406,4162374.0504322448,-2500.0,-1289.5347054304752,635.35639348969949,-468.73360707125067,-61.57772568530239,34.050030127120756,-2.1507082442081744,819.70670225102936,-842.5824297907734,452.19253227801823,-452.19253227801823,842.5824297907734,1581.2250640499708,0.0
538204.59901257406,4162374.0504322448,-2500.0,-1415.8650340523122,755.40786701851437,-574.04647721666868,-71.646705573843633,42.770752500568385,-2.6603327330169448,932.26933012876952,-909.66542455436593,509.25410831046156,-509.25410831046156,909.66542455436593,1802.4857747048607,0.0
543204.59901257406,4162374.0504322448,-2500.0,-1545.5320439454749,899.09485153607591,-709.07380280146344,-83.278617734672792,53.9936376259569,-3.3030719358404155,1062.4518428641438,-971.05564588321943,569.02252351494087,-569.02252351494087,971.05564588321943,2059.8031549929201,0.0
548204.59901257406,4162374.0504322448,-2500.0,-1671.5785404729941,1069.62361588877,-883.17242764964328,-96.492086991074316,68.454570582209215,-4.1117046673347257,1212.3970658394985,-1018.7240481561685,627.67493437500798,-627.67493437500798,1018.7240481561685,2358.3178524590221,0.0
553204.59901257406,4162374.0504322448,-2500.0,-1782.1398982338505,1268.9815847425793,-1108.4859856740768,-111.08345948661098,87.059930167035162,-5.1221456287868365,1383.7785095717932,-1039.9890026224334,678.05694836808152,-678.05694836808152,1039.9890026224334,2702.8145352084443,0.0
558204.59901257406,4162374.0504322448,-2500.0,-1857.9129148717841,1496.0187231907953,-1400.2691220839442,-126.42149363448981,110.85774383522615,-6.3675670758292373,1577.071279964528,-1015.3900870666405,707.56031582300056,-707.56031582300056,1015.3900870666405,3096.6661656067081,0.0
563204.59901257406,4162374.0504322448,-2500.0,-1868.7468071306494,1742.8442259328415,-1776.4664094171039,-141.10204345346304,140.90601028091302,-7.864344849168166,1790.2751205589104,-916.03320853021989,694.93310751863748,-694.93310751863748,916.03320853021989,3539.9840529745165,0.0
568204.59901257406,4162374.0504322448,-2500.0,-1769.635235915189,1988.3905548650603,-2255.2673975580269,-152.39812423682491,177.91279533902846,-9.5826929464444017,2017.1715040639285,-700.95306421192981,605.86973581362577,-605.86973581362577,700.95306421192981,4026.6719658494676,0.0
573204.59901257406,4162374.0504322448,-2500.0,-1497.4954121355793,2187.6359487739383,-2847.8744738510609,-155.46013226982785,221.41191115609749,-11.390796834411066,2297.8291813304863,-316.32701629185289,387.95328203330251,-387.95328203330251,316.32701629185289,4540.4472784568343,0.0
578204.59901257406,4162374.0504322448,-2500.0,-972.78349517441848,2255.37948911391,-3540.9841182478863,-142.34933100287998,268.07807827318044,-12.959876059684872,2604.9850032803479,298.70857233679612,-32.188271208590976,32.188271208590976,-298.70857233679612,5051.5871684874019,0.0
583204.59901257406,4162374.0504322448,-2500.0,-115.25414835166531,2046.8288352105949,-4259.501183072608,-101.39626137197868,308.66753978384151,-13.629364521749004,2923.2561435832804,1189.4052039328726,-740.87794972284746,740.87794972284746,-1189.4052039328726,5521.9077037090246,0.0
588204.59901257406,4162374.0504322448,-2500.0,1109.4893394773601,1348.6912890301317,-4797.83953843569,-18.321297476305599,323.3766894111302,-12.282692636415907,3257.9707654951444,2328.6374129559781,-1798.3799179702537,1798.3799179702537,-2328.6374129559781,5941.3685025439772,0.0
593204.59901257406,4162374.0504322448,-2500.0,2595.5268496672093,-78.967234304492081,-4721.2234317564844,117.98103392695671,277.13260219650226,-7.4014710181071344,3669.9652851378055,3510.7037665528178,-3134.7817387701953,3134.7817387701953,-3510.7037665528178,6446.3918189496171,0.0
598204.59901257406,4162374.0504322448,-2500.0,3974.2654754354489,-2335.126376415968,-3300.1289454088128,301.73854013035469,120.79222189703913,2.4097291333570672,4334.3217223483325,4225.8283825763529,-4359.6580683641287,4359.6580683641287,-4225.8283825763529,7514.9825869431143,0.0
603204.59901257406,4162374.0504322448,-2500.0,4603.3888611470975,-5040.558800707583,321.01400300629973,491.26217702172482,-190.19126561574137,17.349868033141853,5495.2385732488819,3682.2868474837751,-4585.9572628823344,4585.9572628823344,-3682.2868474837751,9837.96639513835,0.0
608204.59901257406,4162374.0504322448,-2500.0,3931.4647924111291,-7052.3373621793835,6448.2661068844163,603.37739145942817,-653.1128123333109,35.641763537937265,7196.0617896477615,1280.3462291367055,-2640.6501677008537,2640.6501677008537,-1280.3462291367055,13523.867313949264,0.0
613204.59901257406,4162374.0504322448,-2500.0,2217.1215285124958,-6871.0144440583708,13873.662122171634,550.12271328921622,-1176.4032420208023,54.330010477478453,9059.2985665034685,-2500.4323946989421,1952.2879284340831,-1952.2879284340831,2500.4323946989421,17676.409989633699,0.0
618204.59901257406,4162374.0504322448,-2500.0,719.75113321257004,-3974.7750257105072,19898.379487706035,310.52566978463562,-1597.1178533097079,70.592036708304605,10445.742145265189,-5863.2387926835891,7889.5448160209253,-7889.5448160209253,5863.2387926835891,20881.315057942393,0.0
623204.59901257406,4162374.0504322448,-2500.0,607.52937207323407,349.92587591333768,22183.199272753496,-33.542133323668935,-1775.2729729069974,81.31132515996245,11195.49678538642,-7057.1192182277191,12641.759248450438,-12641.759248450438,7057.1192182277191,22067.293579798723,0.0
628204.59901257406,4162374.0504322448,-2500.0,1829.1022185528843,4085.9306282265702,20542.5468948579,-350.79960022155245,-1684.23164921324,83.322327546712756,10794.204951718579,-5898.3133946486096,14503.527456555774,-14503.527456555774,5898.3133946486096,21092.033842366665,0.0
633204.59901257406,4162374.0504322448,-2500.0,3452.8371625093723,6102.4389650493185,16547.479187887784,-549.97945641823173,-1407.5267170485126,76.150918559839312,9557.365275491069,-3513.8913670694456,13605.761258397579,-13605.761258397579,3513.8913670694456,18591.887153028405,0.0
638204.59901257406,4162374.0504322448,-2500.0,4668.0206096721276,6456.6018694219247,11965.898864359779,-615.87339573482075,-1062.8455159630869,62.902829670291133,7930.9249822481197,-1101.8225581200177,11118.242899527377,-11118.242899527377,1101.8225581200177,15416.344271152007,0.0
643204.59901257406,4162374.0504322448,-2500.0,5187.2535281437795,5748.607861409957,7890.9959746718996,-583.17410907462317,-738.0214250859259,47.85428854613513,6269.3137413372533,710.24954583941189,8180.4048007992096,-8180.4048007992096,-710.24954583941189,12223.462670774781,0.0
648204.59901257406,4162374.0504322448,-2500.0,5090.0332163433031,4573.0434106984421,4737.6084366925361,-497.70037785619616,-474.93989449619062,34.112753074773877,4777.8703623529991,1794.2049405660982,5486.8282153759119,-5486.8282153759119,-1794.2049405660982,9384.1729586530037,0.0
653204.59901257406,4162374.0504322448,-2500.0,4585.6650725286172,3330.4994735172222,2517.7791984369428,-395.32025624961261,-281.91154758162077,23.068286153353025,3541.7811678314151,2268.6692762476378,3330.0555113602186,-3330.0555113602186,-2268.6692762476378,7045.7397685315627,0.0
658204.59901257406,4162374.0504322448,-2500.0,3879.2018424918965,2232.5683687393321,1070.0424095275068,-297.52701221223651,-150.28410940619935,14.897399352531874,2648.967872964412,2322.5217325812605,1755.0530713062858,-1755.0530713062858,-2322.5217325812605,5220.6499349872511,0.0
663204.59901257406,4162374.0504322448,-2500.0,3123.1937964725744,1359.0095243215567,191.68619894676164,-214.30085320239371,-65.88180084386579,9.1925229602809342,2006.083930097489,2130.2417602775236,686.92131228878725,-686.92131228878725,-2130.2417602775236,3854.0289045969316,0.0
668204.59901257406,4162374.0504322448,-2500.0,2412.0211911949787,713.43794071303853,-299.16846285521927,-148.35906607448223,-14.900217219971225,5.378867057773288,1536.5456059041023,1822.4154701273078,11.11556714551682,-11.11556714551682,-1822.4154701273078,2865.5350667864677,0.0
673204.59901257406,4162374.0504322448,-2500.0,1793.0216766918163,263.85921750492037,-542.68572352884723,-98.611215666964057,13.823593241558852,2.9184416890798373,1200.3727269597996,1483.7022592932371,-384.28111038499924,384.28111038499924,-1483.7022592932371,2171.9696427439294,0.0
678204.59901257406,4162374.0504322448,-2500.0,1281.6073327132706,-32.506547285723414,-637.22061457631639,-62.411075328518443,28.440271561338978,1.3817763640645806,962.0922395523346,1161.9879285697461,-591.143071150178,591.143071150178,-1161.9879285697461,1697.5357407229285,0.0
683204.59901257406,4162374.0504322448,-2500.0,874.55362263778591,-216.4564934211449,-647.35667157152602,-36.810868934057758,34.516048552214038,0.45438302507943562,792.70499309183606,879.88201635123289,-677.77845758744945,677.77845758744945,-879.88201635123289,1377.7369948779146,0.0
688204.59901257406,4162374.0504322448,-2500.0,559.57012622020488,-321.71517428317509,-613.35271641475151,-19.149176927042245,35.671614685225727,-0.081865726762714072,670.1297963558842,644.55499873962219,-691.72236876889804,691.72236876889804,-644.55499873962219,1161.012130380293,0.0
693204.59901257406,4162374.0504322448,-2500.0,321.286007004878,-373.9911094859512,-559.18396334928195,-7.25462793208301,34.172129906444951,-0.37285875528449508,578.65095399874872,454.78603702873909,-664.46895337933563,664.46895337933563,-454.78603702873909,1009.3314444757444,0.0
698204.59901257406,4162374.0504322448,-2500.0,144.53483314228811,-391.87856741928516,-498.47522804836007,0.54277263806814213,31.385876513494434,-0.51362841226293321,507.73785294841048,305.45514765147908,-616.05498106044433,616.05498106044433,-305.45514765147908,897.15991506513853,0.0
703204.59901257406,4162374.0504322448,-2500.0,15.880088689592327,-388.33338289317055,-438.53172354702502,5.479991676366982,28.109605431276606,-0.56484978641029071,450.65089182654424,190.14265156651308,-558.74828063049574,558.74828063049574,-190.14265156651308,808.79957115050047,0.0
708204.59901257406,4162374.0504322448,-2500.0,-75.879577490140676,-372.12440262331569,-382.93347431763198,8.4503450275375318,24.786542655575147,-0.56460811830508284,403.18885352809684,102.49053269685913,-499.74488391701544,499.74488391701544,-102.49053269685913,735.23278706167355,0.0
528204.59901257406,4167374.0504322448,-2500.0,-1000.2292598138263,535.34938628202872,-418.5575022925035,-45.70448774689158,27.772211153094688,-1.5378555056800627,660.72139863600989,-638.37071974662445,353.79584160847662,-353.79584160847662,638.37071974662445,1274.0460957464654,0.0
533204.59901257406,4167374.0504322448,-2500.0,-1080.7539160451518,624.43624715582348,-504.44873996797247,-52.244074857102184,34.186319773782699,-1.8674439658315702,741.85827271392509,-675.79647521243896,389.65285342185501,-389.65285342185501,675.79647521243896,1433.8103574351621,0.0
538204.59901257406,4167374.0504322448,-2500.0,-1159.3538945967359,727.97165516244354,-611.83745498920143,-59.56963011989847,42.225003610034598,-2.273029049324736,833.739615427525,-705.69674339527899,424.65131138189656,-424.65131138189656,705.69674339527899,1615.8317525847931,0.0
543204.59901257406,4167374.0504322448,-2500.0,-1230.4799887714953,846.8720233338662,-746.4605298895475,-67.601186359819181,52.29003109012649,-2.770019536647891,937.14613182383334,-722.1198877844198,455.40244025652567,-455.40244025652567,722.1198877844198,1822.3063038701123,0.0
548204.59901257406,4167374.0504322448,-2500.0,-1285.5748990640925,980.80380985858187,-915.31266019696579,-76.105033487152895,64.844529749428176,-3.3739610674007023,1052.3648877694432,-716.37455718420256,476.32712048457665,-476.32712048457665,716.37455718420256,2054.8239556543895,0.0
553204.59901257406,4167374.0504322448,-2500.0,-1311.8683201139563,1126.9622150574671,-1126.513802208983,-84.584988148500585,80.37798353064575,-4.0970721607025862,1178.7366773366584,-676.08995443730885,478.56101991573576,-478.56101991573576,676.08995443730885,2313.6978733097244,0.0
558204.59901257406,4167374.0504322448,-2500.0,-1290.9430312999446,1278.0292993481728,-1388.6148239232321,-92.115332089643459,99.314254404185391,-4.9412492164353354,1313.9482655456609,-584.23197853108957,448.4835349383319,-448.4835349383319,584.23197853108957,2596.9345002421073,0.0
563204.59901257406,4167374.0504322448,-2500.0,-1197.3423074426391,1418.9106653625261,-1708.6911200282238,-97.097801900807141,121.80934352205664,-5.8849123978858398,1453.265106588294,-418.46205051359397,365.95967228478167,-365.95967228478167,418.46205051359397,2898.795885068535,0.0
568204.59901257406,4167374.0504322448,-2500.0,-997.98238310271495,1521.8580138247391,-2088.0190207424434,-96.940311349862824,147.34982526164958,-6.8596235983098719,1621.6386008027023,-151.77681242806727,202.78203295437976,-202.78203295437976,151.77681242806727,3208.1689393949373,0.0
573204.59901257406,4167374.0504322448,-2500.0,-654.08985304815144,1539.9721194809629,-2513.2748573969525,-87.70762880888536,174.01896243533506,-7.7127048302671177,1804.5855048689111,243.60964178196741,-77.256083015273887,77.256083015273887,-243.60964178196741,3507.7877740686204,0.0
578204.59901257406,4167374.0504322448,-2500.0,-128.94662437896923,1400.5109928819832,-2940.2353722710604,-63.928319229281982,197.27785145268433,-8.1537389015097865,1990.6160190085511,785.59073649151685,-513.29163246096516,513.29163246096516,-785.59073649151685,3777.67498476834,0.0
583204.59901257406,4167374.0504322448,-2500.0,593.52934464927398,1003.1180511066606,-3267.0018446839445,-19.012635053210943,208.21511005833989,-7.6954905533881748,2182.0069592253813,1459.5864235916408,-1130.7600040763953,1130.7600040763953,-1459.5864235916408,4011.733745974464,0.0
588204.59901257406,4167374.0504322448,-2500.0,1474.8452195081238,235.25603195794761,-3298.201262755716,52.868482232740966,191.67805342846381,-5.6262817191635319,2404.7727885593517,2180.2440756894116,-1903.4827722416037,1903.4827722416037,-2180.2440756894116,4265.2141981651503,0.0
593204.59901257406,4167374.0504322448,-2500.0,2377.3818122828002,-974.18586116912729,-2717.4459632930843,152.38790009751864,125.82542949722932,-1.0944999895008933,2734.435422878812,2745.0906968793283,-2688.2201210207345,2688.2201210207345,-2745.0906968793283,4739.2793819550352,0.0
598204.59901257406,4167374.0504322448,-2500.0,3041.2626010201707,-2545.9225170041173,-1118.6371517439118,268.08027698196668,-13.66456551774159,6.5968760402241342,3297.0285507079329,2819.4426335437902,-3151.5684442724023,3151.5684442724023,-2819.4426335437902,5792.3555199838429,0.0
603204.59901257406,4167374.0504322448,-2500.0,3152.9313143263312,-4118.0597799837051,1821.8687804085307,370.28664087361801,-241.09642504739119,17.491535453124321,4186.8379181714099,2034.5589844799458,-2772.2692728521215,2772.2692728521215,-2034.5589844799458,7673.9958145300689,0.0
608204.59901257406,4167374.0504322448,-2500.0,2559.8980916187593,-5032.9305102023563,6005.9479716461392,414.67871447328486,-541.53659845981019,30.544551900789521,5344.0999360308551,259.25921564792412,-1056.034707867796,1056.034707867796,-259.25921564792412,10216.457169651119,1.0
613204.59901257406,4167374.0504322448,-2500.0,1517.8532150303313,-4632.8319935238505,10618.57389718792,362.84546341657426,-858.59777734041302,43.660261695062665,6528.2795011315475,-2095.1348844739528,2022.7389339166241,-2022.7389339166241,2095.1348844739528,12861.124284431964,0.0
618204.59901257406,4167374.0504322448,-2500.0,651.30465494040652,-2785.4065499145013,14310.75529089906,211.3196619772917,-1109.0697208959807,54.270183827567969,7487.0679548297439,-4124.0471383239237,5710.902041873429,-5710.902041873429,4124.0471383239237,14906.097698692945,0.0
623204.59901257406,4167374.0504322448,-2500.0,505.42786133812535,-119.31963196466315,15959.8427193016,2.3369339427159868,-1224.6385374846332,60.138011679853165,8044.1235145650944,-4997.659054435233,8788.0644411421235,-8788.0644411421235,4997.659054435233,15825.955335172814,0.0
628204.59901257406,4167374.0504322448,-2500.0,1125.8522004835611,2385.9626709124382,15350.536649020338,-199.23741062266652,-1188.7452891464711,60.178598206505626,7932.0771670104568,-4532.5328983179388,10344.403178998895,-10344.403178998895,4532.5328983179388,15494.29136586447,0.0
633204.59901257406,4167374.0504322448,-2500.0,2121.5455719314709,4037.0698135042094,13122.12908850701,-342.88144404988839,-1037.2552517949237,54.959804123098507,7277.3293974102617,-3177.6994341365153,10249.029384005147,-10249.029384005147,3177.6994341365153,14159.500705790248,0.0
638204.59901257406,4167374.0504322448,-2500.0,3036.8445522864304,4678.2092274599827,10197.955750665073,-411.55103202011878,-828.96687843692985,46.365196350231066,6299.4679814671526,-1567.9602036354117,8969.9877942753592,-8969.9877942753592,1567.9602036354117,12241.986820705284,0.0
643204.59901257406,4167374.0504322448,-2500.0,3606.4830965942319,4524.7812942908595,7311.0553677978096,-415.7924428927808,-615.56470087954119,36.603799412078061,5208.9423813932963,-162.90654652334115,7133.8080848155168,-7133.8080848155168,162.90654652334115,10137.510385592965,0.0
648204.59901257406,4167374.0504322448,-2500.0,3777.3404952662227,3903.6292061030308,4861.1674809565457,-377.79879566330607,-428.49429568574021,27.369125250647869,4155.9383583976796,837.79434258179072,5234.4084079760687,-5234.4084079760687,-837.79434258179072,8123.7471149573212,0.0
653204.59901257406,4167374.0504322448,-2500.0,3621.850592252787,3095.8714861568874,2978.2839553414706,-319.13162208787725,-280.22545743233223,19.568735395124385,3224.6873446917011,1421.5476595246519,3557.3952652683838,-3557.3952652683838,-1421.5476595246519,6353.4776970249331,0.0
658204.59901257406,4167374.0504322448,-2500.0,3254.0661348288486,2288.029223523803,1634.5496228171801,-255.47113894094235,-170.94162819295462,13.467619565128098,2449.5370173637834,1667.0997360333545,2217.4999263601771,-2217.4999263601771,-1667.0997360333545,4885.1614587317108,0.0
663204.59901257406,4167374.0504322448,-2500.0,2780.9087789283089,1579.4553482857457,733.47798313854287,-196.10145584166918,-94.876990795907247,8.9512554009644223,1889.1300409533806,1677.9479473740789,1222.5046425689998,-1222.5046425689998,-1677.9479473740789,3718.4324711200015,0.0
668204.59901257406,4167374.0504322448,-2500.0,2282.7383321637453,1007.6110914188687,164.07688843487858,-145.35552875303324,-44.505437196937521,5.7430078303621634,1466.6101781590967,1547.7815096605523,526.95647723881575,-526.95647723881575,-1547.7815096605523,2822.1302316958718,0.0
673204.59901257406,4167374.0504322448,-2500.0,1810.8398386289323,573.16635299511506,-172.65133917938866,-104.38900033464198,-12.737221245184086,3.5366942154839043,1148.5502385160914,1347.7176018738246,67.486723299546725,-67.486723299546725,-1347.7176018738246,2152.8002626546131,0.0
678204.59901257406,4167374.0504322448,-2500.0,1392.4899061681176,258.81393396630938,-354.51172628052626,-72.624824654240086,6.2119709307718054,2.060019244522624,913.14719877109849,1125.451598990652,-217.82994505350706,217.82994505350706,-1125.451598990652,1665.2686000852082,0.0
683204.59901257406,4167374.0504322448,-2500.0,1038.0691014963982,41.172242721236238,-437.9852334531767,-48.726575082534552,16.679562551781245,1.0959423720911907,740.6634413277967,909.51654744365419,-381.05485430792692,381.05485430792692,-909.51654744365419,1317.7495692302682,0.0
688204.59901257406,4167374.0504322448,-2500.0,747.51625393156155,-102.76257318627444,-461.8344033923812,-31.168889649743186,21.738947377391014,0.48239098669354902,614.44474788566367,714.74703382723351,-462.30643097283746,462.30643097283746,-714.74703382723351,1073.8600446284333,0.0
693204.59901257406,4167374.0504322448,-2500.0,515.17922678209334,-192.7593873784667,-451.53291786065671,-18.526602628785209,23.479405181508781,0.10346627404128658,521.22858083158008,547.12232192352508,-490.75310556539461,490.75310556539461,-547.12232192352508,903.35901681114115,0.0
698204.59901257406,4167374.0504322448,-2500.0,333.03176143082561,-244.55452997005295,-423.21676715554895,-9.5919184567630182,23.275409948272472,-0.12124854668459925,451.01150879620502,407.40633085222299,-486.7166436745876,486.7166436745876,-407.40633085222299,782.48213696349819,0.0
703204.59901257406,4167374.0504322448,-2500.0,192.59078675191492,-270.06985390036499,-386.75346707280812,-3.3982174184020475,22.005809037969659,-0.24634779547501251,396.62528678817739,293.61256882967785,-463.88026040053973,463.88026040053973,-293.61256882967785,693.83530291599197,0.0
528204.59901257406,4172374.0504322448,-2500.0,-836.8288073489382,516.85860658463275,-440.71692491674901,-38.693441219294392,27.383846610649687,-1.3333178455760006,597.35864120872418,-509.00557602966643,300.16922576136102,-300.16922576136102,509.00557602966643,1154.1998419776528,0.0
533204.59901257406,4172374.0504322448,-2500.0,-884.53692868401424,591.99266198331861,-525.9132439074931,-43.391745006207323,33.191080742108547,-1.5948394462565083,663.34829505393895,-521.37721618703165,319.97662080066698,-319.97662080066698,521.37721618703165,1285.2521715197872,0.0
538204.59901257406,4172374.0504322448,-2500.0,-924.18291378538129,675.81901899452282,-630.13563607370872,-48.375921422058695,40.284312037419355,-1.9079098038585673,736.14093444878984,-522.07876382810696,334.7282954666187,-334.7282954666187,522.07876382810696,1431.0645465142077,0.0
543204.59901257406,4172374.0504322448,-2500.0,-949.76815484870679,767.22463812729052,-757.40352380879233,-53.447327600627908,48.901126052878055,-2.2790971079779494,815.50176655844029,-505.24621875378915,340.30825526481277,-340.30825526481277,505.24621875378915,1591.8922795610904,0.0
548204.59901257406,4172374.0504322448,-2500.0,-952.89323706189464,863.32539737885884,-912.01982808489242,-58.248322690798837,59.268277848665981,-2.7122924088976785,900.51734325956136,-463.01079961079722,330.63986603189596,-330.63986603189596,463.01079961079722,1767.0275441074814,0.0
553204.59901257406,4172374.0504322448,-2500.0,-922.1597686177663,958.31998953449295,-1097.971817976432,-62.179625336456773,71.542962620429975,-3.2050725127294069,989.20469156357308,-385.16963214978796,297.01121022525285,-297.01121022525285,385.16963214978796,1954.2355614228888,0.0
558204.59901257406,4172374.0504322448,-2500.0,-842.72295935229351,1041.8118948721958,-1317.6428788097371,-64.289036795642104,85.700070991983637,-3.7424381432380258,1078.1813129514926,-259.1578753523969,227.38747875762553,-227.38747875762553,259.1578753523969,2149.0543563569222,0.0
563204.59901257406,4172374.0504322448,-2500.0,-696.38372154710817,1096.5199148693202,-1569.3030986026829,-63.135912079623942,101.33022435141756,-4.2864713308780624,1183.4985720066957,-70.781924961861904,106.00872115806081,-106.00872115806081,70.781924961861904,2344.1334406375754,0.0
568204.59901257406,4172374.0504322448,-2500.0,-462.96601193281532,1095.5223819407468,-1842.5709629620444,-56.658081176012928,117.30125174495329,-4.7604168783993668,1298.2356302827352,193.4529589215681,-86.036951499422912,86.036951499422912,-193.4529589215681,2529.1939287527407,0.0
573204.59901257406,4172374.0504322448,-2500.0,-124.22429495786231,999.78436116258695,-2110.8173135566853,-42.115580349863563,131.23520332318748,-5.02670289507377,1413.2864748063841,541.09715463216594,-367.88758901468913,367.88758901468913,-541.09715463216594,2693.1863099865882,0.0
578204.59901257406,4172374.0504322448,-2500.0,328.0321180377025,758.00903247960673,-2319.7022014938889,-16.271644348670431,138.7939141370781,-4.86143223496064,1529.6831293972255,963.91628393532096,-751.27298095252104,751.27298095252104,-963.91628393532096,2832.3523961235505,0.0
583204.59901257406,4172374.0504322448,-2500.0,878.24509234786547,313.05778872628139,-2372.6561798128196,23.910798587507777,132.90790763167846,-3.9354397816721001,1659.568712818382,1422.3976893309577,-1225.0220154830681,1225.0220154830681,-1422.3976893309577,2971.1014809790572,0.0
588204.59901257406,4172374.0504322448,-2500.0,1469.2253288702527,-378.31747342128961,-2118.8646451048885,79.703758323477985,103.40613209850875,-1.8252825683198983,1837.9122441515028,1826.96378077038,-1729.6770547722838,1729.6770547722838,-1826.96378077038,3200.0978885760619,0.0
593204.59901257406,4172374.0504322448,-2500.0,1988.8191247139325,-1306.1154104127347,-1358.6559655205835,148.02053347177571,38.011689315105983,1.9098890250887943,2128.33711038812,2026.8570797263328,-2126.9602221142504,2126.9602221142504,-2026.8570797263328,3700.0197180684522,0.0
598204.59901257406,4172374.0504322448,-2500.0,2281.2701482003313,-2352.5645590362947,108.1099914622489,218.46567640430968,-73.969178881070206,7.5551996592520725,2599.0836378140771,1830.5258911725953,-2185.290366638319,2185.290366638319,-1830.5258911725953,4659.8856302465301,0.0
603204.59901257406,4172374.0504322448,-2500.0,2207.5477865793523,-3254.972920666457,2369.3342601449967,272.26358467968225,-234.67486612421564,14.993668178775881,3268.0253897426069,1085.1516445641528,-1623.2080602232036,1623.2080602232036,-1085.1516445641528,6112.3104816327004,0.0
608204.59901257406,4172374.0504322448,-2500.0,1750.6262905293845,-3649.7075299859098,5249.7389378754915,286.39567224203387,-429.76206742117296,23.507128119049241,4065.1798108005341,-191.40745060285369,-246.27878656736655,246.27878656736655,191.40745060285369,7875.9991959733688,0.0
613204.59901257406,4172374.0504322448,-2500.0,1093.7979283300326,-3239.4318352996129,8234.9848660308344,244.12107929173419,-625.86292851967096,31.800667600525593,4844.8741324886005,-1714.129024346646,1864.18038159754,-1864.18038159754,1714.129024346646,9619.9773593178561,0.0
618204.59901257406,4172374.0504322448,-2500.0,564.48259679348348,-2006.7175887112248,10610.131755278848,146.68417852570656,-779.68190996976216,38.336675336537709,5536.07917783021,-3002.0697432730021,4267.5257302935752,-4267.5257302935752,3002.0697432730021,10974.806636501091,0.0
623204.59901257406,4172374.0504322448,-2500.0,438.3271167258066,-283.77295191215069,11793.828760589633,16.358181004994719,-856.55471935168782,41.863164608035447,5941.6403047405229,-3629.9058167709863,6327.5557047593211,-6327.5557047593211,3629.9058167709863,11664.05119612513,0.0
628204.59901257406,4172374.0504322448,-2500.0,765.97055455129782,1420.3515365655649,11623.798368074595,-113.65242595252603,-846.06114062049642,41.876366622386939,5943.9610914562172,-3465.4731288345256,7538.760129557465,-7538.760129557465,3465.4731288345256,11598.156391404149,0.0
633204.59901257406,4172374.0504322448,-2500.0,1377.0976849275821,2691.2685407441259,10368.577098216345,-215.06288408402224,-763.44307379506859,38.762940699063428,5593.4254033888974,-2692.1461737188451,7748.8909434133584,-7748.8909434133584,2692.1461737188451,10876.006731164252,0.0
638204.59901257406,4172374.0504322448,-2500.0,2024.0871308879352,3360.2301634731602,8509.4299260896641,-274.47153940135968,-638.1302135905355,33.544968253336165,4999.9524010288123,-1641.3537707504652,7133.6896222600008,-7133.6896222600008,1641.3537707504652,9708.3650624782676,0.0
643204.59901257406,4172374.0504322448,-2500.0,2517.554979233179,3478.1095262316294,6503.2932430805977,-293.18507592448458,-499.75636304318385,27.4177297076955,4285.1574514531549,-610.71700491925549,6021.0465400779303,-6021.0465400779303,610.71700491925549,8325.3112680468621,0.0
648204.59901257406,4172374.0504322448,-2500.0,2774.7764289834963,3206.3098430219598,4660.6106837698953,-281.07824386530348,-369.74830311364292,21.365241405484916,3549.7362667553366,221.42121346396834,4727.5052596662963,-4727.5052596662963,-221.42121346396834,6915.0955111495123,0.0
653204.59901257406,4172374.0504322448,-2500.0,2800.3562751782761,2720.8492737278607,3134.1622605703269,-250.21198332719462,-259.57318173522691,15.999082246206482,2861.4518898880215,793.07754335803997,3478.5840083760631,-3478.5840083760631,-793.07754335803997,5602.9029655217628,0.0
658204.59901257406,4172374.0504322448,-2500.0,2645.7994616266596,2162.2244162657107,1960.6893979844326,-210.94977026969789,-172.81453933252016,11.58331080304475,2257.0847168716723,1118.7516677751544,2398.6924154613644,-2398.6924154613644,-1118.7516677751544,4455.6121716838343,0.0
663204.59901257406,4172374.0504322448,-2500.0,2375.8954833419552,1622.1762105639973,1110.3643535658139,-170.5657505472652,-108.23384604673403,8.1412414989015573,1752.1156454046388,1249.0180386598561,1533.7966852486009,-1533.7966852486009,-1249.0180386598561,3496.8773478512398,0.0
668204.59901257406,4172374.0504322448,-2500.0,2049.1158687546535,1149.6444701659339,524.93067112621623,-133.35181208774668,-62.333300196461515,5.5653232185464985,1383.7133442898155,1242.7518383917152,880.76518687867997,-880.76518687867997,-1242.7518383917152,2722.9655742167661,0.0
673204.59901257406,4172374.0504322448,-2500.0,1709.6144462641037,763.04564735481654,141.22933158824455,-101.32765083832929,-31.024558523647862,3.6976879940137728,1097.1835180457083,1152.3344719988499,411.67365959064136,-411.67365959064136,-1152.3344719988499,2115.3852678758153,0.0
678204.59901257406,4172374.0504322448,-2500.0,1386.3313361831279,462.20513366559209,-96.976247323423522,-75.029405257437048,-10.518068878334986,2.3777431138925103,875.98409303589506,1018.0663739257611,90.113138033237362,-90.113138033237362,-1018.0663739257611,1649.4911203991624,0.0
683204.59901257406,4172374.0504322448,-2500.0,1095.4716730504726,237.44667337965996,-234.73474300035252,-54.153098410087111,2.3146844170417324,1.4648793551059545,707.69117710815772,867.83950399999821,-119.56256207404971,119.56256207404971,-867.83950399999821,1299.6159561073878,0.0
688204.59901257406,4172374.0504322448,-2500.0,843.98175721591394,75.534779768725812,-305.7571653992016,-38.000982453387508,9.8786463630205308,0.84594623451004436,580.87324672381362,719.1804576969331,-247.97350468859784,247.97350468859784,-719.1804576969331,1041.6971838436307,0.0
693204.59901257406,4172374.0504322448,-2500.0,632.79305397137932,-36.929746340270036,-334.07679963257812,-25.755611347235948,13.93418218043128,0.43456242388730426,485.63648054085553,581.93329495150772,-319.46144352150407,319.46144352150407,-581.93329495150772,854.38291815415346,0.0
698204.59901257406,4172374.0504322448,-2500.0,459.35873044880162,-111.86240152569016,-336.20131065884448,-16.628658941302007,15.724108505854117,0.16718270089031481,413.82597515383407,460.72465672150287,-352.39447017836397,352.39447017836397,-460.72465672150287,719.42274096143558,0.0
703204.59901257406,4172374.0504322448,-2500.0,319.4265809875875,-159.10764750413841,-323.12454380449026,-9.9290785041670624,16.101238836323304,-0.0017710657972740372,359.01401893221805,356.90234420908564,-360.1151849954698,360.1151849954698,-356.90234420908564,621.83326794539198,0.0
533204.59901257406,4177374.0504322448,-2500.0,-707.02663980286434,544.2903829395741,-532.93536755208982,-35.30561996751463,31.345319713284006,-1.3417752504777387,586.83095157740263,-384.41103620721498,249.26356151540296,-249.26356151540296,384.41103620721498,1140.5649625266217,0.0
538204.59901257406,4177374.0504322448,-2500.0,-716.84905893288351,607.68848028148716,-629.69672783830572,-38.392102878959648,37.365093549264685,-1.5761014238516386,642.71937575141772,-364.03454973301382,247.08363855890107,-247.08363855890107,364.03454973301382,1254.328268628999,0.0
543204.59901257406,4177374.0504322448,-2500.0,-709.53726213579739,672.1709955554079,-744.39594787629153,-41.162686818642115,44.438080179488487,-1.8435023901300196,701.40000361887951,-325.06809859091499,232.92186252367509,-232.92186252367509,325.06809859091499,1375.9228652044221,0.0
548204.59901257406,4177374.0504322448,-2500.0,-677.90163367849777,733.38871401348467,-878.7971150294818,-43.229119523925654,52.610751216824816,-2.1408569318357018,761.32236662156993,-261.27484964227523,201.15439099957126,-201.15439099957126,261.27484964227523,1503.4147363989175,0.0
553204.59901257406,4177374.0504322448,-2500.0,-613.01135261623006,784.23785027794372,-1033.3412321688193,-44.011801554310921,61.810315104323585,-2.4580913980708856,820.11288773160913,-165.36334357625037,144.42115476372265,-144.42115476372265,165.36334357625037,1633.5378629804886,0.0
558204.59901257406,4177374.0504322448,-2500.0,-504.41053818266528,813.74372976006191,-1205.6855277111094,-42.68004072458271,71.739665434206401,-2.7732895732484284,888.30398252692294,-29.551140399291064,53.590618208711653,-53.590618208711653,29.551140399291064,1761.4350019192402,0.0
563204.59901257406,4177374.0504322448,-2500.0,-340.99782994739007,805.83173612298822,-1388.2849143512976,-38.09910321279331,81.713086075527599,-3.0456548220925517,963.39840949076017,153.06856171112878,-81.720069950581205,81.720069950581205,-153.06856171112878,1880.8069888002537,0.0
568204.59901257406,4177374.0504322448,-2500.0,-113.07098006091785,738.36392545254182,-1564.6417546242139,-28.81579646139593,90.416773611537096,-3.2058634018934686,1037.9095022841811,385.83178639203328,-271.4765020706962,271.4765020706962,-385.83178639203328,1985.2368972916433,0.0
573204.59901257406,4177374.0504322448,-2500.0,183.8430071254711,583.31094280042475,-1704.0012247572558,-13.144469369164456,95.595312254692701,-3.1450215804036881,1112.3122752351956,663.87909671179784,-521.49068538454082,521.49068538454082,-663.87909671179784,2072.3428253262191,0.0
578204.59901257406,4177374.0504322448,-2500.0,542.9236951983861,309.68281796790239,-1754.908505721324,10.546150856936483,93.714308622863697,-2.7050519002493183,1192.6938551377089,967.28307325401158,-826.48280422020991,826.48280422020991,-967.28307325401158,2153.6878535346123,0.0
583204.59901257406,4177374.0504322448,-2500.0,938.23225752719293,-108.35291472585574,-1639.6516379874354,43.218455160057999,79.752508024435386,-1.6781906829357665,1296.3466188086552,1252.7674661150538,-1159.2168141966224,1159.2168141966224,-1252.7674661150538,2272.8490878934335,0.0
588204.59901257406,4177374.0504322448,-2500.0,1317.863533677755,-675.73976430224866,-1254.5868759754032,84.139445447354859,47.441668788558651,0.17224454300785641,1456.1325011931779,1447.5289596732359,-1457.0237837391915,1457.0237837391915,-1447.5289596732359,2522.2963959229455,0.0
593204.59901257406,4177374.0504322448,-2500.0,1604.495212643312,-1353.5075251622632,-485.06987361070702,129.58180548993934,-9.589364031616018,3.0553912557570517,1714.0603452836328,1452.8592497749405,-1611.9067010908316,1611.9067010908316,-1452.8592497749405,3021.7837572155272,0.0
598204.59901257406,4177374.0504322448,-2500.0,1712.4088248475132,-2036.4228738681593,755.57002531739363,171.81183830572184,-95.324745027277942,7.0550285925786369,2098.1059737700716,1168.0655111973363,-1477.3535662185652,1477.3535662185652,-1168.0655111973363,3840.4291540835052,0.0
603204.59901257406,4177374.0504322448,-2500.0,1586.0846399831305,-2550.8659809148307,2462.8098417962992,199.52777570099343,-207.84746919472602,12.012445501198968,2597.5165320496794,540.05977685083121,-908.39692223681641,908.39692223681641,-540.05977685083121,4939.2475726832581,0.0
608204.59901257406,4177374.0504322448,-2500.0,1247.8966966589949,-2696.6946558974578,4478.4716196656636,200.7997918342995,-336.29166594391853,17.449446171845377,3156.3473550780022,-377.13136867047501,162.18388055981825,-162.18388055981825,377.13136867047501,6180.8082744320009,0.0
613204.59901257406,4177374.0504322448,-2500.0,819.47970427869802,-2335.7196020626056,6480.9496272742645,168.27395637944539,-460.9894931594747,22.607206744650242,3686.6952427474635,-1396.3471445949438,1644.3241544274504,-1644.3241544274504,1396.3471445949438,7368.0362128274392,0.0
618204.59901257406,4177374.0504322448,-2500.0,481.58694007589264,-1482.2365866588848,8071.0504944409513,103.997934069282,-558.63079540246849,26.632798225904317,4200.4300022674333,-2248.6756255106675,3273.1495271443937,-3273.1495271443937,2248.6756255106675,8295.7534857768314,0.0
623204.59901257406,4177374.0504322448,-2500.0,382.94892531604302,-323.31000041863365,8928.5449515596811,20.177334151015319,-610.81022999299853,28.851858210497504,4497.6782945607329,-2701.8010516039835,4695.4702275578311,-4695.4702275578311,2701.8010516039835,8809.8038298812353,0.0
628204.59901257406,4177374.0504322448,-2500.0,562.6102041254635,860.43594786753647,8942.0299812236299,-65.444865005380819,-611.0039240518978,28.99404317750416,4542.0091002710124,-2667.2658482407523,5618.4873452670481,-5618.4873452670481,2667.2658482407523,8850.1238611846784,0.0
633204.59901257406,4177374.0504322448,-2500.0,943.6772685697415,1819.1220458013631,8226.8455967361842,-136.72562350811657,-565.70269828727146,27.251767834545131,4353.4249080394138,-2220.9199548334909,5920.0496114516363,-5920.0496114516363,2220.9199548334909,8455.9217798158643,0.0
638204.59901257406,4177374.0504322448,-2500.0,1391.3451027604976,2418.1427033797027,7037.7629375166507,-184.28509359307932,-489.84345919350568,24.155888149121779,3988.3179225622002,-1537.3861746575931,5657.6685380990693,-5657.6685380990693,1537.3861746575931,7735.3039701424213,0.0
643204.59901257406,4177374.0504322448,-2500.0,1781.7337253100341,2647.0611678367013,5652.3708347530046,-206.4889341948244,-400.27542925614352,20.357673618143501,3516.8577225047438,-800.71712098641638,4998.9789478963594,-4998.9789478963594,800.71712098641638,6821.3853075657526,0.0
648204.59901257406,4177374.0504322448,-2500.0,2040.3902992345204,2577.5300659568438,4290.7819130134576,-207.25894290977251,-310.87960195524533,16.436333440117505,3004.1245341523068,-145.63354011598949,4136.8346659837507,-4136.8346659837507,145.63354011598949,5836.5342467973287,0.0
653204.59901257406,4177374.0504322448,-2500.0,2145.82878856141,2311.7864539140051,3088.1676940061616,-192.97495014728284,-230.59234542846869,12.797852976746332,2499.9275008045615,358.40364178330174,3232.2131974605923,-3232.2131974605923,-358.40364178330174,4873.6195923521946,0.0
658204.59901257406,4177374.0504322448,-2500.0,2113.947753789053,1946.2053997902424,2103.6128071161947,-170.05540388305738,-163.66175364565578,9.662524838273951,2036.4369829220384,695.59755242479923,2392.6291498727014,-2392.6291498727014,-695.59755242479923,3992.0713752116426,0.0
663204.59901257406,4177374.0504322448,-2500.0,1978.9799795721003,1554.2207436934568,1343.2840685557112,-143.67425799403756,-110.92336046424036,7.1032234009115793,1630.49112761588,883.31101941923021,1674.6023788935215,-1674.6023788935215,-883.31101941923021,3222.5049969218758,0.0
668204.59901257406,4177374.0504322448,-2500.0,1778.9058301048362,1183.1800423304298,783.64905492827438,-117.39354425018408,-71.198436297591527,5.0980924348612815,1290.0399877131022,953.73685890146771,1096.5499788625452,-1096.5499788625452,-953.73685890146771,2574.4576501414258,0.0
673204.59901257406,4177374.0504322448,-2500.0,1547.0521674434062,858.34957302771727,388.87936684271796,-93.316527547107427,-42.394793375518731,3.5764211416597007,1038.3395452887935,941.52373117406103,653.11628675668078,-653.11628675668078,-941.52373117406103,2043.9857716545985,0.0
678204.59901257406,4177374.0504322448,-2500.0,1308.6958545773539,589.205852894847,121.6572814963791,-72.443055179570109,-22.219086878195959,2.4505834194570646,838.35793995190193,877.13396005619541,326.81244870025773,-326.81244870025773,-877.13396005619541,1619.7189333611022,0.0
683204.59901257406,4177374.0504322448,-2500.0,1080.8001427619636,375.38914023114285,-51.272549856462817,-55.039850902397276,-8.5624680024108173,1.6347802384258889,680.65475318972233,784.30845935385582,95.927799041131209,-95.927799041131209,-784.30845935385582,1287.071072729751,0.0
688204.59901257406,4177374.0504322448,-2500.0,873.29723108819269,211.29441627349738,-157.0170535331014,-40.943705025046015,0.33735497882965482,1.0541122402035814,557.85503593781459,679.9469086020506,-60.842685088670351,60.842685088670351,-679.9469086020506,1030.8426319639659,0.0
693204.59901257406,4177374.0504322448,-2500.0,690.86088922852787,89.164993103410339,-216.40685490554881,-29.777190554676896,5.8655537090014001,0.64747854355895362,463.08636385287406,575.12725626192514,-162.14487000469458,162.14487000469458,-575.12725626192514,836.62141565381717,0.0
698204.59901257406,4177374.0504322448,-2500.0,534.59963719994505,0.94787513060351347,-244.78418653516457,-21.086787967283779,9.0651021484839625,0.36725678711537413,390.27693657892712,476.47299323197041,-223.20150510699449,223.20150510699449,-476.47299323197041,691.41484442067485,0.0
533204.59901257406,4182374.0504322448,-2500.0,-551.48297765885559,487.23788535976564,-526.67340039081967,-28.147143521300634,28.924092541388649,-1.1137185713049769,514.27595715956409,-267.37621271460227,182.10454875359844,-182.10454875359844,267.37621271460227,1003.4721087585531,0.0
538204.59901257406,4182374.0504322448,-2500.0,-539.95612815451102,531.3270920221496,-612.93555545972856,-29.768120071035479,33.851670600842688,-1.2834508065704042,555.72056034357604,-233.28020016383451,166.96325837162416,-166.96325837162416,233.28020016383451,1089.8751944622168,0.0
543204.59901257406,4182374.0504322448,-2500.0,-510.8025253160946,571.64422640018165,-711.83608330122354,-30.84498012282787,39.429773681719801,-1.4685064281131364,597.27897690684813,-181.63454110686365,138.86236403456923,-138.86236403456923,181.63454110686365,1179.0159407475171,0.0
548204.59901257406,4182374.0504322448,-2500.0,-458.48627438450825,603.31077760617086,-823.0592297498722,-31.016678961719609,45.583400069456737,-1.6621957781536214,637.28572214677286,-108.08063051568433,93.191442659088978,-93.191442659088978,108.08063051568433,1268.5498446385016,0.0
553204.59901257406,4182374.0504322448,-2500.0,-376.7624031763126,619.2005201710349,-944.42688917770545,-29.787697468528972,52.103847019984094,-1.8514832554475877,682.72403623787841,-8.1877276918072521,24.478096234203932,-24.478096234203932,8.1877276918072521,1355.2339233950861,0.0
558204.59901257406,4182374.0504322448,-2500.0,-259.22267542507836,609.36625365248938,-1070.5640261034957,-26.506209971443273,58.565151924056948,-2.0136569918016214,733.65850211331826,121.74009600537617,-73.231512644298689,73.231512644298689,-121.74009600537617,1435.0939484015112,0.0
563204.59901257406,4182374.0504322448,-2500.0,-100.40776823186975,560.65117928543702,-1190.950239401054,-20.362181180413643,64.208044575470211,-2.1119276851422066,783.7976969281342,283.21808576170042,-205.40839373753184,205.40839373753184,-283.21808576170042,1504.2412875873349,0.0
568204.59901257406,4182374.0504322448,-2500.0,102.2693006854046,456.87712228158301,-1287.2999589355497,-10.430964675819569,67.793308732993125,-2.0904079931893316,833.34841716275264,473.26519798289809,-375.10788341221468,375.10788341221468,-473.26519798289809,1561.1223400964593,0.0
573204.59901257406,4182374.0504322448,-2500.0,345.62657193175914,280.28456026901063,-1330.4835782341522,4.1981360278202366,67.445144700284729,-1.8695131347949205,885.5461829691792,681.11774993284018,-579.62274575308663,579.62274575308663,-681.11774993284018,1611.5318082953363,0.0
578204.59901257406,4182374.0504322448,-2500.0,617.02589070497038,15.185718990850615,-1277.8026112375721,24.159323948174844,60.541426231899365,-1.3443482923549395,949.45115600376289,884.30512519674301,-805.44148900951188,805.44148900951188,-884.30512519674301,1677.6441459682558,0.0
583204.59901257406,4182374.0504322448,-2500.0,890.86182658020789,-345.17846463760623,-1072.4878619249785,49.375918092623614,43.76433446411626,-0.39052808858650156,1042.6589642254626,1045.3520090658312,-1021.9275605461153,1021.9275605461153,-1045.3520090658312,1808.2414491051925,0.0
588204.59901257406,4182374.0504322448,-2500.0,1127.4645508716367,-788.37105525173104,-648.64792786398618,78.477263948168272,13.485854657295732,1.1168778312679817,1190.0161163053135,1111.8281174421693,-1175.7294511750968,1175.7294511750968,-1111.8281174421693,2075.1681546747227,0.0
593204.59901257406,4182374.0504322448,-2500.0,1277.8948932584142,-1271.197306118871,54.35259803547725,108.22947122835618,-33.327543312859547,3.2666229698433105,1414.2027639248759,1023.817283963982,-1190.4076881346427,1190.4076881346427,-1023.817283963982,2539.3842128047263,0.0
598204.59901257406,4182374.0504322448,-2500.0,1297.775286238973,-1712.9296041778514,1065.9642037420131,133.3419968557784,-97.648221815766519,6.0588508006294148,1721.8498874177235,732.31750938448408,-977.83074133475884,977.83074133475884,-732.31750938448408,3210.4770391682209,0.0
603204.59901257406,4182374.0504322448,-2500.0,1169.1513415235061,-2002.9137424427681,2351.6653494308539,147.13861186459042,-176.6959909003439,9.3519847530095497,2095.4261493538602,227.00587426743022,-466.19676414855775,466.19676414855775,-227.00587426743022,4038.3854477388322,0.0
608204.59901257406,4182374.0504322448,-2500.0,921.09654102354887,-2029.9973285150129,3788.9592799941825,143.37856620975774,-262.88037303676498,12.838241472516829,2494.7775874232402,-438.16301730382492,359.67042432642262,-359.67042432642262,438.16301730382492,4928.0815674647602,0.0
613204.59901257406,4182374.0504322448,-2500.0,632.96248221443386,-1728.7332462610909,5174.6032410333628,118.821764106416,-344.46390605363115,16.077973815590546,2893.9226700678882,-1141.3548302236577,1424.991292920668,-1424.991292920668,1141.3548302236577,5759.5653480517522,0.0
618204.59901257406,4182374.0504322448,-2500.0,409.20950684775204,-1119.3701638297475,6275.3159513127312,75.278259086566067,-408.41833327559254,18.600539046326585,3258.1043819891875,-1725.3457569809509,2565.6766254622999,-2565.6766254622999,1725.3457569809509,6413.3859786826415,0.0
623204.59901257406,4182374.0504322448,-2500.0,334.51130297737518,-312.88836754218835,6905.4483621790223,19.712748142821347,-444.5335612959513,20.039201070005745,3478.7158618626427,-2056.3971117662763,3575.1995306578578,-3575.1995306578578,2056.3971117662763,6799.2776349902751,0.0
628204.59901257406,4182374.0504322448,-2500.0,436.41955424945587,527.97773127582013,6990.2060431715163,-37.979790521465084,-448.70857430542281,20.239062862770862,3534.9190247935476,-2076.1581057460226,4277.2465782900008,-4277.2465782900008,2076.1581057460226,6877.3184183074236,0.0
633204.59901257406,4182374.0504322448,-2500.0,679.17735911272621,1249.3499212155059,6579.3764430029896,-88.356088550707582,-423.69911239603329,19.28675431276028,3434.2539470582174,-1815.6322009357614,4582.7895230527756,-4582.7895230527756,1815.6322009357614,6662.2743614596302,0.0
638204.59901257406,4182374.0504322448,-2500.0,988.21470444234694,1753.1868741655933,5810.842375556409,-125.13293240502087,-377.243476583507,17.455376766402495,3206.4169364477734,-1368.5282384458944,4503.1138809960985,-4503.1138809960985,1368.5282384458944,6211.0085689473863,0.0
643204.59901257406,4182374.0504322448,-2500.0,1285.0135604534555,2011.0620282988398,4852.630155753428,-146.12359678394745,-318.96139319305036,15.101491255414953,2892.3171673777697,-847.11490656256274,4122.6207839898179,-4122.6207839898179,847.11490656256274,5601.2053238430526,0.0
648204.59901257406,4182374.0504322448,-2500.0,1512.3364643440054,2049.6677327224343,3854.4645203878003,-152.55530319267081,-257.63531275772999,12.56637752677328,2533.4914347654849,-346.15298415092661,3555.9681573516818,-3555.9681573516818,346.15298415092661,4911.2003024307232,0.0
653204.59901257406,4182374.0504322448,-2500.0,1642.8251957862908,1924.9776197218625,2922.970777166835,-147.63191778686999,-199.7090248846159,10.11393765287294,2164.9998544218611,73.838526652043129,2912.1350469946246,-2912.1350469946246,-73.838526652043129,4206.6946653320347,0.0
658204.59901257406,4182374.0504322448,-2500.0,1674.9899887333163,1699.1894294203241,2118.2070920786214,-135.15156909620362,-148.97393586766097,7.9109184925475571,1812.3559785075233,386.61316962814408,2274.725300906598,-2274.725300906598,-386.61316962814408,3535.192169521315,0.0
663204.59901257406,4182374.0504322448,-2500.0,1623.8693985021753,1426.3524023215462,1462.3801566211528,-118.57708784628255,-106.9883768382353,6.0369216591839683,1491.4909144937162,591.50822094957289,1696.906128467647,-1696.906128467647,-591.50822094957289,2926.1173593419744,0.0
668204.59901257406,4182374.0504322448,-2500.0,1511.7857529187186,1146.40758326219,952.38345782951399,-100.59714175972566,-73.765030272016148,4.5076844382193597,1210.4010132983356,702.8744506536874,1205.1910122661025,-1205.1910122661025,-702.8744506536874,2393.9669018962431,0.0
673204.59901257406,4182374.0504322448,-2500.0,1361.6508108238993,884.88057828007891,571.21005679857581,-83.042984687660663,-48.42833734691893,3.2995515515796399,973.49685122713731,741.31922362730791,806.68800770116297,-806.68800770116297,-741.31922362730791,1942.4169924411922,0.0
678204.59901257406,4182374.0504322448,-2500.0,1193.181268975902,655.39952221067233,296.32564787127302,-66.999466299283853,-29.713928299437097,2.369360867986023,796.11532098488294,727.89619036200179,496.42417803623152,-496.42417803623152,-727.89619036200179,1568.1702048354709,0.0
683204.59901257406,4182374.0504322448,-2500.0,1021.4081736007199,463.05229021118549,104.89512007651054,-52.987977496342509,-16.29138703304772,1.667987837693945,652.88876308022134,680.98016547469069,263.20121657803412,-263.20121657803412,-680.98016547469069,1264.0145204255282,0.0
688204.59901257406,4182374.0504322448,-2500.0,856.63551511840615,307.49239700842639,-23.478100540616921,-41.149127010057754,-6.941777879983313,1.1482728692045447,537.87637034152965,615.0683444062322,93.619055996081272,-93.619055996081272,-615.0683444062322,1020.9855374337432,0.0
693204.59901257406,4182374.0504322448,-2500.0,705.13414061355229,185.35973506148392,-105.67993962206606,-31.392869952706803,-0.63461403060073462,0.76891546921905574,446.53445032662063,540.73950471239425,-25.502644004070021,25.502644004070021,-540.73950471239425,829.7427553936817,0.0
698204.59901257406,4182374.0504322448,-2500.0,570.08490858018308,91.957594542041363,-154.98850415348963,-23.507893034423407,3.4560999540436592,0.49577428761042586,374.58876872731918,465.1841860412186,-105.88436810290557,105.88436810290557,-465.1841860412186,681.34542844814723,0.0
538204.59901257406,4187374.0504322448,-2500.0,-393.2118247539035,452.94653671141759,-583.17165820066077,-22.518476841199728,30.065920879057614,-1.0316403785924753,476.50144982771667,-128.97116345267145,97.411454674051967,-97.411454674051967,128.97116345267145,940.26769453921372,0.0
543204.59901257406,4187374.0504322448,-2500.0,-351.12629540816812,473.01467973375986,-664.88160447110135,-22.417882464801067,34.290416177194885,-1.1536029976330098,504.43451759284562,-71.991499576810583,60.719071848583091,-60.719071848583091,71.991499576810583,1003.4903655179942,0.0
548204.59901257406,4187374.0504322448,-2500.0,-288.72869719591654,481.35810395434373,-752.47456613843519,-21.369301013481,38.699550773080958,-1.2710913002483564,535.44596323183816,2.86713715334646,8.082119245340234,-8.082119245340234,-2.86713715334646,1063.9450939187768,0.0
553204.59901257406,4187374.0504322448,-2500.0,-202.16372105091682,471.62127004529907,-842.12652608352778,-18.983866638108353,43.022145685594687,-1.3709635445120945,571.05162854384969,97.658574680151474,-64.045870336315971,64.045870336315971,-97.658574680151474,1119.0548526901912,0.0
558204.59901257406,4187374.0504322448,-2500.0,-88.20935149269107,435.66599055708735,-926.94300654152767,-14.790142782471912,46.802075357188642,-1.4328028737423344,605.89633618077721,213.07546252792957,-158.8065532656845,158.8065532656845,-213.07546252792957,1166.3742276926196,0.0
563204.59901257406,4187374.0504322448,-2500.0,54.703963550513244,363.7172156100898,-995.59201133648401,-8.2573715855856236,49.325762361941379,-1.4265303960878579,640.04845317416391,347.22577943566353,-277.88772381689841,277.88772381689841,-347.22577943566353,1204.8621992583721,0.0
568204.59901257406,4187374.0504322448,-2500.0,225.01989635504896,245.11440106075693,-1030.738404037535,1.1427688033296872,49.545356853475219,-1.3101416005139044,675.31331859167699,493.95984634862634,-419.80607545994519,419.80607545994519,-493.95984634862634,1237.5579683537733,0.0
573204.59901257406,4187374.0504322448,-2500.0,416.20570672401715,70.080600543727684,-1007.6347143036768,13.815586023951932,46.020588817064592,-1.0285829553000696,716.68165370830411,640.89185415996167,-577.4048126837863,577.4048126837863,-640.89185415996167,1276.3193632891446,0.0
578204.59901257406,4187374.0504322448,-2500.0,614.90055515653285,-167.05951726773884,-893.63219375247229,29.846835864716894,36.923571367806744,-0.5153714836890585,773.93917203402361,767.61647755334673,-734.71192014675978,734.71192014675978,-767.61647755334673,1347.7840835559314,0.0
583204.59901257406,4187374.0504322448,-2500.0,799.91687494807911,-463.03213672495087,-649.90840761304764,48.732254293257185,20.175025351040812,0.30075124672173387,861.77003518149399,845.17289157189066,-863.88129812068451,863.88129812068451,-845.17289157189066,1494.5291882196059,0.0
588204.59901257406,4187374.0504322448,-2500.0,943.48044836794315,-799.72338345406365,-237.11196511345142,69.081015590782286,-6.207286150235177,1.4817834890416748,996.0370543760655,838.39695328498772,-923.86379249565209,923.86379249565209,-838.39695328498772,1761.2915930125478,0.0
593204.59901257406,4187374.0504322448,-2500.0,1016.2458282052105,-1139.2414329328719,373.69930465226139,88.413297754775002,-43.497356175386429,3.05836190682595,1186.5214425721142,712.91549930780798,-863.42263738064048,863.42263738064048,-712.91549930780798,2170.5148499358097,0.0
598204.59901257406,4187374.0504322448,-2500.0,996.66560624779424,-1423.5816464025056,1185.3345865605268,103.24401988841272,-91.4446923106306,5.0027315883633365,1430.6931089568711,447.32578859422506,-631.21389294205437,631.21389294205437,-447.32578859422506,2709.7796505604947,0.0
603204.59901257406,4187374.0504322448,-2500.0,882.67192737398909,-1583.0658849752522,2158.2839054999595,109.64297371929712,-147.50005235883532,7.2059522476624682,1712.1261475192803,47.9269742824698,-193.50138926853924,193.50138926853924,-47.9269742824698,3336.1666335134191,0.0
608204.59901257406,4187374.0504322448,-2500.0,700.12897889102533,-1555.1202891087617,3202.6691441667085,104.30125957505017,-206.51599358770832,9.4729023616177592,2003.0726609514049,-440.85603472356576,444.9724373876125,-444.9724373876125,440.85603472356576,3985.4595509971136,0.0
613204.59901257406,4187374.0504322448,-2500.0,501.01938629673214,-1308.5914177494844,4187.7292679868879,85.810829321558529,-261.35050849370651,11.546884275560274,2313.1643644550509,-939.08911258139551,1227.2063385596502,-1227.2063385596502,939.08911258139551,4582.5968018125832,0.0
618204.59901257406,4187374.0504322448,-2500.0,348.18239326986543,-862.08331887492739,4971.6316443049418,55.561666962356107,-304.45323696803996,13.163759937645802,2575.6517890572181,-1351.1805612873509,2048.523192663446,-2048.523192663446,1351.1805612873509,5055.1322113268561,0.0
623204.59901257406,4187374.0504322448,-2500.0,292.04233036974273,-284.3628574010325,5442.0142275607677,17.682457920259164,-329.92857435196862,14.119081255710515,2741.7556609380968,-1596.6675310013443,2782.783604995755,-2782.783604995755,1596.6675310013443,5347.9745793386737,0.0
628204.59901257406,4187374.0504322448,-2500.0,351.57362915184098,326.00279236351184,5548.5800218340646,-22.084363799721409,-335.16853522423963,14.320881829845749,2797.5545131062754,-1636.8384728131632,3320.0203673979986,-3320.0203673979986,1636.8384728131632,5434.3932508800854,0.0
633204.59901257406,4187374.0504322448,-2500.0,509.81275921169015,871.87522698537225,5312.2927386222482,-58.065176250810644,-321.31624867357925,13.805861367858625,2745.4258973345818,-1483.6032759754385,3597.2470232108467,-3597.2470232108467,1483.6032759754385,5319.0456207151374,0.0
638204.59901257406,4187374.0504322448,-2500.0,724.61668611597986,1284.0305504661053,4809.5628102850169,-86.106675311170477,-292.47404727883543,12.71540946102763,2601.3974581499597,-1188.3215713624759,3608.9675743335847,-3608.9675743335847,1188.3215713624759,5032.567562697448,0.0
643204.59901257406,4187374.0504322448,-2500.0,946.57931856317532,1532.5807218113152,4142.8374308936054,-104.25221111324409,-254.19770892458689,11.246653273391534,2389.6975973366652,-819.58439510738435,3396.8717038251357,-3396.8717038251357,819.58439510738435,4620.9678355722062,0.0
648204.59901257406,4187374.0504322448,-2500.0,1134.4938036987089,1623.1757381667537,3412.2252223865107,-112.59888486474188,-212.00087127695414,9.6011990195831558,2136.839223382367,-441.95339464882181,3028.3648630970629,-3028.3648630970629,441.95339464882181,4134.3214778087831,0.0
653204.59901257406,4187374.0504322448,-2500.0,1263.2476365447028,1584.6350297253821,2697.2476911377157,-112.65570606156433,-170.35140915881712,7.948049402873159,1867.0124516260364,-103.01520299261324,2575.1720589139868,-2575.1720589139868,103.01520299261324,3618.0892956052558,0.0
658204.59901257406,4187374.0504322448,-2500.0,1324.3479535699237,1455.3689930382934,2050.2124146935848,-106.59147192219766,-132.26899946249935,6.4066311207967512,1599.4682096933336,170.31015833144011,2098.6963633684622,-2098.6963633684622,-170.31015833144011,3108.273237854321,0.0
663204.59901257406,4187374.0504322448,-2500.0,1322.0248523982812,1273.0576228786806,1498.0255990372314,-96.630820666735076,-99.382123972945465,5.046191689603754,1347.7113937507859,369.10006359323131,1643.4319469563361,-1643.4319469563361,-369.10006359323131,2629.9939891346962,0.0
668204.59901257406,4187374.0504322448,-2500.0,1267.986321922544,1068.82604402123,1048.1545181337444,-84.688038182767059,-72.226515502537282,3.8949383755288385,1119.916739292592,497.0128055357585,1236.5142863744181,-1236.5142863744181,-497.0128055357585,2198.3400774467755,0.0
673204.59901257406,4187374.0504322448,-2500.0,1176.7940623224192,865.20562880302032,695.44116581097842,-72.215197686840995,-50.606861620490783,2.9522831006051224,919.9863502455853,564.74333214447108,890.668582004619,-890.668582004619,-564.74333214447108,1820.3416166064519,0.0
678204.59901257406,4187374.0504322448,-2500.0,1062.6512076566762,676.51328833916909,427.94079845828577,-60.195800112230678,-33.917124881866954,2.2004637955514075,750.44628751497089,585.65765596397114,608.31153110693253,-608.31153110693253,-585.65765596397114,1497.2195440756873,0.0
683204.59901257406,4187374.0504322448,-2500.0,937.62344647993132,510.39943967091335,231.14323234266931,-49.21532341110219,-21.378650176507094,1.6134840306273652,622.11354701569701,572.93675259813313,385.44531768148306,-385.44531768148306,-572.93675259813313,1226.4243850888715,0.0
688204.59901257406,4187374.0504322448,-2500.0,810.9631048849966,369.70275332090722,90.621868977305184,-39.558298846731361,-12.194279575179079,1.1631767277880085,517.15076619073125,538.03919806386284,214.73482381497718,-214.73482381497718,-538.03919806386284,1003.2528068891263,0.0
693204.59901257406,4187374.0504322448,-2500.0,689.13613308118443,254.13866205597435,-6.5495184853056116,-31.302562747650253,-5.6345230848003052,0.82278844300939546,431.53984488888864,490.11035698463547,87.646348718756116,-87.646348718756116,-490.11035698463547,822.00866301132044,0.0
543204.59901257406,4192374.0504322443,-2500.0,-226.1113555596111,381.16951673758751,-608.59215776362794,-15.699912528415705,29.315306617029592,-0.89451879334725315,427.33250327559006,8.4221795715933006,-1.161851926517016,1.161851926517016,-8.4221795715933006,849.90795316321771,0.0
548204.59901257406,4192374.0504322443,-2500.0,-161.02526882827433,372.28672235178612,-673.90126223205493,-13.939686644464379,32.289527095051646,-0.95796126727781961,452.87070424515514,79.109524360986242,-55.460850176703801,55.460850176703801,-79.109524360986242,888.96625533603196,0.0
553204.59901257406,4192374.0504322443,-2500.0,-77.191032418276393,345.22265774964001,-735.28596587544325,-10.999907167612756,34.894899163153674,-0.99792896927736807,477.76154122093277,163.72644591976774,-125.09405742061455,125.09405742061455,-163.72644591976774,922.27362095336423,0.0
558204.59901257406,4192374.0504322443,-2500.0,26.382845976400407,293.83762509312186,-785.47081908037762,-6.5636072683039126,36.703665623114624,-0.9975148213947056,501.99591452887682,261.03553664707374,-211.03383060841477,211.03383060841477,-261.03553664707374,949.11515694988771,0.0
563204.59901257406,4192374.0504322443,-2500.0,148.90831797995901,211.47496235878756,-813.69894418687045,-0.31316206978953992,37.104128443128488,-0.9335880815164892,526.6227633020942,367.35501580064374,-312.42161682644655,312.42161682644655,-367.35501580064374,971.1446099344472,0.0
568204.59901257406,4192374.0504322443,-2500.0,286.83783113602811,91.871753798985338,-804.96805338331785,8.0107845447610355,35.269164514353747,-0.77607989208261341,554.51297180211532,475.5070975089472,-425.25367907066681,425.25367907066681,-475.5070975089472,994.98181294927952,0.0
573204.59901257406,4192374.0504322443,-2500.0,432.85299184747618,-69.233280451219684,-739.67721829492507,18.515017079732988,30.151313373092592,-0.4884051447778594,591.3116365291354,573.82671171169761,-540.7362053649457,540.7362053649457,-573.82671171169761,1035.6840468009152,0.0
578204.59901257406,4192374.0504322443,-2500.0,575.17329052251591,-271.68286886267651,-594.24339308238234,31.023175298047455,20.532099840087518,-0.029937881295929,645.81657521569628,645.66921523493579,-643.59139920461939,643.59139920461939,-645.66921523493579,1118.6280165405483,0.0
583204.59901257406,4192374.0504322443,-2500.0,697.77449702586091,-507.8419751630538,-343.45119627652593,44.919513952564024,5.1681268019831732,0.63844859371607054,728.5805714497626,670.12217893957791,-710.97181313404576,710.97181313404576,-670.12217893957791,1274.408678987804,0.0
588204.59901257406,4192374.0504322443,-2500.0,782.21732126814618,-759.57952529241913,34.747898286690315,59.021495442588581,-16.956252429294448,1.5450108924977939,848.2558201028703,624.73290869311199,-713.04365363317606,713.04365363317606,-624.73290869311199,1525.3941894139828,0.0
593204.59901257406,4192374.0504322443,-2500.0,811.63702060606931,-996.70897031791594,551.75261348790241,71.534246648062236,-46.236862720417783,2.6944491624860083,1007.4864499242301,490.84838982423014,-616.59107668601803,616.59107668601803,-490.84838982423014,1874.4993280005347,0.0
598204.59901257406,4192374.0504322443,-2500.0,776.58046082643409,-1178.8088837665994,1199.2721139792225,80.200176023049821,-82.018442618943084,4.0544448023536885,1200.7837358416082,261.10821901826228,-392.49064415149212,392.49064415149212,-261.10821901826228,2304.3987091491567,0.0
603204.59901257406,4192374.0504322443,-2500.0,681.02432825481321,-1262.0309841583273,1941.6947121482281,82.694973026057994,-122.25614906197275,5.5464761819848922,1414.8676944041206,-53.010418109810409,-26.40332233839262,26.40332233839262,53.010418109810409,2782.1999851052565,0.0
608204.59901257406,4192374.0504322443,-2500.0,545.54457081484861,-1210.6554048571993,2714.3238993735254,77.240328657269018,-163.48567149539457,7.0470609588643311,1634.9160235509996,-417.35088617206753,470.50226568588545,-470.50226568588545,417.35088617206753,3264.4457476509701,0.0
613204.59901257406,4192374.0504322443,-2500.0,404.62367627453375,-1010.0946694132359,3431.3151997056762,63.253769383349685,-201.26492123528786,8.4038204780507257,1876.441912606479,-778.71170367729144,1056.0679003743462,-1056.0679003743462,778.71170367729144,3702.9024532393323,0.0
618204.59901257406,4192374.0504322443,-2500.0,297.41228369537168,-675.57286048857054,4003.4074950096665,41.75217649328328,-231.06858606990869,9.4648601635254099,2069.9897282366451,-1076.9482305334013,1661.6749018252062,-1661.6749018252062,1076.9482305334013,4052.0426792346834,0.0
623204.59901257406,4192374.0504322443,-2500.0,255.11081928750289,-251.29080802392045,4360.0507732509168,15.269239639195387,-249.36766517312927,10.112865590105564,2196.8840640210001,-1261.7977572007539,2207.3805544551387,-2207.3805544551387,1261.7977572007539,4277.0259840996887,0.0
628204.59901257406,4192374.0504322443,-2500.0,290.76647729918005,200.76477160130332,4467.0505363317043,-12.739811724106261,-254.47745941527384,10.291804702168415,2247.6828191868003,-1307.2297182780703,2622.4084959579022,-2622.4084959579022,1307.2297182780703,4359.7063213976771,0.0
633204.59901257406,4192374.0504322443,-2500.0,396.27536942949416,617.70840708167475,4332.4971490249436,-38.773843070898913,-246.83994964740683,10.015984178114469,2222.6612617178835,-1216.985544963411,2862.4382410373869,-2862.4382410373869,1216.985544963411,4300.6315767732749,0.0
638204.59901257406,4192374.0504322443,-2500.0,547.26961360013297,951.02465649078317,3999.7138219657259,-60.084104571569412,-228.68067543357549,9.3596892345935458,2130.6581037334286,-1019.8034977211554,2917.0363405189864,-2917.0363405189864,1019.8034977211554,4116.6589178827107,0.0
643204.59901257406,4192374.0504322443,-2500.0,712.52464475353304,1174.7638806441685,3531.9507534685931,-75.121756823307763,-203.25823390685375,8.4334327412131582,1986.2794975513532,-757.97190878749097,2806.0766708347737,-2806.0766708347737,757.97190878749097,3835.5082131573363,0.0
648204.59901257406,4192374.0504322443,-2500.0,863.22174467147534,1285.5666776438443,2995.8621285621248,-83.568231715688611,-174.03973827019774,7.3570511678221706,1806.5653737242963,-474.93453583509245,2568.9806216081056,-2568.9806216081056,474.93453583509245,3489.3805290698629,0.0
653204.59901257406,4192374.0504322443,-2500.0,978.88614524399304,1297.0141614220267,2449.0940770090574,-86.061450211181608,-144.06486277420584,6.2380941021458272,1608.0858127031884,-206.28451375228337,2252.2767928284629,-2252.2767928284629,206.28451375228337,3109.4648176339228,0.0
658204.59901257406,4192374.0504322443,-2500.0,1049.2612071920494,1231.9627382771619,1933.9564458587211,-83.799091625252075,-115.60590649058358,5.1593657406264573,1404.9936399189608,24.354542082513944,1899.6271921452819,-1899.6271921452819,-24.354542082513944,2722.2975322482989,0.0
663204.59901257406,4192374.0504322443,-2500.0,1073.120511539161,1115.7032011684612,1476.4075772092074,-78.16850309870955,-90.096198725434121,4.1754172964607017,1208.1017168415465,205.33459435661905,1545.9907914752439,-1545.9907914752439,-205.33459435661905,2348.0714685159974,0.0
668204.59901257406,4192374.0504322443,-2500.0,1055.5753220673805,971.28464488506916,1088.383192131645,-70.480915296681289,-68.234392230809121,3.3152366252622132,1024.7756446549188,334.58231776920127,1215.6361633284978,-1215.6361633284978,-334.58231776920127,2000.4754722792397,0.0
673204.59901257406,4192374.0504322443,-2500.0,1005.1665148957323,817.11973112286614,771.518817950884,-61.823999253384279,-50.167568591217474,2.5880317032094045,859.33690865664869,416.38975399537185,922.79202224245728,-922.79202224245728,-416.38975399537185,1687.4761177808955,0.0
678204.59901257406,4192374.0504322443,-2500.0,931.48318792328917,666.35267705043225,520.91224548677928,-53.010698090409917,-35.682981170235557,1.9894935056482452,713.72256443116896,458.44067732233952,673.64153308610594,-673.64153308610594,-458.44067732233952,1412.5267512645667,0.0
683204.59901257406,4192374.0504322443,-2500.0,843.56067184938399,527.30692839764993,328.22148929344252,-44.590385797263529,-24.369857292744168,1.5074850661387362,589.38489231054825,469.55028068496358,468.67877740201152,-468.67877740201152,-469.55028068496358,1175.8356216165114,0.0
688204.59901257406,4192374.0504322443,-2500.0,749.01171051951258,404.43462088580185,183.88413331052422,-36.891971939550281,-15.738147211528284,1.1262050504407843,494.37713121543766,458.20184767296359,304.85348299588156,-304.85348299588156,-458.20184767296359,975.48930922087584,0.0
548204.59901257406,4197374.0504322443,-2500.0,-67.528094489197215,278.16949808821869,-592.8694908907695,-8.3501667138834907,26.535196566782915,-0.7114398751107649,383.20268316649418,128.13159830219792,-100.15915730067678,100.15915730067678,-128.13159830219792,741.62385180611227,0.0
553204.59901257406,4197374.0504322443,-2500.0,9.3176896185667513,240.53182761570355,-630.37796108934378,-5.2537242431134077,27.854720629349114,-0.71312100674440893,400.83469274964671,200.38330678648981,-163.68690929091434,163.68690929091434,-200.38330678648981,760.83613103878565,0.0
558204.59901257406,4197374.0504322443,-2500.0,99.58390069346261,181.68877208425053,-653.01219263739858,-0.97280893418628023,28.281507335409575,-0.67674039711929523,418.5220721466124,279.18526736281382,-237.94938983643198,237.94938983643198,-279.18526736281382,776.16500101251279,0.0
563204.59901257406,4197374.0504322443,-2500.0,201.26224964540609,97.521025443854938,-651.32311488136418,4.6606962660867373,27.321635924080311,-0.58524039699701991,437.97952190833007,360.19703961197922,-320.60080246674784,320.60080246674784,-360.19703961197922,791.44654273909691,0.0
568204.59901257406,4197374.0504322443,-2500.0,310.17222636145732,-15.062558121585909,-613.09270065013777,11.73810486527988,24.352621545984402,-0.41785302756954124,462.57574873766839,436.46269174118362,-406.56830956834636,406.56830956834636,-436.46269174118362,815.47565120268393,0.0
573204.59901257406,4197374.0504322443,-2500.0,419.51568103207632,-156.85960915052701,-523.55057306297545,20.207460681339541,18.642490201433752,-0.15102190372286056,497.68828427118052,498.05572950259028,-487.0920584401054,487.0920584401054,-498.05572950259028,863.59889898763493,0.0
578204.59901257406,4197374.0504322443,-2500.0,519.81748986081925,-324.73365467711818,-366.39680529318326,29.79294479521786,9.4097955556068946,0.23927998722228888,550.2244061187331,532.2507528209602,-548.98110861230305,548.98110861230305,-532.2507528209602,956.11923259917205,0.0
583204.59901257406,4197374.0504322443,-2500.0,599.59236254515338,-509.85053915692805,-126.00881356369806,39.915529004515179,-4.0594435112929981,0.77349939848386606,626.84163212075453,524.61975617249868,-574.5537919843141,574.5537919843141,-524.61975617249868,1111.4177111704023,0.0
588204.59901257406,4197374.0504322443,-2500.0,647.05197502175747,-696.34891065107729,208.94033352034586,49.64402808334745,-22.231155443328916,1.4626086588609948,731.42819844655492,461.40519825905437,-542.88547779164458,542.88547779164458,-461.40519825905437,1337.7103202232108,0.0
593204.59901257406,4197374.0504322443,-2500.0,652.9237004435189,-861.30610635030268,640.67257817072323,57.717982261855489,-45.094586631251182,2.3010561961715652,863.25572962905903,333.21600671222967,-432.93872020147666,432.93872020147666,-333.21600671222967,1630.0700432204305,0.0
598204.59901257406,4197374.0504322443,-2500.0,613.92876495988094,-976.93637673449621,1157.2906405625358,62.682833625277645,-71.936494496927182,3.2602431708105075,1016.5531007537579,139.45471821004512,-228.69630263047455,228.69630263047455,-139.45471821004512,1972.4345890067118,0.0
603204.59901257406,4197374.0504322443,-2500.0,535.78643192870265,-1015.5129288799335,1729.4011698916538,63.152481062397577,-101.20492325336103,4.2852519482102993,1181.2064524973723,-107.94186451959597,74.528821111982509,-74.528821111982509,107.94186451959597,2340.5360138020751,0.0
608204.59901257406,4197374.0504322443,-2500.0,434.16179055512725,-956.39887194748394,2310.6117061944333,58.160491401979456,-130.56131895929437,5.2974375569763987,1361.0839075069937,-383.41718162394966,464.60949016443544,-464.60949016443544,383.41718162394966,2704.6468359606865,0.0
613204.59901257406,4197374.0504322443,-2500.0,332.29106063988922,-793.13507507062775,2843.4080897272779,47.496932871348754,-157.18069300336344,6.2045358044035961,1542.1502407552118,-650.96743886764614,910.63453160184656,-910.63453160184656,650.96743886764614,3032.9783232822083,0.0
618204.59901257406,4197374.0504322443,-2500.0,255.32841871874237,-537.6517404972077,3269.8891026664833,31.893708704981147,-178.26644475334538,6.9168167877033424,1687.7435313725339,-871.59464129193486,1366.4925335380303,-1366.4925335380303,871.59464129193486,3296.0177296116121,0.0
623204.59901257406,4197374.0504322443,-2500.0,223.22682644790467,-219.26305828499736,3544.3297998819298,12.95465447424457,-191.63722014084937,7.36502060937576,1786.0474279585112,-1012.8679426173784,1779.8824404338343,-1779.8824404338343,1012.8679426173784,3471.0412519050287,0.0
628204.59901257406,4197374.0504322443,-2500.0,245.0283514301529,121.75731815097733,3643.1431349258337,-7.1726615078066471,-196.18564847263491,7.5142376737091139,1830.5504324602905,-1056.9964597935625,2103.9586666291507,-2103.9586666291507,1056.9964597935625,3545.5313505988361,0.0
633204.59901257406,4197374.0504322443,-2500.0,316.90894423199649,443.70127594032647,3568.6782189288897,-26.271531397263747,-192.05069355825768,7.3690973912159485,1820.7305195111016,-1004.3017756998934,2307.3807626677099,-2307.3807626677099,1004.3017756998934,3518.4803466104408,0.0
638204.59901257406,4197374.0504322443,-2500.0,424.45930608750751,712.45253941871431,3346.0135746376832,-42.507268411592868,-180.46607137189369,6.9692853376345711,1761.5470736292207,-871.16763059120944,2379.34522539715,-2379.34522539715,871.16763059120944,3399.3216218583339,0.0
643204.59901257406,4197374.0504322443,-2500.0,547.74428509530026,907.07884006608947,3014.7859235771621,-54.714346948429835,-163.37630829764595,6.3777965851261769,1661.9665522698563,-683.99746799060244,2328.6392513447927,-2328.6392513447927,683.99746799060244,3205.055114913037,0.0
648204.59901257406,4197374.0504322443,-2500.0,666.83318160122315,1020.992217578557,2619.507731815545,-62.467785729341948,-142.97707653020842,5.6666066907156116,1533.0544676900861,-471.9660224312529,2178.2332962265536,-2178.2332962265536,471.9660224312529,2956.591215265109,0.0
653204.59901257406,4197374.0504322443,-2500.0,765.93270752262981,1059.5422967774057,2201.4115438107438,-65.975171642529318,-121.32138547957287,4.904099952464354,1386.1635450807228,-261.03421473801984,1958.1111603258828,-1958.1111603258828,261.03421473801984,2675.3147352176893,0.0
658204.59901257406,4197374.0504322443,-2500.0,835.35069763453259,1035.8130915558359,1793.389636489703,-65.872145726742474,-100.06834009490717,4.1466981355205252,1231.5657207932938,-70.464622913782364,1698.756217060959,-1698.756217060959,70.464622913782364,2380.5144850492861,0.0
663204.59901257406,4197374.0504322443,-2500.0,871.5080398603078,966.29422922188496,1418.1175470656408,-63.003354047790999,-80.382955243555742,3.4351945880960733,1077.6493851740299,88.161155397453058,1426.6415449234587,-1426.6415449234587,-88.161155397453058,2087.8925802986737,0.0
668204.59901257406,4197374.0504322443,-2500.0,875.71765514725962,867.46422794615887,1088.5568307752546,-58.242830642354804,-62.952120562535406,2.794830541720251,930.62979615666325,210.14247952627829,1161.9836402064618,-1161.9836402064618,-210.14247952627829,1809.0425913967758,0.0
673204.59901257406,4197374.0504322443,-2500.0,852.48987613104862,753.6447274867536,809.78287382835481,-52.375330773773669,-48.067846431988613,2.2376782827195423,794.6332476848703,295.9637073854559,918.33111490032968,-918.33111490032968,-295.9637073854559,1551.6259763966252,0.0
678204.59901257406,4197374.0504322443,-2500.0,807.91142328991032,636.01820384649955,581.24720299236185,-46.036221553320793,-35.734929051680098,1.7659804366331935,672.00077745361125,349.414282533402,703.3138896187611,-703.3138896187611,-349.414282533402,1319.9504683758139,0.0
683204.59901257406,4197374.0504322443,-2500.0,748.38359912381168,522.49250301995698,398.89891010244077,-39.695958320122493,-25.774465114705045,1.3754000819125596,563.69849473311808,375.95430415267776,519.93082186266179,-519.93082186266179,-375.95430415267776,1115.709815664673,0.0
553204.59901257406,4202374.0504322443,-2500.0,66.904215092624256,156.1564555075455,-531.67682486927743,-1.2310011638011871,21.904141597733091,-0.49872625723213004,338.06380628346017,216.21265942537411,-184.8794465612263,184.8794465612263,-216.21265942537411,630.15452970984188,0.0
558204.59901257406,4202374.0504322443,-2500.0,143.32410702357947,95.398914700931556,-533.37505895956986,2.6833718124716661,21.409622901767442,-0.44377982489969003,352.03837696191016,277.90293724084319,-246.66998100066164,246.66998100066164,-277.90293724084319,640.31471441411361,0.0
563204.59901257406,4202374.0504322443,-2500.0,225.79597004012251,14.737093582329196,-510.6868188482278,7.5739966371533889,19.643493298178928,-0.34305768715679041,369.04780725042144,337.40349229138434,-311.62222033522386,311.62222033522386,-337.40349229138434,654.96526542781157,0.0
568204.59901257406,4202374.0504322443,-2500.0,310.26145126639614,-86.8097885493858,-454.08997943014469,13.435627009593329,16.153589114212121,-0.182599702367024,392.45116369320533,388.59073272270427,-374.51359558541992,374.51359558541992,-388.59073272270427,683.55866287228309,0.0
573204.59901257406,4202374.0504322443,-2500.0,390.97066898372589,-208.06954105320679,-352.87466785189571,20.143945355903448,10.44448068720874,0.052353521603379409,426.77032129098592,423.52416438990372,-427.4629623720939,427.4629623720939,-423.52416438990372,739.43468090965575,0.0
578204.59901257406,4202374.0504322443,-2500.0,460.71077687080094,-344.68715938027452,-196.19884446050978,27.409422351774296,2.0317422328399473,0.3755364744759016,476.84330867395147,432.88945826092186,-459.73880903030147,459.73880903030147,-432.88945826092186,836.50108335230789,0.0
583204.59901257406,4202374.0504322443,-2500.0,511.54642169468929,-488.20401456184209,25.110536111699762,34.740844992959509,-9.4710397152481161,0.79688784298529969,546.35460524489963,407.07873095937174,-458.15605436989421,458.15605436989421,-407.07873095937174,983.84826854430321,0.0
588204.59901257406,4202374.0504322443,-2500.0,536.17380241485625,-625.63008814075988,316.01347225137511,41.436209603736955,-24.233974566983488,1.3189837844976156,636.45082033042866,338.01237904799081,-408.38277334223784,408.38277334223784,-338.01237904799081,1182.344362299147,0.0
593204.59901257406,4202374.0504322443,-2500.0,529.79934594960571,-739.99443559296094,674.2786301673691,46.622936366919085,-42.078389034340397,1.933220577436513,745.1011780365983,221.57109723342447,-297.35620099492945,297.35620099492945,-221.57109723342447,1424.9178190419655,0.0
598204.59901257406,4202374.0504322443,-2500.0,492.15041148274662,-812.28645889113909,1087.7933508540132,49.363037429451055,-62.363546247297471,2.6167470111322189,867.21782849721512,60.137706221069081,-116.66785916259586,116.66785916259586,-60.137706221069081,1698.3599820677098,0.0
603204.59901257406,4202374.0504322443,-2500.0,428.91803557696335,-824.84780010924339,1533.2377828140959,48.821890041330086,-83.940069335452748,3.3316156148981571,995.53869397651681,-135.62506681521373,133.75199509144838,-133.75199509144838,135.62506681521373,1984.9533015441441,0.0
608204.59901257406,4202374.0504322443,-2500.0,351.82155672894197,-765.65235028815687,1977.2265239169926,44.470675675661425,-105.21619541055061,4.0271820253568364,1144.3059052256638,-346.77427618225931,442.85023347631,-442.85023347631,346.77427618225931,2264.0723860907842,0.0
613204.59901257406,4202374.0504322443,-2500.0,276.78117178159425,-632.24507795793215,2380.4644572863658,36.264636030995035,-124.35615551686735,4.6464042005199815,1282.1785806476946,-548.52393608338423,787.9380764750382,-787.9380764750382,548.52393608338423,2514.2725204189514,0.0
618204.59901257406,4202374.0504322443,-2500.0,220.40324719196349,-433.82174028420138,2704.3781413303523,24.729306111471399,-139.58318029833393,5.134851029889786,1393.6462539476368,-714.9068550259899,1137.3251234013601,-1137.3251234013601,714.9068550259899,2715.8943212324248,0.0
623204.59901257406,4202374.0504322443,-2500.0,195.81992236749176,-190.35608161205835,2918.4999708800578,10.908358190937278,-149.50965208278402,5.4505193246160779,1470.8068178414858,-824.398956519389,1455.8364334721257,-1455.8364334721257,824.398956519389,2853.7107124143604,0.0
628204.59901257406,4202374.0504322443,-2500.0,209.371685181397,71.228810385080649,3006.3031998581555,-3.8240201150814976,-153.39466472898727,5.571171781554102,1509.0935809289642,-864.63317777024918,1711.6815261135914,-1711.6815261135914,864.63317777024918,2918.9434552364141,0.0
633204.59901257406,4202374.0504322443,-2500.0,259.3356107002071,322.63801452045408,2967.649871625581,-18.030120320169281,-151.25018168228539,5.497470946893662,1507.7427186934194,-834.60178163245848,1882.4853444405608,-1882.4853444405608,834.60178163245848,2910.1141497061599,0.0
638204.59901257406,4202374.0504322443,-2500.0,337.00983824067396,539.67572813814513,2817.322597309771,-30.470534806115438,-143.77353675727869,5.251005733746366,1469.5720141646743,-743.79352829828929,1958.6533481891729,-1958.6533481891729,743.79352829828929,2832.5657089751044,0.0
643204.59901257406,4202374.0504322443,-2500.0,429.50171012015738,705.99830761935721,2580.5509491269363,-40.287000458283849,-132.14578653376205,4.8682955063051301,1400.1824820520642,-608.92663465705846,1943.4021901430792,-1943.4021901430792,608.92663465705846,2696.9040090070116,0.0
648204.59901257406,4202374.0504322443,-2500.0,523.0505713950788,814.42398240326679,2287.2708125051076,-47.071448075578203,-117.77165699058307,4.3931248840546528,1306.847215306786,-449.66790233155336,1850.0426970159165,-1850.0426970159165,449.66790233155336,2516.8673969608253,0.0
653204.59901257406,4202374.0504322443,-2500.0,605.8083119490052,866.0441385701663,1966.836215939034,-50.830369342739367,-102.0373373834702,3.8691540881039632,1197.3795886225457,-284.73069147913657,1697.8506098640598,-1697.8506098640598,284.73069147913657,2307.1772969187773,0.0
658204.59901257406,4202374.0504322443,-2500.0,669.48618585867416,867.9756712019273,1644.2677667887001,-51.881714690899535,-86.13547638587815,3.3345144898858647,1079.1978442248776,-129.2193181880383,1507.8995439335745,-1507.8995439335745,129.2193181880383,2081.7751930440745,0.0
663204.59901257406,4202374.0504322443,-2500.0,709.81169599822442,830.70027491069413,1338.3538596125998,-50.728059000814994,-70.973400934238498,2.8188429203129171,958.69584404929185,6.5575364450040752,1299.7975552508074,-1299.7975552508074,-6.5575364450040752,1852.646615606541,0.0
668204.59901257406,4202374.0504322443,-2500.0,726.0918783098208,765.69854391793683,1061.3398513877999,-47.940200396083981,-57.154199286863516,2.3424735019544864,840.92682715483318,117.05626535928741,1089.6954451797039,-1089.6954451797039,-117.05626535928741,1629.2382581425682,0.0
673204.59901257406,4202374.0504322443,-2500.0,720.29702100695499,683.73841479212672,819.67538490160632,-44.0697434138376,-45.007621984975138,1.9171635791761978,729.54341663929858,200.70603239298271,889.48910018478841,-889.48910018478841,-200.70603239298271,1418.3565271840653,0.0
678204.59901257406,4202374.0504322443,-2500.0,696.02663612911249,593.8814549283486,615.28066619720221,-39.595308044826417,-34.646514702062674,1.5477968190978826,626.91247947552472,258.79815157664746,706.90514344660698,-706.90514344660698,-258.79815157664746,1224.391464424792,0.0
558204.59901257406,4207374.0504322443,-2500.0,166.66029984908829,30.652245835435124,-428.14468250226008,4.9536861054744961,15.897462696696788,-0.27686416595212865,299.36041631873712,264.73874260494023,-242.99431392445189,242.99431392445189,-264.73874260494023,534.80502275741924,0.0
563204.59901257406,4207374.0504322443,-2500.0,232.45807523661745,-43.568723176366895,-391.58439429451579,9.0951584751888976,13.710071677342341,-0.17746257364819257,315.44762582059701,306.76555446196619,-292.31864407636533,292.31864407636533,-306.76555446196619,552.15994652988161,0.0
568204.59901257406,4207374.0504322443,-2500.0,297.10595621707455,-132.61523460006561,-324.80832762523829,13.86587475625017,10.087600006161797,-0.031942443990145709,338.48866183404255,338.92898824429102,-336.31325232825651,336.31325232825651,-338.92898824429102,586.44392028020582,0.0
573204.59901257406,4207374.0504322443,-2500.0,356.00649259589341,-234.34016469268568,-220.30048123599337,19.118407763395279,4.7042289714589609,0.16870642822195145,371.91380983022918,355.13765933787329,-368.29955105306419,368.29955105306419,-355.13765933787329,647.75560873843688,0.0
578204.59901257406,4207374.0504322443,-2500.0,403.86711914958903,-344.16591103337788,-71.12497142375048,24.588699741959577,-2.7292430013033253,0.43200218670880119,418.77110530994878,348.79172295553701,-379.87315030179423,379.87315030179423,-348.79172295553701,744.26848099900917,0.0
583204.59901257406,4207374.0504322443,-2500.0,435.3553075014612,-454.6690234824967,127.71152749861238,29.882299753215626,-12.403773119960002,0.7621759538605053,480.77172653991067,313.69225394865782,-361.44370636585757,361.44370636585757,-313.69225394865782,879.27708410503362,0.0
588204.59901257406,4207374.0504322443,-2500.0,446.09157802474311,-555.59177272939849,377.54490660854111,34.482156637602323,-24.337550412423564,1.1580377119475247,557.66895379408913,245.35211515653918,-303.36803012189421,303.36803012189421,-245.35211515653918,1050.5029502580223,0.0
593204.59901257406,4207374.0504322443,-2500.0,433.85666726795466,-634.5348368282697,674.2608713719892,37.787956550620791,-38.300874310188846,1.6109703886635147,647.1353355955863,142.54463141555445,-197.70502942650708,197.70502942650708,-142.54463141555445,1251.0524544969503,0.0
598204.59901257406,4207374.0504322443,-2500.0,399.72711949167513,-678.48815584844965,1006.9064809332924,39.192247822687889,-53.761661850068677,2.1035736726734546,745.00518160781428,8.7293249165574665,-40.400741908169401,40.400741908169401,-8.7293249165574665,1470.5501182882467,0.0
603204.59901257406,4207374.0504322443,-2500.0,348.72489305321949,-676.11810033916424,1357.3174426700057,38.187629069696598,-69.876959564951036,2.6096770903115725,851.01863037735768,-147.16329900911867,166.57234570708184,-166.57234570708184,147.16329900911867,1696.0466421320707,0.0
608204.59901257406,4207374.0504322443,-2500.0,289.57244666208487,-620.38921591067856,1701.293926658547,34.48461358838064,-85.551433818977969,3.0962505183450202,970.4709257028245,-311.10187021432233,413.82352697046491,-413.82352697046491,311.10187021432233,1913.0143215636035,0.0
613204.59901257406,4207374.0504322443,-2500.0,233.35856708299792,-510.79396906352719,2011.4892669181277,28.107832465222188,-99.567537628609756,3.5272496544652543,1077.1150411347867,-465.7354086026906,684.60320196824932,-684.60320196824932,465.7354086026906,2106.6760577628684,0.0
618204.59901257406,4207374.0504322443,-2500.0,191.3138908752868,-354.38808523192824,2261.5906134750485,19.436219197266407,-110.76780806651956,3.8688831760676585,1163.8021150611446,-593.36046067632185,956.6849091250848,-956.6849091250848,593.36046067632185,2263.6163415830179,0.0
623204.59901257406,4207374.0504322443,-2500.0,172.3025296763968,-165.10581042397047,2430.7959158449667,9.1659088448534476,-118.24663292451665,4.094954152835939,1225.1087521253826,-679.33300689524731,1205.8321552849168,-1205.8321552849168,679.33300689524731,2373.3858697671094,0.0
628204.59901257406,4207374.0504322443,-2500.0,180.83019726091962,38.597876632203075,2507.3429585071635,-1.8006274934016506,-121.49956909334263,4.1910468133878185,1257.7795388367949,-714.91207025950746,1409.9841390734164,-1409.9841390734164,714.91207025950746,2429.7287515798116,0.0
633204.59901257406,4207374.0504322443,-2500.0,216.21082670017543,237.12226435033301,2490.1054898356128,-12.50979445640615,-120.48971796986865,4.1563574798694836,1261.038374727573,-698.67811866813736,1552.9799843743999,-1552.9799843743999,698.67811866813736,2431.1432020429165,0.0
638204.59901257406,4207374.0504322443,-2500.0,273.08707743835453,413.11920007882168,2387.9294484015268,-22.112852370173222,-115.61789232140441,4.0027813810913084,1236.4970226469914,-636.19364238298351,1626.8131644982086,-1626.8131644982086,636.19364238298351,2380.6737133181705,0.0
643204.59901257406,4207374.0504322443,-2500.0,343.00340092640221,554.0066210621959,2217.1235134306362,-29.982676111946226,-107.61397457971596,3.7519121078196438,1187.7113924613359,-538.19603005591739,1631.9730047199666,-1631.9730047199666,538.19603005591739,2285.0437634469308,0.0
648204.59901257406,4207374.0504322443,-2500.0,416.42458972210454,653.11036063296638,1998.0073662780062,-35.769284156612059,-97.387392225584946,3.4307210653069284,1119.523329098917,-418.03630783420215,1576.0903510045505,-1576.0903510045505,418.03630783420215,2153.3932922706567,0.0
653204.59901257406,4207374.0504322443,-2500.0,484.58113778005986,709.45664210098528,1751.4890371397128,-39.39417978664946,-85.877746726045416,3.0673099395704,1037.3478221501209,-289.14893672048299,1471.5509840232303,-1471.5509840232303,289.14893672048299,1995.9237739499324,0.0
658204.59901257406,4207374.0504322443,-2500.0,540.73241967442448,726.60514125454938,1496.3853716965059,-40.999885611658705,-73.936434478920674,2.6873892572539848,946.54156861123829,-163.12554867732104,1332.8550929975418,-1332.8550929975418,163.12554867732104,1822.706009176361,0.0
663204.59901257406,4207374.0504322443,-2500.0,580.72280769116776,711.04572299196559,1247.7986611225429,-40.877645278849727,-62.253354654714578,2.3121516513739708,851.93356063137435,-48.631434375879167,1174.33622913309,-1174.33622913309,48.631434375879167,1642.7995343213845,0.0
668204.59901257406,4207374.0504322443,-2500.0,602.92973071560027,670.61346603673087,1016.5145664661402,-39.393879883103104,-51.327985139465468,1.9572745190549863,757.54303891973461,48.884095779763754,1008.5668721094078,-1008.5668721094078,-48.884095779763754,1463.7281120610869,0.0
673204.59901257406,4207374.0504322443,-2500.0,607.81487312782622,613.20824699862385,809.17723474249203,-36.928983005306485,-41.474877139159219,1.6329861149010116,666.46688563406872,126.89885197408546,845.5077486567003,-845.5077486567003,-126.89885197408546,1291.2746823873156,0.0
563204.59901257406,4212374.0504322443,-2500.0,228.10102253351994,-83.163599299177818,-292.43822738368112,9.7010999234520288,9.1841101496615831,-0.066356237622960265,273.55450358820406,273.25696919058453,-267.51365429180566,267.51365429180566,-273.25696919058453,474.90558813371786,0.0
568204.59901257406,4212374.0504322443,-2500.0,277.07976148635498,-159.75606339394383,-221.24887968092062,13.538574465454683,5.6612798016840378,0.06132633001071465,296.34083969328435,291.40149309414983,-296.55822012037481,296.55822012037481,-291.40149309414983,514.03935286161266,0.0
573204.59901257406,4212374.0504322443,-2500.0,319.64103255277195,-243.9869787737251,-118.74673246221553,17.620890802283551,0.75929666647371918,0.22950878969931163,328.41379795612966,294.86356018673189,-313.0704563524173,313.0704563524173,-294.86356018673189,577.67084434877836,0.0
578204.59901257406,4212374.0504322443,-2500.0,352.00388963551217,-331.5645338834737,19.301647430066176,21.723373154020077,-5.6859035864992507,0.44205274613322543,371.48552004229748,279.09095069212901,-310.63649369867778,310.63649369867778,-279.09095069212901,669.8051354155557,0.0
583204.59901257406,4212374.0504322443,-2500.0,370.67130945794116,-416.27859496543329,195.26616023887931,25.539160717072289,-13.752519627235145,0.70019720165189758,426.09263712248031,240.2175930827502,-282.40456084304526,282.40456084304526,-240.2175930827502,790.65700501705305,0.0
588204.59901257406,4212374.0504322443,-2500.0,373.12554201358279,-490.19757445238997,408.53049959161768,28.692202735885676,-23.386794398864652,1.0013326561149432,491.38089921722292,175.97003170431159,-221.98514894691274,221.98514894691274,-175.97003170431159,936.96132257653949,0.0
593204.59901257406,4212374.0504322443,-2500.0,358.58512846664843,-544.3186703881737,654.43946264983333,30.770018307289355,-34.361428298569088,1.3379402322372616,565.16015158474443,86.631508066812557,-124.68357731107591,124.68357731107591,-86.631508066812557,1102.7599102768327,0.0
598204.59901257406,4212374.0504322443,-2500.0,328.63107030867559,-569.71231375559455,923.62360497802354,31.376863005344102,-46.251170322270426,1.6970742698499954,644.18803598464774,-24.178624731920763,11.106242379542522,-11.106242379542522,24.178624731920763,1280.043998169537,0.0
603204.59901257406,4212374.0504322443,-2500.0,287.46250844117577,-559.05076841444577,1202.0418852062505,30.201606314798298,-58.438964922069616,2.0606241225070803,735.52578857651656,-149.21028709596547,182.66475868217512,-182.66475868217512,149.21028709596547,1459.2900271687606,0.0
608204.59901257406,4212374.0504322443,-2500.0,241.57897370335388,-508.22886515489273,1471.9931030497778,27.08720492501784,-70.161948239167529,2.4067310823309178,829.62070217021801,-278.03000301443649,382.27315002597891,-382.27315002597891,278.03000301443649,1630.1110953208231,0.0
613204.59901257406,4212374.0504322443,-2500.0,198.82733806783156,-417.64800514590564,1714.1164429077035,22.083542906660785,-80.597021113430742,2.7121966761497829,913.28591198183335,-398.29644247162264,597.46671344048582,-597.46671344048582,398.29644247162264,1782.1261497493711,0.0
618204.59901257406,4212374.0504322443,-2500.0,166.9678801703603,-292.72922521186899,1910.0797485928372,15.465883178713211,-88.972920358078113,2.9554942437078755,981.65095659896667,-497.68301644600558,812.36746061592282,-812.36746061592282,497.68301644600558,1905.9822415824704,0.0
623204.59901257406,4212374.0504322443,-2500.0,152.11936176707513,-143.39740363047838,2045.3691417427649,7.7089262888761185,-94.684804861111289,3.119928829243912,1030.9117218444728,-566.00493871799722,1009.9141231292226,-1009.9141231292226,566.00493871799722,1994.3548003231722,0.0
628204.59901257406,4212374.0504322443,-2500.0,157.52768437324738,17.413241022200602,2111.4860909275326,-0.5806470689578761,-97.383449995783025,3.1959792139022696,1058.7113474453986,-596.98522918852154,1174.4878782111102,-1174.4878782111102,596.98522918852154,2042.7165113633619,0.0
633204.59901257406,4212374.0504322443,-2500.0,183.0134503992999,175.8619282697195,2107.0030227692932,-8.7571494444041722,-97.017408093301043,3.1824039838915334,1064.3486365473755,-589.18352834253812,1294.2724347895632,-1294.2724347895632,589.18352834253812,2049.7115862476353,0.0
638204.59901257406,4212374.0504322443,-2500.0,225.2208294454106,319.36121864654126,2037.2744513408622,-16.231086418302084,-93.820168975030995,3.0858778780982701,1048.7442779991861,-545.88561104740302,1362.7748832031541,-1362.7748832031541,545.88561104740302,2017.07076960974,0.0
643204.59901257406,4212374.0504322443,-2500.0,278.52491322823101,438.26974020287111,1912.999952882758,-22.544385550588444,-88.250370801928781,2.9193541074141063,1014.1897701691528,-474.08369886585393,1379.2223528315969,-1379.2223528315969,474.08369886585393,1949.1197279738981,0.0
648204.59901257406,4212374.0504322443,-2500.0,336.27488521291701,526.79961448402491,1748.1143206198633,-27.411987089317606,-80.904196305082792,2.6997191429016159,963.94954248682234,-382.92054103982252,1347.8998400931305,-1347.8998400931305,382.92054103982252,1852.0155983220914,0.0
653204.59901257406,4212374.0504322443,-2500.0,392.01425549557484,583.09219247261592,1557.5654296617279,-30.727328058867588,-72.422703657115491,2.4451978609214864,901.80816635177177,-282.04696862223699,1276.7650735712612,-1276.7650735712612,282.04696862223699,1732.8858668887635,0.0
658204.59901257406,4212374.0504322443,-2500.0,440.40955759383849,608.63830709388401,1355.4329871592763,-32.538837863234491,-63.412701194802374,2.173191240406199,831.64475442488049,-180.25754839397626,1175.7790076447013,-1175.7790076447013,180.25754839397626,1599.0238080974998,0.0
663204.59901257406,4212374.0504322443,-2500.0,477.76510040103159,607.32778207062859,1153.6422160158083,-33.009265700995947,-54.391836427922932,1.8987182068409729,757.09218905059879,-84.602644173252997,1055.3416359774988,-1055.3416359774988,84.602644173252997,1457.2478313693364,0.0
668204.59901257406,4212374.0504322443,-2500.0,502.13840594656517,584.40996882697061,961.31892024223089,-32.369974536406694,-45.760220038407233,1.6335842997327803,681.30639020395313,-0.0039766998285131194,925.08167218500159,-925.08167218500159,0.0039766998285131194,1313.470348570225,0.0
573204.59901257406,4217374.0504322443,-2500.0,284.58399579060591,-242.88214398601087,-41.952467742851894,15.944831578810792,-1.8899202700975144,0.25553715109097613,293.02652806635137,243.05176707573759,-263.38231023519421,263.38231023519421,-243.05176707573759,521.89439640891851,0.0
578204.59901257406,4217374.0504322443,-2500.0,306.05400095903337,-312.34572680750085,83.476483356945792,19.014641049734657,-7.4132417717126113,0.42631014563204123,332.04003975995124,222.07564562038155,-251.82241095096688,251.82241095096688,-222.07564562038155,607.33210136654259,0.0
583204.59901257406,4217374.0504322443,-2500.0,316.3024098392537,-377.10042726940679,237.75146172371362,21.761944272319845,-14.109243646393178,0.62825023259889134,379.72167016840814,182.73392960474527,-218.48708840613878,218.48708840613878,-182.73392960474527,713.90200841936382,0.0
588204.59901257406,4217374.0504322443,-2500.0,313.97344078173796,-431.08731255572718,419.29465562980988,23.914978086993838,-21.895325779304894,0.85843906202227405,435.02593121559573,124.081378095452,-159.20902019265668,159.20902019265668,-124.081378095452,838.31618289908693,0.0
593204.59901257406,4217374.0504322443,-2500.0,299.05736384425705,-467.78319165450864,623.57108738559009,25.189833941516756,-30.56825203919983,1.1107226840752797,496.05713064268679,47.125053414869846,-71.329252272289722,71.329252272289722,-47.125053414869846,975.67377343477608,0.0
598204.59901257406,4217374.0504322443,-2500.0,273.22501186374154,-481.03294903718637,842.79509418850625,25.326969321475207,-39.794720648688603,1.3755583878980846,561.05803890817083,-44.764551049032335,45.419716869065894,-45.419716869065894,44.764551049032335,1119.8226820834288,0.0
603204.59901257406,4217374.0504322443,-2500.0,239.89447258176469,-466.06937285434947,1066.1313655202559,24.134295402121381,-49.121909697453958,1.6403517313999036,639.48857893124602,-145.79170087001611,188.20236841296745,-188.20236841296745,145.79170087001611,1263.6989489254213,0.0
608204.59901257406,4217374.0504322443,-2500.0,203.93103737262263,-420.52575290646666,1280.5040071611422,21.528649019490299,-58.011877011838074,1.8904190111088743,714.40341320260973,-248.14944504835216,350.77521749228617,-350.77521749228617,248.14944504835216,1399.7691051228114,0.0
613204.59901257406,4217374.0504322443,-2500.0,170.97115783334451,-345.18608838684275,1471.9862382951173,17.565272676740154,-65.898197921891295,2.110539035611585,780.88419248120795,-342.92717859010725,523.77818703081368,-523.77818703081368,342.92717859010725,1520.6110615307832,0.0
618204.59901257406,4217374.0504322443,-2500.0,146.48183039713027,-244.23398841320306,1627.5615628676478,12.445924706334774,-72.256321588527157,2.2866986192308607,835.48136605939567,-421.37795661861719,695.67742184911481,-695.67742184911481,421.37795661861719,1619.5778004168592,0.0
623204.59901257406,4217374.0504322443,-2500.0,134.77208585415895,-124.86996935125237,1736.9056644571947,6.5007944662555666,-76.673781099158788,2.4080409033163157,875.47506122250411,-476.27790002398353,854.23143847235235,-854.23143847235235,476.27790002398353,1691.4366792600126,0.0
628204.59901257406,4217374.0504322443,-2500.0,138.21176379630168,3.6598244805802036,1793.7896719840749,0.14638676131381156,-78.904966313763566,2.4681453397995226,899.13404174132882,-503.05160369105215,988.18068628174456,-988.18068628174456,503.05160369105215,1732.863786996829,0.0
633204.59901257406,4217374.0504322443,-2500.0,156.86059034056385,131.40893863562115,1796.7885413412873,-6.1717170610547338,-78.898305694146103,2.4657789124329645,905.85658519620051,-500.39039078703797,1088.77886218807,-1088.77886218807,500.39039078703797,1742.6967133378441,0.0
638204.59901257406,4217374.0504322443,-2500.0,188.58416204893447,249.13280751720498,1749.1684691302657,-12.038281310958157,-76.791189397595289,2.4047217927863027,896.16255692563573,-470.23944309211748,1150.8297099286933,-1150.8297099286933,470.23944309211748,1721.9064331576847,0.0
643204.59901257406,4217374.0504322443,-2500.0,229.58820748383624,349.43929118782376,1658.0469378373789,-17.117469364631688,-72.876329174481086,2.2928881189543637,871.54830344621632,-417.21161142798491,1173.0467964201837,-1173.0467964201837,417.21161142798491,1673.3125368129636,0.0
648204.59901257406,4217374.0504322443,-2500.0,275.19540389169322,427.48063176078261,1533.0829863755876,-21.182990875013868,-67.54956109835652,2.1409964036031957,834.24214205216026,-347.62793746584748,1157.7442821345162,-1157.7442821345162,347.62793746584748,1601.1138893440348,0.0
653204.59901257406,4217374.0504322443,-2500.0,320.65447854362236,481.12872879021415,1385.0234343517502,-24.126758337778746,-61.251762479272081,1.9609753485741459,786.91310865240894,-268.44508346367388,1110.0293022682069,-1110.0293022682069,268.44508346367388,1510.3345629069561,0.0
658204.59901257406,4217374.0504322443,-2500.0,361.80837782208437,510.70876667781857,1224.3930214428376,-25.948893569597402,-54.416207269902401,1.7646759216654739,732.38389797620982,-186.300323260727,1036.7455943022758,-1036.7455943022758,186.300323260727,1406.2807835344574,0.0
583204.59901257406,4222374.0504322443,-2500.0,270.81218897310953,-339.37764853203487,262.46033710426894,18.528848593575827,-13.862079484001489,0.55568097649326209,339.9053208227707,137.90116976195714,-167.1521629364666,167.1521629364666,-137.90116976195714,646.52082922799946,0.0
588204.59901257406,4222374.0504322443,-2500.0,265.86859521775187,-378.6564732784334,416.90463983029184,19.989449467139202,-20.170691912699596,0.73265948239950651,386.74222005569305,85.295928275844815,-110.93791891017794,110.93791891017794,-85.295928275844815,752.14062061709319,0.0
593204.59901257406,4222374.0504322443,-2500.0,251.57751893736923,-403.09802888483972,587.16448830015236,20.739242565886858,-27.06621716573321,0.92339778239114467,437.44823767452812,19.299989302686686,-32.489530999790603,32.489530999790603,-19.299989302686686,866.32240585644604,0.0
598204.59901257406,4222374.0504322443,-2500.0,229.50964310114782,-408.43925087018755,766.87056489421775,20.606867094315401,-34.289902329737046,1.1208821468645462,494.76719456192598,-57.118185702032207,67.762645924139804,-67.762645924139804,57.118185702032207,984.33458111964092,0.0
603204.59901257406,4222374.0504322443,-2500.0,202.40984132166548,-391.5646940021926,947.64686975264897,19.473195006682325,-41.507774691519316,1.3162856986022859,559.03354484851752,-139.35778439165242,187.15549194008773,-187.15549194008773,139.35778439165242,1100.8879331270934,0.0
608204.59901257406,4222374.0504322443,-2500.0,173.94333996638255,-351.14610605546221,1119.7367476362547,17.296409519469712,-48.335804588157565,1.4996063196553955,619.31957952665709,-221.5333231494339,320.67551828914401,-320.67551828914401,221.5333231494339,1210.4443268894931,0.0
613204.59901257406,4222374.0504322443,-2500.0,148.21622123963144,-288.08640968208982,1272.9734668128913,14.128656388891351,-54.377721567529264,1.6606610414604233,672.75905098710575,-297.12021518639853,461.22736109332601,-461.22736109332601,297.12021518639853,1307.6114969056102,0.0
618204.59901257406,4222374.0504322443,-2500.0,129.14765239026315,-205.63349743832023,1397.9552942919772,10.119232118503515,-59.270040844168228,1.7901764171388423,716.85836303668589,-359.80459328727443,600.30457697230099,-600.30457697230099,359.80459328727443,1387.5829031843846,0.0
623204.59901257406,4222374.0504322443,-2500.0,119.82721154674783,-109.09819402470856,1487.209418492939,5.5019694807262916,-62.726158865396577,1.8809147276097549,749.63939530344908,-404.37157100631583,728.97241475787837,-728.97241475787837,404.37157100631583,1446.5562112455041,0.0
628204.59901257406,4222374.0504322443,-2500.0,122.00760616085404,-5.2082557801366915,1536.1087616171153,0.56828692858885355,-64.570747998739407,1.9284972548606589,769.81313599415751,-427.43911583306715,838.98028543757448,-838.98028543757448,427.43911583306715,1482.057882821983,0.0
633204.59901257406,4222374.0504322443,-2500.0,135.85202442161957,98.77251344524106,1543.3542590084778,-4.3688995383140732,-64.757585597945933,1.9318321112715617,776.87611604322899,-427.87629253170235,923.77637604819893,-923.77637604819893,427.87629253170235,1493.116222191823,0.0
638204.59901257406,4222374.0504322443,-2500.0,159.98488684104896,195.97322393082115,1510.9443578536543,-9.0130828900148376,-63.367986687838425,1.8930852702494261,771.11361707370293,-406.82882639780905,979.22351676880612,-979.22351676880612,406.82882639780905,1480.2590490713962,0.0
643204.59901257406,4222374.0504322443,-2500.0,191.81250940347309,280.70636032585531,1443.6749004857168,-13.1165548867423,-60.591498089381808,1.8171742593737548,753.51429114132384,-367.37650728696815,1003.897094777658,-1003.897094777658,367.37650728696815,1445.3456303843859,0.0
648204.59901257406,4222374.0504322443,-2500.0,228.01546692085171,348.98524391232434,1348.3127205061305,-16.501955904761413,-56.694224142492509,1.7109779608740272,725.61704361870204,-313.93252947469608,998.95409530568372,-998.95409530568372,313.93252947469608,1391.2726928158536,0.0
598204.59901257406,4227374.0504322443,-2500.0,194.61486203123243,-348.72460541745704,696.91864446430247,16.894809809770347,-29.614746543638901,0.91848082362391004,438.69545471239553,-63.968054739901476,81.757983963655704,-81.757983963655704,63.968054739901476,869.15807398217964,0.0
603204.59901257406,4227374.0504322443,-2500.0,172.47190997548537,-331.35732593550262,844.49519064670631,15.854466310087389,-35.258881967807888,1.064459552403368,491.21026380385194,-131.40227067185413,182.09327103525646,-182.09327103525646,131.40227067185413,964.39737241535158,0.0
608204.59901257406,4227374.0504322443,-2500.0,149.73050206753925,-295.67300829917986,984.02298476089777,14.034551246975166,-40.565101518991384,1.2006722642488787,540.20799173605462,-198.00895135352101,292.61913351804452,-292.61913351804452,198.00895135352101,1053.4787369760065,0.0
613204.59901257406,4227374.0504322443,-2500.0,129.4213757140993,-242.56511645276083,1107.9783615702602,11.481011030593335,-45.251900180280224,1.3201839776000726,583.6172839307236,-258.9477633193809,407.90633299174885,-407.90633299174885,258.9477633193809,1132.4266675481958,0.0
618204.59901257406,4227374.0504322443,-2500.0,114.39894152352696,-174.57230881539672,1209.4643119008583,8.3054080684872211,-49.063097670512349,1.4167374170533638,619.60555967151743,-309.58983687292385,521.59347190456879,-521.59347190456879,309.58983687292385,1197.7107405857003,0.0
623204.59901257406,4227374.0504322443,-2500.0,106.91471971202941,-95.670132994454931,1282.9863907657073,4.6760429421522556,-51.796098473197397,1.4854352522800072,646.71183387752023,-346.11013577910455,627.05802835656777,-627.05802835656777,346.11013577910455,1246.5250622649794,0.0
628204.59901257406,4227374.0504322443,-2500.0,108.28093454268603,-10.832597603121489,1325.0636865134436,0.80035835934020372,-53.323991016575668,1.5232325742895307,663.96406506364781,-365.97592387777962,718.16377276508297,-718.16377276508297,365.97592387777962,1277.0053657307371,0.0
633204.59901257406,4227374.0504322443,-2500.0,118.69606444094143,74.556832761578903,1334.5628589387586,-3.0983356349438336,-53.60743631029171,1.529226214245816,670.94648151462445,-368.23438684700182,789.9465776977986,-789.9465776977986,368.23438684700182,1288.3499651210054,0.0
603204.59901257406,4017374.0504322448,-7500.0,120.80200173336361,214.34511061328257,1290.161094714364,27.431319163027496,152.44867094919894,13.14937534020995,675.53074158255356,-362.73840164783064,876.20001300563877,-876.20001300563877,362.73840164783064,1309.4598339887621,0.0
608204.59901257406,4017374.0504322448,-7500.0,95.346387098048581,134.22392588670138,1333.6467771985638,17.121684143412573,157.41513423956152,13.543191825166428,685.77405461655405,-389.84093876670022,840.81587202054948,-840.81587202054948,389.84093876670022,1330.6550131442161,0.0
613204.59901257406,4017374.0504322448,-7500.0,78.239186314282719,45.806639578173289,1346.8077213405547,5.8493396536956181,159.05273765171816,13.680240179602215,686.10572515694332,-399.91432561597264,780.42813923297206,-780.42813923297206,399.91432561597264,1333.2749687819987,0.0
618204.59901257406,4017374.0504322448,-7500.0,71.187507251931365,-45.856455103051978,1326.8326083981569,-5.8011921035478169,157.05728336665777,13.537568745243181,676.0070771665055,-391.15092076856183,697.21112678396742,-697.21112678396742,391.15092076856183,1316.3458413344533,0.0
623204.59901257406,4017374.0504322448,-7500.0,74.790313015802354,-135.06358562302754,1273.1976127864648,-17.173489788917824,151.36612775747159,13.10998289399579,655.50820292533285,-363.38228407429284,595.32310416301698,-595.32310416301698,363.38228407429284,1279.9410508977721,0.0
628204.59901257406,4017374.0504322448,-7500.0,88.382008696037119,-216.0957065586029,1187.8873480970512,-27.608305257193415,142.1816045518656,12.411804403266609,625.22240997555571,-318.21892950604069,480.54967802115414,-480.54967802115414,318.21892950604069,1225.2504451427267,0.0
633204.59901257406,4017374.0504322448,-7500.0,110.08536325460327,-283.89445115910536,1075.2738876694457,-36.517403036923099,129.95943356173782,11.476092240403126,586.32093701586757,-258.91708039843451,359.68634665855853,-359.68634665855853,258.91708039843451,1154.532942908693,0.0
638204.59901257406,4017374.0504322448,-7500.0,137.07373850897488,-334.6558300320749,941.65756191277978,-43.448785808896659,115.3622978995013,10.351373589670098,540.46369843165417,-189.98378874436514,239.76444149797248,-239.76444149797248,189.98378874436514,1070.9550856826374,0.0
643204.59901257406,4017374.0504322448,-7500.0,165.99063089137331,-366.22640509426822,794.54873666200513,-48.13136935890379,99.186395513876406,9.0964392171055177,490.3506909039923,-116.5943714421302,127.26373340636458,-127.26373340636458,116.5943714421302,978.33902319967103,0.0
648204.59901257406,4017374.0504322448,-7500.0,193.43613122225099,-378.23529841257471,641.8262713477194,-50.491842692496782,82.274502424287689,7.7740746376150112,445.34767397954863,-43.93978585929441,27.455719462267176,-27.455719462267176,43.93978585929441,880.86011106397245,0.0
653204.59901257406,4017374.0504322448,-7500.0,216.41967785529241,-371.95893140202611,490.92477795229928,-50.642949798527368,65.430903270370763,6.4448761545642643,401.21849524430638,23.370367345119401,-56.018209643225958,56.018209643225958,-23.370367345119401,782.73858703762994,0.0
658204.59901257406,4017374.0504322448,-7500.0,232.69587040667437,-349.97320436502787,348.18230371249439,-48.848420866640993,49.351740033932735,5.1620894554347805,358.63112369891746,81.747813404598816,-121.28997779769534,121.28997779769534,-81.747813404598816,687.96425872825239,0.0
593204.59901257406,4022374.0504322448,-7500.0,224.7044589183449,404.53460009214308,1270.6067508182505,54.755306197134288,158.1956279091948,14.48106530196374,716.98385810010177,-294.56079248804292,1000.1625535987527,-1000.1625535987527,294.56079248804292,1390.3220265008831,0.0
598204.59901257406,4022374.0504322448,-7500.0,182.26172691209013,345.23911523385925,1384.6108753914132,46.372417377926077,171.53691951731113,15.577407462899501,751.85794226208532,-359.59596499709323,1023.7540249520216,-1023.7540249520216,359.59596499709323,1458.1275576468061,0.0
603204.59901257406,4022374.0504322448,-7500.0,142.65641577830755,266.53957931721277,1475.2642780538283,35.621858192409306,182.16809528941565,16.450949284459536,777.55535176465617,-413.13882117970076,1018.2877135849271,-1018.2877135849271,413.13882117970076,1508.7897031987147,0.0
608204.59901257406,4022374.0504322448,-7500.0,109.8381115627047,171.32591538200901,1534.6358448334242,22.871653986416042,189.20351768278564,17.03254984318853,792.22348809344794,-449.83276481004049,980.97563103563016,-980.97563103563016,449.83276481004049,1538.8019904508935,0.0
613204.59901257406,4022374.0504322448,-7500.0,87.331841999355703,64.50527901037384,1556.1696186539853,8.7217427380024866,191.91160307461226,17.265092923032828,794.44393595628185,-465.25672114938754,911.48043375455279,-911.48043375455279,465.25672114938754,1545.4810387119962,0.0
618204.59901257406,4022374.0504322448,-7500.0,77.636435298864228,-47.322732108897505,1535.6790922804605,-6.0345224184318731,189.82222099964,17.111626102584015,783.41965930763718,-456.67812608432212,812.31209257341573,-812.31209257341573,456.67812608432212,1527.3258957344242,0.0
623204.59901257406,4022374.0504322448,-7500.0,81.725265547927194,-156.53436786715935,1472.1289344879219,-20.486624260043932,182.81112878161622,16.561755350117132,759.11241899027175,-423.63171275956859,688.81452612855662,-688.81452612855662,423.63171275956859,1484.2843683182143,0.0
628204.59901257406,4022374.0504322448,-7500.0,98.782819319675554,-255.40497569505908,1368.0129073773037,-33.711120055290031,171.14142296166401,15.634820909048495,722.30309075487378,-368.16826430267224,548.68383804513223,-548.68383804513223,368.16826430267224,1417.8734538210954,0.0
633204.59901257406,4022374.0504322448,-7500.0,126.26456319242529,-337.11715364400067,1229.2048154539614,-44.885382602398622,155.44894096830748,14.378923535239403,674.560058311886,-294.6807499886819,401.07051567730753,-401.07051567730753,294.6807499886819,1331.1197956419526,0.0
638204.59901257406,4022374.0504322448,-7500.0,160.2859200278686,-396.6448060755099,1064.2816426139545,-53.388275226475464,136.6713642136275,12.86576826683724,618.1543414613817,-209.31976003348558,255.43093629229679,-255.43093629229679,209.31976003348558,1228.3230723051654,0.0
643204.59901257406,4022374.0504322448,-7500.0,196.25548365608248,-431.32653579420207,883.44598189554472,-58.867362966625613,115.93386959268079,11.182141722992943,559.6023810510552,-119.11834930673101,120.36216291092697,-120.36216291092697,119.11834930673101,1114.6790533079638,0.0
648204.59901257406,4022374.0504322448,-7500.0,229.6033904762152,-441.02348575156202,697.27071502449144,-61.260819350195682,94.414373017316834,9.4198200200354929,505.94747723613295,-31.019596750600812,2.6530677823928883,-2.6530677823928883,31.019596750600812,995.82740616344211,0.0
653204.59901257406,4022374.0504322448,-7500.0,256.43923800314303,-427.86474391389805,515.51693486831107,-60.773526947217256,73.214730288697027,7.665755317304825,452.66891217198173,48.98669610188152,-93.28292934710602,93.28292934710602,-48.98669610188152,877.39804639402098,0.0
658204.59901257406,4022374.0504322448,-7500.0,274.01053936230693,-395.68218418994053,346.22877655070403,-57.817599304305311,53.259684978978925,5.994244122874326,401.91359489315528,116.46246037867701,-165.53952369687306,165.53952369687306,-116.46246037867701,764.61457730840664,0.0
663204.59901257406,4022374.0504322448,-7500.0,280.90088117024146,-349.29115937008487,195.21689119574211,-52.933734723125774,35.236233293533722,4.4619689071475381,355.59259042087371,168.78480259827671,-214.46578964666185,214.46578964666185,-168.78480259827671,661.97997600524036,0.0
668204.59901257406,4022374.0504322448,-7500.0,276.98025280269053,-293.77698846674411,65.938239946145444,-46.710790380765793,19.575242570170577,3.106262852731021,315.09327142022823,205.09364879127918,-242.15636655199216,242.15636655199216,-205.09364879127918,573.02425471384652,0.0
583204.59901257406,4027374.0504322448,-7500.0,367.38994231785819,544.24538593776322,1098.0855319089462,78.998084117547734,146.07540123938108,14.447730744518642,706.69066239360677,-142.25616958349667,991.65162393443495,-991.65162393443495,142.25616958349667,1373.9442665200852,0.0
588204.59901257406,4027374.0504322448,-7500.0,324.06853469025464,529.33407359161845,1266.1383995018477,75.79790062237339,166.73547209475311,16.244192634897974,765.93840147567448,-229.65711474133695,1081.1592406989676,-1081.1592406989676,229.65711474133695,1487.7719229200775,0.0
593204.59901257406,4027374.0504322448,-7500.0,274.02746642011482,490.137010209359,1428.5235921073797,69.416203548560034,186.6154762882102,17.962655523163402,819.8370881736455,-318.185501122728,1149.192589618933,-1149.192589618933,318.185501122728,1591.7572132580376,0.0
598204.59901257406,4027374.0504322448,-7500.0,221.2786723070258,424.80529077165056,1575.0588040255336,59.66759551950198,204.51430525140452,19.50372504450592,865.53788703011446,-401.3062917000363,1187.9079956419325,-1187.9079956419325,401.3062917000363,1680.5148804121047,0.0
603204.59901257406,4027374.0504322448,-7500.0,170.83426183867482,333.75206443195475,1694.549209274895,46.646621225648254,219.12199070432689,20.759853956329675,900.16982851436046,-471.58432890876156,1190.5361445604772,-1190.5361445604772,471.58432890876156,1748.6116124638793,0.0
608204.59901257406,4027374.0504322448,-7500.0,128.12427183231688,220.17526034540788,1775.9498899195646,30.785413847802914,229.15285879925875,21.625990744272187,921.11048641609852,-521.5465323853922,1152.5462852350711,-1152.5462852350711,521.5465323853922,1791.0805415636478,0.0
613204.59901257406,4027374.0504322448,-7500.0,98.174755872407914,90.204843653454574,1809.8247799514863,12.866910586951926,233.51054273999597,22.012688705521967,926.28663950939347,-544.79108531075667,1072.7161671959332,-1072.7161671959332,544.79108531075667,1803.9950675756102,0.0
618204.59901257406,4027374.0504322448,-7500.0,84.690118505824458,-47.468972794170227,1789.8727908524236,-6.021918232321954,231.45950816710601,21.859621477846595,914.46522190036126,-537.14891573130694,953.84106194495939,-953.84106194495939,537.14891573130694,1785.027255996325,0.0
623204.59901257406,4027374.0504322448,-7500.0,89.25434246892867,-182.52441099045859,1714.1828189547603,-24.600403049605081,222.76589421676547,21.146727337967338,885.47581436453856,-497.6222460145537,802.8269235871112,-802.8269235871112,497.6222460145537,1733.8789336100324,0.0
628204.59901257406,4027374.0504322448,-7500.0,110.88075017520011,-304.37145377146101,1585.8870068485874,-41.553921588553628,207.77167873057508,19.900168011664704,840.31650909175175,-428.82914328869907,630.04237198405417,-630.04237198405417,428.82914328869907,1652.4924186640121,0.0
633204.59901257406,4027374.0504322448,-7500.0,146.0704155167397,-403.68032130692831,1412.9888430549865,-55.71278138281113,187.37782863633174,18.191137554635105,781.1167546528435,-336.78199736034469,447.99313168273125,-447.99313168273125,336.78199736034469,1544.9804286694348,0.0
638204.59901257406,4027374.0504322448,-7500.0,189.39932751725706,-473.72467255543432,1207.3461355122361,-66.210898484091601,162.93369047111318,16.12748347303193,711.08162136560134,-230.00601269060627,269.58406184371023,-269.58406184371023,230.00601269060627,1417.2718032455728,0.0
643204.59901257406,4027374.0504322448,-7500.0,234.4946124270075,-511.22659720504345,983.02100938665637,-72.588970580065492,136.0550911941142,13.839611263640288,643.35731772778331,-118.19686425245381,106.36022546094004,-106.36022546094004,118.19686425245381,1276.5362627103164,0.0
648204.59901257406,4027374.0504322448,-7500.0,275.14505949499664,-516.53167392634361,754.37359671959837,-74.8218459682044,108.41142900249525,11.463776680860887,577.57986696600904,-10.745794529589588,-32.883202959404926,32.883202959404926,10.745794529589588,1130.4956238209306,0.0
653204.59901257406,4027374.0504322448,-7500.0,306.26968130808677,-493.13754163561407,534.31747011661446,-73.271257930141232,81.527357185718799,9.1262851345097005,512.84467195914613,84.525153798073077,-142.86139065223364,142.86139065223364,-84.525153798073077,986.74361050010191,0.0
658204.59901257406,4027374.0504322448,-7500.0,324.54033883072782,-446.76521681554408,333.06159629497563,-68.583683723010353,56.635424669159534,6.9314690413161646,452.15205498536506,162.172878259833,-221.86622714612048,221.86622714612048,-162.172878259833,852.16535298040935,0.0
663204.59901257406,4027374.0504322448,-7500.0,328.58105407173679,-384.2449527804672,157.48954704095578,-61.5630813251354,34.597869698782411,4.9548530667406769,397.89138597874842,219.40152044339146,-271.25830864480321,271.25830864480321,-219.40152044339146,732.48218765510364,0.0
668204.59901257406,4027374.0504322448,-7500.0,318.79185309991175,-312.47471136941351,11.148638070250051,-53.047818808010341,15.896476552580342,3.241688990808171,351.62983388836074,255.85415854185979,-294.61352664232601,294.61352664232601,-255.85415854185979,631.87105465500179,0.0
673204.59901257406,4027374.0504322448,-7500.0,296.92453526196721,-237.62623895202262,-105.30624414479749,-43.812751151137192,0.67507451952711883,1.8097413220514618,314.00420057476987,273.08791406720934,-296.77168945501126,296.77168945501126,-273.08791406720934,552.57290460718389,0.0
678204.59901257406,4027374.0504322448,-7500.0,265.55878688526644,-164.6685073274864,-193.41842155100653,-34.506071213516364,-11.1870709609054,0.65465422227065018,284.71835083782219,273.91623007170023,-282.98159705222525,282.98159705222525,-273.91623007170023,494.51383043471191,0.0
573204.59901257406,4032374.0504322448,-7500.0,506.03403084518391,584.95776307899541,810.18676086211974,92.958189276871295,117.76923209499145,12.93253776529607,642.56968853113358,53.766487170359596,839.99436092344433,-839.99436092344433,-53.766487170359596,1256.8593141854924,0.0
578204.59901257406,4032374.0504322448,-7500.0,484.30709491399182,621.92185692574139,994.85683602228835,96.733907743426656,141.93800310616695,15.188205172762327,719.1582836737648,-27.409535463563316,976.73472745161416,-976.73472745161416,27.409535463563316,1403.2512333254208,0.0
583204.59901257406,4032374.0504322448,-7500.0,448.04289307826724,640.09458866217562,1194.6309810617568,97.7508873513152,167.87056936091292,17.582839790668597,796.43367850576669,-122.90994143456174,1109.3169848535188,-1109.3169848535188,122.90994143456174,1551.2693248249459,0.0
588204.59901257406,4032374.0504322448,-7500.0,398.35301813091206,633.39794087899008,1402.2401163305997,95.252418215123583,194.63516531635221,20.032320310615642,871.58903185101053,-228.98593675070998,1228.6285737016426,-1228.6285737016426,228.98593675070998,1695.627786586613,0.0
593204.59901257406,4032374.0504322448,-7500.0,338.20058392646689,596.50409732579317,1607.3284868198891,88.598397460189986,220.93229965725536,22.421792715955739,941.22824644246009,-339.54275095108636,1324.1222225798515,-1324.1222225798515,339.54275095108636,1829.9178231605624,0.0
598204.59901257406,4032374.0504322448,-7500.0,272.50054140700593,525.89731120629347,1796.7143931591761,77.396095810767207,245.13152474648192,24.609233534441916,1001.5269329571751,-446.23731403244091,1384.7934360227207,-1384.7934360227207,446.23731403244091,1946.9104082099309,0.0
603204.59901257406,4032374.0504322448,-7500.0,207.83652589645749,421.00058846027781,1955.2687967967224,61.635279893750869,265.38055181076277,26.434921910961329,1048.5053119231145,-539.07195566920882,1400.6187872513992,-1400.6187872513992,539.07195566920882,2039.0720491395323,0.0
608204.59901257406,4032374.0504322448,-7500.0,151.71179427762735,285.11210934890568,2067.4895169794527,41.797069125685653,279.79444848284089,27.737379954722151,1078.4132141555672,-607.55097458032105,1364.3084812941211,-1364.3084812941211,607.55097458032105,2099.296046109796,0.0
613204.59901257406,4032374.0504322448,-7500.0,111.36831310212047,125.82815610829934,2119.642432731031,18.898840291454118,286.70873082144874,28.374441848845137,1088.184173078404,-642.30614170543618,1273.03754653683,-1273.03754653683,642.30614170543618,2121.7687734652686,0.0
618204.59901257406,4032374.0504322448,-7500.0,92.373116147077056,-45.329655592057129,2102.1286363805239,-5.5568853591983549,284.95670266654048,28.246174786397283,1075.8927844909053,-636.9071607012454,1129.7067091905735,-1129.7067091905735,636.9071607012454,2102.8473380750047,0.0
623204.59901257406,4032374.0504322448,-7500.0,97.319394296606987,-214.2001257520202,2011.5310261883083,-29.741955514434981,274.10833068427706,27.314519011683558,1041.1203650179248,-589.4075189360268,943.27618962829149,-943.27618962829149,589.4075189360268,2041.7678528702161,0.0
628204.59901257406,4032374.0504322448,-7500.0,125.04366604396242,-366.02658739736552,1851.7671517884519,-51.751572868569852,254.60621364595966,25.614656602038071,985.14630760850071,-503.14889379955775,727.90890504718232,-727.90890504718232,503.14889379955775,1941.0256479288666,0.0
633204.59901257406,4032374.0504322448,-7500.0,170.6584560872522,-487.82248194230039,1633.9103868102279,-69.891747992066939,227.74837841247984,23.253894254507269,910.90437635622925,-386.49025471747098,500.97726717501996,-500.97726717501996,386.49025471747098,1806.2943253795875,0.0
638204.59901257406,4032374.0504322448,-7500.0,226.45687054153288,-570.46013162305792,1374.6356740746983,-82.935653083851605,195.51284847361333,20.397709193909492,824.05127861085498,-251.45252507724703,280.37722343116673,-280.37722343116673,251.45252507724703,1645.8896618296205,0.0
643204.59901257406,4032374.0504322448,-7500.0,283.45168557439735,-609.9385541431418,1093.6341380666538,-90.28509294736125,160.2610767081313,17.245761300141808,744.24457736794898,-111.6127327695925,81.815505045303524,-81.815505045303524,111.6127327695925,1469.8696271032788,0.0
648204.59901257406,4032374.0504322448,-7500.0,333.10352371437546,-607.54648952103935,810.65892812177435,-92.002200460297175,124.3941129174806,14.00373543850294,662.73231026299425,20.178395466899399,-83.259352951772286,83.259352951772286,-20.178395466899399,1288.9626755787103,0.0
653204.59901257406,4032374.0504322448,-7500.0,368.7643756171056,-568.99179173679977,542.9151147504366,-88.716843145413165,90.042434366823073,10.857376477372259,583.61099739091333,133.67155281686144,-208.66196820596701,208.66196820596701,-133.67155281686144,1113.5284461296023,0.0
658204.59901257406,4032374.0504322448,-7500.0,386.511477363143,-502.8568891335031,303.3146102967296,-81.448874345341736,58.850400383870195,7.953873662404801,510.85444297447151,222.29990305478134,-293.3528480557377,293.3528480557377,-222.29990305478134,952.69081579319868,0.0
663204.59901257406,4032374.0504322448,-7500.0,385.28570637046539,-418.85969313055267,99.789643952893428,-71.40009008338167,31.88086165759055,5.3928135866415436,447.39331533719991,283.37536254639434,-340.45880663909742,340.45880663909742,-283.37536254639434,813.6596959500306,0.0
668204.59901257406,4032374.0504322448,-7500.0,366.463642473775,-326.33746205545748,-64.454164033351276,-59.765653514387203,9.6299745339079408,3.2262183464299703,394.87027427824052,317.5683220461658,-355.85189184971159,355.85189184971159,-317.5683220461658,701.13374963433023,0.0
673204.59901257406,4032374.0504322448,-7500.0,333.10741205269443,-233.1985544128905,-190.05628683524344,-47.596349665292657,-7.8806956551190641,1.4652005575211964,353.54203571960318,327.9749368744213,-346.6965163809752,346.6965163809752,-327.9749368744213,616.69351962179815,0.0
678204.59901257406,4032374.0504322448,-7500.0,289.14255562130234,-145.39911060080266,-280.34539540891751,-35.72178340785328,-20.974546512067128,0.090106046352720653,322.39024188487821,319.08027206825699,-320.24965746918764,320.24965746918764,-319.08027206825699,558.41435695132293,0.0
683204.59901257406,4032374.0504322448,-7500.0,238.64700522015468,-66.864611307716345,-340.1990510791498,-24.727911164317469,-30.186718061470916,-0.93862868913691044,299.49083335588853,295.843677811813,-283.04274399089331,283.04274399089331,-295.843677811813,521.30757224907813,0.0
568204.59901257406,4037374.0504322448,-7500.0,604.73099115473644,591.0276846868137,644.03616792677587,102.702000269294,103.15963166296653,12.610804564098867,618.97874853022529,182.03913305486248,735.54535976681132,-735.54535976681132,-182.03913305486248,1219.3992801722809,0.0
573204.59901257406,4037374.0504322448,-7500.0,604.83728534235149,660.07941441638127,833.58286353498943,111.43003633785793,129.63380247929535,15.266299699101546,707.90570912435192,112.78176482528062,897.09646836122829,-897.09646836122829,-112.78176482528062,1389.0858396409185,0.0
578204.59901257406,4037374.0504322448,-7500.0,587.15717283879519,716.56457910980339,1050.8655044695736,118.00024410154799,159.64008963103765,18.23254522131861,801.93394870781526,22.056475698921872,1067.0772359735797,-1067.0772359735797,-22.056475698921872,1568.8011901481873,0.0
583204.59901257406,4037374.0504322448,-7500.0,550.2016936025401,752.5251189303425,1291.802899266487,121.33269316469772,192.58510642762084,21.448667590451404,898.55352257295476,-89.231030552143125,1237.0863165730584,-1237.0863165730584,89.231030552143125,1753.850077160695,0.0
588204.59901257406,4037374.0504322448,-7500.0,494.37186695169112,759.36383434317099,1548.4096434182418,120.29414180320921,227.37699779192843,24.809113824983527,994.31175225935146,-217.41560430116499,1395.7136635437168,-1395.7136635437168,217.41560430116499,1937.7396448738621,0.0
593204.59901257406,4037374.0504322448,-7500.0,422.60698700648641,728.92669632477384,1808.2162211687355,113.84437603543832,262.36151410255405,28.158721200306918,1084.8294300211867,-355.48468709726615,1528.9735066510407,-1528.9735066510407,355.48468709726615,2112.2116957468115,0.0
598204.59901257406,4037374.0504322448,-7500.0,340.75042882710358,655.01952282480863,2054.2821023850838,101.23351905452832,295.33360333436303,31.294620490385093,1164.9643707294611,-492.93269634652847,1621.4626887723232,-1621.4626887723232,492.93269634652847,2267.5489490884174,0.0
603204.59901257406,4037374.0504322448,-7500.0,257.37997145889142,535.18029514918408,2266.1445789393865,82.225817042500324,323.66456103827772,33.978099640537643,1229.1661969058282,-616.34566818520523,1658.335200881676,-1658.335200881676,616.34566818520523,2393.2444008251518,0.0
608204.59901257406,4037374.0504322448,-7500.0,182.89632142407862,372.32020418369763,2421.893680965617,57.30066869087279,344.56514583068616,35.958136634277707,1272.0183265959765,-710.90187751766575,1627.924488679326,-1627.924488679326,710.90187751766575,2479.0293940038082,0.0
613204.59901257406,4037374.0504322448,-7500.0,127.84152546407749,175.695397899661,2501.3081243107863,27.764948745781336,355.47415284979536,37.005389782736188,1288.9267856969257,-762.74495109719146,1524.5522831618387,-1524.5522831618387,762.74495109719146,2516.1868668867214,0.0
618204.59901257406,4037374.0504322448,-7500.0,100.70458846656916,-39.335202831392479,2489.5650560728618,-4.2880844080962772,354.5123183232231,36.951479798044474,1276.8492299639884,-761.83263496638801,1350.7740948088349,-1350.7740948088349,761.83263496638801,2498.9497719282112,0.0
623204.59901257406,4037374.0504322448,-7500.0,105.77331276487251,-253.07046535511589,2380.6446513857245,-36.207781646172172,340.89660699056373,35.724647382581601,1234.9114618021629,-704.52890720213236,1118.2343278145704,-1118.2343278145704,704.52890720213236,2425.6950768018428,0.0
628204.59901257406,4037374.0504322448,-7500.0,141.7457381584257,-444.576449151585,2179.3819264099516,-65.180520581486348,315.19132472894916,33.371500204328875,1164.7488032067324,-595.07386526388495,846.56243356032223,-846.56243356032223,595.07386526388495,2299.6217845588149,0.0
633204.59901257406,4037374.0504322448,-7500.0,201.67677558916307,-595.43218114886531,1901.3599798808593,-88.702829578835107,279.30130827219227,30.056917205796235,1070.4680925948328,-445.29170797198702,560.33286046938019,-560.33286046938019,445.29170797198702,2128.6912521398167,0.0
638204.59901257406,4037374.0504322448,-7500.0,274.40211579668812,-693.06153679682586,1570.4725459460633,-105.0066097396422,236.18561178387785,26.040340264958331,966.74292138306782,-272.4568894253282,284.80713541528041,-284.80713541528041,272.4568894253282,1924.7881597642593,0.0
643204.59901257406,4037374.0504322448,-7500.0,347.02631032482208,-732.67448408422615,1214.775341561294,-113.31756534780821,189.36195075614089,21.633802288652273,866.51126564215542,-95.908760548019472,41.652194786995665,-41.652194786995665,95.908760548019472,1702.2807803161422,0.0
648204.59901257406,4037374.0504322448,-7500.0,407.6723575623185,-717.33763410430822,861.80493783503755,-113.88526148305509,142.33807088276455,17.153234283819579,764.58392445129596,66.55850879754135,-154.19007441739885,154.19007441739885,-66.55850879754135,1476.3125769076962,0.0
653204.59901257406,4037374.0504322448,-7500.0,447.65770044735854,-656.3579545529451,534.6182162063817,-107.80132680823056,98.118307849471208,12.875049023339084,667.35562188582185,201.50733073755333,-295.78985391814729,295.78985391814729,-201.50733073755333,1261.1777383052072,0.0
658204.59901257406,4037374.0504322448,-7500.0,462.57737910319958,-562.68058372458006,249.39805803847759,-96.685744803300537,58.889578769497881,9.0072839828035463,580.03054959065082,301.25692171661728,-383.67324837703677,383.67324837703677,-301.25692171661728,1068.997733530558,0.0
663204.59901257406,4037374.0504322448,-7500.0,452.23400421747357,-450.15712101704418,14.835167015809683,-82.34350524788907,25.91872789876107,5.6785367675963752,506.08631552980853,363.82465285562819,-423.97860463042821,423.97860463042821,-363.82465285562819,908.67358651519214,0.0
668204.59901257406,4037374.0504322448,-7500.0,419.72402615091505,-331.35750214835969,-167.04929353195226,-66.476490329100727,-0.37166526902427854,2.9423702419038937,446.97678643678682,391.80273642673149,-426.10076625930856,426.10076625930856,-391.80273642673149,784.92336566565484,0.0
673204.59901257406,4037374.0504322448,-7500.0,370.14326949678667,-216.24541526042628,-299.25027508754226,-50.49539695417922,-20.217462938601219,0.79187159342355873,402.12486745999865,390.74234225749035,-400.49609159718716,400.49609159718716,-390.74234225749035,697.44430806466244,0.0
678204.59901257406,4037374.0504322448,-7500.0,309.32362359458835,-111.70478779074165,-387.89931661726871,-35.43665787543712,-34.289029222614495,-0.82164158523380404,369.31787384112545,367.55157581382315,-357.04456364310994,357.04456364310994,-367.55157581382315,640.93516191189099,0.0
683204.59901257406,4037374.0504322448,-7500.0,242.85433994448439,-21.703365807967792,-440.58822789675003,-21.96274543562814,-43.482971987537269,-1.9705543272163037,345.47598387371062,329.22196530619158,-304.08040437376781,304.08040437376781,-329.22196530619158,606.82923410302249,0.0
688204.59901257406,4037374.0504322448,-7500.0,175.47450578733006,52.17988564990447,-465.10843638620491,-10.414488765919202,-48.758887005629013,-2.7362326369528183,327.50377287081983,281.99732888005076,-248.00649308298281,248.00649308298281,-281.99732888005076,586.15075472172373,0.0
693204.59901257406,4037374.0504322448,-7500.0,110.8039980431731,110.09987621009689,-468.64342032543709,-0.88618775349194723,-51.029195183500221,-3.1986602555295569,312.87782733488888,230.95490258776397,-193.31976919425409,193.31976919425409,-230.95490258776397,571.73211490062567,0.0
563204.59901257406,4042374.0504322448,-7500.0,680.90280026836308,549.09752065966074,448.72942347341638,106.6961908984,82.517285562738792,11.630261425145752,573.81411115041999,307.3218141544902,580.06278504324837,-580.06278504324837,-307.3218141544902,1142.6052437710184,0.0
568204.59901257406,4042374.0504322448,-7500.0,710.98724804323672,645.45171308575391,626.07662888082211,120.47538582833124,109.24409686219462,14.546228265693088,670.55677333085555,262.11968306520146,751.69733941920038,-751.69733941920038,-262.11968306520146,1327.5067550566682,0.0
573204.59901257406,4042374.0504322448,-7500.0,723.5974514939802,738.99965142453289,841.28932306053719,133.30024992522181,141.17270879645906,17.960958525315149,777.58745019142793,191.49570413402364,945.18870693925339,-945.18870693925339,-191.49570413402364,1531.7569786944052,0.0
578204.59901257406,4042374.0504322448,-7500.0,714.31519868807277,821.61515549970443,1095.0733347447535,143.95274640560692,178.30842575832969,21.864557941681934,893.03136139497383,92.596203761449033,1155.1641054005449,-1155.1641054005449,-92.596203761449033,1752.3767055767705,0.0
583204.59901257406,4042374.0504322448,-7500.0,679.87501676770444,882.9653613135016,1384.451615065502,150.93916353988516,220.14475989926569,26.197121929025659,1014.0777791096081,-35.167443847803725,1372.2348838920395,-1372.2348838920395,35.167443847803725,1984.1652269001308,0.0
588204.59901257406,4042374.0504322448,-7500.0,619.24805733079143,911.11114425350331,1701.2954252281797,152.58778745836273,265.47758322248444,30.832203813170107,1136.5693785577998,-188.87216700715931,1582.4752393901315,-1582.4752393901315,188.87216700715931,2219.3260779674602,0.0
593204.59901257406,4042374.0504322448,-7500.0,534.77879668010496,893.82047250208279,2031.0746154905216,147.24043787401715,312.25416321202965,35.564000103220323,1254.9111933385502,-360.92768499219017,1767.5842995655353,-1767.5842995655353,360.92768499219017,2447.3213809130966,0.0
598204.59901257406,4042374.0504322448,-7500.0,433.0566838305769,820.67492886448417,2352.325130646318,133.5439138457092,357.52066753019994,40.104177951346855,1362.2039916075687,-538.42065943709326,1906.1268132254806,-1906.1268132254806,538.42065943709326,2655.1217333598938,0.0
603204.59901257406,4042374.0504322448,-7500.0,325.07785191737969,685.80152187952706,2637.437204712362,110.81461982853823,397.54283318211549,44.094515275422808,1450.6701786124715,-703.47659221958327,1976.1294262087872,-1976.1294262087872,703.47659221958327,2828.0070001992385,0.0
608204.59901257406,4042374.0504322448,-7500.0,225.25804149351649,490.70149616779429,2855.2723669566394,79.404037669403436,428.15919002846312,47.14070152788377,1512.4102127847423,-835.09255049875958,1958.9674221213991,-1958.9674221213991,835.09255049875958,2950.998483445343,0.0
613204.59901257406,4042374.0504322448,-7500.0,149.08841066072412,246.28647498561614,2975.7130704370943,40.950240495952578,445.3744265190536,48.867089082931372,1540.4479063125771,-912.55910769248362,1843.9240765930942,-1843.9240765930942,912.55910769248362,3010.8497685580269,0.0
618204.59901257406,4042374.0504322448,-7500.0,109.71359186663132,-26.912162760150519,2975.5310093447597,-1.6137877422677263,446.11130419600801,48.985026274799125,1529.9108197303074,-919.97711063322117,1632.207490673092,-1632.207490673092,919.97711063322117,2998.3096744085146,0.0
623204.59901257406,4042374.0504322448,-7500.0,114.31844405433586,-301.08731513109996,2844.1421626290553,-44.381981063777509,428.94152022506631,47.358608306117311,1479.0849250331637,-850.67592520740038,1338.8973972584804,-1338.8973972584804,850.67592520740038,2910.1636002054711,0.0
628204.59901257406,4042374.0504322448,-7500.0,161.61027493221187,-545.9510014074865,2587.3557661645223,-83.109713733021763,394.56307689249479,44.047618783605969,1390.0470042050315,-709.95479829776741,991.63247390359061,-991.63247390359061,709.95479829776741,2750.4887703368022,0.0
633204.59901257406,4042374.0504322448,-7500.0,241.53325076258631,-734.81593713270024,2227.504318569343,-114.01314007155477,345.82642160016485,39.310721494396262,1268.6376914315567,-514.85762569253848,625.87713609506818,-625.87713609506818,514.85762569253848,2530.6582622401506,0.0
638204.59901257406,4042374.0504322448,-7500.0,337.56314322003936,-850.06385773336058,1799.5557759623337,-134.49559631561206,287.25966183064634,33.564300983739521,1144.0593390797876,-290.7398961504374,278.00344157454049,-278.00344157454049,290.7398961504374,2268.0231579260894,0.0
643204.59901257406,4042374.0504322448,-7500.0,430.84371447034351,-886.18420810192902,1344.249311112854,-143.5712510457175,224.213040224878,27.306891738033656,1015.8136179996691,-65.666531213950805,-21.658194239350372,21.658194239350372,65.666531213950805,1983.5232467210083,0.0
648204.59901257406,4042374.0504322448,-7500.0,504.66740263834726,-849.55082153233241,900.50567059589525,-141.87451162208981,161.89557017964873,21.032599068957474,887.2344641406205,135.43134000652964,-253.62871723731479,253.62871723731479,-135.43134000652964,1698.8988120975046,0.0
653204.59901257406,4042374.0504322448,-7500.0,547.78761685268591,-755.39055482796562,499.3376600903274,-131.30037670050399,104.57710092843764,15.157325531419575,767.20570054515201,295.01134482046467,-410.81803544814073,410.81803544814073,-295.01134482046467,1434.0884417668212,0.0
658204.59901257406,4042374.0504322448,-7500.0,555.73302512281691,-623.33626573070353,160.6471950057834,-114.4415081312298,55.136846206559817,9.9742198289738759,662.46375607217385,404.6175495057455,-496.98850966778741,496.98850966778741,-404.6175495057455,1205.1468824944093,0.0
663204.59901257406,4042374.0504322448,-7500.0,530.19872917825944,-473.12201172912182,-106.96614655453378,-94.01765947125476,14.989193654752201,5.6426186001489036,576.8727160323491,464.15679431504037,-523.32928021024372,523.32928021024372,-464.15679431504037,1022.5628418857655,0.0
668204.59901257406,4042374.0504322448,-7500.0,477.21722501156893,-321.4860023792769,-304.22035534958553,-72.440132048659805,-15.703786512636659,2.2034775032023366,511.12597443779589,479.63733955014726,-504.57448031216455,504.57448031216455,-479.63733955014726,889.73673237369871,0.0
673204.59901257406,4042374.0504322448,-7500.0,404.97338142663261,-180.6340332203805,-438.16567886149625,-51.569172154499348,-37.67313900874661,-0.39035420043042074,463.05443508868291,460.430922504845,-455.74694166830869,455.74694166830869,-460.430922504845,802.21389332545971,0.0
678204.59901257406,4042374.0504322448,-7500.0,321.91838013889799,-58.045255536059187,-519.20397544060347,-32.648372444650988,-52.164357721325104,-2.2403747139529324,428.63547233404546,416.86259116103332,-390.02390471296798,390.02390471296798,-416.86259116103332,749.25122911466758,0.0
683204.59901257406,4042374.0504322448,-7500.0,235.49552164631112,42.861855723111731,-558.70669956726283,-16.361647617238006,-60.620426346090845,-3.4729158692728155,403.37101812031551,358.52113755520031,-317.72428873543686,317.72428873543686,-358.52113755520031,717.92259559919466,0.0
688204.59901257406,4042374.0504322448,-7500.0,151.50215205988894,121.68841246230689,-567.4281392727155,-2.9523823463208188,-64.459124849866384,-4.2174249948465521,383.40424253357202,293.33603391678957,-246.14485379299344,246.14485379299344,-293.33603391678957,697.18944683071334,0.0
693204.59901257406,4042374.0504322448,-7500.0,73.948455948437768,179.99142533743725,-554.64692693594282,7.6427537624641646,-64.942464836373958,-4.5929039038791482,366.00856996763343,227.26785646248416,-179.9038361303964,179.9038361303964,-227.26785646248416,679.66808831935316,0.0
698204.59901257406,4042374.0504322448,-7500.0,5.2270400273492648,220.3903216689327,-527.85165723337605,15.673908059009447,-63.118774640803807,-4.7010888687719152,349.55139346869396,164.39776572159923,-121.50467748280931,121.50467748280931,-164.39776572159923,661.34985157055348,0.0
558204.59901257406,4047374.0504322448,-7500.0,717.87520092381624,459.38177367812136,244.50388149763819,103.59082768918073,57.579629970214441,10.016452919371138,524.11562448804341,410.48607023240851,387.78217652593565,-387.78217652593565,-410.48607023240851,1032.1330562194746,0.0
563204.59901257406,4047374.0504322448,-7500.0,781.75144388738465,572.41294907826216,393.49865238070686,121.64846803232354,82.212974837777338,12.991276467674684,614.05245039141323,398.43265161568434,551.33199599916156,-551.33199599916156,-398.43265161568434,1221.024514889177,0.0
568204.59901257406,4047374.0504322448,-7500.0,832.96020440658071,693.98183001399605,585.43017885732127,140.41163602075471,113.23422280143269,16.634226814981496,722.12286806983616,361.89642165624377,747.8611297603245,-747.8611297603245,-361.89642165624377,1438.0676675833636,0.0
573204.59901257406,4047374.0504322448,-7500.0,864.90095296662582,817.93942397218416,826.1936061918999,158.81733375639828,151.39589168381553,21.00937276038573,850.24936388481171,294.51010555438961,976.84225930659568,-976.84225930659568,-294.51010555438961,1683.0009335192126,0.0
578204.59901257406,4047374.0504322448,-7500.0,870.7248345488747,934.84775607593974,1119.428675313512,175.33387502980506,197.0917179666904,26.140806764041169,991.76733140946965,190.74297474828359,1233.8970719276867,-1233.8970719276867,-190.74297474828359,1953.4096836433557,0.0
583204.59901257406,4047374.0504322448,-7500.0,844.41932265179344,1031.6978138724767,1464.5780853452404,187.94369645444365,250.08598244864623,31.986067686921977,1143.536491700251,47.377025434515645,1509.3051367177675,-1509.3051367177675,-47.377025434515645,2243.9431631168482,0.0
588204.59901257406,4047374.0504322448,-7500.0,782.37123091169792,1092.2883922455319,1854.5443870563909,194.22541408634635,309.19666679998437,38.405973058191925,1300.7111086111115,-134.5810498981059,1786.7372297126744,-1786.7372297126744,134.5810498981059,2545.5764035753846,0.0
593204.59901257406,4047374.0504322448,-7500.0,685.24339201465978,1098.6517781421123,2273.3282889890456,191.5841564840421,371.98780182194326,45.136467951905857,1456.2666873633063,-347.83297755134333,2042.7627526788942,-2042.7627526788942,347.83297755134333,2845.1080968547681,0.0
598204.59901257406,4047374.0504322448,-7500.0,559.74037026625308,1033.8326726943328,2694.3855540366931,177.66483179359125,434.57235903840791,51.772352350847648,1601.0020474387204,-577.1527315280307,2247.8584792400952,-2247.8584792400952,577.1527315280307,3125.1810858335984,0.0
603204.59901257406,4047374.0504322448,-7500.0,419.53968680453124,885.99196964064015,3080.7500086037871,150.93421129404146,491.6634018880888,57.775812766815228,1723.9946553789928,-799.06521445721023,2369.6014102804138,-2369.6014102804138,799.06521445721023,3365.1345670777278,0.0
608204.59901257406,4047374.0504322448,-7500.0,284.51450248837972,653.19486237446927,3388.0296131137234,111.33552878957309,537.01290053996433,62.521912575549308,1813.6220910210343,-983.80664406445067,2378.2978217567684,-2378.2978217567684,983.80664406445067,3542.9324097061399,0.0
613204.59901257406,4047374.0504322448,-7500.0,177.60509473484711,347.47065882573526,3570.8737470369751,60.82089730644784,564.30464644381675,65.386225989280945,1859.1431496010896,-1100.1305642501388,2254.3613203025993,-2254.3613203025993,1100.1305642501388,3638.1696378242291,0.0
618204.59901257406,4047374.0504322448,-7500.0,119.48960352139072,-3.7907690315471512,3592.2972994784482,3.507275064082402,568.40927898960774,65.864758414351599,1852.6302305009335,-1122.4888828720314,1995.5264706609555,-1995.5264706609555,1122.4888828720314,3635.7729618256813,0.0
623204.59901257406,4047374.0504322448,-7500.0,122.40621196074694,-360.76105551964503,3433.5914283257457,-54.752728182837352,546.70037653388977,63.697701994176967,1790.8159104275628,-1038.6955812899132,1621.0835021227967,-1621.0835021227967,1038.6955812899132,3529.5710904965445,0.0
628204.59901257406,4047374.0504322448,-7500.0,185.47728248356947,-678.65691453748229,3101.3210597563616,-107.40646760286579,499.98203885157079,58.956302751995771,1676.2897878223182,-855.14170893210508,1170.5940982148884,-1170.5940982148884,855.14170893210508,3324.6575901192241,0.0
633204.59901257406,4047374.0504322448,-7500.0,293.84116926549297,-917.88654566526429,2628.1622191970164,-148.59038847722192,432.61525949782401,52.055647657006716,1520.2442264252481,-596.91745967188012,696.40644686629935,-696.40644686629935,596.91745967188012,3037.6261070623455,0.0
638204.59901257406,4047374.0504322448,-7500.0,422.44394836958952,-1053.3087136258091,2066.4896791747524,-174.41078925672974,351.7013880493937,43.680894477654263,1365.8248599629385,-302.12586588779305,252.05235137330209,-252.05235137330209,302.12586588779305,2694.3957217909251,0.0
643204.59901257406,4047374.0504322448,-7500.0,543.13842604425975,-1079.1183759351929,1476.7202217754932,-183.65897533617905,265.56709318751871,34.647560065133689,1199.637640318811,-12.335923424683344,-119.34688364792036,119.34688364792036,12.335923424683344,2326.1802712469453,0.0
648204.59901257406,4047374.0504322448,-7500.0,632.17759450290646,-1007.8352068179414,914.64120129784192,-177.74608856369008,182.07970758536331,25.743075309793973,1036.0457492258572,237.13203804276208,-392.60310464813693,392.60310464813693,-237.13203804276208,1964.7594470713968,0.0
653204.59901257406,4047374.0504322448,-7500.0,675.28344477290318,-864.52878065090954,421.95154932379478,-159.98105173688097,107.33848394496921,17.598842469586909,887.38990616494652,423.67542185304126,-561.98672352650431,561.98672352650431,-423.67542185304126,1638.1972095331171,0.0
658204.59901257406,4047374.0504322448,-7500.0,668.9913681525411,-679.11442152650784,22.226269745000806,-134.54432475523464,45.048984398777982,10.623142358454862,762.1807195652209,539.15303729532206,-637.56391803862221,637.56391803862221,-539.15303729532206,1367.4531708408581,1.0
663204.59901257406,4047374.0504322448,-7500.0,618.78640530058931,-479.58222518974316,-277.99137573357444,-105.53611602901758,-3.423674989984677,4.9973174373835327,664.1121750674622,587.60932254573356,-638.87922797332146,638.87922797332146,-587.60932254573356,1163.5983537562145,1.0
668204.59901257406,4047374.0504322448,-7500.0,535.58269227219932,-287.78261235539634,-484.91727542499842,-76.334196183813759,-38.550225553639265,0.7169042677311922,591.99847029617172,580.90695356314552,-588.62352925997141,588.62352925997141,-580.90695356314552,1025.7030076882936,0.0
673204.59901257406,4047374.0504322448,-7500.0,432.12864919212495,-117.96910093941032,-612.30013109509048,-49.316386896503708,-61.963630952752261,-2.3474344290500135,540.93382343965345,534.20065663887931,-507.9542129957419,507.9542129957419,-534.20065663887931,941.48103396302463,0.0
678204.59901257406,4047374.0504322448,-7500.0,320.3129123048937,22.633115329969499,-676.8418322286708,-25.871944534107627,-75.835012320029733,-4.3901937879335682,504.4307819763203,462.45266260608491,-413.94067557443327,413.94067557443327,-462.45266260608491,892.61869933256764,0.0
683204.59901257406,4047374.0504322448,-7500.0,209.66034925557108,132.21723207608363,-694.98119229525457,-6.5797676273528882,-82.409794639677457,-5.6242799390741798,476.5074902273459,378.36700193577468,-318.79899034406702,318.79899034406702,-378.36700193577468,861.92607780332435,0.0
688204.59901257406,4047374.0504322448,-7500.0,106.84587459926514,212.54743957235186,-681.07862321785956,8.5558489425532098,-83.724753954394913,-6.2505908822864331,452.80638972888346,291.56493166527832,-230.26758624118625,230.26758624118625,-291.56493166527832,837.42623682876558,0.0
693204.59901257406,4047374.0504322448,-7500.0,15.875137445497696,267.34717806233277,-646.6919896353894,19.882844893020845,-81.475267804656667,-6.4420458168747725,430.70510392751703,208.60111811049731,-152.51569290733048,152.51569290733048,-208.60111811049731,812.54587794574286,0.0
698204.59901257406,4047374.0504322448,-7500.0,-61.405433064154863,301.10762889757848,-600.55229016317423,27.925630537344002,-76.985345975461087,-6.338118676543691,408.91339549679952,133.42533425472169,-87.1628578132417,87.1628578132417,-133.42533425472169,784.54972924802712,0.0
703204.59901257406,4047374.0504322448,-7500.0,-124.71140227355019,318.31893352799273,-548.90582558996755,33.263050107116605,-71.236468624236224,-6.0457458977243368,386.98595130117741,67.998613640860285,-34.181136638559579,34.181136638559579,-67.998613640860285,752.91684910772085,0.0
553204.59901257406,4052374.0504322448,-7500.0,702.9484455809195,330.78055889358689,53.419941945812916,93.028955487018948,30.865980348145115,7.8896492488570198,469.54932670443281,474.03355034022292,180.25050424680961,-180.25050424680961,-474.03355034022292,900.33445330304266,0.0
558204.59901257406,4052374.0504322448,-7500.0,798.0623512422643,445.97045398901759,162.49456535276079,113.7474472445253,51.239979348296984,10.690747397046881,555.46135185658579,498.29022633909005,318.04684306048296,-318.04684306048296,-498.29022633909005,1080.2006365867383,0.0
563204.59901257406,4052374.0504322448,-7500.0,889.30925598194949,579.83821252564269,313.22915427741316,136.96174993516061,78.395859106445386,14.272918154984417,657.71984745599229,504.1814549358424,494.77277368637584,-494.77277368637584,-504.1814549358424,1294.9193823295816,0.0
568204.59901257406,4052374.0504322448,-7500.0,969.66369387808197,729.94733608908166,515.57461704138166,162.07127774640611,113.78606546244689,18.782175489374968,777.99747699093325,483.3669285290265,715.21007141272105,-715.21007141272105,-483.3669285290265,1547.4818527308757,0.0
573204.59901257406,4052374.0504322448,-7500.0,1030.3230547511419,890.53128174402457,779.44631174533686,187.93615020784347,158.80241946359499,24.351569849132019,923.68034195738596,426.47102629060322,981.75094178140967,-981.75094178140967,-426.47102629060322,1839.3736502324643,0.0
578204.59901257406,4052374.0504322448,-7500.0,1061.2499372565817,1051.3413252830603,1113.0507603770097,212.72307186586508,214.51481158440046,31.072438439185532,1096.3756636530247,324.13743365850809,1292.4511099347126,-1292.4511099347126,-324.13743365850809,2169.5787431129925,0.0
583204.59901257406,4052374.0504322448,-7500.0,1052.4048759692212,1196.710005870513,1520.2926930775236,233.79744620850258,281.28144343151212,38.95310630124127,1286.4856964889816,168.88561156384321,1638.6266712115394,-1638.6266712115394,-168.88561156384321,2533.3517794347949,0.0
588204.59901257406,4052374.0504322448,-7500.0,995.83998129542351,1305.3320032252761,1997.2502337956873,247.7365208185582,358.23656460183258,47.866295602047558,1488.5285049225338,-42.140649583135882,2002.3606976557428,-2002.3606976557428,42.140649583135882,2920.8872875140009,0.0
593204.59901257406,4052374.0504322448,-7500.0,888.61020825267963,1351.4641288987871,2528.0786459392793,250.56212825303371,442.7165671360504,57.492625167671605,1693.9378825863691,-303.74131132951425,2354.6889196179245,-2354.6889196179245,303.74131132951425,3316.1586410261757,0.0
598204.59901257406,4052374.0504322448,-7500.0,736.02283583339306,1308.280501413208,3081.3042516074315,238.28741958905999,529.76819783847338,67.275271487270146,1890.6006673608413,-599.28034346642926,2655.6694773799527,-2655.6694773799527,599.28034346642926,3696.3588547325003,0.0
603204.59901257406,4052374.0504322448,-7500.0,554.15596321645614,1153.7910807829237,3608.2268901246334,207.81750673852193,611.98295656269386,76.410540909702789,2063.2045951704226,-898.75762489830004,2857.8005796577868,-2857.8005796577868,898.75762489830004,4032.5542351994118,0.0
608204.59901257406,4052374.0504322448,-7500.0,370.01273701636813,878.7548990143365,4045.6190846669465,158.09909553509971,679.95126798279023,83.90185222365713,2194.5283653926367,-1160.2290647914892,2913.8256226711455,-2913.8256226711455,1160.2290647914892,4292.1078872400749,0.0
613204.59901257406,4052374.0504322448,-7500.0,217.71996677862268,494.51656040649095,4324.5337218806089,91.21103848404411,723.56352576859956,88.69693699886497,2267.8040524675594,-1336.1952451110969,2788.5480906172602,-2788.5480906172602,1336.1952451110969,4443.1599665523781,0.0
618204.59901257406,4052374.0504322448,-7500.0,130.32394714926119,37.221208712575539,4385.0923335414236,12.901666954340742,734.10976157954929,89.899352536913071,2269.9082195019405,-1384.9655539038249,2471.8283480637779,-2471.8283480637779,1384.9655539038249,4460.7277990463499,0.0
623204.59901257406,4052374.0504322448,-7500.0,129.07579879422701,-435.2691766475391,4193.8335631942273,-67.914943274051609,706.69322871428983,87.005938635991754,2194.6616057470287,-1284.1601609422121,1987.601021090981,-1987.601021090981,1284.1601609422121,4333.0693962385512,0.0
628204.59901257406,4052374.0504322448,-7500.0,214.5176794139625,-855.13541867544666,3757.1388151377178,-140.86589543447721,642.08510275653339,80.086711948577914,2045.2126764185289,-1040.8782267013066,1393.4751700913703,-1393.4751700913703,1040.8782267013066,4066.2751228592479,0.0
633204.59901257406,4052374.0504322448,-7500.0,364.18537485117611,-1162.0337200361473,3123.8933095071743,-196.60721648476942,547.11506391091962,69.823733621138004,1851.3877418092022,-692.91360135575508,768.69135091797887,-768.69135091797887,692.91360135575508,3685.0948141250533,0.0
638204.59901257406,4052374.0504322448,-7500.0,539.0495651710753,-1319.3583568397878,2374.6583416590893,-229.16685700445427,433.23475504590488,57.375483826895383,1646.1533366565607,-299.07506184740953,194.02190596729446,-194.02190596729446,299.07506184740953,3229.3007753005404,0.0
643204.59901257406,4052374.0504322448,-7500.0,696.13556845570065,-1322.3051129691903,1601.1199492589881,-237.18640608646794,313.72918896610577,44.109548712157839,1427.9785390233271,77.678432251585562,-268.24781184341072,268.24781184341072,-77.678432251585562,2746.5852698840026,0.0
648204.59901257406,4052374.0504322448,-7500.0,801.42022223002868,-1194.8958944566509,884.34279365197006,-223.64122280172731,200.68568600844523,31.304291865414051,1218.1766982173324,386.83903107422378,-586.24642252096294,586.24642252096294,-386.83903107422378,2284.2972029432376,0.0
653204.59901257406,4052374.0504322448,-7500.0,837.55883996659793,-978.74533306382978,279.96579385429544,-194.36017076997422,102.81750090952285,19.923722857076115,1033.8764205502746,600.14964521843126,-759.11909302442041,759.11909302442041,-600.14964521843126,1882.1261271906653,0.0
658204.59901257406,4052374.0504322448,-7500.0,804.5436516100043,-719.55499185300152,-186.16803817059096,-156.12693352242712,24.671564121150752,10.521065052699674,885.27051276737757,712.49734068354485,-808.81272160305241,808.81272160305241,-712.49734068354485,1566.3860114998945,0.0
663204.59901257406,4052374.0504322448,-7500.0,715.05932388264523,-456.57971442678848,-513.68479699747911,-115.09626893753239,-32.940265102414564,3.2634036456220139,774.47006109914059,736.20097080801668,-768.48967549194447,768.48967549194447,-736.20097080801668,1345.4524286830276,0.0
668204.59901257406,4052374.0504322448,-7500.0,587.91280320078624,-217.35021941027537,-719.02621889006377,-75.89629753738889,-71.830970548700037,-1.9695245088958306,696.42546379945452,692.83552607790318,-672.39361572888822,672.39361572888822,-692.83552607790318,1208.1364567154883,0.0
673204.59901257406,4052374.0504322448,-7500.0,442.32647413239346,-17.108204588858069,-826.59030039225161,-41.402379340254896,-95.210393972700487,-5.466001768230937,642.01595602496661,605.99499846381468,-549.49933025831842,549.49933025831842,-605.99499846381468,1129.4565500125229,0.0
678204.59901257406,4052374.0504322448,-7500.0,294.37002698508223,138.92548037467117,-862.01081854208792,-12.957357200043845,-106.69238480433164,-7.5795054030303808,601.8611792975837,496.57598647737558,-420.97038843670549,420.97038843670549,-496.57598647737558,1082.4859657180632,0.0
683204.59901257406,4052374.0504322448,-7500.0,155.52237364332032,252.30775897530197,-848.16673471568629,9.214454480167408,-109.6573681297504,-8.657962465453295,568.81412124611631,380.62833733498229,-300.27257430184164,300.27257430184164,-380.62833733498229,1047.3144433412256,0.0
688204.59901257406,4052374.0504322448,-7500.0,32.724783447925276,328.36249176307581,-803.47064551760411,25.58185874053348,-106.936943036345,-9.0048268621963032,538.52886729335,269.05481293468898,-194.62337600870961,194.62337600870961,-269.05481293468898,1012.8206397205529,0.0
693204.59901257406,4052374.0504322448,-7500.0,-70.796129573874111,373.92340165255229,-741.64907219479744,36.962289957026393,-100.72554548218807,-8.8642220793340236,508.88816747604159,168.32161026515547,-106.80255971740269,106.80255971740269,-168.32161026515547,974.38088253968044,0.0
698204.59901257406,4052374.0504322448,-7500.0,-154.47553070999925,395.89318537205224,-672.30064332855738,44.283373261745815,-92.622310112474992,-8.4210267445729308,479.17594447240413,81.536172521720459,-36.785656368980483,36.785656368980483,-81.536172521720459,931.08508013901474,0.0
703204.59901257406,4052374.0504322448,-7500.0,-219.43616761685962,400.4662023726604,-601.73952711612469,48.439405310586473,-83.730872752383135,-7.8084721785829112,449.41812082461507,9.5108321677237289,17.004505538354081,-17.004505538354081,-9.5108321677237289,883.76431356701664,0.0
553204.59901257406,4057374.0504322448,-7500.0,748.28296519872936,281.75297627124451,-40.816325106149606,97.023614365152753,19.778984076801564,7.8548988175647256,491.02318255438081,543.07865593586166,80.865662509460975,-80.865662509460975,-543.07865593586166,924.23413620213194,0.0
558204.59901257406,4057374.0504322448,-7500.0,872.37919944583791,409.08786583805721,58.423684836664187,122.22767986675341,40.648544892143001,11.07199352790329,585.33173011142014,591.05466297941973,218.14092626617062,-218.14092626617062,-591.05466297941973,1120.331338671514,0.0
563204.59901257406,4057374.0504322448,-7500.0,998.08652554986372,563.28335378881093,203.95615102427749,151.49820362927881,69.695493546060305,15.313799466790837,700.23681869848588,622.49625035378017,402.59093728005308,-402.59093728005308,-622.49625035378017,1360.6349702900895,0.0
568204.59901257406,4057374.0504322448,-7500.0,1117.3644133399252,743.92531664107889,409.61933203252187,184.45914595052255,109.10970319674372,20.820331136234291,838.54983906262339,626.84515036211985,642.95887334826068,-642.95887334826068,-626.84515036211985,1650.8492618959417,0.0
573204.59901257406,4057374.0504322448,-7500.0,1219.1415104801874,946.80155284000932,690.63914631381977,220.05215370766118,161.22257161390411,27.837045656845678,1002.6383949101979,591.14091502236238,946.22710165490525,-946.22710165490525,-591.14091502236238,1995.3597159321141,0.0
578204.59901257406,4057374.0504322448,-7500.0,1289.5237811668994,1161.988253948296,1061.882376242718,256.24997923440037,228.20286105083287,36.577579180037617,1203.5079273404542,500.91401231566243,1315.075519756135,-1315.075519756135,-500.91401231566243,2395.9015548398747,0.0
583204.59901257406,4057374.0504322448,-7500.0,1312.9300247760452,1371.8522272976218,1534.6782556291078,289.78086644620532,311.53430471082368,47.162984547632824,1440.763007565814,342.25166760880938,1744.3185254881328,-1744.3185254881328,-342.25166760880938,2849.743041256891,0.0
588204.59901257406,4057374.0504322448,-7500.0,1274.6085384126688,1549.6123343101469,2111.8751068324659,315.97101792525626,411.23698207125557,59.535039751280763,1700.4515539031988,105.43252445508188,2216.5734034562065,-2216.5734034562065,-105.43252445508188,3347.4639820405191,0.0
593204.59901257406,4057374.0504322448,-7500.0,1164.8105438872617,1659.5701992989336,2781.2326757578394,328.87674224734593,524.86683664246823,73.34960252828003,1972.5598737195594,-209.78818064088091,2698.057790677904,-2698.057790677904,209.78818064088091,3870.636146578031,0.0
598204.59901257406,4057374.0504322448,-7500.0,984.32617155009086,1660.512044520382,3508.1903100560198,321.9226804370515,646.47238163464795,87.871995502322576,2241.5288555642419,-587.92881114894931,3136.3463886351065,-3136.3463886351065,587.92881114894931,4390.0605728521377,0.0
603204.59901257406,4057374.0504322448,-7500.0,749.98751437505916,1513.6526532589824,4230.5036565378259,289.21882189701648,765.89371619809754,101.91662500914917,2486.0628567529066,-992.5437819448257,3462.8067035781528,-3462.8067035781528,992.5437819448257,4865.5693278084618,0.0
608204.59901257406,4057374.0504322448,-7500.0,497.38090883750601,1195.2728811913,4858.8162227667017,227.527394771015,868.99527654982114,113.89151801342874,2680.5493714958848,-1365.4135843877907,3602.5647963981387,-3602.5647963981387,1365.4135843877907,5248.6705537465587,0.0
613204.59901257406,4057374.0504322448,-7500.0,277.21346597807974,711.41678966890754,5287.5831021523918,138.43756163065586,939.42932540825609,122.00249750564392,2798.4694240773742,-1634.063906334575,3492.9556802813458,-3492.9556802813458,1634.063906334575,5488.9869241106207,0.0
618204.59901257406,4057374.0504322448,-7500.0,143.08115578333954,108.45731282375046,5418.2007472647228,29.82491322727336,962.12321418232989,124.62666000752368,2817.6826300229845,-1729.4109472963846,3106.9242482435948,-3106.9242482435948,1729.4109472963846,5544.3284287035567,0.0
623204.59901257406,4057374.0504322448,-7500.0,132.70025637510466,-528.48628758762845,5189.8358176842676,-84.526704238199102,927.78406500604217,120.77487725816222,2726.4718453030791,-1609.8619067818586,2472.1151471464304,-2472.1151471464304,1609.8619067818586,5392.2859653832556,0.0
628204.59901257406,4057374.0504322448,-7500.0,250.43574831830679,-1093.9673812315341,4605.8647325109532,-187.74334363703875,836.70540984841182,110.47277121532142,2528.8031320786299,-1281.6524157597669,1673.8537533907888,-1673.8537533907888,1281.6524157597669,5039.3664770422974,0.0
633204.59901257406,4057374.0504322448,-7500.0,461.48774811439654,-1493.1343059091214,3741.2618952122089,-264.46199086759907,699.86168572292536,94.868976632800496,2282.3111046456279,-803.1835722568552,835.5639083775967,-835.5639083775967,803.1835722568552,4523.4217452983339,0.0
638204.59901257406,4057374.0504322448,-7500.0,703.15794008978787,-1671.4906774474632,2723.7320714681046,-305.29317595883833,536.29974416886034,75.979475442364674,2004.6536529511009,-268.01133982566387,82.602089323485217,-82.602089323485217,268.01133982566387,3907.3572269970509,0.0
643204.59901257406,4057374.0504322448,-7500.0,908.20619100554984,-1628.6167326838247,1696.0079776805094,-309.04883513836825,367.8001147668499,56.157335786774539,1714.3491142218629,226.15931701084389,-493.64629703483354,493.64629703483354,-226.15931701084389,3266.0995428715073,0.0
648204.59901257406,4057374.0504322448,-7500.0,1027.7320524193306,-1410.3313735646857,777.31955577398833,-281.8747301395166,213.23869241607301,37.514627812085102,1443.4801682713294,606.70927969010233,-854.8571445779736,854.8571445779736,-606.70927969010233,2671.5445362262867,0.0
653204.59901257406,4057374.0504322448,-7500.0,1042.7110133080844,-1086.3477042822292,40.31830710696471,-234.14921356199599,84.950366611174744,21.522059022644818,1215.5492075482075,840.62451971675455,-1012.7670545462868,1012.7670545462868,-840.62451971675455,2179.5795280663542,0.0
658204.59901257406,4057374.0504322448,-7500.0,961.84968092619692,-726.35141277455307,-491.56980544893781,-176.91724724157154,-12.051127710818037,8.8859356148446622,1041.2972964173025,931.92117072235055,-1011.2266139865085,1011.2266139865085,-931.92117072235055,1820.0565861200384,0.0
663204.59901257406,4057374.0504322448,-7500.0,810.9935099609221,-384.12883861315572,-832.2466495699091,-119.30134717756671,-78.652014937512305,-0.34220989455333806,918.16588092622317,908.57633696256255,-905.14013405865273,905.14013405865273,-908.57633696256255,1590.3478176547283,0.0
668204.59901257406,4057374.0504322448,-7500.0,621.2510448242175,-92.17089997858038,-1016.1705709173133,-67.386157336920562,-119.30936402759114,-6.5418934795647541,834.14976968907195,807.69617349745181,-744.81875226098168,744.81875226098168,-807.69617349745181,1459.1521763468327,0.0
673204.59901257406,4057374.0504322448,-7500.0,420.44563864032295,136.08204234180201,-1083.9542955655274,-24.293229713810877,-139.88583268088036,-10.296189282838904,774.49725124936344,664.53767637818532,-568.29914582134029,568.29914582134029,-664.53767637818532,1384.4779864995478,0.0
678204.59901257406,4057374.0504322448,-7500.0,229.04276182976861,300.60928744127153,-1073.2115915759118,9.1224822378469561,-146.15503959887721,-12.221596832706718,727.17032002535007,506.86550777227546,-400.03607569376618,400.03607569376618,-506.86550777227546,1332.4108627858971,0.0
683204.59901257406,4057374.0504322448,-7500.0,59.554455921870769,408.98555730694284,-1014.3552448135074,33.436716563839013,-143.01890398250654,-12.868891032555126,684.70901870162152,353.55591607058454,-253.09279365966452,253.09279365966452,-353.55591607058454,1283.4624547112171,0.0
688204.59901257406,4057374.0504322448,-7500.0,-82.159974107299163,471.89497847771321,-929.7556623948476,49.949414157824386,-134.25282940195476,-12.681676748766048,643.51211627699286,215.62556660244988,-132.45810594067885,132.45810594067885,-215.62556660244988,1229.5308457078263,0.0
693204.59901257406,4057374.0504322448,-7500.0,-194.96948798407803,500.29116430071957,-834.65680498159179,60.19490963617347,-122.55739449798436,-11.991832730268689,602.3932842392951,98.182686492695112,-38.138042671859679,38.138042671859679,-98.182686492695112,1168.9885135099908,0.0
698204.59901257406,4057374.0504322448,-7500.0,-280.65711783498796,503.91532028196667,-738.72340040399877,65.653535293110039,-109.74486820482684,-11.033414227829716,561.39342501910517,2.4026275097062104,32.499253599469469,-32.499253599469469,-2.4026275097062104,1103.1237948676564,0.0
703204.59901257406,4057374.0504322448,-7500.0,-342.51397187286216,490.72782421189282,-647.597036880735,67.611778436354328,-96.955815333410754,-9.9630467401525529,521.07643421862656,-72.866478267223783,83.168517399150886,-83.168517399150886,72.866478267223783,1034.1557863155849,0.0
708204.59901257406,4057374.0504322448,-7500.0,-384.38124971276511,466.86480132892081,-564.19587260002891,67.116431980136412,-84.85430251490871,-8.8800234727308869,483.40407901558979,-129.95609653893325,117.74770768049171,-117.74770768049171,129.95609653893325,964.29140479043008,0.0
548204.59901257406,4062374.0504322448,-7500.0,632.07619590138449,102.59115586266356,-196.88353113028603,73.223042719614227,-8.7159375784829969,4.7755626210814244,431.68208307691884,524.15929722030239,-130.95876476567989,130.95876476567989,-524.15929722030239,780.10315488795459,0.0
553204.59901257406,4062374.0504322448,-7500.0,774.21352956431735,206.26937793047617,-149.82827647799695,97.500569899195028,4.5238885445042021,7.3703321472902301,512.27056740947194,604.88827253385421,-44.789913766802442,44.789913766802442,-604.88827253385421,943.14803957617835,0.0
558204.59901257406,4062374.0504322448,-7500.0,931.26140291387651,341.42992181407544,-67.989582716847636,127.3916650755134,24.752647284772426,10.963922077351675,613.70251130937618,682.40038846956281,83.62560457357614,-83.62560457357614,-682.40038846956281,1151.5593709763739,0.0
563204.59901257406,4062374.0504322448,-7500.0,1098.5720527945234,512.80534086010641,62.971218438230594,163.43245224274585,54.5141891249515,15.87077114178919,740.4600463072951,748.06358100977525,266.86984745270661,-266.86984745270661,-748.06358100977525,1414.7150403539783,0.0
568204.59901257406,4062374.0504322448,-7500.0,1267.8606069983066,723.31917441406199,261.2253124892602,205.72761622831666,96.942209513716492,22.466271510789195,897.20229011800291,789.41579337017515,518.82249583567818,-518.82249583567818,-789.41579337017515,1742.2401068023364,0.0
573204.59901257406,4062374.0504322448,-7500.0,1426.2540646798172,972.082940694581,548.53677065020452,253.59639285537349,155.67421986126931,31.17030359734224,1088.3097156711915,789.70272387362138,853.0818726387547,-853.0818726387547,-789.70272387362138,2143.0421636815768,0.0
578204.59901257406,4062374.0504322448,-7500.0,1555.7672385446267,1251.5657666125389,948.84546426439522,305.09988817798705,234.55727462215344,42.404803584543814,1317.2255386489394,728.19240148989252,1279.995364981273,-1279.995364981273,-728.19240148989252,2623.6781548984295,0.0
583204.59901257406,4062374.0504322448,-7500.0,1633.8300053569697,1544.0710198887496,1484.8614743167693,356.48875467978326,337.01904290275326,56.511431764574191,1601.3994278859134,581.98956366792015,1801.8499023078784,-1801.8499023078784,-581.98956366792015,3185.8466411311892,0.0
588204.59901257406,4062374.0504322448,-7500.0,1635.7608317160252,1818.1748389299642,2171.7543154150762,401.70063896788162,464.97390246583194,73.617050691911899,1934.1789452213118,330.26683673987168,2406.0853671532777,-2406.0853671532777,-330.26683673987168,3822.9377092896243,0.0
593204.59901257406,4062374.0504322448,-7500.0,1540.1190985959727,2026.6333316447926,3007.3235854619866,432.16982031033768,617.20005398611215,93.444948619778927,2295.0091485056241,-38.312003342596427,3057.2378095841941,-3057.2378095841941,38.312003342596427,4515.8576007056363,0.0
598204.59901257406,4062374.0504322448,-7500.0,1337.3349273305014,2108.3537536250333,3959.2114570413946,437.36574851580212,787.33080074979023,115.09544771025,2664.7501956697342,-515.07636717059222,3689.9335534924026,-3689.9335534924026,515.07636717059222,5228.926209320628,0.0
603204.59901257406,4062374.0504322448,-7500.0,1040.3736812071882,1997.7395680530187,4952.2271191903283,406.54188115258336,962.00169461654707,136.86482251403058,3014.3397232101211,-1059.9526789878655,4207.5006719329449,-4207.5006719329449,1059.9526789878655,5907.4851369383186,0.0
608204.59901257406,4062374.0504322448,-7500.0,693.29274030777435,1643.7175906816574,5862.5010482532534,331.95098309358883,1120.2214877445695,156.22167482158224,3305.7518865840493,-1594.6873542114695,4492.4830274991145,-4492.4830274991145,1594.6873542114695,6479.6664681198499,0.0
613204.59901257406,4062374.0504322448,-7500.0,370.56316536911544,1036.4164109444609,6528.1824881324783,213.06708899610354,1235.3936589827049,170.08347287213533,3496.5934296967685,-2009.0562821992528,4434.0454057106535,-4434.0454057106535,2009.0562821992528,6864.9987342564264,0.0
618204.59901257406,4062374.0504322448,-7500.0,160.15142446385346,231.50766996376981,6784.2609416496707,60.182321825148783,1280.9574872947146,175.46607967056283,3548.7700745707643,-2186.9915185165369,3969.6912431086944,-3969.6912431086944,2186.9915185165369,6990.8386387567843,0.0
623204.59901257406,4062374.0504322448,-7500.0,130.61099540325887,-644.73121994969108,6517.8071689873304,-105.13500232588416,1238.8942276956845,170.39561277691979,3439.8053215138661,-2049.8564846006702,3125.6542802413787,-3125.6542802413787,2049.8564846006702,6813.8474803959907,0.0
628204.59901257406,4062374.0504322448,-7500.0,295.86041288836725,-1423.5648845567678,5721.6721861330598,-254.62367336369104,1107.7843468658928,154.73242706316455,3178.1525425402679,-1598.2878912538954,2030.2998849347377,-2030.2998849347377,1598.2878912538954,6338.8290289542265,0.0
633204.59901257406,4062374.0504322448,-7500.0,600.53685673900691,-1950.4947363491124,4513.9947344475013,-362.12229680025007,905.7507099991584,130.45936664291003,2851.8495265721494,-925.0960139465052,882.2153982216231,-882.2153982216231,925.0960139465052,5625.2638811998986,0.0
638204.59901257406,4062374.0504322448,-7500.0,940.3139228588019,-2142.3836257825942,3104.3400253973446,-412.46596438874951,665.58830559991156,101.18843131565372,2468.8812324750302,-184.37091189828038,-117.675468693563,117.675468693563,184.37091189828038,4776.1763706008778,0.0
643204.59901257406,4062374.0504322448,-7500.0,1207.170908766941,-2011.5887246554285,1721.2487161374606,-405.62685101051301,424.07512257100313,71.072963614676112,2077.3292574884113,468.20838145618239,-833.38645813501989,833.38645813501989,-468.20838145618239,3913.0069538179482,0.0
648204.59901257406,4062374.0504322448,-7500.0,1331.3310301367319,-1645.9715702149233,541.57733611417768,-354.2649409593472,211.10696809155871,43.65489447309605,1726.1511433697635,928.5263446138091,-1224.3924632511057,1224.3924632511057,-928.5263446138091,3146.8635772323255,0.0
653204.59901257406,4062374.0504322448,-7500.0,1297.3780032489217,-1163.259498275409,-344.5854395596283,-277.05575387750764,43.666046221904509,21.150578920919635,1446.4259255812131,1164.1369912703278,-1331.5287759114351,1331.5287759114351,-1164.1369912703278,2554.3686959211732,0.0
658204.59901257406,4062374.0504322448,-7500.0,1133.586725189816,-668.61886138860814,-928.28660793186407,-191.93898045960736,-74.18514911328144,4.3453134693964994,1245.6399446492096,1201.1558732708243,-1238.2500368254234,1238.2500368254234,-1201.1558732708243,2160.1714342662522,0.0
663204.59901257406,4062374.0504322448,-7500.0,888.95877843003666,-232.43697475655597,-1252.9330017665034,-112.06576318960045,-147.46046767421331,-7.0706693726721808,1110.6344883119255,1095.882132017987,-1033.0247742002173,1033.0247742002173,-1095.882132017987,1932.9671172734154,0.0
668204.59901257406,4062374.0504322448,-7500.0,612.71562208594855,111.77288810703757,-1383.1499613965414,-44.820660710829934,-185.55034318564751,-14.0154239743843,1018.5640937768708,909.02147430313073,-786.85461106552509,786.85461106552509,-909.02147430313073,1808.9204809747573,0.0
673204.59901257406,4062374.0504322448,-7500.0,342.80447127249926,358.28313470638307,-1382.8479835844212,7.1906583274750302,-198.58517449405053,-17.597026841860625,948.63244491530509,690.53773356906663,-546.34644156502986,546.34644156502986,-690.53773356906663,1728.9886205451949,0.0
678204.59901257406,4062374.0504322448,-7500.0,102.82353354058094,517.53500599133088,-1304.3832727234726,44.47581832322598,-195.39253854005023,-18.849459036273029,887.51691271451796,474.64891291524657,-336.39535830672639,336.39535830672639,-474.64891291524657,1657.6527755543671,0.0
683204.59901257406,4062374.0504322448,-7500.0,-96.097241936453116,606.73223193931528,-1185.7764847089459,69.135886217153114,-182.75063786536285,-18.612420185810954,828.83180795069075,281.01767321486756,-166.43173394656515,166.43173394656515,-281.01767321486756,1580.1085578701345,0.0
688204.59901257406,4062374.0504322448,-7500.0,-251.64111089047188,643.90456431508642,-1052.1835848864994,83.7997529759255,-165.4121129574649,-17.507258938463512,770.54121955766641,118.4092632740019,-36.575181600181921,36.575181600181921,-118.4092632740019,1493.355606465683,1.0
693204.59901257406,4062374.0504322448,-7500.0,-366.75315268535661,644.91959174895703,-918.87092776359566,91.010230136449337,-146.46526065843651,-15.962094231016687,712.72524216553552,-11.45241635639535,57.735696590808644,-57.735696590808644,11.45241635639535,1399.4766972453085,0.0
698204.59901257406,4062374.0504322448,-7500.0,-446.93665434909491,622.43118817138122,-794.21128119744594,92.941269313058072,-127.76971672946542,-14.2540426678736,656.25296811013925,-110.79926359605952,122.78411687383053,-122.78411687383053,110.79926359605952,1302.0080236344829,0.0
703204.59901257406,4062374.0504322448,-7500.0,-498.48656463942763,585.8821376725482,-682.11524555744859,91.317188089572937,-110.34343221151467,-12.551241821584004,603.4222328458635,-183.69755008795724,164.92573392265828,-164.92573392265828,183.69755008795724,1204.3261336149617,0.0
708204.59901257406,4062374.0504322448,-7500.0,-527.47882604109839,541.96837641642401,-583.79128417828656,87.436369768611002,-94.661550486700293,-10.947796866647204,558.84254287626186,-234.74633831124598,189.80695696874264,-189.80695696874264,234.74633831124598,1109.0849723088663,0.0
713204.59901257406,4062374.0504322448,-7500.0,-539.27927694613766,495.2291881054951,-498.9271157231741,82.23797256941927,-80.868580725963341,-9.48982394212819,515.72306449646953,-268.36383308737385,202.09282340158921,-202.09282340158921,268.36383308737385,1018.1312747900299,0.0
543204.59901257406,4067374.0504322448,-7500.0,460.97468207391637,-67.147071392258297,-296.56400995021465,45.19695281411439,-31.535193857902687,1.7645312764240235,388.35017320937794,445.0291720651947,-294.71277154685703,294.71277154685703,-445.0291720651947,677.86964977452124,0.0
548204.59901257406,4067374.0504322448,-7500.0,602.30099482152127,1.6342793821704917,-293.79909921813112,65.840562657271207,-25.972836206741786,3.576789508114568,452.78421315113917,542.84111030308998,-261.13547725400144,261.13547725400144,-542.84111030308998,799.99122009127416,0.0
553204.59901257406,4067374.0504322448,-7500.0,768.92798591916585,99.870547740208906,-270.4068332979104,92.662373293251846,-15.40074908410763,6.2448245049205893,535.48232675559234,650.02593859620322,-196.56127594086854,196.56127594086854,-650.02593859620322,962.08740759937939,0.0
558204.59901257406,4067374.0504322448,-7500.0,960.96897023715121,235.5305556042542,-214.62486421498195,126.9707641416403,2.5606510899759818,10.104400935143852,641.86662455601163,762.07405898896673,-88.043080754407981,88.043080754407981,-762.07405898896673,1176.0706148855315,0.0
563204.59901257406,4067374.0504322448,-7500.0,1175.7388919270304,417.10548607072195,-109.91495648110084,170.03229382594247,31.147984093440407,15.596778538281269,778.33406905250081,870.7622705074948,80.918266478330452,-80.918266478330452,-870.7622705074948,1455.6334914762833,0.0
568204.59901257406,4067374.0504322448,-7500.0,1406.186012475785,652.38082348955254,66.167064470125396,222.8006552791544,74.615457254552808,23.282214035923033,952.07560991654918,962.71374047077393,330.28254754785013,-330.28254754785013,-962.71374047077393,1815.8693277624025,0.0
573204.59901257406,4067374.0504322448,-7500.0,1639.0364816998854,946.16334666528519,342.70843538068311,285.45878608809841,138.29879838985613,33.837331858991796,1170.6428377580357,1017.961192709486,682.37068528206112,-682.37068528206112,-1017.961192709486,2272.3954543055784,0.0
578204.59901257406,4067374.0504322448,-7500.0,1853.0040571651687,1296.5652445373846,755.03956035574777,356.71928280392564,228.4449226676156,48.018183072340676,1441.1027410791853,1009.0551468510107,1158.9647803402709,-1158.9647803402709,-1009.0551468510107,2839.5846744214755,0.0
583204.59901257406,4067374.0504322448,-7500.0,2017.8608667373485,1689.6066163179573,1341.9506145706696,432.8704334173222,351.58925874860455,66.56228506199929,1768.6063892615564,901.74281889134227,1775.5882884467942,-1775.5882884467942,-901.74281889134227,3527.4360544365245,0.0
588204.59901257406,4067374.0504322448,-7500.0,2095.7727471337485,2092.4525178001795,2138.7285663799462,506.66839476496233,513.18584243224177,89.996533058078484,2182.504297509699,658.83266329294645,2531.9827175448459,-2531.9827175448459,-658.83266329294645,4336.6385040701425,0.0
593204.59901257406,4067374.0504322448,-7500.0,2046.9217194112966,2446.8753593427527,3163.989257523499,566.40940553152961,715.19462243176781,118.32441463807174,2659.8590878865075,249.29257823802391,3398.5853454573758,-3398.5853454573758,-249.29257823802391,5251.6918085795296,0.0
598204.59901257406,4067374.0504322448,-7500.0,1841.447855207552,2666.708058852515,4399.1782801053405,595.87231540869709,952.54215622671609,150.60130416263416,3169.4639473450452,-335.83759511855033,4301.0510226395236,-4301.0510226395236,335.83759511855033,6232.7260001940494,0.0
603204.59901257406,4067374.0504322448,-7500.0,1477.9837699719126,2645.7330528637012,5763.0664860085162,576.19496955292027,1209.0108436654014,184.49146574789671,3673.1209916317102,-1061.8100762808021,5109.2228217556149,-5109.2228217556149,1061.8100762808021,7208.2322028831322,0.0
608204.59901257406,4067374.0504322448,-7500.0,1004.047551410606,2283.4612530238214,7090.7124353832096,490.74168575150446,1454.2725123987839,216.02748229710423,4115.0416219162762,-1830.0797119366223,5642.5855038691152,-5642.5855038691152,1830.0797119366223,8073.0832295469163,0.0
613204.59901257406,4067374.0504322448,-7500.0,525.61304926177309,1531.1673065851296,8135.7786010962882,332.98176282318349,1645.1079808602326,239.90401760857026,4427.0242218637932,-2475.6607591358193,5706.749866431388,-5706.749866431388,2475.6607591358193,8698.0304517221721,0.0
618204.59901257406,4067374.0504322448,-7500.0,187.89526015385829,445.0470491346926,8618.4114625095608,114.87854675432179,1733.9737010821523,250.57581950615076,4542.2377152858817,-2801.6200816205737,5165.8692588939339,-5165.8692588939339,2801.6200816205737,8955.6065722533676,0.0
623204.59901257406,4067374.0504322448,-7500.0,118.62954443739061,-787.69157638650938,8323.871388432226,-129.66010232226597,1685.0996510783168,244.05972926633936,4416.8105110163397,-2656.1870677203319,4028.0329307937222,-4028.0329307937222,2656.1870677203319,8760.3101107082803,0.0
628204.59901257406,4067374.0504322448,-7500.0,355.15681541452045,-1888.5236117617533,7214.8711789045119,-351.83326741336651,1492.0353097811412,219.74072936167005,4073.5889215312859,-2021.2330361712532,2488.4888701939294,-2488.4888701939294,2021.2330361712532,8108.7833041214981,0.0
633204.59901257406,4067374.0504322448,-7500.0,806.88275812835593,-2595.1427508018874,5483.1744711128958,-505.31021819145604,1185.5907491265682,181.12298958827134,3617.6383697229853,-1048.8542392708139,878.89750361705433,-878.89750361705433,1048.8542392708139,7097.3730285918264,0.0
638204.59901257406,4067374.0504322448,-7500.0,1293.0116699711875,-2777.2744959873503,3486.7871757743374,-564.8790998016317,824.45949575236364,134.85797339517907,3078.1001018477773,-3.2560964913937482,-466.45774446664251,466.45774446664251,3.2560964913937482,5901.7731756676803,0.0
643204.59901257406,4067374.0504322448,-7500.0,1635.1164183271783,-2480.7336471045728,1603.129336062342,-534.45072584753393,472.73833348434755,88.447079266704549,2543.1629651568901,860.44309398477537,-1343.270812632305,1343.270812632305,-860.44309398477537,4725.8027247209939,0.0
648204.59901257406,4067374.0504322448,-7500.0,1736.5920491639347,-1876.1456981238805,94.577302514894399,-440.29932774281122,178.19213226681293,47.886185303505691,2087.9995116474988,1396.0534947987298,-1724.6758658847821,1724.6758658847821,-1396.0534947987298,3743.2173107424442,0.0
653204.59901257406,4067374.0504322448,-7500.0,1600.9103275378434,-1163.1380545710542,-940.70190271358479,-316.30747203866025,-37.369671974527868,16.406229356828732,1749.8292632184721,1588.786088321456,-1715.3721779423342,1715.3721779423342,-1588.786088321456,3050.6166755301492,0.0
658204.59901257406,4067374.0504322448,-7500.0,1297.4889946405922,-496.22180798094507,-1536.0692948000317,-191.2185960450023,-174.81139726888645,-5.4368329394202721,1523.0697245425818,1513.2354798942342,-1468.6084865493626,1468.6084865493626,-1513.2354798942342,2640.9905317854336,0.0
663204.59901257406,4067374.0504322448,-7500.0,914.05438681948328,40.787529819306869,-1791.5430343331423,-82.944012492060892,-248.15439256411122,-18.860635487476344,1374.3889081470854,1274.3846256208512,-1121.6300757503418,1121.6300757503418,-1274.3846256208512,2424.2250656082242,0.0
668204.59901257406,4067374.0504322448,-7500.0,523.90856419242505,424.16338228966822,-1819.210537783204,1.0137782257116321,-275.51487298658401,-25.838291288450232,1267.1431457594704,965.91473689768009,-768.18478508735461,768.18478508735461,-965.91473689768009,2296.0353909296491,0.0
673204.59901257406,4067374.0504322448,-7500.0,173.94056143997358,666.79080342414079,-1713.5865065419057,60.323516217466789,-273.4800875084776,-28.369060390220081,1176.4700230693516,653.2285300546713,-458.66586254506285,458.66586254506285,-653.2285300546713,2188.8224024214855,0.0
678204.59901257406,4067374.0504322448,-7500.0,-113.55311974873311,797.24489385254594,-1542.5723413238409,98.3980535719366,-254.82677435368004,-28.112063780354578,1090.4777404731665,373.39447819893149,-212.02117342009154,212.02117342009154,-373.39447819893149,2074.1619678586385,0.0
683204.59901257406,4067374.0504322448,-7500.0,-333.65725485906421,846.49752354110069,-1349.6036758432645,119.92108181679201,-228.32866583935066,-26.286390556102599,1005.5240390361447,142.23411425539365,-28.732299986499889,28.732299986499889,-142.23411425539365,1946.308201864309,0.0
688204.59901257406,4067374.0504322448,-7500.0,-491.46799556050303,841.47551752530956,-1159.6855164063895,129.44884025975222,-199.478723001079,-23.71175840799966,921.79167389363352,-37.703595034488217,99.463650821444219,-99.463650821444219,37.703595034488217,1808.8015079102547,0.0
693204.59901257406,4067374.0504322448,-7500.0,-596.593410636827,803.01491341874134,-985.49582331930674,130.80160225825838,-171.41434687574557,-20.89908668974525,840.70490683962146,-170.87010008472103,183.62386377309528,-183.62386377309528,170.87010008472103,1667.4929141345681,0.0
698204.59901257406,4067374.0504322448,-7500.0,-659.73948494726505,746.05466603190257,-832.16454546874877,126.91728242021938,-145.72540189152804,-18.142877818583962,765.00192402471635,-264.60530556373783,234.51775563827383,-234.51775563827383,264.60530556373783,1527.6872401488065,0.0
703204.59901257406,4067374.0504322448,-7500.0,-690.90343938023966,680.69496276972052,-700.55905989203973,119.9259474070913,-123.05462317505251,-15.596138259435692,701.84283048275745,-326.78194314205484,261.33370551443659,-261.33370551443659,326.78194314205484,1393.2927220946583,0.0
708204.59901257406,4067374.0504322448,-7500.0,-698.60614973577151,613.40993965539337,-589.36352922027254,111.30314924832622,-103.50432782356781,-13.324673582928495,641.535562069197,-364.63454483601248,271.35450948254476,-271.35450948254476,364.63454483601248,1266.8080282292806,0.0
713204.59901257406,4067374.0504322448,-7500.0,-689.71286961257908,548.111998723841,-496.31044080733875,102.03044636044926,-86.89424279032724,-11.343607331536013,584.70000095427736,-384.2961117465606,270.08581070223494,-270.08581070223494,384.2961117465606,1149.588555180723,0.0
543204.59901257406,4072374.0504322448,-7500.0,377.75739450083972,-176.77749926761658,-369.94880725703206,31.303857329625501,-48.2187151867384,0.079142341585675263,417.5176580906658,417.07275327030646,-409.94943941153321,409.94943941153321,-417.07275327030646,723.17275637883495,0.0
548204.59901257406,4072374.0504322448,-7500.0,530.31197324394873,-123.96308749383267,-390.85090441312894,52.090534023093625,-46.488417378717884,1.6984425319921537,481.88822211180064,532.39724105682888,-404.22215070153271,404.22215070153271,-532.39724105682888,837.71026145363226,0.0
553204.59901257406,4072374.0504322448,-7500.0,717.56459752019475,-40.285916254553904,-396.75895678470408,80.307644226995251,-40.191727939264226,4.2504499553797368,564.97072443857678,665.80896179236436,-371.05878108372019,371.05878108372019,-665.80896179236436,992.33776701178442,0.0
558204.59901257406,4072374.0504322448,-7500.0,942.96894057531404,85.024192788945598,-375.95789683724274,118.00308680461502,-26.643781504420414,8.161721185217889,673.50866685996357,815.05543969273162,-295.8438434824522,295.8438434824522,-815.05543969273162,1202.5312508427301,0.0
563204.59901257406,4072374.0504322448,-7500.0,1207.5681454841322,264.81047912847043,-310.76078918283935,167.4613961058044,-1.9629999805590896,14.023236944625781,816.06292289001999,973.93105331808079,-158.56340664972481,158.56340664972481,-973.93105331808079,1487.3445197129604,0.0
568204.59901257406,4072374.0504322448,-7500.0,1507.8923618716874,513.16152542027601,-175.35576928646927,230.95718344310234,39.298109403888247,22.631272937820867,1003.0201090893994,1130.0669037473917,67.083917791278736,-67.083917791278736,-1130.0669037473917,1869.2037771718874,0.0
573204.59901257406,4072374.0504322448,-7500.0,1833.0378250774354,843.30716052563889,66.441640081848604,310.24470112818756,104.49649637934996,35.017036069287357,1246.3128914248059,1262.1861737599243,413.74309458119916,-413.74309458119916,-1262.1861737599243,2373.2633545656863,0.0
578204.59901257406,4072374.0504322448,-7500.0,2161.0808028474985,1263.4339233534988,462.7692479613159,405.6457378587283,203.05121553654305,52.439230615697213,1558.6477773903098,1337.2581015005856,918.53174295319718,-918.53174295319718,-1337.2581015005856,3025.8274386904804,0.0
583204.59901257406,4072374.0504322448,-7500.0,2455.5402857228191,1769.5030652653666,1073.0514471504237,514.59989921067211,346.08698873751985,76.29382123785193,1951.8977894503698,1308.6817987045131,1617.5072374549266,-1617.5072374549266,-1308.6817987045131,3850.9737106674556,0.0
588204.59901257406,4072374.0504322448,-7500.0,2663.6521284647451,2334.4664460932631,1962.2723665781295,629.64177090751298,545.03880558561855,107.87174868035368,2434.5011886753573,1117.7948903073548,2534.1244023579898,-2534.1244023579898,-1117.7948903073548,4864.2700611161054,0.0
593204.59901257406,4072374.0504322448,-7500.0,2719.775645828121,2894.6361255475249,3185.9660955746144,736.07778494481749,808.48578028812403,147.88162157883866,3056.9723027789846,702.51858797269074,3659.3777044330918,-3659.3777044330918,-702.51858797269074,6062.5158989066204,0.0
598204.59901257406,4072374.0504322448,-7500.0,2558.8577267621886,3337.3199545702082,4761.1092771396779,810.2952627340394,1136.5102780470393,195.68693147257153,3758.2875435396368,18.067948901003092,4923.4080822074284,-4923.4080822074284,-18.067948901003092,7409.2239916774015,0.0
603204.59901257406,4072374.0504322448,-7500.0,2144.6071583328589,3499.8929447686896,6621.0082828859549,820.65823335860841,1512.6216364659376,248.3419894955351,4487.5649316825857,-927.00217770572681,6164.8646695639945,-6164.8646695639945,927.00217770572681,8817.862353226983,0.0
608204.59901257406,4072374.0504322448,-7500.0,1510.7923296017259,3197.4368239169812,8563.2598920828259,733.8290196611332,1895.3990062412665,299.7945039272127,5165.3284580974323,-2024.9963176970095,7117.0476337512273,-7117.0476337512273,2024.9963176970095,10139.441371946181,0.0
613204.59901257406,4072374.0504322448,-7500.0,797.57626401362813,2295.4906278383924,10222.106614778104,528.56588939790947,2215.5955643268344,340.97434159082138,5682.1259952608334,-3038.7152791351477,7444.5502072359523,-7444.5502072359523,3038.7152791351477,11167.187864628815,0.0
618204.59901257406,4072374.0504322448,-7500.0,243.01816107993824,820.09223774081693,11119.599185135015,214.3684827501381,2387.2390510373061,361.55860293988383,5918.6584473838911,-3633.6426907966979,6861.1731271770277,-6861.1731271770277,3633.6426907966979,11673.773945192905,0.0
623204.59901257406,4072374.0504322448,-7500.0,90.824782394797694,-957.02857936553335,10836.652722411507,-156.00316917689358,2337.5996707318232,353.50806056277906,5787.1628191381897,-3510.3146898748819,5308.9040534745964,-5308.9040534745964,3510.3146898748819,11486.205206443232,0.0
628204.59901257406,4072374.0504322448,-7500.0,436.26581818845131,-2560.9826267019816,9254.4229159997467,-495.67421962926801,2046.361830270228,315.01391626446201,5328.240370959511,-2595.8984145387685,3084.4869023562615,-3084.4869023562615,2595.8984145387685,10574.477765117204,1.0
633204.59901257406,4072374.0504322448,-7500.0,1126.7993672682012,-3524.0654264792483,6694.1010233744482,-718.93910813229388,1567.4514138429461,252.38369975953003,4667.0420023534371,-1147.9726026728345,766.18777505605726,-766.18777505605726,1147.9726026728345,9099.7818546223589,0.0
638204.59901257406,4072374.0504322448,-7500.0,1833.8549695264835,-3636.1594288590163,3797.1192805711717,-782.5926661681433,1010.5682167324703,178.11522019664889,3889.2003685739764,358.50602779930347,-1064.8984555957832,1064.8984555957832,-358.50602779930347,7376.4896809011343,0.0
643204.59901257406,4072374.0504322448,-7500.0,2254.3805224821108,-3028.4374014746227,1208.0152040584826,-702.06476552604488,491.18470815239993,105.97006597419009,3150.6063251540509,1493.2548517035198,-2102.3712200762975,2102.3712200762975,-1493.2548517035198,5760.1473088196781,0.0
648204.59901257406,4072374.0504322448,-7500.0,2266.1016174934143,-2037.9527232340834,-691.26014528351425,-532.59713497502651,85.386119014788619,46.093536468141295,2565.3121291257062,2063.9820431673347,-2380.8364467414735,2380.8364467414735,-2063.9820431673347,4521.245720240865,0.0
653204.59901257406,4072374.0504322448,-7500.0,1931.1667620479157,-1001.2722768440673,-1832.9130176627816,-335.74804449095268,-183.67201250156972,2.8620787390873645,2165.8461158159607,2120.1836424915259,-2140.8066058040172,2140.8066058040172,-2120.1836424915259,3751.7179880596882,0.0
658204.59901257406,4072374.0504322448,-7500.0,1400.7736705134841,-131.88579096832098,-2352.4374659032442,-155.96490139608073,-331.62329043084793,-24.279218322506672,1912.4815348973566,1835.8087068285527,-1653.184967950468,1653.184967950468,-1835.8087068285527,3350.2125239138659,0.0
663204.59901257406,4072374.0504322448,-7500.0,822.03063882523247,490.97913637721052,-2450.8934862338187,-14.820950798798663,-390.69398336938087,-38.581686260521742,1740.4508374760403,1393.3054525154191,-1117.9170909501893,1117.9170909501893,-1393.3054525154191,3133.3261793389329,0.0
668204.59901257406,4072374.0504322448,-7500.0,293.83286693133653,876.91433824027922,-2308.3687689490284,83.605606298669613,-393.42001100389496,-43.963340440431267,1601.073041704354,925.51272189525025,-644.50272752362207,644.50272752362207,-925.51272189525025,2966.2753859510385,0.0
673204.59901257406,4072374.0504322448,-7500.0,-136.22925265694622,1074.8432570018458,-2053.5487670690522,144.7126097391029,-365.2609336368356,-43.840834845895415,1470.8816413832956,507.02640596580767,-273.88841606019065,273.88841606019065,-507.02640596580767,2791.1868094072738,0.0
678204.59901257406,4072374.0504322448,-7500.0,-457.21624894716371,1140.7207470847422,-1765.6049449067134,177.2056336518319,-323.34245463723926,-40.730252491051644,1343.0222369086955,168.18386125699232,-7.6699847853185048,7.6699847853185048,-168.18386125699232,2596.508259555987,1.0
683204.59901257406,4072374.0504322448,-7500.0,-678.45571331724966,1122.4965849797552,-1487.2545826702949,189.65236280170856,-277.93477702400219,-36.284094550535137,1217.9523559597014,-87.272253603518834,169.92436841726317,-169.92436841726317,87.272253603518834,2388.6336481482358,0.0
688204.59901257406,4072374.0504322448,-7500.0,-817.58935396553909,1055.8938673860464,-1238.0538398251624,189.07213541288206,-234.54070499861251,-31.490289373499472,1098.1538261586143,-268.57020762405574,279.26562687222469,-279.26562687222469,268.57020762405574,2177.677038468511,0.0
693204.59901257406,4072374.0504322448,-7500.0,-893.60888523515496,965.26430663551275,-1024.3374367341335,180.66186597870373,-195.68493555542301,-26.88480774917965,986.96478635666381,-389.49321379255986,339.29678454759124,-339.29678454759124,389.49321379255986,1972.2083105824017,0.0
698204.59901257406,4072374.0504322448,-7500.0,-923.53116294900713,866.10544011215666,-845.62907583329479,168.01752441100811,-162.18445543363904,-22.721240042428523,895.43115593116227,-463.96648906281081,365.40271307552001,-365.40271307552001,463.96648906281081,1778.0239699596632,0.0
703204.59901257406,4072374.0504322448,-7500.0,-921.24079402722145,767.6507745171242,-698.40122299957261,153.49913535071823,-133.95982877757444,-19.089044925649517,809.28592260984226,-504.14110297481079,369.17767746189088,-369.17767746189088,504.14110297481079,1598.4007444129909,0.0
708204.59901257406,4072374.0504322448,-7500.0,-897.43487385188644,674.97132631400791,-578.11362266465255,138.58065634440777,-110.51591719783832,-15.989145040627369,729.55605538572661,-519.83183419120837,358.94811396471056,-358.94811396471056,519.83183419120837,1434.734210284535,0.0
713204.59901257406,4072374.0504322448,-7500.0,-860.03555222009709,590.50370658454722,-480.22958276224261,124.13167944966295,-91.209098295960786,-13.379379564087969,656.84126675324615,-518.59919544334116,340.48772273159943,-340.48772273159943,518.59919544334116,1287.1602011849131,0.0
718204.59901257406,4072374.0504322448,-7500.0,-814.73451019816525,515.09151944168127,-400.663066993565,110.62497174818658,-75.385617360742813,-11.200477768057235,591.17884579012593,-506.08216775741522,317.68530029533935,-317.68530029533935,506.08216775741522,1155.0420131398885,0.0
538204.59901257406,4077374.0504322448,-7500.0,129.45071327491937,-309.54154035504615,-387.08160898875872,-2.045041315059378,-61.335755152676867,-2.8316883466346496,407.17181763694589,250.29692473888468,-485.34741128138995,485.34741128138995,-250.29692473888468,717.4418473968384,0.0
543204.59901257406,4077374.0504322448,-7500.0,248.41519848379494,-300.60967429829753,-434.48079580059982,11.041110268774821,-66.430271506463072,-2.2257571518280126,459.57216958729163,353.25482096958359,-524.08524825085181,524.08524825085181,-353.25482096958359,801.69153242053437,0.0
548204.59901257406,4077374.0504322448,-7500.0,403.54442316589984,-271.97482100553782,-480.84236796315804,30.279739869491525,-69.743952302355027,-1.0181452359873382,524.62636071739348,480.96530688995892,-552.36810396636645,552.36810396636645,-480.96530688995892,909.54671719848557,0.0
553204.59901257406,4077374.0504322448,-7500.0,602.71908559461701,-213.94505584408111,-520.19315184191532,57.926837329176884,-69.526027086211869,1.1344015473074198,607.56186077286793,636.45939107556637,-560.38212140931137,560.38212140931137,-636.45939107556637,1053.1831953797728,0.0
558204.59901257406,4077374.0504322448,-7500.0,853.96064430854835,-113.38126743655762,-542.19402802020409,96.875867102012037,-62.988451091856568,4.7432755190631699,715.90169381010719,821.12837479635925,-533.13328486661328,533.13328486661328,-821.12837479635925,1250.3609808654007,0.0
563204.59901257406,4077374.0504322448,-7500.0,1164.1066744763084,46.872552370242751,-529.76116119425365,150.68889154328241,-45.811380830029954,10.557014557791211,860.08503153513652,1032.9007566086102,-448.44242023879758,448.44242023879758,-1032.9007566086102,1525.4222298347765,0.0
568204.59901257406,4077374.0504322448,-7500.0,1536.4405044920438,288.03719776569363,-455.77039727329679,223.47490800931658,-11.490922240779231,19.646138099528152,1053.9517165410612,1263.3804763970966,-274.67242767696712,274.67242767696712,-1263.3804763970966,1909.6886300836081,0.0
573204.59901257406,4077374.0504322448,-7500.0,1966.85250700913,634.19827699602263,-278.85123913127643,319.45617016817317,49.440393792171051,33.493068722113861,1314.9054413534968,1493.6944055122392,31.297700686313192,-31.297700686313192,-1493.6944055122392,2441.193080251986,0.0
578204.59901257406,4077374.0504322448,-7500.0,2438.2167878824284,1108.635250275662,61.24686794272165,441.97214854532916,150.17673803603569,54.056691841281364,1663.5079826670906,1689.0751421913833,524.65614198564265,-524.65614198564265,-1689.0751421913833,3163.5458245321552,0.0
583204.59901257406,4077374.0504322448,-7500.0,2913.1632735584117,1725.8568902852974,647.18646321726203,591.57859342861286,308.01148909628694,83.744310119295008,2122.0852761406741,1792.9710459507071,1269.4563081405006,-1269.4563081405006,-1792.9710459507071,4122.9988799259645,0.0
588204.59901257406,4077374.0504322448,-7500.0,3326.6945335314645,2477.100473607924,1582.9807742144465,762.88213970104925,543.54041246539987,125.16672895086617,2711.6528417868826,1723.1054820581448,2327.6446873886161,-2327.6446873886161,-1723.1054820581448,5361.7279080973967,0.0
593204.59901257406,4077374.0504322448,-7500.0,3582.7326143341716,3307.6234603798425,2981.6470632708583,940.00824191920799,877.32363008241214,180.48657829026178,3462.0572950797964,1374.8839252570526,3734.5651895912288,-3734.5651895912288,-1374.8839252570526,6904.5344957746156,0.0
598204.59901257406,4077374.0504322448,-7500.0,3563.0167869954143,4087.5709050458072,4930.8610951674291,1091.5060277417801,1322.0554933006038,250.15134312925133,4417.9116366673479,641.82633269325834,5454.9829435956626,-5454.9829435956626,-641.82633269325834,8736.1270458317504,0.0
603204.59901257406,4077374.0504322448,-7500.0,3161.4596585228355,4587.903178831908,7424.0886658808595,1167.541972797027,1868.5072160142615,330.97276789031957,5473.8756893084728,-533.99818808474811,7319.6361410343688,-7319.6361410343688,533.99818808474811,10768.331568817779,0.0
608204.59901257406,4077374.0504322448,-7500.0,2355.1707101043376,4491.5723463152826,10254.773302023044,1105.3723131959309,2466.350810973634,414.07409255306999,6522.4680919519205,-2074.8369829112726,8963.2302355154006,-8963.2302355154006,2074.8369829112726,12803.996966078772,0.0
613204.59901257406,4077374.0504322448,-7500.0,1298.7953460290855,3489.3405268148213,12910.847445659987,850.83933371232115,3008.6895683150647,484.17858618254894,7391.3745136149346,-3669.7176188649173,9826.3780901539085,-9826.3780901539085,3669.7176188649173,14519.560602635078,0.0
618204.59901257406,4077374.0504322448,-7500.0,369.63804065370363,1490.380531677959,14581.341190810132,397.36513872198157,3340.1528853901714,522.30457416447996,7865.1892002595787,-4760.0231282119403,9320.0506965673358,-9320.0506965673358,4760.0231282119403,15505.915822187708,0.0
623204.59901257406,4077374.0504322448,-7500.0,41.041300096464305,-1138.4660853669227,14427.428128642596,-176.43371506982203,3309.6925532397254,512.63753530561951,7762.0523972249739,-4743.0488396691599,7189.2086227393174,-7189.2086227393174,4743.0488396691599,15402.917229017625,0.0
628204.59901257406,4077374.0504322448,-7500.0,555.23283002576602,-3561.8244056801636,12109.777787856052,-711.63537450395472,2859.3332203550772,450.84840344118015,7127.7910356194034,-3391.7493876146223,3870.6047294206242,-3870.6047294206242,3391.7493876146223,14100.742294128162,0.0
633204.59901257406,4077374.0504322448,-7500.0,1648.7782153621995,-4895.2440026180193,8183.4137616974695,-1041.9583037129353,2085.9893083258776,348.36535118187527,6136.0188746317035,-1157.1192407916178,424.30482850939688,-424.30482850939688,1157.1192407916178,11878.197948629264,1.0
638204.59901257406,4077374.0504322448,-7500.0,2689.8257791051301,-4789.4306005402996,3865.8748856139273,-1091.0668205325778,1204.8617947677819,228.63064230889427,4986.655375423732,1057.181467555009,-2084.8889670105309,2084.8889670105309,-1057.181467555009,9331.5246358851964,0.0
643204.59901257406,4077374.0504322448,-7500.0,3151.0038305399989,-3596.116445515418,297.39922505939307,-906.62606932269273,431.03629991891938,116.83442381203906,3961.4195840039256,2505.8360805427719,-3211.8341297703892,3211.8341297703892,-2505.8360805427719,7107.0650252889891,0.0
648204.59901257406,4077374.0504322448,-7500.0,2919.1815583775588,-1992.9587584163114,-2002.625804338197,-606.40067013508747,-117.81514766915215,29.88039006897532,3223.4264955814797,2983.8242254983111,-3187.1781620026027,3187.1781620026027,-2983.8242254983111,5604.6521370299624,0.0
653204.59901257406,4077374.0504322448,-7500.0,2212.4385401350396,-531.49451065414837,-3113.8958045202335,-300.69809869947983,-432.49929028033563,-27.162935182373253,2763.2484557837333,2722.2398223010478,-2531.021491569003,2531.021491569003,-2722.2398223010478,4810.059277753694,0.0
658204.59901257406,4077374.0504322448,-7500.0,1332.5564871566157,533.88222060995429,-3392.8160945853956,-52.822767809748392,-565.73497526770279,-58.05161117761719,2471.4812444755626,2083.7113527791448,-1695.3482676377287,1695.3482676377287,-2083.7113527791448,4417.6266407637804,0.0
663204.59901257406,4077374.0504322448,-7500.0,502.61741282106669,1180.6365062805294,-3203.7536188431409,118.67707266909254,-583.68542462005553,-70.182389125522022,2248.0371105704767,1357.2607369047319,-938.8895213322686,938.8895213322686,-1357.2607369047319,4145.877915707636,0.0
668204.59901257406,4077374.0504322448,-7500.0,-167.74859396897807,1494.4442056245598,-2808.8813900452164,221.27773927916323,-540.34217833749972,-70.793918939939388,2043.2513469631795,705.30830360892196,-358.28368852601261,358.28368852601261,-705.30830360892196,3868.325710358306,0.0
673204.59901257406,4077374.0504322448,-7500.0,-652.64248297091865,1582.7192460160009,-2362.3866972878604,271.88348036832213,-471.39546901341322,-65.350821287649524,1843.40657914755,190.44563379045971,41.374615110302301,-41.374615110302301,-190.44563379045971,3560.2891561489182,0.0
678204.59901257406,4077374.0504322448,-7500.0,-970.37345600754418,1535.9085787025756,-1940.9257877294233,287.5180222397434,-397.20944214497661,-57.38133396172509,1649.721541518353,-182.11590285550136,292.15344978916005,-292.15344978916005,182.11590285550136,3234.1930098473731,0.0
683204.59901257406,4077374.0504322448,-7500.0,-1155.318129217678,1418.1624453102388,-1575.0332021168399,281.74840468841199,-327.87213847106432,-48.90420131353774,1466.7924730619334,-432.48047884060389,433.64510746331206,-433.64510746331206,432.48047884060389,2908.4174729122128,0.0
688204.59901257406,4077374.0504322448,-7500.0,-1242.8198339055955,1270.4429832781466,-1271.2278216769118,264.15502690403565,-267.43795557119284,-40.940348754355043,1298.905352278442,-587.73132923954358,500.58683550381357,-500.58683550381357,587.73132923954358,2597.1991114567531,0.0
693204.59901257406,4077374.0504322448,-7500.0,-1262.931100510013,1116.832208432606,-1025.1309730802075,240.98926380364338,-216.7751790659637,-33.918648096914673,1162.7232823076117,-673.39418712301767,519.51318358323351,-519.51318358323351,673.39418712301767,2309.0919529018115,0.0
698204.59901257406,4077374.0504322448,-7500.0,-1238.8694374597117,970.30497440251156,-828.42117082383857,216.07838303630825,-175.25422939077248,-27.946748330629955,1036.7616204456049,-710.41005703732753,509.20581005675899,-509.20581005675899,710.41005703732753,2048.0398891390055,0.0
703204.59901257406,4077374.0504322448,-7500.0,-1187.5554022190752,837.01274819444723,-672.1848376508658,191.61888343404436,-141.66799820660083,-22.974661944218912,922.64377670604199,-714.74017099368962,482.31630068421163,-482.31630068421163,714.74017099368962,1814.8824651681889,0.0
708204.59901257406,4077374.0504322448,-7500.0,-1120.8260233606538,719.14494538396775,-548.33083054136546,168.76702812385338,-114.69331298933095,-18.886593962602053,820.62979684980962,-698.00919732296234,447.05086234898431,-447.05086234898431,698.00919732296234,1608.5972711177562,0.0
713204.59901257406,4077374.0504322448,-7500.0,-1046.6923964958157,616.72676388889272,-450.0477066766444,148.04385992335554,-93.099503031330855,-15.548843916514599,730.20743705083612,-668.41981280837786,408.55131964008734,-408.55131964008734,668.41981280837786,1427.1737092923281,0.0
718204.59901257406,4077374.0504322448,-7500.0,-970.40713648788278,528.698441242689,-371.82539327149095,129.59898211861292,-75.825404696680792,-12.832913954832279,650.47595448458708,-631.61728999168827,369.91670102089188,-369.91670102089188,631.61728999168827,1268.1736227334852,0.0
538204.59901257406,4082374.0504322448,-7500.0,-39.431965025678323,-414.51834803487992,-418.86010043995338,-25.824500215250215,-75.400629064002402,-5.2494645557741517,461.01849871438151,144.8077651053232,-559.64575118974994,559.64575118974994,-144.8077651053232,832.24805034074041,0.0
543204.59901257406,4082374.0504322448,-7500.0,65.104728939918914,-432.56395717379661,-483.83962461694813,-16.544942905088533,-85.204485075067581,-5.2296444222331537,518.16382371413988,245.18444661157727,-627.4505860466769,627.4505860466769,-245.18444661157727,922.82854292418904,0.0
548204.59901257406,4082374.0504322448,-7500.0,209.69696811133832,-436.31540530089063,-555.13866290989677,-1.1967580473074457,-94.660022497874834,-4.7179229466454355,586.91500203375176,376.08790050142295,-693.8779802249145,693.8779802249145,-376.08790050142295,1031.9662758348177,0.0
553204.59901257406,4082374.0504322448,-7500.0,405.87909066085979,-415.98971998554134,-629.30251087554302,22.930145231682193,-102.31698515724759,-3.355739246914661,671.88721964514093,544.08385241149858,-751.04698909291483,751.04698909291483,-544.08385241149858,1169.430519516957,0.0
558204.59901257406,4082374.0504322448,-7500.0,667.10426192872194,-357.24677737831115,-698.93217961782602,59.554165736194591,-105.61310585425909,-0.57536903383002802,780.27399369178704,755.46348795349036,-785.53529170831166,785.53529170831166,-755.46348795349036,1351.5750819906252,0.0
563204.59901257406,4082374.0504322448,-7500.0,1007.9083490579859,-239.7057458771373,-749.90824169009863,113.63750522301942,-100.20927969277068,4.5063473424003302,923.09393518003219,1014.5744233538001,-775.50082832066118,775.50082832066118,-1014.5744233538001,1604.4253609188795,0.0
568204.59901257406,4082374.0504322448,-7500.0,1441.8527556092672,-35.531213427785836,-757.09738480198575,191.532688059424,-79.011142843077224,13.234520744934146,1116.6279788555939,1320.7457418159231,-686.80927004872001,686.80927004872001,-1320.7457418159231,1966.5811725177832,0.0
573204.59901257406,4082374.0504322448,-7500.0,1977.4361756622627,291.20816822090222,-678.06920243250181,300.85035045684754,-30.812532783244183,27.60203010165193,1383.7292007999738,1663.1062025743513,-468.33170385795449,468.33170385795449,-1663.1062025743513,2490.8943327067464,0.0
578204.59901257406,4082374.0504322448,-7500.0,2610.9505412962226,782.95434193229551,-444.62380367949078,449.68884840049708,61.409850663387836,50.449110819037728,1754.5335287325724,2012.5877757737114,-47.295068002240214,47.295068002240214,-2012.5877757737114,3244.3683309643593,0.0
583204.59901257406,4082374.0504322448,-7500.0,3315.3263577987791,1482.1922258249028,47.115736944656668,644.61577500921169,222.2562075953455,85.594906870331087,2265.9990295872421,2310.8743039690098,672.92666748705699,-672.92666748705699,-2310.8743039690098,4306.0871585991663,0.0
588204.59901257406,4082374.0504322448,-7500.0,4024.9321971636778,2415.8298397735357,944.96432457431433,886.50599365770006,484.83177027180943,137.70861114186667,2959.4371490970375,2457.6448007970494,1807.4482087386132,-1807.4482087386132,-2457.6448007970494,5761.5754057702425,0.0
593204.59901257406,4082374.0504322448,-7500.0,4619.16358959633,3564.615663405842,2439.3606750153199,1163.2269163341048,888.82027904892902,211.55220888556718,3875.5393764503647,2301.331812491675,3467.3872432197459,-3467.3872432197459,-2301.331812491675,7688.9273778054558,0.0
598204.59901257406,4082374.0504322448,-7500.0,4914.6209312203673,4812.3676895674771,4735.6285383990098,1438.8637949548167,1471.8789856805515,310.04371727210048,5103.8205145209195,1646.7093908736304,5705.038379565749,-5705.038379565749,-1646.7093908736304,10129.012979949353,0.0
603204.59901257406,4082374.0504322448,-7500.0,4689.0904294325419,5878.8109883898769,7969.8801276718959,1642.1104796116006,2248.7268731771287,430.68135676069306,6618.499707551965,306.21129051058233,8409.1677679211552,-8409.1677679211552,-306.21129051058233,13031.106151614174,0.0
608204.59901257406,4082374.0504322448,-7500.0,3776.645375629837,6271.4198263277776,12031.32378817282,1663.5499452473098,3173.6558058901037,560.86948436529349,8245.9090399070046,-1766.2802218743973,11151.394591959626,-11151.394591959626,1766.2802218743973,16172.096796782016,0.0
613204.59901257406,4082374.0504322448,-7500.0,2261.4331474090009,5358.0923081613146,16294.549013211166,1381.6379664192725,4094.5010838532517,675.14927155464716,9728.1183258921847,-4248.0911657954985,13062.455964874689,-13062.455964874689,4248.0911657954985,19074.96239052268,0.0
618204.59901257406,4082374.0504322448,-7500.0,686.52910732366786,2713.4947666614053,19431.12343421195,736.58950393282339,4736.225700984025,739.63143163162579,10677.390710614942,-6257.6208808696829,12968.944525765684,-12968.944525765684,6257.6208808696829,21009.036396738557,0.0
623204.59901257406,4082374.0504322448,-7500.0,-27.245247312598202,-1274.7782820503221,19730.016672446356,-168.40086877672891,4781.0583012028601,725.87209988149164,10700.24848385322,-6569.9823550340416,10070.074994810137,-10070.074994810137,6569.9823550340416,21203.133226512837,0.0
628204.59901257406,4082374.0504322448,-7500.0,748.42849971129567,-5102.7875325638215,16238.422420654209,-1037.6255576999154,4068.1307420248545,626.64539187892694,9789.8360668786863,-4519.487451427889,4928.9972169838729,-4928.9972169838729,4519.487451427889,19308.949940384235,0.0
633204.59901257406,4082374.0504322448,-7500.0,2553.2928409219062,-6972.9072612543387,9938.9573303864781,-1531.8191844912678,2774.4021393833391,462.22781934033463,8244.0931343993398,-918.33970384918211,-393.59113789514799,393.59113789514799,918.33970384918211,15822.772712379057,0.0
638204.59901257406,4082374.0504322448,-7500.0,4085.7837820342615,-6287.3762719183833,3316.7448795508376,-1512.1996560979976,1345.5475502365164,273.66775962565919,6501.8064764292621,2389.3162214988456,-3814.3000586562925,3814.3000586562925,-2389.3162214988456,11961.480805628655,0.0
643204.59901257406,4082374.0504322448,-7500.0,4418.5052805243067,-3990.4596530057356,-1541.4937997970442,-1116.2146257125808,194.79041535917429,105.04493207078633,5086.1074612496377,4091.0082902128174,-4764.4081477358613,4764.4081477358613,-4091.0082902128174,8946.6334127334139,0.0
648204.59901257406,4082374.0504322448,-7500.0,3608.0311952183147,-1458.979764575241,-4080.7415858507593,-596.85887843244052,-512.97597724184732,-16.175882742650074,4185.9158056119495,4149.9224517575076,-4039.8500122922774,4039.8500122922774,-4149.9224517575076,7254.682596169152,0.0
653204.59901257406,4082374.0504322448,-7500.0,2248.7637062678459,476.90466833865844,-4842.2743889202129,-142.66376277392126,-831.31821634471885,-85.799207624704948,3654.3254099042301,3252.0849590832013,-2703.1753702150463,2703.1753702150463,-3252.0849590832013,6480.3683286107425,0.0
658204.59901257406,4082374.0504322448,-7500.0,881.26244752743241,1632.767558923171,-4609.7242384438541,173.02853410162018,-895.68224322834885,-114.88748087964451,3277.224582219802,2074.6092558878413,-1429.1405112808384,1429.1405112808384,-2074.6092558878413,6013.9629063558777,0.0
663204.59901257406,4082374.0504322448,-7500.0,-217.33332143058709,2157.5764537393197,-3967.7835610586444,354.55172440011552,-828.50197789255333,-118.45171456973537,2940.1456567300902,1007.1031152775207,-472.14070241982802,472.14070241982802,-1007.1031152775207,5554.1228774109368,0.0
668204.59901257406,4082374.0504322448,-7500.0,-980.78072106422383,2273.5867019426828,-3242.7165616306474,436.0362247030593,-710.09187895840842,-108.83513288837389,2613.3801642417566,190.84092517081757,151.17607826903514,-151.17607826903514,-190.84092517081757,5043.7675901747061,0.0
673204.59901257406,4082374.0504322448,-7500.0,-1448.4263018370518,2163.7892907300288,-2580.2327865489174,453.47743024179834,-583.74224346538767,-94.043062634149919,2300.3446051143592,-368.4935113426244,511.33114421005655,-511.33114421005655,368.4935113426244,4509.2551773050609,0.0
678204.59901257406,4082374.0504322448,-7500.0,-1692.1896971809431,1949.6487126118552,-2027.6742772532707,434.63731863091505,-468.9095560863779,-78.48009122451468,2010.0852790354288,-717.53035114583781,690.27758962699249,-690.27758962699249,717.53035114583781,3985.9416584679084,0.0
683204.59901257406,4082374.0504322448,-7500.0,-1781.5194242105376,1702.2200458620428,-1587.2431746204559,397.9839710021019,-372.09653754613066,-64.209314421404713,1750.5075669401813,-912.3187649731243,754.70387867957209,-754.70387867957209,912.3187649731243,3498.0659204358581,0.0
688204.59901257406,4082374.0504322448,-7500.0,-1771.5708427588138,1458.9512625117786,-1244.1755142427635,354.68789371798334,-293.65077180014873,-51.976410122910721,1539.7571087963479,-1001.4415956751466,751.70246175439411,-751.70246175439411,1001.4415956751466,3057.7710782397476,0.0
693204.59901257406,4082374.0504322448,-7500.0,-1702.0926635397368,1237.1977905440822,-979.78786058960497,310.98327612071563,-231.44548959672142,-41.868468854660456,1350.7871935191024,-1021.8626609899258,712.04422400638975,-712.04422400638975,1021.8626609899258,2668.6492186147825,0.0
698204.59901257406,4082374.0504322448,-7500.0,-1600.0736899674948,1043.1873589817151,-776.72618498101315,270.03628683514148,-182.67339277311137,-33.686414335071291,1183.8762095305044,-999.81525464338949,654.81105861910021,-654.81105861910021,999.81525464338949,2329.2437072403341,0.0
703204.59901257406,4082374.0504322448,-7500.0,-1483.0538409171427,877.42030130568105,-620.59585403395124,233.21722051311062,-144.62780115452964,-27.136878409260383,1038.105386290059,-953.11901677374658,591.32457441880956,-591.32457441880956,953.11901677374658,2035.5299904853209,0.0
708204.59901257406,4082374.0504322448,-7500.0,-1361.9948227982738,737.73240420104719,-500.08237279093902,200.90201377562747,-114.9851164928422,-21.922267158115829,911.62903107453712,-893.49664118493024,527.98633741894309,-527.98633741894309,893.49664118493024,1782.458749964467,0.0
713204.59901257406,4082374.0504322448,-7500.0,-1243.4467087176063,620.9409352499481,-406.53313364783861,172.95079408735765,-91.859359781548918,-17.777452807573113,802.26527124670804,-828.44157406762019,468.17654421964176,-468.17654421964176,828.44157406762019,1564.8206002204715,0.0
718204.59901257406,4082374.0504322448,-7500.0,-1131.0873451812788,523.68555599922195,-333.42375606138756,148.98392382530966,-73.765349219717407,-14.480539468924515,707.82014901148375,-762.59885693096726,413.47370340012509,-413.47370340012509,762.59885693096726,1377.6986830540563,0.0
723204.59901257406,4082374.0504322448,-7500.0,-1026.7664492183676,442.82084160204369,-275.86464032261824,128.53415472963442,-59.552564139543037,-11.851975591540523,626.24587355948472,-698.73197867345982,364.41385682769908,-364.41385682769908,698.73197867345982,1216.6664723800279,0.0
533204.59901257406,4087374.0504322448,-7500.0,-300.70008003607109,-464.62312493817427,-366.50407074146881,-55.394442201999034,-75.255937771955885,-7.2834421607488533,471.59579688449787,-61.462225730440537,-527.96120500692223,527.96120500692223,61.462225730440537,885.18439895805591,0.0
538204.59901257406,4087374.0504322448,-7500.0,-253.6005388824365,-514.40716670435802,-432.89362055777821,-55.332897653382808,-88.298327756932736,-8.1741166480377103,528.87333207441918,-0.44285188504630923,-612.59292540689262,612.59292540689262,0.44285188504630923,981.22503517132316,0.0
543204.59901257406,4087374.0504322448,-7500.0,-177.47616403818125,-563.24820264216532,-511.8858714184517,-52.044251400277894,-103.14307958056595,-8.9757032860869721,595.27661081773169,86.143541371766673,-708.24543368453226,708.24543368453226,-86.143541371766673,1090.1180475910849,0.0
548204.59901257406,4087374.0504322448,-7500.0,-61.150803574709876,-606.14811333350792,-604.61820487558714,-43.562690784542269,-119.49429596712949,-9.503620501238192,673.15166603989917,206.52383361373757,-813.37711816526189,813.37711816526189,-206.52383361373757,1215.2650733276782,0.0
553204.59901257406,4087374.0504322448,-7500.0,110.08723503239131,-634.71207657696232,-710.940939480726,-26.955874074208086,-136.49129273690409,-9.4304189405600916,766.08451766488622,370.82917581325421,-923.58498106284867,923.58498106284867,-370.82917581325421,1362.6782850585989,0.0
558204.59901257406,4087374.0504322448,-7500.0,355.0874072072142,-635.38091452397634,-827.88291221451823,2.0813892515923502,-152.24064234713131,-8.1928997090817361,879.83536563206587,590.88227703470727,-1029.4297233057064,1029.4297233057064,-590.88227703470727,1543.474292959874,0.0
563204.59901257406,4087374.0504322448,-7500.0,697.02120369540842,-586.99761382190229,-946.88611079486259,49.740887599828099,-163.0313513416117,-4.8463540608971796,1023.9160294217291,879.20921191505545,-1112.9705292835708,1112.9705292835708,-879.20921191505545,1778.2302560193643,0.0
568204.59901257406,4087374.0504322448,-7500.0,1162.5136296990449,-457.72579809095419,-1049.0261718661134,124.67429971271115,-162.06037117715414,2.1562389585427528,1214.0340951674762,1246.5452369225543,-1142.4811359260059,1142.4811359260059,-1246.5452369225543,2103.5972684781768,0.0
573204.59901257406,4087374.0504322448,-7500.0,1778.6027306627195,-201.7184206225734,-1097.1241929929549,238.46220974469227,-137.44754745064199,15.28044633940198,1475.3856112247752,1696.6721774739781,-1064.8691310435588,1064.8691310435588,-1696.6721774739781,2580.2357595195999,0.0
578204.59901257406,4087374.0504322448,-7500.0,2565.7528241397495,243.20429602799064,-1023.4783851829517,405.57736275411077,-69.327716628503495,38.320580811736086,1846.2158669679411,2216.9502720888631,-795.80187733389801,795.80187733389801,-2216.9502720888631,3299.1360548820494,0.0
583204.59901257406,4087374.0504322448,-7500.0,3524.4607339650274,953.94924449752102,-712.31762714909269,642.00534818367328,74.005396254698411,76.830871391549181,2380.4115099499945,2762.6582186444243,-208.96529923618391,208.96529923618391,-2762.6582186444243,4383.2179311753398,0.0
588204.59901257406,4087374.0504322448,-7500.0,4612.7262261800061,2010.8605760766143,22.102746490121483,960.98475255865094,340.29835004673123,138.32425364303762,3147.6385631213652,3233.8942452794445,870.87570646831341,-870.87570646831341,-3233.8942452794445,5983.5079130695258,0.0
593204.59901257406,4087374.0504322448,-7500.0,5712.9184168101438,3466.595250558375,1455.822928500867,1363.4079357573462,795.68112772213544,231.610422188157,4229.8066854390008,3446.7586084235527,2659.8171998858188,-2659.8171998858188,-3446.7586084235527,8268.0689799390711,0.0
598204.59901257406,4087374.0504322448,-7500.0,6592.4919146747006,5279.1984497844578,3956.0628756596134,1819.8775206831447,1519.5486930744667,364.04827511923889,5734.0131000413166,3109.3777799976669,5368.2676133589375,-5368.2676133589375,-3109.3777799976669,11392.812411737692,0.0
603204.59901257406,4087374.0504322448,-7500.0,6882.1471001352102,7190.2193766794699,7917.8397742605976,2243.5173475433444,2580.3976924263616,535.08421806684032,7836.3171323683782,1836.7824462916419,9071.626283231255,-9071.626283231255,-1836.7824462916419,15430.64172829798,0.0
608204.59901257406,4087374.0504322448,-7500.0,6143.2164488309181,8552.1533071563936,13540.27283440405,2463.4673985724162,3974.9727240620095,725.99958745277263,10342.280809541351,-710.4159437908138,13436.048801249854,-13436.048801249854,710.4159437908138,20227.687909915869,0.0
613204.59901257406,4087374.0504322448,-7500.0,4161.4334408208288,8231.4811731745722,20309.678211538281,2236.2733833236598,5522.1440141302619,892.40660985923125,12897.422880685666,-4427.6170477214973,17303.216893695477,-17303.216893695477,4427.6170477214973,25179.321226181077,0.0
618204.59901257406,4087374.0504322448,-7500.0,1522.3202184591992,4990.9917126667506,26260.679430405002,1362.4055281427445,6762.4758276806906,975.32300544472196,14830.147557386954,-8123.2189432720033,18487.284553028039,-18487.284553028039,8123.2189432720033,29039.785041400646,0.0
623204.59901257406,4087374.0504322448,-7500.0,-54.741647557819661,-1176.5055059213314,27906.536792336577,-71.666525439201621,7031.3884475344903,936.63975718645588,15260.296265158362,-9354.0681942961783,14745.870258725368,-14745.870258725368,9354.0681942961783,30126.148309635362,0.0
628204.59901257406,4087374.0504322448,-7500.0,1108.7901324766283,-7578.1673310333445,22503.366465220966,-1520.8771477359041,5883.3295360062921,782.55435156677436,13897.575144325214,-6170.4153564846747,6414.8026675497822,-6414.8026675497822,6170.4153564846747,27347.390442859247,0.0
633204.59901257406,4087374.0504322448,-7500.0,4238.791409377267,-10212.277463946692,11779.655850549332,-2258.028379097454,3635.7836563099377,545.98803171310237,11369.255848864797,-41.017948725081851,-2216.869451447661,2216.869451447661,41.017948725081851,21591.040754347348,0.0
638204.59901257406,4087374.0504322448,-7500.0,6411.2116264695806,-8035.8106918843268,1320.9155267531455,-2024.538069139433,1270.8609115157967,276.68520444180615,8660.3535655867381,4913.9291581129119,-6706.5337669746141,6706.5337669746141,-4913.9291581129119,15594.270065076385,0.0
643204.59901257406,4087374.0504322448,-7500.0,6055.3581890840896,-3686.0329933136886,-4971.1867371950048,-1211.2976281379697,-398.71666965746374,40.551556531654782,6750.916505673642,6429.5312916038774,-6712.7626601486563,6712.7626601486563,-6429.5312916038774,11708.083734954444,0.0
648204.59901257406,4087374.0504322448,-7500.0,3988.4762957655043,86.745306967443469,-7140.5465780712775,-355.23530395554087,-1213.4602552447786,-115.7384306265091,5683.3296211868292,5339.8240240586629,-4586.8221966853043,4586.8221966853043,-5339.8240240586629,9992.1187472481961,1.0
653204.59901257406,4087374.0504322448,-7500.0,1603.5484812180373,2328.5810701137993,-6936.8195165664429,260.70123820456769,-1422.408184104946,-189.12187759855689,5002.7527392278853,3336.5150971347034,-2297.9513042836766,2297.9513042836766,-3336.5150971347034,9131.3738245487675,0.0
658204.59901257406,4087374.0504322448,-7500.0,-312.87652131213866,3265.7523473550309,-5827.0143710768607,601.34700042103566,-1321.6111438998716,-204.03190832815284,4415.9813526089629,1475.9906479507404,-616.86041861238789,616.86041861238789,-1475.9906479507404,8326.9433437926873,0.0
663204.59901257406,4087374.0504322448,-7500.0,-1574.5427685891336,3405.2630945094697,-4580.6255354533196,736.83199386775414,-1108.695221303223,-187.87629681811188,3851.3126613993454,114.9299662444819,398.61884842170241,-398.61884842170241,-114.9299662444819,7431.7993353304983,0.0
668204.59901257406,4087374.0504322448,-7500.0,-2277.2841783982894,3151.2211812043615,-3493.606027590924,748.61689829189208,-883.61579379572891,-159.83005766540697,3318.7404193653415,-749.41145069510276,920.17459884813911,-920.17459884813911,749.41145069510276,6507.899330729987,0.0
673204.59901257406,4087374.0504322448,-7500.0,-2585.1270816458987,2747.6718451828292,-2634.3687904664548,697.17922141389772,-686.15090605044111,-130.3050113643512,2837.0713675463826,-1234.1164877097983,1130.6254731184038,-1130.6254731184038,1234.1164877097983,5627.5343873304455,0.0
678204.59901257406,4087374.0504322448,-7500.0,-2642.9795333420961,2320.7598113043878,-1984.6254602210677,619.77620557710327,-526.40012772827697,-103.84685090038089,2420.7616631966866,-1462.1041447442935,1164.3288563407073,-1164.3288563407073,1462.1041447442935,4832.2265825053055,0.0
683204.59901257406,4087374.0504322448,-7500.0,-2555.9028831258433,1927.0178233629219,-1502.7137428370465,536.78910780084686,-402.20902942045183,-81.842730260549502,2083.7727887341584,-1529.3130903048793,1106.7850648348215,-1106.7850648348215,1529.3130903048793,4136.9632272087165,0.0
688204.59901257406,4087374.0504322448,-7500.0,-2392.9960165799589,1586.4452990731263,-1147.5041805998962,458.19139122574006,-307.54235000794915,-64.234123032177564,1792.309594361129,-1502.1147090118593,1008.2296280268937,-1008.2296280268937,1502.1147090118593,3540.8923944335024,0.0
693204.59901257406,4087374.0504322448,-7500.0,-2196.9845196755687,1301.5917367366906,-885.39329179291201,388.11727930083379,-236.00149635922185,-50.422963415296849,1542.5445185400104,-1423.5286066383499,896.48230472969612,-896.48230472969612,1423.5286066383499,3035.4579704424928,0.0
698204.59901257406,4087374.0504322448,-7500.0,-1992.9786900853146,1067.6071209537938,-690.93939271886916,327.65865379806763,-182.05778711404662,-39.694486248989968,1330.2697648406393,-1320.256081104041,786.02540328186956,-786.02540328186956,1320.256081104041,2609.2610655949343,0.0
703204.59901257406,4087374.0504322448,-7500.0,-1794.9325895284583,877.19575738369815,-545.54321793976339,276.44991795260302,-141.31829106797417,-31.389460058915965,1150.5620035081076,-1208.2762566148795,683.74209232410749,-683.74209232410749,1208.2762566148795,2250.624262051645,0.0
708204.59901257406,4087374.0504322448,-7500.0,-1609.9731036663291,722.879486075052,-435.81682863477175,233.51570050565752,-110.43059263127685,-24.958098913979082,998.58061390411785,-1096.7651657214367,592.33852230377306,-592.33852230377306,1096.7651657214367,1948.7683182759181,0.0
713204.59901257406,4087374.0504322448,-7500.0,-1441.1858214140311,597.92540736768365,-352.17667292275036,197.70436944376974,-86.88838013990015,-19.964004869014438,869.94146808485209,-990.6965342524511,512.32489782103312,-512.32489782103312,990.6965342524511,1694.2676944028701,0.0
718204.59901257406,4087374.0504322448,-7500.0,-1289.3396226179393,496.62714449203668,-287.7588412428255,167.89302121887661,-68.835601833027397,-16.069570826999033,760.83863736523926,-892.50074009018419,443.12812481255366,-443.12812481255366,892.50074009018419,1479.1188778909823,0.0
723204.59901257406,4087374.0504322448,-7500.0,-1153.9349803256564,414.30055554036727,-237.62725309659848,143.07356251061279,-54.902168126344705,-13.017036218452454,668.04524519963661,-803.104045997904,383.70270310865953,-383.70270310865953,803.104045997904,1296.6377311617509,0.0
528204.59901257406,4092374.0504322448,-7500.0,-513.42697175232206,-460.73442640715774,-298.3668942601862,-76.343054676182732,-68.68607219878399,-8.3944835002451743,479.37826732234134,-241.53082326815388,-452.18146376021173,452.18146376021173,241.53082326815388,927.98872602302129,0.0
533204.59901257406,4092374.0504322448,-7500.0,-520.16027987053599,-526.05699737034206,-355.71348873707001,-83.620847352676293,-82.27273344671255,-9.8795813148261082,539.82942773746618,-222.01294749293078,-535.42556911648012,535.42556911648012,222.01294749293078,1036.8253250991643,0.0
538204.59901257406,4092374.0504322448,-7500.0,-511.77263427529027,-599.42443210151146,-426.47950161827771,-90.323585668250274,-98.709529444972347,-11.575440454791359,609.65331096156899,-186.19218536300306,-635.07197696813728,635.07197696813728,186.19218536300306,1160.3635115650022,0.0
543204.59901257406,4092374.0504322448,-7500.0,-480.15477141697437,-680.06819395156003,-513.81252319529517,-95.438334585623423,-118.44721048859535,-13.449052300702856,690.54036130727422,-127.09107146140173,-753.58700652621587,753.58700652621587,127.09107146140173,1300.5953387486736,0.0
548204.59901257406,4092374.0504322448,-7500.0,-413.7090164504757,-765.58412948623732,-621.23173654772199,-97.280629436454745,-141.8278352296974,-15.399785890663903,784.62593426636295,-35.164653596213782,-892.90482450422633,892.90482450422633,35.164653596213782,1459.954548115594,0.0
553204.59901257406,4092374.0504322448,-7500.0,-296.06262632150248,-850.68925722129904,-752.21198916902222,-93.115686826369,-168.86846252208363,-17.200036774088332,894.7721790694759,102.40963592964812,-1053.4099461193596,1053.4099461193596,-102.40963592964812,1641.8335728622694,0.0
558204.59901257406,4092374.0504322448,-7500.0,-104.50229438312972,-925.22010834633875,-909.16537271583184,-78.592508830280664,-198.83883152657924,-18.391646393191962,1025.1485047717733,302.38474387572626,-1232.0212400626642,1232.0212400626642,-302.38474387572626,1851.8708133086461,0.0
563204.59901257406,4092374.0504322448,-7500.0,191.69599570500134,-971.01961548829865,-1091.2435066207354,-46.928320846399572,-229.47035367632026,-18.109417481625119,1182.424645405541,585.68874592221459,-1418.743605322763,1418.743605322763,-585.68874592221459,2100.9517933978991,0.0
568204.59901257406,4092374.0504322448,-7500.0,632.53867286191621,-957.3281754301031,-1289.9400363157172,12.20004106609426,-255.52702827789497,-14.789094455905225,1378.1438671471124,976.51647991046002,-1590.7260382688837,1590.7260382688837,-976.51647991046002,2411.6890742835412,0.0
573204.59901257406,4092374.0504322448,-7500.0,1267.0481381293921,-834.4660367153964,-1480.7955064459779,114.01101668002826,-266.31996073558065,-5.704387732438434,1633.1250146550954,1498.8389454392732,-1702.5182294090027,1702.5182294090027,-1498.8389454392732,2830.899847635128,0.0
578204.59901257406,4092374.0504322448,-7500.0,2149.2496236613897,-526.28542582875662,-1608.6493011658533,279.9230541728968,-241.58484690919997,13.717061799574056,1984.6886616007582,2167.8790095556492,-1671.1148619909773,1671.1148619909773,-2167.8790095556492,3449.3880103136971,0.0
583204.59901257406,4092374.0504322448,-7500.0,3326.6721118214,76.393254978219375,-1563.1808784409275,537.94609163874372,-145.07994726298136,50.779915916707893,2496.3310209896645,2972.8738390423159,-1355.1197183001377,1355.1197183001377,-2972.8738390423159,4424.0604708440969,0.0
588204.59901257406,4092374.0504322448,-7500.0,4815.8179380516431,1115.646149643037,-1141.8454860428674,920.16446402105294,84.378289581455945,116.34072794212776,3266.9517107934162,3846.511612398177,-530.06663897260501,530.06663897260501,-3846.511612398177,5989.6913142111543,0.0
593204.59901257406,4092374.0504322448,-7500.0,6557.4358893166582,2747.7673632520341,-0.41481810512119743,1453.3142053851473,543.18417614203292,224.60657436804843,4435.5230829738894,4616.7661559778953,1131.6928439052087,-1131.6928439052087,-4616.7661559778953,8452.962437163842,0.0
598204.59901257406,4092374.0504322448,-7500.0,8343.601281464631,5083.1805748422248,2399.8877588615246,2135.4627741081963,1368.8173031055369,389.43239564093892,6188.2735394418232,4940.0687510380048,4054.5338198735794,-4054.5338198735794,-4940.0687510380048,12171.154111720485,0.0
603204.59901257406,4092374.0504322448,-7500.0,9714.8115721372815,8038.5334818095744,6814.1440827023052,2889.4406127058933,2724.685831076652,612.35801154086425,8899.2564580662656,4229.7895254737778,8670.4091375225853,-8670.4091375225853,-4229.7895254737778,17493.934463166333,0.0
608204.59901257406,4092374.0504322448,-7500.0,9878.7106609739076,11015.205875004525,14078.972300572583,3491.4148696102884,4725.4910978779581,858.47932606436552,12648.733875562957,1667.1089648132092,15099.775982470312,-15099.775982470312,-1667.1089648132092,24585.750262346621,0.0
613204.59901257406,4092374.0504322448,-7500.0,7911.2582530949776,12373.760808866069,24441.071399355576,3519.3566617229076,7244.2058216737641,1034.2052673105457,17052.065011061539,-3382.936217426186,22322.560856623262,-22322.560856623262,3382.936217426186,32986.78551835828,0.0
618204.59901257406,4092374.0504322448,-7500.0,3807.1535011525789,9270.8785753970751,35754.597733051189,2474.8869674212415,9607.1356207458812,1025.6225899422589,21092.823510456426,-9976.7451270226575,26865.59888876068,-26865.59888876068,9976.7451270226575,40869.950336592046,0.0
623204.59901257406,4092374.0504322448,-7500.0,285.56172111294796,-222.65447662430503,41309.737101406048,265.57424184938117,10484.83906707905,838.35295974863516,22814.514442006785,-13696.288399006608,22980.78559062265,-22980.78559062265,13696.288399006608,44618.007619496027,0.0
628204.59901257406,4092374.0504322448,-7500.0,1904.7669329622529,-11795.540976312486,32841.803116991607,-2180.1443726180564,8641.3518735237558,629.54440634491277,20700.565354804108,-8735.9587384039442,8728.4155443762138,-8728.4155443762138,8735.9587384039442,40667.681783292181,0.0
633204.59901257406,4092374.0504322448,-7500.0,7681.0951022008994,-15422.271216665646,12956.109937048355,-3241.1947792573887,4568.3784699530052,437.76987702990704,16252.634860414542,2510.4826828650812,-6269.7228281180423,6269.7228281180423,-2510.4826828650812,30432.972490515738,0.0
638204.59901257406,4092374.0504322448,-7500.0,10240.786881124206,-9332.9424770760506,-3943.4814050104574,-2423.1880219572017,608.06397814653974,172.40620115138017,11936.018029080475,9613.3592730109704,-11317.962006861595,11317.962006861595,-9613.3592730109704,20971.154841192852,1.0
643204.59901257406,4092374.0504322448,-7500.0,7538.8981507493609,-1412.7360013799721,-10840.139430182035,-849.37032805601007,-1635.8937014130688,-109.93769719938341,9461.3738364467754,9322.003695806874,-8435.5712607132155,8435.5712607132155,-9322.003695806874,16489.259359614352,0.0
648204.59901257406,4092374.0504322448,-7500.0,3073.2721162646894,3444.3348887430666,-11074.352758043209,415.76875461921253,-2322.064443101478,-291.77434147150575,8100.1733078775287,5726.4685243748536,-3969.5384117192302,3969.5384117192302,-5726.4685243748536,14702.254302022098,0.0
653204.59901257406,4092374.0504322448,-7500.0,-554.57791124204084,5259.9413367740981,-8980.9303354350923,1094.5446496237141,-2195.5850053956337,-351.01291157545205,6997.4024780878099,2203.6850682999348,-758.25729089346294,758.25729089346294,-2203.6850682999348,13183.966680439682,1.0
658204.59901257406,4092374.0504322448,-7500.0,-2757.2938377004534,5365.2781382108606,-6675.3943445999457,1323.9548881975777,-1795.5504675327036,-331.69405025358304,5948.8347180754936,-205.30960111435525,977.09125106235388,-977.09125106235388,205.30960111435525,11490.343434865947,0.0
663204.59901257406,4092374.0504322448,-7500.0,-3816.6348674211372,4760.8000038540968,-4802.6845392141931,1301.4899161028256,-1376.1541376790606,-280.02909039119226,4983.626982255144,-1569.6908267515794,1718.0483135315042,-1718.0483135315042,1569.6908267515794,9783.9573798266138,0.0
668204.59901257406,4092374.0504322448,-7500.0,-4148.5963920139366,3967.7547794773564,-3429.3351812194796,1167.4404889969876,-1024.2117543395868,-223.25962985248967,4141.3755087454574,-2214.7522976776577,1910.4138220329939,-1910.4138220329939,2214.7522976776577,8219.9317468473164,0.0
673204.59901257406,4092374.0504322448,-7500.0,-4074.8538963689716,3209.0341045478153,-2460.6655055693741,999.98976140234652,-753.69935572038435,-172.97379070421206,3443.9401433291032,-2427.0817226977756,1837.2371135499072,-1837.2371135499072,2427.0817226977756,6865.1095642196542,0.0
678204.59901257406,4092374.0504322448,-7500.0,-3800.8302008049077,2560.0355390625841,-1785.5351580664355,836.36763702332939,-553.74453020739816,-132.31536822331117,2886.8460414418632,-2401.4979392999394,1654.3286768089422,-1654.3286768089422,2401.4979392999394,5727.6568333496843,0.0
683204.59901257406,4092374.0504322448,-7500.0,-3445.7280128015445,2032.2964643555958,-1314.4249296673959,691.37240048277965,-408.35801830799562,-100.84728866116386,2424.1158012540973,-2256.9459515294138,1440.4568338405179,-1440.4568338405179,2256.9459515294138,4788.1800561090695,0.0
688204.59901257406,4092374.0504322448,-7500.0,-3074.1413406763641,1613.4551087010996,-983.04806442671963,568.83112044791278,-303.14784716667162,-76.993150533801327,2041.6239972835565,-2061.7305940312008,1232.3159255061914,-1232.3159255061914,2061.7305940312008,4018.0052863575074,0.0
693204.59901257406,4092374.0504322448,-7500.0,-2718.5833827067404,1284.6786190381583,-747.25902967764262,467.7605860896781,-226.88400618845446,-59.062931442654708,1726.7107290057063,-1853.2115636599847,1044.9351071334568,-1044.9351071334568,1853.2115636599847,3387.9813635426485,0.0
698204.59901257406,4092374.0504322448,-7500.0,-2393.5830507298847,1027.5561136831182,-577.23821242973338,385.41299962425984,-171.31161509243665,-45.604915168144743,1467.5194761874934,-1650.6972749818522,882.72455559933883,-882.72455559933883,1650.6972749818522,2872.0479068539098,0.0
703204.59901257406,4092374.0504322448,-7500.0,-2103.9854716551135,826.37385745840311,-452.90186847455863,318.67571672264052,-130.52383948313249,-35.476838237957828,1253.7533317881134,-1463.2895011107425,745.2115225112243,-745.2115225112243,1463.2895011107425,2448.2601282786272,0.0
708204.59901257406,4092374.0504322448,-7500.0,-1849.67019852106,668.49550543075577,-360.66617123379234,264.65309852252483,-100.34011117438384,-27.816231575592909,1076.8343617154089,-1294.4817611101626,629.92447620916448,-629.92447620916448,1294.4817611101626,2098.6957616551035,0.0
713204.59901257406,4092374.0504322448,-7500.0,-1628.1660518093263,544.05266008893841,-291.26931164122522,220.8631367701893,-77.809021715126576,-21.984607371876848,929.77376347664529,-1144.7963512176223,533.7924563959034,-533.7924563959034,1144.7963512176223,1808.9491941794836,0.0
718204.59901257406,4092374.0504322448,-7500.0,-1436.0639898867053,445.44895527651312,-238.33186322759241,185.26338738767262,-60.842100768258156,-17.513362145595909,806.9424788118813,-1013.271885843496,453.78655738007757,-453.78655738007757,1013.271885843496,1567.5304263795456,0.0
723204.59901257406,4092374.0504322448,-7500.0,-1269.7546490453494,366.87409219266493,-197.41018577622881,156.20915550553389,-47.954012539715052,-14.059287864768795,703.83055615993896,-898.28766757166545,387.18318463989635,-387.18318463989635,898.28766757166545,1365.3014250316528,0.0
528204.59901257406,4097374.0504322448,-7500.0,-717.79327150695838,-485.48833969540965,-274.13946207166583,-101.14762839556829,-70.745859325060934,-10.535988045554125,541.46004756752848,-398.377785310175,-425.27254322179272,425.27254322179272,398.377785310175,1065.865104758959,0.0
533204.59901257406,4097374.0504322448,-7500.0,-765.84267851506695,-564.99435152713659,-329.39509040992692,-114.89009769695279,-86.073990305384726,-12.719405120625018,614.88533033893145,-408.8992085122573,-511.97715841833036,511.97715841833036,408.8992085122573,1203.5213237465846,0.0
538204.59901257406,4097374.0504322448,-7500.0,-807.82210624995605,-658.61710591469466,-399.09324011462797,-129.94379265260429,-105.19602086072281,-15.370054693504756,700.6844338559921,-408.96531076418455,-619.03971136059863,619.03971136059863,408.96531076418455,1362.4704636435167,0.0
543204.59901257406,4097374.0504322448,-7500.0,-837.30350631924568,-768.07930124761822,-487.49778514929125,-145.85590037285596,-129.04718735682187,-18.555511703977789,801.12548362377129,-392.2650922026304,-751.26940087943228,751.26940087943228,392.2650922026304,1545.939322310822,0.0
548204.59901257406,4097374.0504322448,-7500.0,-844.27701097056217,-894.42339276782127,-600.04784259055805,-161.63329194196075,-158.69769437631419,-22.314126989849058,918.87258534025193,-349.50499578647384,-914.17209011914372,914.17209011914372,349.50499578647384,1757.394096985533,0.0
553204.59901257406,4097374.0504322448,-7500.0,-813.4071451130668,-1037.0346303446838,-743.4504219375043,-175.34668514164522,-195.24863012470718,-26.60629293380244,1057.0527994457825,-267.16941880708436,-1113.5048528466625,1113.5048528466625,267.16941880708436,2000.4588101150439,0.0
558204.59901257406,4097374.0504322448,-7500.0,-721.57871627899078,-1191.847274586356,-925.44012682735809,-183.4817131368805,-239.5554719200957,-31.218500763001813,1219.397952262935,-125.93430276071797,-1354.1066379474551,1354.1066379474551,125.93430276071797,2278.9364573335306,0.0
563204.59901257406,4097374.0504322448,-7500.0,-534.61295275486179,-1348.177543599707,-1153.7009035335514,-179.89983121863375,-291.59919434352673,-35.581573271266677,1410.6176953791967,101.14012592569134,-1637.2967100959168,1637.2967100959168,-101.14012592569134,2597.3403142541588,0.0
568204.59901257406,4097374.0504322448,-7500.0,-203.25838368508286,-1483.3602611335341,-1432.8960262862875,-154.23316000644112,-349.16580373822882,-38.437917431333481,1637.4175212226446,450.14033713281367,-1955.5753326913969,1955.5753326913969,-450.14033713281367,2963.1116818544474,0.0
573204.59901257406,4097374.0504322448,-7500.0,340.8441934459824,-1554.1512069810749,-1757.7466674349284,-89.542984647640068,-405.2269861113665,-37.257492816822719,1911.1669110476375,966.26263349072303,-2282.5284316627281,2282.5284316627281,-966.26263349072303,3393.5825074473441,0.0
578204.59901257406,4097374.0504322448,-7500.0,1187.2429451295898,-1484.0346246929023,-2098.4314967263758,40.766181370376174,-443.00667576577234,-27.271219706298865,2254.3846117142411,1699.4249437307813,-2554.8356032893503,2554.8356032893503,-1699.4249437307813,3934.5939732825173,0.0
583204.59901257406,4097374.0504322448,-7500.0,2442.6103767681698,-1146.9198135764586,-2372.3254211814642,276.23237866204408,-427.21621017742399,-0.021274393379786982,2714.7957782697695,2690.4592648074618,-2642.7294716076517,2642.7294716076517,-2690.4592648074618,4702.3048360726507,0.0
588204.59901257406,4097374.0504322448,-7500.0,4213.3792743624062,-351.42683934063808,-2394.2286929659695,670.885069523786,-289.62890955746377,58.39517017397322,3390.6376909727651,3940.2976495807834,-2306.6918248813336,2306.6918248813336,-3940.2976495807834,5953.3425401628592,0.0
593204.59901257406,4097374.0504322448,-7500.0,6565.3312714174517,1163.4239608995626,-1798.0925604140882,1288.1820457062495,92.128231112430839,168.16298290065623,4464.4566976995357,5353.4621706225644,-1143.5103842213239,1143.5103842213239,-5353.4621706225644,8150.6293193816346,0.0
598204.59901257406,4097374.0504322448,-7500.0,9446.8422217007628,3702.4124671366653,72.609275986062755,2178.8513009701555,919.8709206773251,351.19591096908522,6239.319934539144,6646.5730428461029,1467.1298808259849,-1467.1298808259849,-6646.5730428461029,11968.565434486653,0.0
603204.59901257406,4097374.0504322448,-7500.0,12542.325338625988,7522.9367051316021,4311.6707038202885,3321.7563207965768,2488.9549689748983,608.70328880873262,9345.9237413389328,7198.0371000130972,6396.0504984054614,-6396.0504984054614,-7198.0371000130972,18259.356642451705,0.0
608204.59901257406,4097374.0504322448,-7500.0,14969.353831836452,12537.364197620927,12632.826221702304,4500.1622672838694,5138.6781870147106,858.7203776896406,14581.129494302633,5786.7024186196168,14678.682755664242,-14678.682755664242,-5786.7024186196168,27984.430992682868,0.0
613204.59901257406,4097374.0504322448,-7500.0,14872.601587080129,17315.476535272865,27211.965893084693,5124.679606924984,9000.3883466236712,846.28025207381154,21973.747546200011,424.40923458954239,26696.167019876753,-26696.167019876753,-424.40923458954239,41753.54676930634,0.0
618204.59901257406,4097374.0504322448,-7500.0,10110.375063334784,17026.260989924223,48128.127121301528,4229.1794432967572,13344.828382228816,240.99196227131443,30625.389018621489,-10113.122030652039,38984.650284092808,-38984.650284092808,10113.122030652039,58099.551236418214,0.0
623204.59901257406,4097374.0504322448,-7500.0,2649.3708832093353,3732.5808618957672,65199.001586584076,1188.0547738697394,15804.840716813464,-694.74762193210995,36664.48015778156,-20318.26118228941,39173.48599793981,-39173.48599793981,20318.26118228941,70201.301124625621,0.0
628204.59901257406,4097374.0504322448,-7500.0,4018.3673898790703,-19687.494220609547,52828.43361941383,-2823.2926958633184,13047.900929647647,-814.49151782472711,33742.812232823228,-13292.694820928058,13316.643267861933,-13316.643267861933,13292.694820928058,65871.994359706514,0.0
633204.59901257406,4097374.0504322448,-7500.0,15637.280346241005,-23991.24124648123,10405.272509140688,-4185.1185094345883,5200.9477543577914,-179.73465511484483,24755.205116161822,9910.2655931239915,-15826.36777727914,15826.36777727914,-9910.2655931239915,45334.659105360704,0.0
638204.59901257406,4097374.0504322448,-7500.0,15626.43550151861,-7150.275428277766,-16294.940131814335,-1880.3043442180472,-1388.7036019853379,-10.195339137140275,17644.345932154261,17574.17671271192,-17385.514534910802,17385.514534910802,-17574.17671271192,30563.166101220784,0.0
643204.59901257406,4097374.0504322448,-7500.0,6362.6531688974865,5361.8481286796541,-19343.277983431908,778.3622346733431,-3794.980398156039,-300.77892157389556,14286.67554555129,10786.991034952502,-7616.3878131811034,7616.3878131811034,-10786.991034952502,25791.043311856974,0.0
648204.59901257406,4097374.0504322448,-7500.0,-1381.2363239668032,9262.3520642157764,-14761.670287248357,2184.9455270691183,-3772.518487844965,-530.87841717699325,11910.163638855427,3227.2959651722595,-678.26262521546937,678.26262521546937,-3227.2959651722595,22483.959277870847,0.0
653204.59901257406,4097374.0504322448,-7500.0,-5436.5184111314484,8993.5160511549475,-10035.717571259183,2553.4755205258721,-2996.6557230268736,-567.15004613256576,9741.0951937888094,-1333.5200151984923,2417.7430519561112,-2417.7430519561112,1333.5200151984923,18878.800736254303,0.0
658204.59901257406,4097374.0504322448,-7500.0,-6924.0178158552553,7465.1176745532975,-6631.755290900609,2393.3023953514198,-2186.3983135465464,-493.10013058422726,7842.0352865520181,-3456.7712892744062,3350.8969199298731,-3350.8969199298731,3456.7712892744062,15436.037410091945,0.0
663204.59901257406,4097374.0504322448,-7500.0,-7045.5152694512071,5835.4580365696338,-4396.9453034976796,2044.1331662230859,-1543.2377714702682,-389.63993659557582,6277.2304097714587,-4171.1093588095209,3325.602420857434,-3325.602420857434,4171.1093588095209,12470.964235321477,0.0
668204.59901257406,4097374.0504322448,-7500.0,-6548.6214151966615,4455.6498267036914,-2963.1776791974253,1671.6589983609229,-1079.0486594513477,-294.52153972530078,5050.735058075199,-4179.3422865353095,2949.6898451667494,-2949.6898451667494,4179.3422865353095,10048.893690201565,0.0
673204.59901257406,4097374.0504322448,-7500.0,-5828.9024794318975,3378.5093289356269,-2040.7744916416789,1340.2632936909813,-756.15737751417259,-218.56130837127395,4096.867528928924,-3874.8374181532345,2491.9914818180732,-2491.9914818180732,3874.8374181532345,8119.1358026270018,0.0
678204.59901257406,4097374.0504322448,-7500.0,-5077.0282327997938,2564.7748058390594,-1439.1592048019174,1066.6726954141907,-534.14348212055154,-161.43807886857837,3341.3339060633734,-3459.2739055019383,2059.0676638614941,-2059.0676638614941,3459.2739055019383,6596.8442122636561,0.0
683204.59901257406,4097374.0504322448,-7500.0,-4376.1535217102564,1957.3712603549538,-1039.452091801435,848.4576408736383,-381.39159562585797,-119.57383368224869,2742.8617809437837,-3029.5131689188297,1685.6043787487029,-1685.6043787487029,3029.5131689188297,5398.0587294533616,0.0
688204.59901257406,4097374.0504322448,-7500.0,-3756.2271333405956,1504.827650537437,-768.42190053146021,677.07209687274258,-275.57426877262378,-89.163837538295425,2267.931015462575,-2628.2550750896189,1376.5125254327468,-1376.5125254327468,2628.2550750896189,4451.3463805648016,0.0
693204.59901257406,4097374.0504322448,-7500.0,-3222.277160127946,1166.5209124648618,-580.76948003571283,543.19202318087935,-201.54183580702252,-67.073547349388065,1889.3642446135023,-2271.2714560356881,1125.6381403860607,-1125.6381403860607,2271.2714560356881,3699.6920495096301,0.0
698204.59901257406,4097374.0504322448,-7500.0,-2768.5767437593472,912.05619062217147,-448.13947089714168,438.59414154403453,-149.15885329393853,-50.948602686989254,1585.7940163024728,-1961.502244042772,923.73119805469116,-923.73119805469116,1961.502244042772,3098.9071067406767,0.0
703204.59901257406,4097374.0504322448,-7500.0,-2385.517072999708,719.20385224738163,-352.50800520712215,356.60285638647775,-111.65545971956321,-39.089856878737216,1340.7001094563195,-1696.1875033342876,761.62537783952178,-761.62537783952178,1696.1875033342876,2615.1862080658439,0.0
708204.59901257406,4097374.0504322448,-7500.0,-2062.8013505028375,571.84248134048755,-282.22370432685346,292.00317807480337,-84.488019860819776,-30.291385910014043,1141.3983404445642,-1470.3938748523824,631.33720115985898,-631.33720115985898,1470.3938748523824,2222.7765107093219,0.0
713204.59901257406,4097374.0504322448,-7500.0,-1790.8236356776749,458.29171285239119,-229.62330579415175,240.79536167287691,-64.581952909416387,-23.701730604217023,978.16226261036547,-1278.7031234149163,526.29816561875634,-526.29816561875634,1278.7031234149163,1902.048522781588,0.0
718204.59901257406,4097374.0504322448,-7500.0,-1561.1605059329854,370.06035582283391,-189.5782855650603,199.93496069218943,-49.835736784494834,-18.718886570998116,843.51379384651443,-1115.965704038754,441.25179476418862,-441.25179476418862,1115.965704038754,1637.9820522996313,0.0
723204.59901257406,4097374.0504322448,-7500.0,-1366.6655125893744,300.94277129449625,-158.59872795158211,167.10968663692981,-38.797580386145697,-14.915164272925916,731.68097444955004,-977.601188569942,372.05130053478644,-372.05130053478644,977.601188569942,1419.028546933936,0.0
528204.59901257406,4102374.0504322448,-7500.0,-932.13881338908709,-485.80644184911154,-240.68104906533691,-126.98701596360215,-69.596052958226579,-12.748411372777801,606.04689782903836,-567.61850803639641,-372.06744025670986,372.06744025670986,567.61850803639641,1207.7270198611907,0.0
533204.59901257406,4102374.0504322448,-7500.0,-1027.928557918538,-573.96694256843887,-289.97837533091086,-147.97998365850859,-85.748653977304301,-15.695979324213361,693.69005983201657,-614.65389696876287,-454.60976005911448,454.60976005911448,614.65389696876287,1377.7789823137682,0.0
538204.59901257406,4102374.0504322448,-7500.0,-1130.0088839174907,-681.20378913335128,-353.10872581570021,-172.64955694948316,-106.37647687721058,-19.414794817391321,797.95663173250659,-660.15894068790669,-559.12587649603995,559.12587649603995,660.15894068790669,1577.8655338861333,0.0
543204.59901257406,4102374.0504322448,-7500.0,-1235.2994477781756,-811.73289058484818,-434.77224089163838,-201.38998452952404,-132.84585474068717,-24.10637926580053,922.01203797257881,-699.94648496782213,-692.11795378188629,692.11795378188629,699.94648496782213,1813.7221815881549,0.0
548204.59901257406,4102374.0504322448,-7500.0,-1337.8684460618219,-970.3105972972927,-541.40552378345546,-234.35940762746753,-166.92027333167508,-30.00506855672419,1069.8624160542695,-727.09971909871001,-861.95592501449596,861.95592501449596,727.09971909871001,2091.9042061372738,0.0
553204.59901257406,4102374.0504322448,-7500.0,-1427.1002840387043,-1161.8093425742431,-681.75916463781653,-271.16898571675142,-210.81126078934037,-37.356524185865467,1246.2217310075132,-730.46041243886236,-1079.159639568458,1079.159639568458,730.46041243886236,2419.5893861603204,0.0
558204.59901257406,4102374.0504322448,-7500.0,-1484.8184273119148,-1390.1477323512288,-867.5081371230367,-310.30524694472581,-267.1388667819428,-46.356888991523689,1456.4106080980125,-692.38687011282218,-1356.3533678459348,1356.3533678459348,692.38687011282218,2804.0606620611361,0.0
563204.59901257406,4102374.0504322448,-7500.0,-1480.8877186097095,-1655.9452919377648,-1113.6109816010528,-348.08864950985964,-338.64513265571185,-57.009753132468106,1706.1015475804354,-585.57638831380984,-1707.3075170397083,1707.3075170397083,585.57638831380984,3251.671345646711,0.0
568204.59901257406,4102374.0504322448,-7500.0,-1366.7808013978204,-1951.7800624693837,-1437.6316611033137,-376.85680059501624,-427.31768570023928,-68.818696516165957,2000.8369383699471,-368.92578820536949,-2143.8142476133671,2143.8142476133671,368.92578820536949,3766.1502619764883,0.0
573204.59901257406,4102374.0504322448,-7500.0,-1066.8776937229263,-2253.2075963434031,-1856.0925014377572,-381.93011030616873,-532.20982992085146,-80.17003116136398,2345.4420258401569,16.943915139768933,-2667.8800512112994,2667.8800512112994,-16.943915139768933,4346.6496840188038,0.0
578204.59901257406,4102374.0504322448,-7500.0,-468.37422410410153,-2502.9631330858638,-2373.5382633036447,-336.86955229188476,-644.55876407256335,-87.174196010386979,2744.2168960956305,652.19381345548391,-3254.6099202436035,3254.6099202436035,-652.19381345548391,4988.2358290799621,0.0
583204.59901257406,4102374.0504322448,-7500.0,586.55658194721741,-2586.008790804844,-2955.6336342604282,-196.87257539431701,-737.68533646221431,-81.677087791732703,3205.2733806731326,1632.5090428661263,-3818.453712783974,3818.453712783974,-1632.5090428661263,5695.4171749013367,0.0
588204.59901257406,4102374.0504322448,-7500.0,2298.0774862935423,-2296.9241753504239,-3471.6387619027919,108.45485705474788,-747.70640612273098,-48.335281446266549,3759.102116072454,3045.1570523029336,-4154.4401300833415,4154.4401300833415,-3045.1570523029336,6541.9573958842275,0.0
593204.59901257406,4102374.0504322448,-7500.0,4884.5798806644534,-1312.1515026151469,-3589.0504460483999,678.06002511412612,-540.12581700845226,38.194413673475793,4514.8636743902898,4913.5169153807756,-3852.9502907336273,3852.9502907336273,-4913.5169153807756,7851.3128026738304,0.0
598204.59901257406,4102374.0504322448,-7500.0,8539.3357075166459,808.86995672679996,-2616.4407763599042,1625.6274599338344,140.87780559046413,210.02468014405008,5789.4316281779738,7112.2435851204809,-2205.3313993648994,2205.3313993648994,-7112.2435851204809,10528.96882260315,0.0
603204.59901257406,4102374.0504322448,-7500.0,13399.084862839638,4606.8985606004917,697.9855926050285,3022.3101726828345,1734.0640303805033,471.85320434760354,8475.2901969374325,9277.5391784920248,1900.9295832532453,-1900.9295832532453,-9277.5391784920248,16258.405272594217,0.0
608204.59901257406,4102374.0504322448,-7500.0,19419.258094507873,10817.803281499801,8617.2080242003776,4749.1657625577382,4893.1061443865246,654.29786841146665,14708.010316674681,10555.741827778666,10331.349197260219,-10331.349197260219,-10555.741827778666,27507.703850592887,0.0
613204.59901257406,4102374.0504322448,-7500.0,25272.953245547687,20091.260164119511,25991.650957905738,6225.0334790336392,10334.577066047557,45.521959795431826,26089.662361208921,8282.6622088208624,26543.48095094267,-26543.48095094267,-8282.6622088208624,47986.565751544942,0.0
618204.59901257406,4102374.0504322448,-7500.0,25972.44395482276,28457.308068259234,61087.272646818572,6128.2944707606812,17962.937764724,-2644.887203769214,44286.489674563942,-3691.1808530964845,52819.543656910253,-52819.543656910253,3691.1808530964845,81037.152246481055,0.0
623204.59901257406,4102374.0504322448,-7500.0,15943.174803499011,17733.184295488081,110334.50532391474,3069.1576739542515,24179.630931340689,-6464.7709623576156,64792.558563167964,-26837.658232107733,73548.140333569099,-73548.140333569099,26837.658232107733,119384.15072408899,0.0
628204.59901257406,4102374.0504322448,-7500.0,10891.076991961827,-36965.960971953522,103869.23583713952,-2335.613186106485,21122.796775152736,-4775.346652378943,65473.524581400095,-24068.93721248335,27089.656986549515,-27089.656986549515,24068.93721248335,125703.38017571738,0.0
633204.59901257406,4102374.0504322448,-7500.0,37214.601958189378,-35635.548325919495,-12240.074884137799,-3474.878970691123,4111.6148298026037,-776.94369328765083,43661.134285125452,34365.579366181468,-41327.182113533316,41327.182113533316,-34365.579366181468,76856.231915236494,0.0
638204.59901257406,4102374.0504322448,-7500.0,15508.355640574557,9274.571240797859,-40593.796870714883,2240.0431690177747,-5788.9043979608105,477.57523147055787,30021.443015374382,24382.432406048352,-17910.439394055338,17910.439394055338,-24382.432406048352,53886.523165970822,1.0
643204.59901257406,4102374.0504322448,-7500.0,-5312.849532899103,18969.068571745589,-26826.584748037239,5015.3825731358165,-6550.6682743125339,-197.84159049300121,22773.64112370244,3630.7438770529761,925.31143866361526,-925.31143866361526,-3630.7438770529761,43390.317752673371,0.0
648204.59901257406,4102374.0504322448,-7500.0,-12711.814154955311,16239.901156481255,-15434.278768756551,5331.2295976415817,-5023.2598293302326,-729.41607612026769,17239.600566630888,-5447.6346096360967,6343.6385916350891,-6343.6385916350891,5447.6346096360967,33701.334480628764,0.0
653204.59901257406,4102374.0504322448,-7500.0,-13857.07857587842,12014.810273698435,-8922.2479965370767,4644.3668323890215,-3447.064602639105,-796.55604794462533,13028.628353616275,-8153.6311362104516,6815.657524265358,-6815.657524265358,8153.6311362104516,25766.306027078092,0.0
658204.59901257406,4102374.0504322448,-7500.0,-12725.639078951412,8552.0550291172549,-5331.2651689480381,3722.5484882289502,-2280.8271081604566,-664.58870168813951,9911.6902808809155,-8257.046219933487,5886.9213675222918,-5886.9213675222918,8257.046219933487,19686.37447027013,0.0
663204.59901257406,4102374.0504322448,-7500.0,-10957.710251567794,6047.7377681132612,-3313.6022560567476,2877.6918402660444,-1500.0065022124754,-501.39931600189624,7631.1671291521689,-7436.5786180397508,4736.2076193682888,-4736.2076193682888,7436.5786180397508,15137.914032005645,0.0
668204.59901257406,4102374.0504322448,-7500.0,-9183.954397804664,4301.4346245337092,-2143.4065752508136,2195.5513931146502,-993.97288119243399,-363.86532436833591,5943.0472366612257,-6385.9313287730229,3713.3207952131152,-3713.3207952131152,6385.9313287730229,11755.736025310336,0.0
673204.59901257406,4102374.0504322448,-7500.0,-7617.7539954259291,3092.5981591608675,-1440.7824429872319,1672.9802307338437,-667.64825103508053,-261.02896950294735,4681.0015102415882,-5373.0434124227741,2890.193446246727,-2890.193446246727,5373.0434124227741,9233.6580347759955,0.0
678204.59901257406,4102374.0504322448,-7500.0,-6305.2178586369819,2251.9517110128349,-1004.1064461765409,1281.0238756415513,-455.63326551107554,-187.53401668809153,3729.6351444214138,-4486.5137448397982,2252.4749395888557,-2252.4749395888557,4486.5137448397982,7338.7359414952089,0.0
683204.59901257406,4102374.0504322448,-7500.0,-5230.2659591757219,1661.5599764489464,-723.56074221863298,988.75484233869929,-316.07046479438503,-135.78711570189273,3005.5240241286401,-3742.2070224058821,1765.1526996900589,-1765.1526996900589,3742.2070224058821,5900.8259518893938,0.0
688204.59901257406,4102374.0504322448,-7500.0,-4357.9839514775967,1241.8804951791756,-537.55945878665818,770.38392533261265,-222.77643996037636,-99.383118912178546,2448.5219958570087,-3128.8755081861591,1393.7084338733375,-1393.7084338733375,3128.8755081861591,4797.6895613314837,0.0
693204.59901257406,4102374.0504322448,-7500.0,-3651.6343532747355,939.69591886604019,-410.53304055148357,606.22666785202864,-159.40592837794125,-73.615981708956383,2015.3698777045531,-2627.2341589958492,1109.7195595048684,-1109.7195595048684,2627.2341589958492,3941.8373220898334,0.0
698204.59901257406,4102374.0504322448,-7500.0,-3078.6121084157749,719.30062810174832,-321.34343523739324,481.80693040954657,-115.67693672674525,-55.203154528029486,1674.8761117818103,-2217.5602409461872,891.2977090078798,-891.2977090078798,2217.5602409461872,3270.4615637833049,0.0
703204.59901257406,4102374.0504322448,-7500.0,-2611.8974305657102,556.54396400479254,-257.08234580072019,386.63591964273058,-85.04189398626481,-41.898695034292587,1404.4130389313425,-1882.3848974701577,722.05451233072324,-722.05451233072324,1882.3848974701577,2738.1668538816734,0.0
708204.59901257406,4102374.0504322448,-7500.0,-2229.8020840928284,434.91707932720868,-209.66174844630217,313.14204504717196,-63.271395616574985,-32.172430533463547,1187.4303823424921,-1607.1468130238006,589.85349098974689,-589.85349098974689,1607.1468130238006,2311.8531508838632,0.0
713204.59901257406,4102374.0504322448,-7500.0,-1915.1761973477549,343.00180855557585,-173.88900475490067,255.84716186114858,-47.592189148645076,-24.978285120607868,1011.7093078617788,-1380.0552367288635,485.72751720505511,-485.72751720505511,1380.0552367288635,1967.1479101905804,0.0
718204.59901257406,4102374.0504322448,-7500.0,-1654.5433478330965,272.80552288890794,-146.3530759377723,210.76603009162227,-36.158474415566147,-19.595891247560886,868.14068287685279,-1191.6966011116419,403.03597579260622,-403.03597579260622,1191.6966011116419,1685.9232061535008,0.0
723204.59901257406,4102374.0504322448,-7500.0,-1437.3250441427933,218.66578650255516,-124.76400017739228,174.97804106018719,-27.72366962634084,-15.524466341360787,749.8654641672855,-1034.5991815164862,336.83641338915641,-336.83641338915641,1034.5991815164862,1454.5567211886757,0.0
523204.59901257406,4107374.0504322448,-7500.0,-1017.8744376784572,-385.82169059944488,-170.02041692980336,-129.17111304055945,-52.558962567120879,-12.02972771628666,594.26937679931723,-662.51359020193058,-238.73363815058886,238.73363815058886,662.51359020193058,1175.8777713904617,0.0
528204.59901257406,4107374.0504322448,-7500.0,-1145.944026116508,-457.98283738972685,-201.72863972813403,-152.63382950881328,-64.820947775131202,-14.931460006812541,679.05285724235239,-740.53191075827408,-293.40966632083678,293.40966632083678,740.53191075827408,1347.0538278201145,0.0
533204.59901257406,4107374.0504322448,-7500.0,-1292.8991715304487,-547.24940379025099,-242.07509106449706,-181.23925083247119,-80.620411448512087,-18.667525921052821,779.67945855615972,-828.20971124758091,-363.5319814553294,363.5319814553294,828.20971124758091,1550.9325961050388,0.0
538204.59901257406,4107374.0504322448,-7500.0,-1460.9930171398678,-658.36295576911493,-294.11400834559765,-216.21682214964724,-101.15359603898555,-23.508430606626561,899.8737832741532,-925.80433393055137,-454.23507592269516,454.23507592269516,925.80433393055137,1794.9564354874626,0.0
543204.59901257406,4107374.0504322448,-7500.0,-1652.0383124001928,-797.45647235592548,-362.18812603643755,-259.05208013915285,-128.06397915370565,-29.815728457948833,1046.8766767462739,-1032.7044863380675,-572.55863481853203,572.55863481853203,1032.7044863380675,2088.3560706315989,0.0
548204.59901257406,4107374.0504322448,-7500.0,-1866.6714535163201,-972.38915982178605,-452.53097756054774,-311.4752609413826,-163.60949730617895,-38.067618369076584,1228.6599115110876,-1146.6583667554739,-728.17202856844324,728.17202856844324,1146.6583667554739,2442.4699231844315,0.0
553204.59901257406,4107374.0504322448,-7500.0,-2102.9970274400289,-1193.0344039328068,-574.14967643945977,-375.36311352671936,-210.87421758802915,-48.882759806114009,1450.5305621115976,-1262.4543303734972,-934.31915321562883,934.31915321562883,1262.4543303734972,2870.9618536747421,0.0
558204.59901257406,4107374.0504322448,-7500.0,-2354.1579349437816,-1471.3138737721135,-740.07944416253451,-452.44948460605463,-274.00310558992015,-63.027135763053849,1721.3049109328488,-1369.7043423717341,-1208.9433048623273,1208.9433048623273,1369.7043423717341,3389.7083990036163,0.0
563204.59901257406,4107374.0504322448,-7500.0,-2604.0928130208931,-1820.4888182673885,-969.04474337310489,-543.64205707043402,-358.37232653885576,-81.366522988691742,2051.3152126976802,-1449.212859458949,-1575.740931007706,1575.740931007706,1449.212859458949,4015.8712900135915,0.0
568204.59901257406,4107374.0504322448,-7500.0,-2820.3586489344589,-2252.6277211066622,-1287.2918405669366,-647.56645436217764,-470.43723201870426,-104.68014079905237,2451.1550018353041,-1467.2685651610027,-2064.3312400021946,2064.3312400021946,1467.2685651610027,4765.1697211532519,0.0
573204.59901257406,4107374.0504322448,-7500.0,-2942.563800010591,-2772.0239725676315,-1729.4784877744983,-757.68070797740995,-616.59518533745256,-133.15880519971032,2928.983596746365,-1367.3378349136392,-2707.3746341854476,2707.3746341854476,1367.3378349136392,5645.4799805897628,0.0
578204.59901257406,4107374.0504322448,-7500.0,-2865.2629853030189,-3360.3595606026838,-2335.0066470285997,-856.95164435804566,-799.49335028944256,-165.25574516438101,3484.6512179581196,-1059.8631546059848,-3529.4412631626174,3529.4412631626174,1059.8631546059848,6643.5104629997759,0.0
583204.59901257406,4107374.0504322448,-7500.0,-2416.8249391830063,-3947.0050619231133,-3129.8807243625397,-908.95044686061817,-1008.3708130923602,-195.36144760994125,4098.388997327188,-415.14409382522945,-4516.540658978829,4516.540658978829,415.14409382522945,7700.1903030103913,0.0
588204.59901257406,4107374.0504322448,-7500.0,-1344.1708309039495,-4358.5546100060919,-4070.5428947055075,-845.25327479863438,-1196.7907096814672,-209.71824133417596,4712.8328164622417,725.00072313907913,-5546.775421264515,5546.775421264515,-725.00072313907913,8674.3475446513257,0.0
593204.59901257406,4107374.0504322448,-7500.0,671.08040411363288,-4259.0754433274878,-4905.7323646019286,-553.44328967297349,-1236.8558211550619,-180.59948949408604,5217.842106121524,2484.0585524676403,-6262.4591340844181,6262.4591340844181,-2484.0585524676403,9327.5959539662781,0.0
598204.59901257406,4107374.0504322448,-7500.0,3944.9646525068274,-3154.1016142769854,-4918.7133261798272,118.80613239702289,-836.51657610191921,-61.479396001179268,5501.8092763316672,4814.3889399068757,-5917.5663391294875,5917.5663391294875,-4814.3889399068757,9544.1734558419812,0.0
603204.59901257406,4107374.0504322448,-7500.0,8831.1052050841045,-595.78837123332505,-2674.6647380807412,1305.533338332267,587.50038568643174,197.15927099261961,5949.1462885289284,7457.6863830118346,-3405.9840030749324,3405.9840030749324,-7457.6863830118346,10714.531352812262,0.0
608204.59901257406,4107374.0504322448,-7500.0,16640.476487672244,3808.5889068489982,3843.2749516035478,2941.7363788989514,4053.6633218160337,461.91036017265685,10404.941800455803,10669.438672388402,2506.5410959664109,-2506.5410959664109,-10669.438672388402,18364.314414953034,0.0
613204.59901257406,4107374.0504322448,-7500.0,31452.978625754396,13415.305971422129,19112.307599069649,4593.3954009018335,11085.262706748013,-618.42934002964876,24016.27347219162,15683.032681387826,16353.077161704308,-16353.077161704308,-15683.032681387826,41915.903543987108,0.0
618204.59901257406,4107374.0504322448,-7500.0,51740.410021368814,35604.097077855033,68031.264798530217,6185.3773572320888,24392.75848728955,-7322.5030007735531,58085.880611114626,12397.476508958094,58255.217524613021,-58255.217524613021,-12397.476508958094,102072.31185777721,0.0
623204.59901257406,4107374.0504322448,-7500.0,73521.594960149596,39802.439967347513,180691.8664085234,1296.1716915223828,40254.384173305261,-17067.175621624392,113063.1392950661,-9853.9424697582144,121366.54195528483,-121366.54195528483,9853.9424697582144,197532.79416846044,0.0
628204.59901257406,4107374.0504322448,-7500.0,48277.666671988074,-79488.484988607175,299965.11059381778,-3166.5320593736847,-11001.998562352928,24227.357940352646,152410.67089455234,-59257.587796179891,97266.671687051916,-97266.671687051916,59257.587796179891,298875.58939881099,0.0
633204.59901257406,4107374.0504322448,-7500.0,70683.363128397454,17768.503282199297,-143386.97545639687,6455.9208000815106,-4629.905848516134,-2810.2380206099579,108836.41088581998,99029.193226950563,-77797.554261223035,77797.554261223035,-99029.193226950563,191392.589044539,1.0
638204.59901257406,4107374.0504322448,-7500.0,-34798.625806815122,52111.783075171283,-57944.591934467506,14722.374092452315,-11074.152031479722,3513.9865856188803,57009.027826162186,-10226.808489471845,14658.339174924957,-14658.339174924957,10226.808489471845,109797.28447114209,0.0
643204.59901257406,4107374.0504322448,-7500.0,-38132.100186950112,31130.149699100875,-23198.646156958501,12106.219838726911,-7866.9738946007674,753.48953160192366,35094.979605940433,-22741.200268260018,17974.018151199747,-17974.018151199747,22741.200268260018,68461.734878144576,0.0
648204.59901257406,4107374.0504322448,-7500.0,-31041.392773364001,18686.465770634688,-10761.353515937699,9305.4967092129082,-4999.2212725577383,-746.60083292793468,23306.749118468226,-20725.869099645621,13884.924302258456,-13884.924302258456,20725.869099645621,45792.797437503876,0.0
653204.59901257406,4107374.0504322448,-7500.0,-24271.697472770222,11616.366983511964,-5551.7360803277234,6886.2553131635832,-3070.5620188446901,-972.34435864936177,16299.875896016549,-16934.631344871043,10075.318733776367,-10075.318733776367,16934.631344871043,32132.543550762046,0.0
658204.59901257406,4107374.0504322448,-7500.0,-18838.384295501935,7444.8054432928457,-3115.8596573822506,4998.276007044542,-1883.3305131308339,-805.66133585824525,11786.812179201474,-13422.013967033168,7236.4733700964662,-7236.4733700964662,13422.013967033168,23253.417429884699,0.0
663204.59901257406,4107374.0504322448,-7500.0,-14657.747907950861,4901.1075567691905,-1878.7426783240246,3614.8492168041726,-1170.8867766167516,-591.32070949724334,8737.1317720802635,-10557.004085008386,5225.6980134011828,-5225.6980134011828,10557.004085008386,17227.573828538345,0.0
668204.59901257406,4107374.0504322448,-7500.0,-11486.416323929927,3305.5085476118879,-1206.4737255667626,2630.0841086246578,-742.32443167478721,-417.61167104167708,6612.1622719708048,-8320.2906686102997,3817.3396805711413,-3817.3396805711413,8320.2906686102997,13022.799392648481,0.0
673204.59901257406,4107374.0504322448,-7500.0,-9086.3973615618615,2278.6922977325994,-819.1493128011906,1934.7696042258422,-480.70979289609318,-292.70053371289708,5096.5634037639411,-6600.8935267264005,2827.4857102510518,-2827.4857102510518,6600.8935267264005,10023.840731023995,0.0
678204.59901257406,4107374.0504322448,-7500.0,-7262.8513406814191,1602.1780155011456,-584.0172791688293,1442.2085620222151,-317.84554253756352,-206.29138729275775,3993.7520906330392,-5282.720888113643,2124.8726306249282,-2124.8726306249282,5282.720888113643,7843.2242718859325,0.0
683204.59901257406,4107374.0504322448,-7500.0,-5866.9983819874778,1146.7092625224841,-434.32701690634229,1090.0659514672232,-214.30717365358041,-147.03904509662084,3176.7006169067386,-4268.4187655330825,1619.8024217930872,-1619.8024217930872,4268.4187655330825,6229.3285437235681,0.0
688204.59901257406,4107374.0504322448,-7500.0,-4788.690714518445,833.91305264820426,-334.79880717220504,835.28327668565873,-147.10826347696894,-106.23870077609328,2561.2713982761929,-3482.5121960203692,1251.7461755860199,-1251.7461755860199,3482.5121960203692,5015.1395565221219,0.0
693204.59901257406,4107374.0504322448,-7500.0,-3947.3922831115783,615.16180084047187,-265.95086290466867,648.5194031359531,-102.62957431183227,-77.860435000395881,2090.6041063138268,-2868.3726622392278,979.82333623243574,-979.82333623243574,2868.3726622392278,4087.7176630067179,0.0
698204.59901257406,4107374.0504322448,-7500.0,-3284.3633401294796,459.62186073828349,-216.59191188606135,509.78996300948222,-72.646140654439577,-57.871614746445772,1725.5729982011933,-2384.0456991651781,776.21892030903962,-776.21892030903962,2384.0456991651781,3369.3586675115357,0.0
703204.59901257406,4107374.0504322448,-7500.0,-2756.6297149493848,347.34133331502289,-180.05663672753866,405.39825440087981,-52.09092117718361,-43.600123779093785,1438.8006974451632,-1998.5296902785267,621.80768950709353,-621.80768950709353,1998.5296902785267,2805.7193403230713,0.0
708204.59901257406,4107374.0504322448,-7500.0,-2332.5550846171759,265.16204247520159,-152.23987076502547,325.86538407135345,-37.780365438316231,-33.270881771472474,1210.8257728557667,-1688.8525764532451,503.28053410213897,-503.28053410213897,1688.8525764532451,2358.1979324754047,0.0
713204.59901257406,4107374.0504322448,-7500.0,-1988.6662010237806,204.25168670956012,-130.53272545206764,264.55675951049267,-27.676317265334085,-25.695079904129862,1027.6078751335415,-1437.8958244984231,411.25957284755759,-411.25957284755759,1437.8958244984231,1998.9693121327011,0.0
718204.59901257406,4107374.0504322448,-7500.0,-1707.3931698781271,158.58346970365886,-113.22777773966638,216.7724380473615,-20.450475402775545,-20.067734078481102,878.8755319839446,-1232.8094594946492,339.0537387271437,-339.0537387271437,1232.8094594946492,1707.6961951339701,0.0
723204.59901257406,4107374.0504322448,-7500.0,-1475.4640071345038,123.98171198173235,-99.176167984421141,179.1423599537506,-15.222601914736822,-15.837121270976251,757.01543181770057,-1063.8690640374627,281.83026230918693,-281.83026230918693,1063.8690640374627,1469.3187749266356,0.0
523204.59901257406,4112374.0504322448,-7500.0,-1180.0644378107093,-335.51924712579984,-138.48848956688397,-147.75038089827845,-45.434269826433983,-13.534534305681595,651.27369637734205,-796.65420814224592,-154.65586135697606,154.65586135697606,796.65420814224592,1280.6427373392546,0.0
528204.59901257406,4112374.0504322448,-7500.0,-1346.9912443927005,-400.58181947022888,-162.1891949140412,-176.67520597614879,-56.282370004047372,-16.970664448105349,749.70869255910259,-906.5719187223774,-192.88591377594645,192.88591377594645,906.5719187223774,1476.9706881208022,0.0
533204.59901257406,4112374.0504322448,-7500.0,-1544.4686993896405,-482.10773524462206,-192.13323043215729,-212.70042788747631,-70.395830526501399,-21.466947486823926,868.09905752473287,-1035.6049941575225,-242.81816760948453,242.81816760948453,1035.6049941575225,1713.6542850301314,0.0
538204.59901257406,4112374.0504322448,-7500.0,-1778.9318934411126,-585.1810820230553,-230.58666679365217,-257.88255779843723,-88.95608632607879,-27.404426715361403,1011.4453574318653,-1187.3318292423273,-308.74136192729605,308.74136192729605,1187.3318292423273,2000.9529500056553,0.0
543204.59901257406,4112374.0504322448,-7500.0,-2058.0883995324648,-716.69268379695825,-280.85317555513205,-314.93337602814432,-113.63649222210161,-35.316218935268914,1186.182229976002,-1365.7765159570297,-396.76286515586543,396.76286515586543,1365.7765159570297,2352.1191352974165,0.0
548204.59901257406,4112374.0504322448,-7500.0,-2390.9425469321181,-886.02276023239779,-347.83503395402249,-387.42121221338277,-146.82555221836614,-45.949963916019534,1400.59444926468,-1575.183806408324,-515.66456476311396,515.66456476311396,1575.183806408324,2784.2906403733814,0.0
553204.59901257406,4112374.0504322448,-7500.0,-2787.5296904730176,-1105.9500759621881,-438.93134552330883,-480.00403880552443,-191.94965308858997,-60.351273008208686,1665.3082328129556,-1819.4487963787678,-678.17579297191685,678.17579297191685,1819.4487963787678,3319.562010307925,0.0
558204.59901257406,4112374.0504322448,-7500.0,-3258.004930242681,-1393.7850490155906,-565.48234350126381,-598.65234967346089,-253.92398937475656,-79.966725968858754,1993.814341770418,-2100.8690640504306,-902.83609419008292,902.83609419008292,2100.8690640504306,3986.1211013250818,0.0
563204.59901257406,4112374.0504322448,-7500.0,-3810.3905601187762,-1772.5735561967026,-745.07364087131532,-750.74169242654239,-339.73547797728816,-106.7463251771846,2416.3497440868009,-2417.6127583272064,-1216.6143664833689,1216.6143664833689,2417.6127583272064,4819.0721083852159,0.0
568204.59901257406,4112374.0504322448,-7500.0,-4445.6685403551455,-2271.7778595238142,-1005.1034509635413,-944.72090113731258,-459.05514091104465,-143.17680995879297,2948.2275585390198,-2758.8453004887351,-1658.2496132977813,1658.2496132977813,2758.8453004887351,5859.9088660888729,0.0
573204.59901257406,4112374.0504322448,-7500.0,-5147.8957539629682,-2925.6899808235694,-1387.8583558811599,-1188.7090346645628,-624.43981554759466,-192.05996311277741,3611.4585922411829,-3095.8578392208801,-2281.4347560486258,2281.4347560486258,3095.8578392208801,7152.0563516497496,0.0
578204.59901257406,4112374.0504322448,-7500.0,-5865.7700003600121,-3765.0412522573288,-1956.0782511499879,-1486.7501619412972,-849.74011452524076,-255.60383441700787,4424.0097180427147,-3367.2659081477009,-3154.2291440132135,3154.2291440132135,3367.2659081477009,8726.3791703686438,0.0
583204.59901257406,4112374.0504322448,-7500.0,-6482.058821181623,-4791.1018070522468,-2792.6711908014586,-1830.6310216344389,-1142.92673774473,-332.98631228399881,5379.6017674865161,-3458.614756246177,-4343.1767066521224,4343.1767066521224,3458.614756246177,10562.802929456248,0.0
588204.59901257406,4112374.0504322448,-7500.0,-6775.2039735899089,-5910.6308310268341,-3969.7732806828521,-2185.0852271970107,-1484.0915363019292,-415.2127530145624,6403.1697583856121,-3189.6375315924215,-5850.2331587908338,5850.2331587908338,3189.6375315924215,12498.618363581112,0.0
593204.59901257406,4112374.0504322448,-7500.0,-6415.3316955785031,-6803.9634959584919,-5407.1917004618563,-2468.1532648751827,-1769.0714639237403,-476.55962594119666,7255.0914682624943,-2369.4311612155711,-7428.643496637349,7428.643496637349,2369.4311612155711,14030.117148931151,0.0
598204.59901257406,4112374.0504322448,-7500.0,-5155.1701840311425,-6773.7303947515575,-6417.5237194795236,-2543.1897482412869,-1684.87248012645,-460.42152137106336,7361.5155487955044,-1102.4324451398211,-8175.8442095000682,8175.8442095000682,1102.4324451398211,13968.920234514992,0.0
603204.59901257406,4112374.0504322448,-7500.0,-3531.7056964442918,-5102.2168104610946,-4722.6400545931747,-2277.7108355593059,-469.86668390564444,-221.35345625136574,5826.3321595345278,-608.9247453220205,-6152.6587246960362,6152.6587246960362,608.9247453220205,10518.709142097812,0.0
608204.59901257406,4112374.0504322448,-7500.0,-3235.3036647291733,-3706.1155982000414,3558.6096483287383,-1901.8250979744437,3466.2341043732913,716.05760495509162,6189.6259354955419,-3291.9140446584206,-434.89349764100189,434.89349764100189,3291.9140446584206,11091.723907697133,0.0
613204.59901257406,4112374.0504322448,-7500.0,2961.6590713616624,-9283.0913340478346,15210.750468717593,-3398.5857996033869,12277.129810745027,2618.0545360278438,16146.185835233053,-2212.1484459028438,658.383186906422,-658.383186906422,2212.1484459028438,29995.489779725274,0.0
618204.59901257406,4112374.0504322448,-7500.0,62627.044451861511,19168.717333984201,39158.130878125208,-3772.1524093441662,25813.147131841408,-3132.0291417422732,45915.995651960955,31449.992879848134,27162.298287012876,-27162.298287012876,-31449.992879848134,80471.820645503321,0.0
623204.59901257406,4112374.0504322448,-7500.0,-19442.798664351183,42134.833910413661,430723.34422816767,57336.554713207217,112317.71539555994,-5437.0745669260241,269463.04126804759,-162837.66540382823,278710.37459557835,-278710.37459557835,162837.66540382823,499574.91480158991,0.0
628204.59901257406,4112374.0504322448,-7500.0,1943629.446134655,-914887.18293279619,-188485.63560309116,155058.29921654641,-510258.14832204691,739809.12236331066,1504555.785421784,1568268.5618878321,-1150184.0667324725,1150184.0667324725,-1568268.5618878321,2606278.8915275815,1.0
633204.59901257406,4112374.0504322448,-7500.0,-346345.61190813937,82726.892168476246,-139555.40129115348,-31136.186670784446,-17473.524191286644,-18890.766464285,183362.64496542729,-214764.58739243945,43627.387923440809,-43627.387923440809,214764.58739243945,326542.47062600759,0.0
638204.59901257406,4112374.0504322448,-7500.0,-136559.69518655393,39641.993453206778,-31828.938445952143,26592.4677867887,-10032.808009106846,9409.4887705987931,84570.4324206772,-93051.516476642166,35835.676408391773,-35835.676408391773,93051.516476642166,155325.41211722163,0.0
643204.59901257406,4112374.0504322448,-7500.0,-73140.666144755873,19913.697131007826,-10637.006062579207,17755.608867985589,-5633.3703798023444,1994.2034185571263,44557.684717723081,-51894.718727766754,21742.37932226104,-21742.37932226104,51894.718727766754,84180.801404261016,0.0
648204.59901257406,4112374.0504322448,-7500.0,-46200.886920127763,10920.420345455259,-4387.9580865357166,12098.668314069699,-3114.3275032993674,-656.19643492380328,27158.680959873909,-33435.404735416916,13720.201139058374,-13720.201139058374,33435.404735416916,52385.877113107454,0.0
653204.59901257406,4112374.0504322448,-7500.0,-31734.881295398303,6363.78796596756,-2122.4076929800513,8319.4441153458956,-1743.2103938167531,-1052.0222416062113,18114.632586629643,-23177.273219443687,9017.6438077285384,-9017.6438077285384,23177.273219443687,35326.905740744609,0.0
658204.59901257406,4112374.0504322448,-7500.0,-22806.599906682837,3868.643676392348,-1176.3673715458433,5752.9185518450886,-998.07702910764021,-875.56556684861096,12720.312059925711,-16718.625738818733,6114.3020137057856,-6114.3020137057856,16718.625738818733,24932.704521925782,0.0
663204.59901257406,4112374.0504322448,-7500.0,-16878.487131201677,2429.1126728625713,-733.92308175932328,4022.1959206484171,-586.209425350321,-634.66090772113671,9242.4915315481267,-12384.807382631279,4255.5364812683656,-4255.5364812683656,12384.807382631279,18152.856952224436,0.0
668204.59901257406,4112374.0504322448,-7500.0,-12775.893012210054,1565.6464759178396,-505.1590128681691,2855.3149192801807,-352.89131389681182,-442.28609534882105,6894.1534790387777,-9369.9256318760054,3031.6055126820079,-3031.6055126820079,9369.9256318760054,13547.404773561986,0.0
673204.59901257406,4112374.0504322448,-7500.0,-9856.0870609661306,1031.1122793588017,-375.31514280532463,2062.0416627917002,-217.18016315453033,-306.4213855439105,5256.5004317889498,-7219.4373308472459,2205.8437682576546,-2205.8437682576546,7219.4373308472459,10326.183963021374,0.0
678204.59901257406,4112374.0504322448,-7500.0,-7731.8327510038916,691.23046405821628,-294.94589106485364,1515.4482321466887,-136.19727884946454,-213.89360521694232,4084.7999700608889,-5653.9998299753188,1636.2607851878888,-1636.2607851878888,5653.9998299753188,8018.4431227476716,0.0
683204.59901257406,4112374.0504322448,-7500.0,-6156.9072952922816,470.0548608234518,-241.18379822533589,1132.7924958900205,-86.719164297521061,-151.25888565758692,3227.9365578005595,-4493.8487310168339,1235.2853044849371,-1235.2853044849371,4493.8487310168339,6330.1590639614942,0.0
688204.59901257406,4112374.0504322448,-7500.0,-4969.4082474929737,323.19097611971608,-202.76987395767688,860.41354732841512,-55.843692172799486,-108.58258881385396,2589.1161917330669,-3619.944814586438,947.63657407519463,-947.63657407519463,3619.944814586438,5071.7173175058342,0.0
693204.59901257406,4112374.0504322448,-7500.0,-4060.2227337621944,223.93596982169063,-173.82708054162552,663.31784743449043,-36.21533374701125,-79.155729862975718,2104.5668101390365,-2951.7394854021186,737.66392507160822,-737.66392507160822,2951.7394854021186,4117.6829007202132,0.0
698204.59901257406,4112374.0504322448,-7500.0,-3354.3214227085145,155.81877815581069,-151.10956055505133,518.43249065228088,-23.53563610685628,-58.57615221749321,1731.2741391054694,-2433.7260639342458,581.91459974702593,-581.91459974702593,2433.7260639342458,3383.2454495945335,0.0
703204.59901257406,4112374.0504322448,-7500.0,-2799.1836358336923,108.446310942696,-132.72199860187888,410.3325594883965,-15.233552730281803,-43.970039576306206,1439.615953343681,-2027.0123924037671,464.66691921130484,-464.66691921130484,2027.0123924037671,2809.9189820379506,0.0
708204.59901257406,4112374.0504322448,-7500.0,-2357.4433092051554,75.125254743541191,-117.49555006363306,328.55093006094535,-9.7379840616324991,-33.451113951970811,1208.8072503975045,-1703.9232118057034,375.19398628135298,-375.19398628135298,1703.9232118057034,2356.6369289507497,0.0
713204.59901257406,4112374.0504322448,-7500.0,-2002.1133674558464,51.464331283870735,-104.67044920089788,265.87629345569002,-6.0698293766606017,-25.768434647633246,1024.0121809790348,-1444.4769521015874,306.05440186576413,-306.05440186576413,1444.4769521015874,1994.0797615996296,0.0
718204.59901257406,4112374.0504322448,-7500.0,-1713.4305533419492,34.533716510269969,-93.728299327125114,217.26634285377045,-3.6079392614244932,-20.081888559901074,874.47486207837335,-1234.0503941777042,252.00551832715263,-252.00551832715263,1234.0503941777042,1700.9924216808558,0.0
723204.59901257406,4112374.0504322448,-7500.0,-1476.7291788517164,22.347899566233298,-84.299445736302701,179.14430790994885,-1.9517406240060149,-15.819632589981325,752.2824025566448,-1061.8019164406503,209.29898629577519,-209.29898629577519,1061.8019164406503,1461.7425003414949,0.0
523204.59901257406,4117374.0504322448,-7500.0,-1321.1732732337696,-263.64988067337731,-111.24238549588478,-163.89946976684897,-35.68667257989015,-14.841565749816617,701.02376511289913,-915.51250575180086,-59.186828502707954,59.186828502707954,915.51250575180086,1372.1544022704629,0.0
528204.59901257406,4117374.0504322448,-7500.0,-1522.5520245778596,-315.02235841810767,-127.53818459849106,-197.64635535994049,-44.184671015039555,-18.74793379094972,811.51698031478077,-1054.3992476931273,-76.762538862623217,76.762538862623217,1054.3992476931273,1590.7322834673789,0.0
533204.59901257406,4117374.0504322448,-7500.0,-1765.2334172985786,-379.78162529454659,-147.62304289646735,-240.27377857127098,-55.278574934129658,-23.917778895128144,945.7416106213542,-1221.3962007617472,-100.46824023694376,100.46824023694376,1221.3962007617472,1856.6467384542468,0.0
538204.59901257406,4117374.0504322448,-7500.0,-2059.7576769896273,-462.30674546421267,-172.81070427488714,-294.62560745362765,-69.939866516966589,-30.835211733722552,1110.16267736848,-1423.4841322812517,-132.83130387795256,132.83130387795256,1423.4841322812517,2182.8642251323145,0.0
543204.59901257406,4117374.0504322448,-7500.0,-2419.7900962285239,-568.69334224375177,-205.03914879623557,-364.60737166249811,-89.568777764130459,-40.196029997335579,1313.3614512519523,-1669.6014377951165,-177.59397742894964,177.59397742894964,1669.6014377951165,2586.6003021929414,0.0
548204.59901257406,4117374.0504322448,-7500.0,-2863.1013006777562,-707.52504494937307,-247.24567440997521,-455.62598479219099,-116.20868393115647,-53.008689721218779,1566.8238518908836,-1971.1794064624783,-240.38107426771887,240.38107426771887,1971.1794064624783,3090.8895369025399,0.0
553204.59901257406,4117374.0504322448,-7500.0,-3412.7994694650465,-891.01853523699469,-304.00929734906913,-575.21544772783204,-152.87498315120109,-70.742390330272428,1886.0376189699243,-2342.7436296269639,-329.77516594009251,329.77516594009251,2342.7436296269639,3726.7466318381812,0.0
558204.59901257406,4117374.0504322448,-7500.0,-4098.7746790958081,-1136.7127596563168,-382.67814628704349,-733.91146805572112,-204.05542362430904,-95.538651504996807,2292.0030946300521,-2802.4653726628171,-459.06408554195559,459.06408554195559,2802.4653726628171,4536.0778522935507,0.0
563204.59901257406,4117374.0504322448,-7500.0,-4959.1307970327944,-1469.9033775457178,-495.39071369178896,-946.42758334078894,-276.45025172433634,-130.49210048133628,2813.2657933276732,-3372.3437120377475,-649.08715947161545,649.08715947161545,3372.3437120377475,5575.4135855748173,0.0
568204.59901257406,4117374.0504322448,-7500.0,-6040.9087106774505,-1926.9438143742275,-662.75999292441873,-1233.1073702723568,-379.98971075882878,-179.96029793145115,3488.5036431950443,-4077.2364901947321,-932.82158197750755,932.82158197750755,4077.2364901947321,6920.1389457354808,0.0
573204.59901257406,4117374.0504322448,-7500.0,-7398.3262691455539,-2559.0247379067341,-920.63990875216768,-1621.3781814070553,-528.97016432616351,-249.71390313515226,4369.2724273995891,-4940.9842329934645,-1362.4835165141565,1362.4835165141565,4940.9842329934645,8667.6676953713704,0.0
578204.59901257406,4117374.0504322448,-7500.0,-9084.3769402030575,-3434.0944702436077,-1332.3676177588479,-2146.2907160571244,-742.40310603135219,-346.33329938087883,5520.6409641140326,-5975.9398024573429,-2019.2958387942915,2019.2958387942915,5975.9398024573429,10934.434258858764,0.0
583204.59901257406,4117374.0504322448,-7500.0,-11127.008877266537,-4628.0437688393104,-2009.3804732119308,-2847.9308060204089,-1040.2736070629701,-474.36994487777366,7013.0508268188705,-7159.1563968000955,-3021.8879795399093,3021.8879795399093,7159.1563968000955,13831.777368413483,0.0
588204.59901257406,4117374.0504322448,-7500.0,-13474.566129045375,-6175.6101598245614,-3137.3156612513662,-3761.8350849072003,-1425.5885595665006,-628.62343471262182,8889.5689020365789,-8387.2477639615863,-4510.6072041741954,4510.6072041741954,8387.2477639615863,17379.610588092717,0.0
593204.59901257406,4117374.0504322448,-7500.0,-15900.939378935347,-7889.3549062154607,-4960.8174716161247,-4899.7364404257105,-1825.4983648267316,-781.02009817837541,11060.053443723997,-9425.8728753331852,-6509.8875545749997,6509.8875545749997,9425.8728753331852,21251.583779776138,0.0
598204.59901257406,4117374.0504322448,-7500.0,-17989.420324985458,-8797.5127344888951,-7442.2189525295989,-6229.4563335858275,-1933.8882657285283,-879.24991051108452,12995.41909572154,-10057.211587946118,-8290.6012818832078,8290.6012818832078,10057.211587946118,24152.92563178626,0.0
603204.59901257406,4117374.0504322448,-7500.0,-20248.950795906341,-5872.3106837985724,-8260.5714403092225,-7669.2589226524788,-854.69827510424477,-866.52230208914045,13449.685577682503,-11677.465946775828,-6050.8850947063574,6050.8850947063574,11677.465946775828,23856.489500105545,0.0
608204.59901257406,4117374.0504322448,-7500.0,-31882.295437728237,5073.7810724169603,4431.3906635498679,-9161.1448224963533,3711.7446710294362,-3.1975831682995306,20867.464275413935,-25393.303371636262,11693.619949913584,-11693.619949913584,25393.303371636262,39340.230777129436,0.0
613204.59901257406,4117374.0504322448,-7500.0,-95208.678316605103,1954.328166946166,51391.934021748129,-14054.638071496982,17408.873970229073,8287.2050650214369,77402.59937260428,-87652.429017242393,45824.770695774438,-45824.770695774438,87652.429017242393,136175.7723133112,0.0
618204.59901257406,4117374.0504322448,-7500.0,-256543.08355286624,-135629.70111331216,16986.843271180987,-71816.838313964938,33645.852863950378,27151.350411834526,217914.34081278904,-184121.42798307494,-57186.653500379507,57186.653500379507,184121.42798307494,389560.76224575762,0.0
623204.59901257406,4117374.0504322448,-7500.0,1145676.1051585702,279377.60111811897,39046.928893689153,-367488.06212020363,-497271.63562690513,123473.79001992341,911262.71892904548,809253.41500065487,59563.858691490954,-59563.858691490954,-809253.41500065487,1587281.3232306573,0.0
628204.59901257406,4117374.0504322448,-7500.0,-1039988.9910211622,790714.80909159267,208797.0505243761,226515.77473072128,39252.421344734496,-81524.386566812755,1033523.2692245273,-899276.12409772165,916378.45043408801,-916378.45043408801,899276.12409772165,1820836.052612335,1.0
633204.59901257406,4117374.0504322448,-7500.0,-224557.46689689494,38203.372022882919,-59327.801913118514,66802.020899793424,-16347.252733097299,17762.286508085654,142993.31671310749,-148529.62756201063,33472.323607175436,-33472.323607175436,148529.62756201063,254064.98049367257,1.0
638204.59901257406,4117374.0504322448,-7500.0,-117176.927527691,-6897.5937379480301,-25437.63993838237,27276.539623085318,-6445.3576472838013,9341.5319690065498,69755.63603844952,-77249.547980134957,-842.23463711616932,842.23463711616932,77249.547980134957,123756.58077388164,0.0
643204.59901257406,4117374.0504322448,-7500.0,-70238.345575576357,-3924.652407321591,-7982.5044062727802,17427.378392605977,-1700.1486020542707,1680.8841962192732,40279.413004270085,-48770.519899521045,3743.7507377034126,-3743.7507377034126,48770.519899521045,74409.636360175864,0.0
648204.59901257406,4117374.0504322448,-7500.0,-45710.309913874567,-1991.7387695546786,-2883.6876293622354,11895.758801537695,-364.54455609154786,-694.81505969972204,25561.797891956157,-32562.691550281321,4183.3799651136869,-4183.3799651136869,32562.691550281321,48677.302090070974,0.0
653204.59901257406,4117374.0504322448,-7500.0,-31544.706491622121,-1202.4307953802243,-1246.0370506034856,8174.194936305913,2.2390786989149678,-1030.7585160147091,17348.400023719889,-22735.877143725127,3442.1646272382659,-3442.1646272382659,22735.877143725127,33606.075209171133,0.0
658204.59901257406,4117374.0504322448,-7500.0,-22622.177752285432,-829.05524763598601,-657.01320386928967,5644.7116293556792,90.438911428168495,-851.37104879028107,12281.611847741713,-16387.322695373547,2627.9686274090263,-2627.9686274090263,16387.322695373547,23998.165973729388,0.0
663204.59901257406,4117374.0504322448,-7500.0,-16683.443667541058,-618.25955064116647,-419.90903854136008,3941.2214211728556,99.674045229477926,-616.72721580642212,8960.7271807292436,-12106.59550765649,1968.9182922130321,-1968.9182922130321,12106.59550765649,17581.710810268065,0.0
668204.59901257406,4117374.0504322448,-7500.0,-12585.845546457331,-482.61280495425342,-311.20252731462904,2794.5224251178524,88.371430717293791,-430.0533498974653,6699.1721690617051,-9133.7117926679239,1475.5372158593891,-1475.5372158593891,9133.7117926679239,13167.094439813207,0.0
673204.59901257406,4117374.0504322448,-7500.0,-9681.9899479785036,-387.56498804204313,-252.95179557580195,2016.1389802375299,73.613298431194437,-298.17095031307178,5114.6847684091235,-7020.4928124210237,1114.4759247596494,-1114.4759247596494,7020.4928124210237,10057.025300359403,0.0
678204.59901257406,4117374.0504322448,-7500.0,-7578.0918981142886,-317.2592300891215,-216.17413647957503,1480.5303297304297,60.1278522309997,-208.27211548489848,3978.0196855564714,-5487.7105903478314,850.98267810636253,-850.98267810636253,5487.7105903478314,7819.5131628861054,0.0
683204.59901257406,4117374.0504322448,-7500.0,-6023.9337547494524,-263.38672733418554,-189.50936167748387,1106.0106662442136,48.915055463808443,-147.36487265491417,3145.4854918372889,-4355.4212669826375,657.60235767206132,-657.60235767206132,4355.4212669826375,6178.4502527020004,0.0
688204.59901257406,4117374.0504322448,-7500.0,-4855.6705880613417,-221.09706544577918,-168.27806152185772,839.693402035031,39.887173681751506,-105.83689184816642,2524.2122227314048,-3504.819221438609,514.33612581995681,-514.33612581995681,3504.819221438609,4953.2730183978283,0.0
693204.59901257406,4117374.0504322448,-7500.0,-3963.4556450754044,-187.31290063743836,-150.43744150327726,647.14704608298632,32.691255691486226,-77.186272650102168,2052.6833541529604,-2855.8707966360912,407.02212104323644,-407.02212104323644,2855.8707966360912,4023.5114036590417,0.0
698204.59901257406,4117374.0504322448,-7500.0,-3272.1359839878487,-159.95713276901728,-135.02013102193652,505.70304596388468,26.960213686389338,-57.140780881340348,1689.2661210323458,-2353.6727791244812,325.70708861391984,-325.70708861391984,2353.6727791244812,3307.2683193961843,0.0
703204.59901257406,4117374.0504322448,-7500.0,-2729.3464532816538,-137.56271495131418,-121.51121413133576,400.22752198272542,22.380383459577512,-42.90842250926454,1405.2295942835062,-1959.9175662737614,263.3821701864556,-263.3821701864556,1959.9175662737614,2747.8692686653835,0.0
708204.59901257406,4117374.0504322448,-7500.0,-2297.9854850198972,-119.05954613553341,-109.59417283725062,320.4639501988371,18.701100849825917,-32.655291569774789,1180.3890994394465,-1647.4497292947326,215.07881351661035,-215.07881351661035,1647.4497292947326,2305.4315553167221,0.0
713204.59901257406,4117374.0504322448,-7500.0,-1951.3513942358127,-103.64723082079753,-99.04502076871033,259.35387750614535,15.727053799411147,-25.164435943554111,1000.3254633604777,-1396.726837180745,177.24319234063694,-177.24319234063694,1396.726837180745,1951.4380050400209,0.0
718204.59901257406,4117374.0504322448,-7500.0,-1669.9480447583915,-90.71612585882329,-89.687759729275413,211.96651534075912,13.307504464466621,-19.618231804699477,854.57894796308403,-1193.4862448709196,147.30762666628482,-147.30762666628482,1193.4862448709196,1665.1934799682142,0.0
723204.59901257406,4117374.0504322448,-7500.0,-1439.347300013324,-79.795099828461289,-81.375288957836105,174.80735441984382,11.326300842512653,-15.459942075710225,735.45299279343169,-1027.1801214817101,123.39729825596555,-123.39729825596555,1027.1801214817101,1431.4689918226102,0.0
523204.59901257406,4122374.0504322448,-7500.0,-1432.6220593620833,-173.75302849155264,-92.077540180528388,-176.67118386258997,-23.74693503385398,-15.877777028951927,741.21306865140002,-1011.2068045232345,41.329999400291911,-41.329999400291911,1011.2068045232345,1445.9997938418021,0.0
528204.59901257406,4122374.0504322448,-7500.0,-1660.8678679724619,-205.76968584686742,-103.0052916109159,-214.19567263310068,-29.094316943202276,-20.154344967026852,861.29273947361457,-1173.2321712976609,46.558450970139006,-46.558450970139006,1173.2321712976609,1682.2820104192485,0.0
533204.59901257406,4122374.0504322448,-7500.0,-1938.8475508229583,-245.89794450283824,-115.84866426785915,-262.00016784261442,-36.014872419784155,-25.854874499491579,1008.1051931849624,-1370.6296178216596,52.28179997450161,-52.28179997450161,1370.6296178216596,1971.472362324587,0.0
538204.59901257406,4122374.0504322448,-7500.0,-2280.4040376330968,-296.7900358316752,-131.13270270474879,-323.55849363014187,-45.086068484338611,-33.545747263981035,1189.2988194620027,-1613.2162544152538,58.327648573602232,-58.327648573602232,1613.2162544152538,2328.7449117991218,0.0
543204.59901257406,4122374.0504322448,-7500.0,-2704.0726327073694,-362.17073253657094,-149.6175492117687,-403.74257471654278,-57.140135615314897,-44.053888997039728,1415.209055296752,-1914.1039874542766,64.294634419217005,-64.294634419217005,1914.1039874542766,2774.592617331637,0.0
548204.59901257406,4122374.0504322448,-7500.0,-3234.9399831707556,-447.35648790120047,-172.45499893570292,-509.47056906047442,-73.394141560440659,-58.600071439199027,1699.9756317157985,-2290.9760052242918,69.350912237204739,-69.350912237204739,2290.9760052242918,3337.0167205280982,0.0
553204.59901257406,4122374.0504322448,-7500.0,-3907.3250177573364,-560.06497616572722,-201.47931215269514,-650.68745884985447,-95.652941640986313,-79.00291368366868,2063.1899004304082,-2767.9009612594655,71.858443684986923,-71.858443684986923,2767.9009612594655,4054.7282020949815,0.0
558204.59901257406,4122374.0504322448,-7500.0,-4768.6592362727797,-711.69763734660035,-239.7694559468855,-841.8545157432111,-126.62537790517543,-107.98596401838745,2532.3464997973942,-3377.9023754657374,68.661376534906594,-68.661376534906594,3377.9023754657374,4981.8512681462717,0.0
563204.59901257406,4122374.0504322448,-7500.0,-5885.0891809587783,-919.3961738504205,-292.77946584805375,-1104.2051184609222,-170.4076966597994,-149.61833411531603,3146.5148793913954,-4166.5448802796764,53.716286554235467,-53.716286554235467,4166.5448802796764,6194.8216762709944,0.0
568204.59901257406,4122374.0504322448,-7500.0,-7349.4601663038093,-1209.3569919068659,-370.70392961632581,-1469.1102473048845,-233.18009936498436,-209.87307680154021,3961.8413286277741,-5196.7601064164583,15.410026852227929,-15.410026852227929,5196.7601064164583,7802.365739024598,0.0
573204.59901257406,4122374.0504322448,-7500.0,-9292.314158122359,-1622.1413730408456,-493.64183599137544,-1982.9159612886981,-324.04964299064727,-297.08382746039547,5059.7150957901122,-6554.7935926557602,-68.799242095016325,68.799242095016325,6554.7935926557602,9959.3995168718047,0.0
578204.59901257406,4122374.0504322448,-7500.0,-11895.776565675633,-2220.8657447408727,-703.37401381970972,-2713.3456736743015,-455.45085665977456,-421.38408274435687,6558.4759054372571,-8355.8246732058451,-243.28682258741128,243.28682258741128,8355.8246732058451,12884.537736361062,0.0
583204.59901257406,4122374.0504322448,-7500.0,-15406.962661812368,-3102.2934125132419,-1091.4803728558256,-3756.5734428867941,-640.58199901383955,-590.17838194633259,8628.6928369526922,-10743.495828807396,-596.73741943134701,596.73741943134701,10743.495828807396,16876.017239371347,0.0
588204.59901257406,4122374.0504322448,-7500.0,-20134.812428829402,-4404.2959838991801,-1869.5022403909231,-5242.1615426365597,-878.94140214506501,-791.94472279477134,11507.148880695873,-13863.341676311627,-1308.0221876564337,1308.0221876564337,13863.341676311627,22302.835358139098,0.0
593204.59901257406,4122374.0504322448,-7500.0,-26361.644953823692,-6265.2163742196899,-3548.8999717126158,-7334.1547946284854,-1102.4076859503205,-956.68027583206731,15478.507311569598,-17740.14408930303,-2729.1648933371844,2729.1648933371844,17740.14408930303,29479.667227607693,0.0
598204.59901257406,4122374.0504322448,-7500.0,-33862.883580550457,-8458.1534319103885,-7372.2274289229999,-10247.593819231573,-1013.2390595821852,-927.81768683682026,20631.500530632755,-21807.436840241924,-5413.4136479298213,5413.4136479298213,21807.436840241924,38036.068391805667,0.0
603204.59901257406,4122374.0504322448,-7500.0,-39849.888376460542,-7909.8921003877958,-15692.016106322519,-14296.049439572593,301.46895390421116,-830.9765056656687,25290.922069889006,-23459.156714247489,-8681.1418886414122,8681.1418886414122,23459.156714247489,44323.439685483274,0.0
608204.59901257406,4122374.0504322448,-7500.0,-35459.659975674462,15308.382773734067,-23463.3727159794,-19293.694613923839,5167.6742308770617,-2938.7327580643705,29649.261803698733,-19434.587556141349,4769.1106345830431,-4769.1106345830431,19434.587556141349,52070.005820367216,0.0
613204.59901257406,4122374.0504322448,-7500.0,-50850.923726357272,123373.47826599555,60629.046709226161,-21599.512031611463,15255.909310949073,-9205.3933891701745,138137.83024994406,-67645.496810896031,140718.78319985708,-140718.78319985708,67645.496810896031,239333.20287768971,1.0
618204.59901257406,4122374.0504322448,-7500.0,-247795.13596968877,171336.26388111652,163507.89191373048,50286.172283459025,3853.3817432168294,18006.677150184114,271888.07730608771,-251266.9500841501,268627.51157052943,-268627.51157052943,251266.9500841501,475599.28830301581,0.0
623204.59901257406,4122374.0504322448,-7500.0,825342.68399517983,-947882.84198416199,173737.78263781217,-16947.666502166612,774630.11484954611,675560.96592675557,1263463.6181587616,624518.26031504758,-792189.32248888467,792189.32248888467,-624518.26031504758,2201337.7228386248,1.0
628204.59901257406,4122374.0504322448,-7500.0,280217.6800020443,166578.74705581053,28348.619430555747,-57587.033019597911,-119002.4426979507,-11540.526603098786,258524.08495753331,183849.56977546291,103517.79044193141,-103517.79044193141,-183849.56977546291,459080.59152532514,0.0
633204.59901257406,4122374.0504322448,-7500.0,-33397.24450229395,-12097.310391119165,-37102.155670055196,17880.203174624814,-16079.885858481317,471.44562199757047,31494.454166786072,-11156.163146261704,-25092.33890434945,25092.33890434945,11156.163146261704,58822.809914483041,0.0
638204.59901257406,4122374.0504322448,-7500.0,-48023.738313719659,-16464.691697010821,-23541.408718520022,16484.003451701858,-2956.2294012353937,2512.0934231620863,34330.984487408161,-26163.485794263393,-18594.205276058532,18594.205276058532,26163.485794263393,59755.025454221955,0.0
643204.59901257406,4122374.0504322448,-7500.0,-40509.869332343274,-13929.29325757725,-11772.395543221643,12139.44837637216,1019.1765827967871,240.60976389680195,26558.66900406644,-24792.150097275804,-11175.480268505929,11175.480268505929,24792.150097275804,48401.121234600949,0.0
648204.59901257406,4122374.0504322448,-7500.0,-31611.483606676258,-9850.8486014149821,-5627.4326945341973,8988.1390188702189,1644.0340110188142,-782.10718768207778,19512.730270145858,-20626.29586017289,-5908.641198100896,5908.641198100896,20626.29586017289,36961.268820048033,0.0
653204.59901257406,4122374.0504322448,-7500.0,-24130.82969695178,-6692.9668758665712,-2847.9958720593695,6540.7441233001164,1364.2439570555587,-900.95653330424648,14301.175129986428,-16298.399280291658,-3037.5220796937092,3037.5220796937092,16298.399280291658,27685.797714510278,0.0
658204.59901257406,4122374.0504322448,-7500.0,-18384.795669433257,-4567.2441241383231,-1576.5750249384075,4706.2798541457605,983.24925237829552,-735.32735115093237,10583.69274287908,-12659.342939177863,-1556.5103837515271,1556.5103837515271,12659.342939177863,20719.328163391663,0.0
663204.59901257406,4122374.0504322448,-7500.0,-14099.728821964161,-3175.1740678228252,-961.35713007669926,3385.7959780556789,682.62821363591581,-539.76040627953091,7941.9673124446581,-9818.0852527605584,-793.20439275945864,793.20439275945864,9818.0852527605584,15632.26237961637,0.0
668204.59901257406,4122374.0504322448,-7500.0,-10927.211959231243,-2258.4131836993461,-641.63060037416972,2454.6053505616187,473.0474526623675,-382.29252788141889,6052.3804132849627,-7659.7747272643574,-395.20179372163466,395.20179372163466,7659.7747272643574,11940.509086841104,0.0
673204.59901257406,4122374.0504322448,-7500.0,-8571.3721771512974,-1644.1703241478924,-462.13755519952463,1800.9769492042394,331.8015277123265,-268.74149475924781,4685.1113207864928,-6032.2901106232457,-185.27197339647682,185.27197339647682,6032.2901106232457,9248.5729201657869,0.0
678204.59901257406,4122374.0504322448,-7500.0,-6807.7643290369761,-1223.7856363199112,-353.24359384010899,1339.9031352438824,236.8086605997668,-189.88700401455759,3681.8873358105457,-4802.2393048933254,-73.899122018980052,73.899122018980052,4802.2393048933254,7265.612286964456,0.0
683204.59901257406,4122374.0504322448,-7500.0,-5473.4437588250994,-929.66925462815971,-282.17092314946746,1011.3496347083214,172.22660919946344,-135.63218815852346,2934.8223558607447,-3865.8986395078382,-15.093876659772832,15.093876659772832,3865.8986395078382,5786.3490081600585,0.0
688204.59901257406,4122374.0504322448,-7500.0,-4452.0938054218823,-719.44943616464423,-232.68795280693539,774.25232185214793,127.60791996171965,-98.171954696790436,2370.271583460491,-3146.3468112937021,15.258299179971345,-15.258299179971345,3146.3468112937021,4667.8829980526743,0.0
693204.59901257406,4122374.0504322448,-7500.0,-3660.974534887489,-566.14507966204042,-196.32934079457581,600.81094665364026,96.226501484229416,-72.060872476854314,1937.5609595585222,-2587.5795719779157,30.059565370931523,-30.059565370931523,2587.5795719779157,3810.7762828589493,0.0
698204.59901257406,4122374.0504322448,-7500.0,-3041.0194312321482,-452.25018909603466,-168.44178502542312,472.18433402264611,73.75517149026949,-53.636870368366964,1601.4291735675945,-2149.009594553786,36.339223329682,-36.339223329682,2149.009594553786,3145.3859613568306,0.0
703204.59901257406,4122374.0504322448,-7500.0,-2549.7494669777579,-366.18003027888352,-146.32883118712658,375.51174861913148,57.38333876926562,-40.463264132140139,1337.0272008965753,-1801.1492034298908,37.985435162060526,-37.985435162060526,1801.1492034298908,2622.4505649858875,0.0
708204.59901257406,4122374.0504322448,-7500.0,-2156.3239998936092,-300.11713861422095,-128.34431585025015,301.92337301974231,45.25947491077082,-30.91633439652934,1126.6099120347212,-1522.4379568436466,37.172720739444685,-37.172720739444685,1522.4379568436466,2206.7181736489742,0.0
713204.59901257406,4122374.0504322448,-7500.0,-1838.1186220841603,-248.68624192877078,-113.43170037719669,245.22904636876399,36.144192462474244,-23.906064094042566,957.33673223837968,-1296.9800421084169,35.124548721876977,-35.124548721876977,1296.9800421084169,1872.652961918747,0.0
718204.59901257406,4122374.0504322448,-7500.0,-1578.3572705985275,-208.12524090419092,-100.88058291503224,201.05469756049544,29.194126074447656,-18.693050401449927,819.79543258044464,-1112.9464163401535,32.528633033739652,-32.528633033739652,1112.9464163401535,1601.5294344423926,0.0
723204.59901257406,4122374.0504322448,-7500.0,-1364.465527302382,-175.75656209652558,-90.192778464629527,166.27051648406001,23.825965653550693,-14.769763555906012,706.99999632741128,-961.44789736992743,29.767651282798852,-29.767651282798852,961.44789736992743,1379.4495109917511,0.0
523204.59901257406,4127374.0504322448,-7500.0,-1507.6850066881179,-71.257612427539698,-83.951057299446077,-185.32008875030868,-10.261802834025186,-16.585470625262801,770.03681222669627,-1077.3548740770268,139.81416059288654,-139.81416059288654,1077.3548740770268,1498.6816257432542,0.0
528204.59901257406,4127374.0504322448,-7500.0,-1752.6745336742817,-80.021236078002318,-92.701707525149232,-225.25418553841405,-11.901889083954035,-21.103411351183574,896.55495270833228,-1254.2889763068176,167.52671480043796,-167.52671480043796,1254.2889763068176,1746.8087558417185,0.0
533204.59901257406,4127374.0504322448,-7500.0,-2052.3415551210092,-90.101056114457592,-102.61969866902479,-276.31929023586559,-13.846200269302326,-27.146122990882397,1051.7224778127866,-1471.0270240682999,202.37596585849894,-202.37596585849894,1471.0270240682999,2051.4021695977485,0.0
538204.59901257406,4127374.0504322448,-7500.0,-2422.3907977213366,-101.69528598054745,-113.90870049528652,-342.35983198509194,-16.14739303289155,-35.330244067236166,1243.9203767407896,-1739.0602388834932,246.62916781482318,-246.62916781482318,1739.0602388834932,2429.012124108785,0.0
543204.59901257406,4127374.0504322448,-7500.0,-2884.0914248567046,-115.01331924933552,-126.83867589851285,-428.81290807839918,-18.856945538018422,-46.562242506478064,1484.5669604284305,-2073.9580014927024,303.40731210223305,-303.40731210223305,2073.9580014927024,2902.1753769277425,0.0
548204.59901257406,4127374.0504322448,-7500.0,-3466.6359268206743,-130.25905867775273,-141.7957533752529,-543.47745115968758,-22.011299119111079,-62.190904423346339,1789.4410807329384,-2497.0910260126429,377.05190091192731,-377.05190091192731,2497.0910260126429,3502.0039248202252,0.0
553204.59901257406,4127374.0504322448,-7500.0,-4210.6658373239197,-147.59991575686493,-159.38734488998864,-697.70278460811278,-25.600054086007113,-84.244310355821639,2180.6813398995523,-3038.1970765008637,473.66082372600226,-473.66082372600226,3038.1970765008637,4272.0744468247367,0.0
558204.59901257406,4127374.0504322448,-7500.0,-5173.6299776779242,-167.11469939095701,-180.67055455133649,-908.24450444079957,-29.494485898598491,-115.79261662139295,2689.8611744686027,-3739.2574938704101,601.86818421443877,-601.86818421443877,3739.2574938704101,5274.3626952696932,0.0
563204.59901257406,4127374.0504322448,-7500.0,-6438.064002223241,-188.71766893384998,-207.66597145158249,-1200.1786987639302,-33.285155046373369,-161.47894825978284,3362.8043069734576,-4660.4326146989188,773.95527953291571,-773.95527953291571,4660.4326146989188,6598.4248050984861,0.0
568204.59901257406,4127374.0504322448,-7500.0,-8124.6521323524203,-212.08946371818396,-244.55091257246053,-1611.4751913961336,-35.903553825647968,-228.20508042173242,4267.2919180948293,-5889.2924384543367,1007.347819254654,-1007.347819254654,5889.2924384543367,8375.8246833923204,0.0
573204.59901257406,4127374.0504322448,-7500.0,-10413.33933583129,-236.77812389418801,-300.53932761007059,-2200.0691590974079,-34.701846383186705,-325.67665937763979,5505.7139530155018,-7555.3991089744086,1326.3319344168672,-1326.3319344168672,7555.3991089744086,10803.141408476889,0.0
578204.59901257406,4127374.0504322448,-7500.0,-13578.738753339769,-263.16575358886894,-397.15029714216621,-3054.3955184428937,-23.089862488820188,-465.4340860638099,7236.6388052055518,-9853.8784841133438,1762.9261946901593,-1762.9261946901593,9853.8784841133438,14179.429188676231,0.0
583204.59901257406,4127374.0504322448,-7500.0,-18053.113639865329,-297.17522043018062,-587.61139635572772,-4307.904894909735,15.903301409268158,-653.26048640011845,9713.9469336548354,-13084.930858191539,2352.4124895450814,-2352.4124895450814,13084.930858191539,18969.48380748061,0.0
588204.59901257406,4127374.0504322448,-7500.0,-24549.697470745672,-370.84696287685358,-1012.5539826781983,-6156.8660785032725,128.17989185308099,-858.03286210481315,13365.911327184713,-17724.330832796706,3105.5763843683999,-3105.5763843683999,17724.330832796706,25919.893104158011,0.0
593204.59901257406,4127374.0504322448,-7500.0,-34334.892021889311,-633.38693612108966,-2076.5035654930743,-8885.1621253614667,443.64173544240532,-909.13513038116957,18980.696126675139,-24557.387414950521,3880.9429577669416,-3880.9429577669416,24557.387414950521,36307.796797675903,0.0
598204.59901257406,4127374.0504322448,-7500.0,-49842.486471591903,-1769.9031385688534,-5092.35482142208,-12956.674510397579,1332.7641702804049,-245.28563344512909,28176.343561220598,-34881.414406659242,3787.9885544972785,-3787.9885544972785,34881.414406659242,52548.340051477164,0.0
603204.59901257406,4127374.0504322448,-7500.0,-75150.396775854955,-6854.0648652803638,-15144.333494216355,-19417.275106599802,3758.8110150225125,2151.6533580366577,44117.815139988335,-49746.010421107385,-1822.1665520389142,1822.1665520389142,49746.010421107385,79070.570930634756,0.0
608204.59901257406,4127374.0504322448,-7500.0,-102687.02015295321,-24413.78843980997,-55214.488794231722,-28470.024322092435,10082.261574308734,4013.5482595217386,66075.582419246042,-55151.320309060327,-33887.892632741808,33887.892632741808,55151.320309060327,114446.44381197164,0.0
613204.59901257406,4127374.0504322448,-7500.0,-6116.2907839234995,6358.2971367019136,-112115.01656018361,1421.7830708916158,53426.815356639432,-10110.999400760524,74343.916461830042,32781.232785008659,-56915.202843108476,56915.202843108476,-32781.232785008659,139709.96945847187,1.0
618204.59901257406,4127374.0504322448,-7500.0,742499.33351756819,-1328747.586594288,2173057.7276389934,379824.55011930253,-790513.09592016786,521792.38014946441,1658352.507526824,-80423.940902030881,40384.219960489114,-40384.219960489114,80423.940902030881,3164677.9363408065,1.0
623204.59901257406,4127374.0504322448,-7500.0,-395362.14122318575,20251.906404715133,126598.8346997074,-51535.558235666365,21680.297357211632,-4751.7862396956289,266698.95808859856,-335679.83067778184,151211.28975281736,-151211.28975281736,335679.83067778184,481398.60201447358,1.0
628204.59901257406,4127374.0504322448,-7500.0,-69080.264357408058,101526.70891706001,180604.93948894384,19516.238599227152,-31760.753398985657,-16634.394296582974,166490.70084323897,-119799.54934770988,193628.78495376994,-193628.78495376994,119799.54934770988,295110.51742759452,1.0
633204.59901257406,4127374.0504322448,-7500.0,2269.8706722674915,34340.228334196952,16127.172768042745,7817.5329412615511,-14514.442511101697,-6338.0698466647391,39673.300147072827,-6470.7980706179806,36091.593102555147,-36091.593102555147,6470.7980706179806,68836.812301021491,0.0
638204.59901257406,4127374.0504322448,-7500.0,-7217.5118701490583,-1573.6623989795896,-12091.887873037751,6511.2167758616342,-2480.0589504531886,-954.75570404757559,8162.245961508499,-1119.9038911094781,-6880.6604029284299,6880.6604029284299,1119.9038911094781,15702.796996694859,0.0
643204.59901257406,4127374.0504322448,-7500.0,-13606.019523403824,-10050.771315048612,-11591.639167250847,5886.4924238817366,1493.1291601248804,-483.58234430099856,13142.477184225379,-5328.8587390157436,-12330.281962908703,12330.281962908703,5328.8587390157436,23738.517253152684,0.0
648204.59901257406,4127374.0504322448,-7500.0,-15006.032804159682,-10117.487696578128,-7726.6413001692308,5132.6055521869712,2211.5984003584217,-663.92713387588765,12366.707434326685,-7658.287131308115,-9986.0427551874291,9986.0427551874291,7658.287131308115,23560.11093242162,0.0
653204.59901257406,4127374.0504322448,-7500.0,-13957.035183110702,-8153.6085771295311,-4783.6706482702139,4207.9707094578671,1907.0651932096303,-667.75969820038324,10277.167608042886,-8031.9507422755232,-6935.5987986800283,6935.5987986800283,8031.9507422755232,20058.011748212935,0.0
658204.59901257406,4127374.0504322448,-7500.0,-12050.298192288588,-6130.3397644643892,-2968.1996013325188,3300.2278133920572,1427.662717775074,-554.71367299358167,8197.0285684354112,-7398.0347044463961,-4609.826708502902,4609.826708502902,7398.0347044463961,16179.0394196488,0.0
663204.59901257406,4127374.0504322448,-7500.0,-10055.114047728046,-4517.0263427317177,-1898.7735294142535,2528.8419421992062,1019.2131071178569,-421.96090038748616,6458.0458487510987,-6415.130069065829,-3044.5278074962798,3044.5278074962798,6415.130069065829,12816.565241821454,0.0
668204.59901257406,4127374.0504322448,-7500.0,-8271.7206180950416,-3328.4557923494294,-1265.2868964379497,1921.7103080592651,719.2868318482673,-309.06618793146481,5090.1403260839379,-5407.8951544915399,-2028.7522051343642,2028.7522051343642,5407.8951544915399,10127.73689455671,0.0
673204.59901257406,4127374.0504322448,-7500.0,-6778.9561491909108,-2474.7618590776742,-880.07945252752336,1461.4658306977644,509.83951294379318,-223.49475503150063,4039.5290382122053,-4504.7805119925597,-1372.6336455661092,1372.6336455661092,4504.7805119925597,8041.2534350108399,0.0
678204.59901257406,4127374.0504322448,-7500.0,-5565.7463577129556,-1863.7335612972038,-637.59230435904578,1118.0327903847601,365.57821178137823,-161.61514702729764,3236.6789783148661,-3740.4756353362018,-945.09415008689325,945.09415008689325,3740.4756353362018,6436.6441563542703,0.0
683204.59901257406,4127374.0504322448,-7500.0,-4591.6761300024218,-1423.5659682762625,-479.13527166785593,862.69900235096679,265.98508526796905,-117.64035905164528,2619.8876844591982,-3110.6365507848104,-662.40980423797487,662.40980423797487,3110.6365507848104,5201.436972833847,0.0
688204.59901257406,4127374.0504322448,-7500.0,-3812.0671751752147,-1102.9695999693026,-371.67522416302165,672.27879917043708,196.55119165728229,-86.479968012544774,2142.1576701978029,-2597.5110495826598,-472.32734390139194,472.32734390139194,2597.5110495826598,4245.0224798090658,0.0
693204.59901257406,4127374.0504322448,-7500.0,-3186.9892359668693,-866.41806239243613,-296.19253290444095,529.30490610063202,147.49934053565926,-64.298638356209494,1768.7585162830451,-2180.8800386562702,-342.27453210198382,342.27453210198382,2180.8800386562702,3498.3765458205389,0.0
698204.59901257406,4127374.0504322448,-7500.0,-2683.5663955154901,-689.49973558610918,-241.43220320684702,421.01950427471343,112.33887887033487,-48.375385823198506,1474.0995392915602,-1842.2303023070244,-251.76820959568829,251.76820959568829,1842.2303023070244,2910.0898609748874,0.0
703204.59901257406,4127374.0504322448,-7500.0,-2275.7160936274586,-555.39431046699485,-200.53674948900286,338.21819192207596,86.760670767608929,-36.825912268139518,1239.3194686567201,-1565.9749371961361,-187.75377928057333,187.75377928057333,1565.9749371961361,2442.1394912431579,0.0
708204.59901257406,4127374.0504322448,-7500.0,-1943.0997115442772,-452.41911885219349,-169.20329691852152,274.27739478541889,67.882785156550952,-28.355031631596582,1050.4716904486042,-1339.4945271359652,-141.78196683997771,141.78196683997771,1339.4945271359652,2066.3868512930562,0.0
713204.59901257406,4127374.0504322448,-7500.0,-1669.9619087515584,-372.37238189949147,-144.6527061157359,224.41636235351783,53.756354994595476,-22.071379843002596,897.18085131235785,-1152.7597707512828,-108.29555682859655,108.29555682859655,1152.7597707512828,1761.9051310495663,0.0
718204.59901257406,4127374.0504322448,-7500.0,-1444.1117680960492,-309.42751241401595,-125.03947865180886,185.1639608717806,43.04666325348952,-17.357892780187008,771.67070930580405,-997.86660489172027,-83.580471431072567,83.580471431072567,997.86660489172027,1513.0231670094472,0.0
723204.59901257406,4127374.0504322448,-7500.0,-1256.0934282413491,-259.39412745350171,-109.10532624355116,153.98032771372996,34.82728073998863,-13.783828648378305,668.06322374451315,-868.5999452859478,-65.11567027863282,65.11567027863282,868.5999452859478,1307.9086742301131,0.0
523204.59901257406,4132374.0504322448,-7500.0,-1542.3188354136623,37.090386448624727,-88.501994468994454,-189.39154480204365,3.9701403573123089,-16.928882085216795,786.33031668378067,-1109.8921054953842,229.30852603981361,-229.30852603981361,1109.8921054953842,1527.9208623631671,0.0
528204.59901257406,4132374.0504322448,-7500.0,-1792.4632968761198,53.112172946029432,-98.887065368264643,-230.17613731588017,6.2731785866511665,-21.542023116499461,915.71923877567235,-1292.0292625524107,276.71265960625044,-276.71265960625044,1292.0292625524107,1781.2064344973321,0.0
533204.59901257406,4132374.0504322448,-7500.0,-2098.0799818964274,75.129846035304212,-111.10843633942568,-282.29677447242756,9.6337486635063989,-27.711017440662367,1074.4012420040774,-1514.9072337542532,336.84047508740014,-336.84047508740014,1514.9072337542532,2092.129457257679,0.0
538204.59901257406,4132374.0504322448,-7500.0,-2474.9287103399438,105.62159226783778,-125.68360037408084,-349.64939969408033,14.568981234144379,-36.064037692057582,1270.9355931558682,-1790.1631110108051,413.92732418022479,-413.92732418022479,1790.1631110108051,2477.5776896241496,0.0
543204.59901257406,4132374.0504322448,-7500.0,-2944.2676537683224,148.23855304701851,-143.3639744242769,-437.73250818007853,21.879783607826216,-47.52360328668609,1516.9805415269129,-2133.5003057897184,513.90225445729084,-513.90225445729084,2133.5003057897184,2960.5533051484208,0.0
548204.59901257406,4132374.0504322448,-7500.0,-3535.138233107768,208.44243275312928,-165.28542086625802,-554.41342915580526,32.827604239681563,-63.460603508800723,1828.6447001834306,-2566.3722226945774,645.18171842358493,-645.18171842358493,2566.3722226945774,3572.8296021684655,0.0
553204.59901257406,4132374.0504322448,-7500.0,-4287.7568223339276,294.53985951485078,-193.24068797942039,-711.10687650219847,49.436342846192005,-85.932659269621979,2228.5344274389972,-3118.4719178909204,819.8903581240279,-819.8903581240279,3118.4719178909204,4358.9636215906021,0.0
558204.59901257406,4132374.0504322448,-7500.0,-5258.626997250567,419.39092119888909,-230.1891370472726,-924.60283562301606,75.01905464844549,-118.04600113488233,2748.9137699981029,-3831.4631004552671,1055.7646686385456,-1055.7646686385456,3831.4631004552671,5382.4612593312258,0.0
563204.59901257406,4132374.0504322448,-7500.0,-6528.3962985951812,603.29420026386435,-281.24484745554662,-1219.913425186681,115.11962531457921,-164.47617152525871,3436.6928563935444,-4764.665559952402,1379.1705115028412,-1379.1705115028412,4764.665559952402,6735.4452960369317,0.0
568204.59901257406,4132374.0504322448,-7500.0,-8214.2081294656746,878.96175899743525,-355.66612785357927,-1634.6805018573739,179.23798407589999,-232.10931733271357,4361.5055861823075,-6003.8810830624961,1829.9526291292941,-1829.9526291292941,6003.8810830624961,8554.1549072480229,0.0
573204.59901257406,4132374.0504322448,-7500.0,-10489.815960279091,1300.3069411703461,-471.02625557652283,-2225.8443564748013,284.07555118494292,-330.41837071599275,5629.2630379642751,-7675.5061686284525,2469.3564590388896,-2469.3564590388896,7675.5061686284525,11044.558797500355,0.0
578204.59901257406,4132374.0504322448,-7500.0,-13620.32715651266,1958.3706071654328,-662.35936965530391,-3079.1447604297537,459.80585847862176,-469.85806612142363,7406.1469303571866,-9970.313726505703,3393.2169102603457,-3393.2169102603457,9970.313726505703,14526.655484376422,0.0
583204.59901257406,4132374.0504322448,-7500.0,-18028.960851065658,3011.0956086399465,-1003.2699610601979,-4320.8301900634906,762.51501065678565,-651.78538541657781,9965.150951559086,-13187.890806222003,4754.6536699469652,-4754.6536699469652,13187.890806222003,19517.557678615405,0.0
588204.59901257406,4132374.0504322448,-7500.0,-24450.336908947829,4741.5301230126233,-1657.6429512731615,-6127.3889387996051,1299.4701910908557,-827.01717737319632,13791.489647904027,-17836.783043505591,6806.2545798913889,-6806.2545798913889,17836.783043505591,26912.374732810669,0.0
593204.59901257406,4132374.0504322448,-7500.0,-34376.187955767833,7681.6356677863669,-3015.6855908278158,-8727.358530463016,2281.132656071682,-748.33036048426436,19879.430678766097,-24926.923069003817,9994.5246193619969,-9994.5246193619969,24926.923069003817,38481.957412853539,0.0
598204.59901257406,4132374.0504322448,-7500.0,-51687.393438736101,12932.791264648296,-6086.2688061830777,-12447.288476743284,4125.2489004843965,479.3830584316043,30768.535753719287,-37065.581792724421,15259.162607295792,-15259.162607295792,37065.581792724421,58648.109411648831,0.0
603204.59901257406,4132374.0504322448,-7500.0,-89905.365424788382,23435.098967266131,-13826.093410704827,-18284.451328890973,7608.5052840584085,5227.4931757259619,54715.902885221345,-63454.221916465351,25471.917235359721,-25471.917235359721,63454.221916465351,102102.5020199679,0.0
608204.59901257406,4132374.0504322448,-7500.0,-213978.05608655521,53336.158026969475,-38609.120992499651,-31000.485466520138,13134.242400564668,13534.575030544822,125959.88864519453,-148908.79328242553,55473.827005148778,-55473.827005148778,148908.79328242553,233564.69211209961,1.0
613204.59901257406,4132374.0504322448,-7500.0,-1124047.1056695669,232752.14437133615,-257007.5820374742,-212955.81983272303,-4140.2112143695249,-125287.12764818012,578509.00711858599,-760226.26826786576,223127.34237008385,-223127.34237008385,760226.26826786576,1087169.3996097983,1.0
618204.59901257406,4132374.0504322448,-7500.0,-677604.43790820579,-304762.87143425364,1350910.8206634503,363430.40338696266,337235.62956673728,65120.336064906005,1178604.134032381,-930764.32640229305,625254.61193019478,-625254.61193019478,930764.32640229305,2043515.4793855159,1.0
623204.59901257406,4132374.0504322448,-7500.0,-8720.578774279822,-96564.647262975472,29735.05790631918,11481.923512328083,-38763.070791872386,17837.371208521989,106390.20065790939,-8836.0579888342036,-58934.671013574582,58934.671013574582,8836.0579888342036,184500.08618324209,1.0
628204.59901257406,4132374.0504322448,-7500.0,-31087.520014165526,-11120.435461901159,76549.719424622002,199.35072122126681,-20850.335858152037,3252.4720612603401,57714.714410414264,-47839.541547673944,39154.412327531099,-39154.412327531099,47839.541547673944,103653.60299239395,0.0
633204.59901257406,4132374.0504322448,-7500.0,-240.50243204005315,13376.554246746971,29225.2089975364,-278.91335351534082,-9793.0544669976989,-825.86423054420379,22160.630896474668,-11083.033728848108,27128.363124490075,-27128.363124490075,11083.033728848108,41358.924505218827,0.0
638204.59901257406,4132374.0504322448,-7500.0,5421.6345501638334,4087.933804521077,439.24148908935024,200.69525563164095,-2719.0866001709605,-351.86474009202948,5810.3204031413479,3525.7272858278006,2631.6465259832553,-2631.6465259832553,-3525.7272858278006,10090.908374014918,0.0
643204.59901257406,4132374.0504322448,-7500.0,1374.797681592672,-3725.8561872342025,-7221.3327988412539,1177.2074107425783,654.61759901265953,-237.43629993773885,5871.5760073155643,3741.2244465817907,-7251.5421495810897,7251.5421495810897,-3741.2244465817907,10474.86617709309,0.0
648204.59901257406,4132374.0504322448,-7500.0,-2728.8215800858243,-6525.9091329694438,-7214.8735114368164,1824.5397754311534,1702.9868540228388,-344.18293146532699,7212.1809518509563,935.18147157959629,-8818.3958366298102,8818.3958366298102,-935.18147157959629,13526.218064083085,0.0
653204.59901257406,4132374.0504322448,-7500.0,-5005.8687269423681,-6594.8217286807785,-5503.5719393429044,1994.4968041693371,1721.9785642923207,-386.13846566840778,6908.8399610851238,-1314.5610839818905,-7543.8528962540968,7543.8528962540968,1314.5610839818905,13236.070969076745,0.0
658204.59901257406,4132374.0504322448,-7500.0,-5802.0483882256885,-5667.8119696311041,-3878.5803954515413,1859.2466641228232,1418.7219835523472,-352.8986845162483,6011.1092194882149,-2522.2381493995381,-5762.6470350712207,5762.6470350712207,2522.2381493995381,11648.720307957599,0.0
663204.59901257406,4132374.0504322448,-7500.0,-5744.568383940903,-4561.3306857812986,-2682.7227063863738,1598.2951235360397,1081.9722930894989,-289.50403255668243,5017.9223515496233,-2970.2104929166453,-4217.3533544641095,4217.3533544641095,2970.2104929166453,9799.1279068997846,0.0
668204.59901257406,4132374.0504322448,-7500.0,-5286.7521541937831,-3573.235904725766,-1868.1349483190747,1317.7241092044897,800.69337147685508,-224.93646092394599,4117.9016749472721,-2985.256186678479,-3045.4304380674794,3045.4304380674794,2985.256186678479,8089.565877890961,0.0
673204.59901257406,4132374.0504322448,-7500.0,-4688.1650558167912,-2775.4574714939645,-1324.7992463184319,1064.3922921505559,587.56999554787706,-170.37275677495731,3362.5082158187274,-2790.1053341858933,-2200.493118368835,2200.493118368835,2790.1053341858933,6638.6511848989267,0.0
678204.59901257406,4132374.0504322448,-7500.0,-4079.1665809840879,-2157.6866310484884,-961.35311252418421,852.57364438706907,432.20222474208617,-127.81532305857291,2749.3345659674123,-2512.4507195339411,-1601.9136623391978,1601.9136623391978,2512.4507195339411,5451.8105210091353,0.0
683204.59901257406,4132374.0504322448,-7500.0,-3517.3115293407636,-1687.0700330038476,-714.79795699314411,681.92712276076224,320.42361004109358,-95.825000987533798,2258.4520588819883,-2218.5399471965584,-1178.7830838606751,1178.7830838606751,2218.5399471965584,4495.9530151287399,0.0
688204.59901257406,4132374.0504322448,-7500.0,-3022.7388725830515,-1329.9286423694202,-544.28248131856242,546.84813219910563,240.06509949648071,-72.153796469532921,1867.1860900692395,-1939.6423833243339,-878.02522304993988,878.02522304993988,1939.6423833243339,3729.8733103634859,0.0
693204.59901257406,4132374.0504322448,-7500.0,-2597.7557641691378,-1058.1634349366705,-423.8019472428245,440.66705037988015,181.96646055386341,-54.71620915630929,1561.3492592629161,-1688.4397213018128,-662.23961064600815,662.23961064600815,1688.4397213018128,3115.3975862729844,0.0
698204.59901257406,4132374.0504322448,-7500.0,-2236.9997283267776,-850.07761808057819,-336.79334982820188,357.27996543272792,139.58306456366572,-41.847156146795676,1317.204263732116,-1468.2732158652643,-505.67803672646431,505.67803672646431,1468.2732158652643,2620.5971196892388,0.0
703204.59901257406,4132374.0504322448,-7500.0,-1932.4440384786717,-689.46936973728532,-272.60307525733259,291.62512971089728,108.33550874029464,-32.298655478673162,1118.8204315068781,-1278.095195390101,-390.72697641863948,390.72697641863948,1278.095195390101,2219.9402668903044,0.0
708204.59901257406,4132374.0504322448,-7500.0,-1675.7272767043305,-564.40417723001167,-224.27762649601195,239.69282589590443,85.038182189989257,-25.161870630276571,956.61581541567193,-1115.0276014842962,-305.31031022378278,305.31031022378278,1115.0276014842962,1893.4276645804582,0.0
713204.59901257406,4132374.0504322448,-7500.0,-1459.1479382473947,-466.12294794110949,-187.20129807519618,198.37771492048196,67.470907332518379,-19.783017083627506,823.13033047506735,-975.64038337188322,-241.09201844218188,241.09201844218188,975.64038337188322,1625.5319705862801,0.0
718204.59901257406,4132374.0504322448,-7500.0,-1276.0034746363801,-388.18435527879888,-158.25493879048028,165.29940686571973,54.076754417640736,-15.693321786530616,712.55368149269111,-856.55258278772112,-192.26449548810677,192.26449548810677,856.55258278772112,1404.2220236086548,0.0
723204.59901257406,4132374.0504322448,-7500.0,-1120.6324054852264,-325.8276205261065,-135.29225551633604,138.63982155463691,43.754664845524687,-12.556048767390173,620.35566153219258,-754.69014320382257,-154.73913816342707,154.73913816342707,754.69014320382257,1220.1613119972724,0.0
523204.59901257406,4137374.0504322448,-7500.0,-1535.6371287620843,144.03053964534519,-105.7846908615594,-188.77349648159139,18.087971256983284,-16.89819849803531,789.66294025406444,-1107.5743198783043,303.84620406699611,-303.84620406699611,1107.5743198783043,1532.8390595829037,0.0
528204.59901257406,4137374.0504322448,-7500.0,-1779.2022231571968,183.79503074902684,-121.56064580524016,-228.82092972909473,24.220009716493049,-21.456933069511873,918.23995775902506,-1284.9170986021886,366.10215882687919,-366.10215882687919,1284.9170986021886,1784.3517446932296,0.0
533204.59901257406,4137374.0504322448,-7500.0,-2074.8831038565431,236.27242731474371,-141.20811009063982,-279.75663908441447,32.694131291600371,-27.531620495771907,1075.443716508503,-1500.3704081600727,444.75519354750634,-444.75519354750634,1500.3704081600727,2092.2014101985073,0.0
538204.59901257406,4137374.0504322448,-7500.0,-2436.7111717187358,306.26561915546216,-166.15664166143432,-345.20845155637915,44.544902545422055,-35.722687822137999,1269.4428975048404,-1764.1732526782814,545.10366211731775,-545.10366211731775,1764.1732526782814,2472.5378770763487,0.0
543204.59901257406,4137374.0504322448,-7500.0,-2883.2347676620502,400.70633236304315,-198.54776768636484,-430.23303879646483,61.334969354811562,-46.90455328824897,1511.2702645968691,-2089.8218248436769,674.47505579850588,-674.47505579850588,2089.8218248436769,2947.1916380584262,0.0
548204.59901257406,4137374.0504322448,-7500.0,-3439.1754606481709,529.74847318334832,-241.67543339611902,-541.95733705195551,85.463788258530499,-62.363604345742985,1816.0189043342964,-2495.2280595433995,843.11881939046248,-843.11881939046248,2495.2280595433995,3546.050551243392,0.0
553204.59901257406,4137374.0504322448,-7500.0,-4137.732872678258,708.50479616132077,-300.74945017077397,-690.53196723343535,120.68060488593088,-84.006601811566952,2204.6194179347644,-3004.2980601191471,1065.5359157767803,-1065.5359157767803,3004.2980601191471,4310.590414324347,0.0
558204.59901257406,4137374.0504322448,-7500.0,-5023.7729477833172,959.85517882410988,-384.25795282962713,-890.54431274594356,172.95177829493784,-114.66680003950631,2706.5192636118659,-3649.0442769671736,1362.4698091980335,-1362.4698091980335,3649.0442769671736,5299.1944046830813,0.0
563204.59901257406,4137374.0504322448,-7500.0,-6158.173663685141,1319.0727250406562,-506.47354852054002,-1163.0816809607459,251.95077045149299,-158.51983172724547,3363.7886403005155,-4472.3086405022013,1763.8926208245896,-1763.8926208245896,4472.3086405022013,6595.2929552708765,0.0
568204.59901257406,4137374.0504322448,-7500.0,-7623.5616826887854,1841.6040650296982,-692.22642743661038,-1538.6234118265418,373.65206273874765,-221.53153561089223,4237.5297022294808,-5530.9955073149358,2313.4595248462242,-2313.4595248462242,5530.9955073149358,8320.0334373908609,0.0
573204.59901257406,4137374.0504322448,-7500.0,-9531.4290995936772,2616.4534786038662,-986.35991050837754,-2060.703177918449,564.87359642688841,-311.50169561068498,5418.1328559784752,-6899.1854025055236,3075.027333730488,-3075.027333730488,6899.1854025055236,10652.444645007938,0.0
578204.59901257406,4137374.0504322448,-7500.0,-12029.902814103036,3789.8457452303478,-1473.3565181390602,-2789.297620128893,871.15087534506267,-436.01230085709068,7042.3466533425726,-8669.1121163823609,4141.7668948922492,-4141.7668948922492,8669.1121163823609,13862.668303046212,0.0
583204.59901257406,4137374.0504322448,-7500.0,-15310.06541813341,5608.7518690030884,-2320.5415564251293,-3799.824076616771,1369.7513696274957,-592.43655413073293,9323.9178947948822,-10944.691118852665,5647.6455700522311,-5647.6455700522311,10944.691118852665,18370.636251456297,0.0
588204.59901257406,4137374.0504322448,-7500.0,-19606.973770254925,8506.4808165325048,-3881.0324752304286,-5165.7321797197737,2188.0602331519558,-731.24359862859103,12617.006085806166,-13814.318262813349,7778.0556469701605,-7778.0556469701605,13814.318262813349,24864.786984860129,0.0
593204.59901257406,4137374.0504322448,-7500.0,-25187.111310556225,13292.598619836963,-6968.9231642298491,-6899.377253582451,3515.83146996306,-639.38006550703972,17578.792657806593,-17263.840322163414,10764.742119682465,-10764.742119682465,17263.840322163414,34601.232184243476,0.0
598204.59901257406,4137374.0504322448,-7500.0,-32211.576013087022,21650.382564690593,-13732.576742317244,-8838.4455666755748,5551.1486115689449,353.20891891951834,25664.089243206789,-20820.578888124874,14770.041704620975,-14770.041704620975,20820.578888124874,50330.818621660008,0.0
603204.59901257406,4137374.0504322448,-7500.0,-38791.453453871749,37361.637149649556,-31134.00537403988,-10635.320204432825,8189.2276239928751,3581.3234000765792,40484.892972316018,-21043.783907999365,18595.212282417066,-18595.212282417066,21043.783907999365,79106.369130075647,0.0
608204.59901257406,4137374.0504322448,-7500.0,-18455.472407035486,59957.91249486804,-85561.772373704953,-11542.429812366687,10009.294311836918,7488.6674784847492,70703.075882706966,10509.52267019938,2762.4175098997971,-2762.4175098997971,-10509.52267019938,135655.68145551777,0.0
613204.59901257406,4137374.0504322448,-7500.0,129550.9349840918,-94715.47241427176,-86772.263899736441,1431.4734628355773,-5426.8040222159598,-860.82486692619659,143888.34937558422,132205.35476938522,-145265.70898561724,145265.70898561724,-132205.35476938522,250198.77001739488,0.0
618204.59901257406,4137374.0504322448,-7500.0,55607.071331791434,53151.995670545773,371786.96993429773,-6976.2533559302929,-45607.521860101318,-7612.2868496956253,199458.59235739033,-88523.548300075592,242257.66471578181,-242257.66471578181,88523.548300075592,372581.06796147185,0.0
623204.59901257406,4137374.0504322448,-7500.0,86507.04415375914,41548.407444889213,88581.814743045528,-3085.769253638769,-30697.51185147843,-5683.7769623653476,74559.845404881111,30627.233619302806,68919.271110141897,-68919.271110141897,-30627.233619302806,129341.08038907051,0.0
628204.59901257406,4137374.0504322448,-7500.0,33170.621133119319,9295.9955153120754,41031.03073778806,-5533.0121196859445,-18853.69860778482,825.82617075450685,30346.397649280381,9885.7082974218702,25100.79008075787,-25100.79008075787,-9885.7082974218702,52722.767928905727,0.0
633204.59901257406,4137374.0504322448,-7500.0,17443.805269467521,9705.7379776922917,21544.994149421433,-4819.7198477688989,-9263.2524596402855,916.70357377921073,17711.664204114248,4829.7975512520761,17025.352674733542,-17025.352674733542,-4829.7975512520761,31104.055878322193,0.0
638204.59901257406,4137374.0504322448,-7500.0,13164.802460050334,6232.7688511840724,5238.698006709883,-3202.7560319371955,-3570.430101189816,525.61679080801582,9591.6971827447596,7446.1071248085264,5786.7036897304224,-5786.7036897304224,-7446.1071248085264,17548.553072744027,0.0
643204.59901257406,4137374.0504322448,-7500.0,8807.6851241097902,1040.773045876562,-2807.7149394720632,-1593.1628655922584,-542.61596936507965,216.87330137309658,6076.3279134598142,7356.222870654904,-2171.1398045392898,2171.1398045392898,-7356.222870654904,10985.502985175523,0.0
648204.59901257406,4137374.0504322448,-7500.0,4460.8524588063174,-2383.6657256484023,-5095.4279168722887,-381.25683623921054,769.21954526843365,-9.8602080927239939,5407.7680378661007,5193.4488317466321,-5485.5396301074807,5485.5396301074807,-5193.4488317466321,9372.4669095956597,0.0
653204.59901257406,4137374.0504322448,-7500.0,1153.5218949052876,-3822.3892988795019,-4884.4351636412794,339.9000710279808,1146.7667772527159,-131.21290060177304,4979.4182940783749,2798.0393889081843,-5980.0908279717096,5980.0908279717096,-2798.0393889081843,8858.5604679540684,0.0
658204.59901257406,4137374.0504322448,-7500.0,-931.64721701928738,-4036.8126321828699,-3951.0949653157245,676.02752357263671,1110.4469648334789,-171.00528078859227,4434.8641766260043,963.42706660135673,-5289.6789585641855,5289.6789585641855,-963.42706660135673,8120.9756277504821,0.0
663204.59901257406,4137374.0504322448,-7500.0,-2055.1995317581982,-3684.9475120869488,-2996.2798560219812,775.01668991951192,935.27751935616334,-166.32573612666863,3832.2838928786787,-214.29757627797426,-4290.8843022777783,4290.8843022777783,214.29757627797426,7168.9439655177866,0.0
668204.59901257406,4137374.0504322448,-7500.0,-2546.2348703833482,-3146.7954474865101,-2221.0929991134262,751.15613063301532,741.77055057039945,-143.73864465783726,3250.9238213996937,-879.9540021684611,-3346.6470821191037,3346.6470821191037,879.9540021684611,6176.317288185217,0.0
673204.59901257406,4137374.0504322448,-7500.0,-2664.0896496719247,-2601.7484777823147,-1641.9678512415792,674.49181343255339,572.82393349884558,-117.31316826812498,2732.4037243114508,-1205.0066875380976,-2567.3926282406455,2567.3926282406455,1205.0066875380976,5252.0636401459451,0.0
678204.59901257406,4137374.0504322448,-7500.0,-2580.7287978308113,-2119.404473387181,-1222.9807607021357,582.43025828600059,437.97410115706163,-93.053203893927929,2289.4468004109349,-1322.8268300401983,-1960.6625169118429,1960.6625169118429,1322.8268300401983,4441.073953551142,0.0
683204.59901257406,4137374.0504322448,-7500.0,-2400.3092047391906,-1717.4503563991361,-922.54845667540189,492.75109721288737,334.54159203036704,-72.840683279984063,1919.6781428006063,-1322.8073279221801,-1500.3661302838407,1500.3661302838407,1322.8073279221801,3751.6019598872417,0.0
688204.59901257406,4137374.0504322448,-7500.0,-2182.2246731156197,-1392.0349144651361,-706.51561508441534,412.67761137278228,256.5545647579666,-56.761407052439367,1614.5347015696718,-1260.5421052935567,-1154.6394735143922,1154.6394735143922,1260.5421052935567,3174.9643622010371,0.0
693204.59901257406,4137374.0504322448,-7500.0,-1958.5664982044254,-1132.075318530387,-549.75820635224375,344.20662505764,198.06955893175882,-44.256969355558873,1363.8878330865034,-1169.0272416263565,-895.33704780426797,895.33704780426797,1169.0272416263565,2696.3567032614783,0.0
698204.59901257406,4137374.0504322448,-7500.0,-1745.5352622866719,-925.40365490803595,-434.6021504677442,286.97037745988689,154.16307013291967,-34.631120757536195,1158.1387166519653,-1067.12062760599,-700.2022744963765,700.2022744963765,1067.12062760599,2300.0713549006277,0.0
703204.59901257406,4137374.0504322448,-7500.0,-1550.3923960646791,-761.08280761517949,-348.82399024878691,239.68005728008831,121.04552332822196,-27.243848023904324,989.13442279778349,-965.15706126190707,-552.468018244836,552.468018244836,965.15706126190707,1971.7042695172372,0.0
708204.59901257406,4137374.0504322448,-7500.0,-1375.5405705780656,-630.04711687168174,-283.99910000206955,200.8131136370292,95.896689967189545,-21.568099744335662,851.59807101837669,-868.46204074074342,-439.78002000678305,439.78002000678305,868.46204074074342,1698.8912518258123,0.0
713204.59901257406,4137374.0504322448,-7500.0,-1220.8554653954698,-525.06805716212682,-234.29826928753295,168.91438949196262,76.648959070827758,-17.191355785217887,739.42607459318481,-779.47878703167942,-353.11642555721494,353.11642555721494,779.47878703167942,1471.3700066915978,0.0
718204.59901257406,4137374.0504322448,-7500.0,-1084.9933587716025,-440.49196414879009,-195.65561610244242,142.70886282402134,61.79423114987911,-13.798870986277684,645.43174017715546,-699.03318478478275,-285.89965147515773,285.89965147515773,699.03318478478275,1280.7724678902416,0.0
723204.59901257406,4137374.0504322448,-7500.0,-966.10919192213157,-371.93669044408699,-165.20597573082986,121.12695584943488,50.232079696933511,-11.153438060824477,566.042711133843,-627.0766066532949,-233.32219132451544,233.32219132451544,627.0766066532949,1120.3370152940895,0.0
523204.59901257406,4142374.0504322448,-7500.0,-1489.933812645736,242.67159589046685,-134.27794014923296,-183.70095758807324,31.267319233896558,-16.510014377770659,780.35410162498385,-1072.0616595164333,359.15421908120527,-359.15421908120527,1072.0616595164333,1513.9895906865447,0.0
528204.59901257406,4142374.0504322448,-7500.0,-1716.3539161235576,302.78429010277017,-158.48441943346575,-221.5582970453697,40.789175196142303,-20.875464101484766,904.63111617829293,-1235.5301985209758,430.13742297929468,-430.13742297929468,1235.5301985209758,1757.1456609216191,0.0
533204.59901257406,4142374.0504322448,-7500.0,-1988.0297061527658,380.76358054141389,-189.58113210515558,-269.28703407769939,53.708266280026244,-26.653468273608908,1055.6748194988932,-1431.4417476476642,518.82465819646382,-518.82465819646382,1431.4417476476642,2053.076396141631,0.0
538204.59901257406,4142374.0504322448,-7500.0,-2315.8835469179003,482.91286625161928,-230.2746085161335,-329.98518215558039,71.440907375004443,-34.383162957410455,1240.7699664384172,-1667.4316192255044,630.49141147417481,-630.49141147417481,1667.4316192255044,2416.2548773750373,0.0
543204.59901257406,4142374.0504322448,-7500.0,-2713.7423855892448,618.12119583583478,-284.60934837707583,-407.86736699656984,96.084605489179523,-44.837379710753147,1469.5885784035013,-1953.0289067856691,772.19439967562334,-772.19439967562334,1953.0289067856691,2865.9381499888045,0.0
548204.59901257406,4142374.0504322448,-7500.0,-3199.0391746462146,799.06650077588665,-358.75745426111001,-508.6987872278379,130.78947914865856,-59.131422509113285,1755.0924513463081,-2300.0021997306335,953.40149697557524,-953.40149697557524,2300.0021997306335,3427.9966745797378,0.0
553204.59901257406,4142374.0504322448,-7500.0,-3793.5187548880763,1044.0337455582721,-462.349436644364,-640.38707532955061,180.35371842855886,-78.879787194195799,2114.8091439972841,-2722.5746608394543,1186.8090302661999,-1186.8090302661999,2722.5746608394543,4137.5148247683092,0.0
558204.59901257406,4142374.0504322448,-7500.0,-4523.6942010513403,1379.673586087157,-610.76896586099053,-813.75413563272718,252.18626355358191,-106.41047731439939,2572.6367490124967,-3237.2044205370385,1489.3276687210671,-1489.3276687210671,3237.2044205370385,5042.4951329047517,0.0
563204.59901257406,4142374.0504322448,-7500.0,-5420.4072196724701,1845.1785337239717,-829.20784430595813,-1043.4417370353992,357.8671232516748,-145.02110662527014,3161.3778977410248,-3861.2230495060785,1883.0656741641278,-1883.0656741641278,3861.2230495060785,6209.1087116010867,0.0
568204.59901257406,4142374.0504322448,-7500.0,-6515.970983102512,2498.5155486735903,-1160.0212178172542,-1348.6881656413257,515.65344975686958,-199.16576592915038,3926.2400102116512,-4608.7418554413116,2395.708158559265,-2395.708158559265,4608.7418554413116,7729.039345594505,0.0
573204.59901257406,4142374.0504322448,-7500.0,-7835.3636657474035,3425.3483043045917,-1676.4335942920738,-1753.0987576293567,754.36599528220677,-274.15264711389358,4929.5028261159359,-5480.2445389359536,3058.512869481051,-3058.512869481051,5480.2445389359536,9729.4226302502884,0.0
578204.59901257406,4142374.0504322448,-7500.0,-9373.405658510319,4750.461371893769,-2508.8128553177603,-2280.9473200271509,1118.8473332449103,-374.02099630975999,6256.443035899586,-6437.8097976108875,3896.9757429152628,-3896.9757429152628,6437.8097976108875,12385.423581763347,0.0
583204.59901257406,4142374.0504322448,-7500.0,-11039.41093638555,6647.4350324509969,-3896.38040984496,-2943.7784847206985,1675.4269933700014,-493.77602012387615,8023.4347827524371,-7347.6483270842873,4900.5524194664631,-4900.5524194664631,7347.6483270842873,15933.905623706358,0.0
588204.59901257406,4142374.0504322448,-7500.0,-12526.113722965831,9326.1406968083593,-6290.7382736476702,-3703.5851132369216,2508.5465157779349,-596.44908868665448,10403.411835846817,-7847.610400822171,5933.3299142173209,-5933.3299142173209,7847.610400822171,20682.592031212567,0.0
593204.59901257406,4142374.0504322448,-7500.0,-12997.110920432631,12912.825068719896,-10557.765498565792,-4390.4172290270117,3675.1069280907382,-558.93714060763205,13660.230502566095,-7039.2994014141577,6474.3896079498672,-6474.3896079498672,7039.2994014141577,26997.91191365926,0.0
598204.59901257406,4142374.0504322448,-7500.0,-10323.146956460372,16853.155239275686,-18275.706020372381,-4572.0932912833432,5017.1004650579453,-107.59605157360843,18070.654684753554,-2777.6104913612526,4850.550747663422,-4850.550747663422,2777.6104913612526,35201.604720186828,0.0
603204.59901257406,4142374.0504322448,-7500.0,533.73001107397215,17173.240286991557,-31103.256520000097,-3502.668349339905,5624.28188450778,916.61193636540486,23948.76415600437,9523.2400915707658,-3855.3889680197935,3855.3889680197935,-9523.2400915707658,45051.337253841593,0.0
608204.59901257406,4142374.0504322448,-7500.0,25221.152960241438,-2671.0963495666119,-38887.194262776036,-435.76697307714744,2753.2820402681882,826.40670070479348,32264.803601474385,31908.167450249177,-28053.896491765929,28053.896491765929,-31908.167450249177,56442.825910656167,0.0
613204.59901257406,4142374.0504322448,-7500.0,30863.572690675239,-50217.631442444152,27711.042398839279,3542.4015454587416,-8345.4260822081687,-4467.9160201383966,51030.091332868396,17367.893830876375,-29493.502995114512,29493.502995114512,-17367.893830876375,94651.385156387827,0.0
618204.59901257406,4142374.0504322448,-7500.0,5234.5883551472871,-11707.764569966954,127252.28669205523,1754.953437236044,-21161.30598649001,-9183.3004322271154,71979.26018662579,-38111.624519943129,61292.463926651617,-61292.463926651617,38111.624519943129,136452.51657911707,0.0
623204.59901257406,4142374.0504322448,-7500.0,23864.421238111689,27688.968448988591,86046.175531832108,-2971.9272550471187,-21351.219472716242,-4880.1288991123829,55397.049002065505,-13597.286163990142,66567.394088422865,-66567.394088422865,13597.286163990142,100868.05231887764,0.0
628204.59901257406,4142374.0504322448,-7500.0,25835.413453330497,21417.202522992819,42270.92158011673,-5532.1743032668937,-15070.796104224095,-248.54559885472048,33041.782348075722,3105.4060868423185,36654.910201135935,-36654.910201135935,-3105.4060868423185,59401.121228019067,0.0
633204.59901257406,4142374.0504322448,-7500.0,19977.657958429103,14378.724952115754,20904.496697167277,-5507.6840306126933,-8708.9861583513048,963.17516449541426,19960.036699084492,6544.8392943430454,19984.312727847762,-19984.312727847762,-6544.8392943430454,36315.550509760476,0.0
638204.59901257406,4142374.0504322448,-7500.0,15421.070582038903,9178.7345041395201,8116.8572884573759,-4242.5400642730328,-4240.5419852412333,825.57877478361263,12161.970395271303,7906.6929555647012,9389.094275698626,-9389.094275698626,-7906.6929555647012,22813.655045125623,0.0
643204.59901257406,4142374.0504322448,-7500.0,11461.755347016133,4534.976769490514,795.74688364880478,-2772.4233373548445,-1550.9210630189496,485.6003905950347,7502.0065786426676,7822.3080519140549,2211.7690814697394,-2211.7690814697394,-7822.3080519140549,14461.710041440612,0.0
648204.59901257406,4142374.0504322448,-7500.0,7732.6258807547656,1037.7267923897759,-2502.7576818558869,-1541.5010693801257,-135.406150840793,216.44640867384703,5373.0150749828681,6461.2754906850896,-1828.4073489104067,1828.4073489104067,-6461.2754906850896,9733.4147406144002,0.0
653204.59901257406,4142374.0504322448,-7500.0,4576.1052823766586,-1071.233169801106,-3450.3598365591297,-675.83803813133773,488.33937823486735,51.316746615417124,4231.9629305419385,4620.4032788353397,-3532.931209140499,3532.931209140499,-4620.4032788353397,7355.8218415488845,0.0
658204.59901257406,4142374.0504322448,-7500.0,2214.0643597599296,-2076.0063660270685,-3314.1453337439289,-141.49904297744291,683.24855091891686,-33.058567296389455,3522.8358704696075,2912.7267360878532,-3876.1178059601798,3876.1178059601798,-2912.7267360878532,6130.0942975331463,0.0
663204.59901257406,4142374.0504322448,-7500.0,613.50229489487651,-2386.5365084081959,-2804.1892393987669,151.25092088305621,677.08560221921573,-67.365349633221513,2998.9227490553285,1585.5933081379894,-3578.5849870620054,3578.5849870620054,-1585.5933081379894,5324.2685288748053,0.0
668204.59901257406,4142374.0504322448,-7500.0,-385.01190387017596,-2327.7471629082902,-2244.0830176946047,289.55665557338762,593.37866351096363,-74.986102971088471,2565.5393920437009,656.18574400348439,-3055.5706912269297,3055.5706912269297,-656.18574400348439,4657.4312515639776,0.0
673204.59901257406,4142374.0504322448,-7500.0,-957.64763845264247,-2104.2589136182442,-1752.9751921542775,337.98600002612989,491.30998090576816,-70.295406552969879,2193.3550803847502,50.951239029954195,-2508.7772173026924,2508.7772173026924,-50.951239029954195,4059.0950233127305,0.0
678204.59901257406,4142374.0504322448,-7500.0,-1249.7163463811621,-1828.5790055470427,-1358.6764096573309,338.30241666519566,395.62777184450772,-61.0440105332667,1873.1713307140908,-318.96932724392661,-2020.0945347131028,2020.0945347131028,318.96932724392661,3521.12839099039,0.0
683204.59901257406,4142374.0504322448,-7500.0,-1366.308977087338,-1555.988017995372,-1054.3545027847185,315.35436378491687,314.50089121751751,-50.988297261520835,1599.8855118633078,-528.97933104954404,-1612.797010507353,1612.797010507353,528.97933104954404,3045.5603106883877,0.0
688204.59901257406,4142374.0504322448,-7500.0,-1378.1332236751045,-1310.0227702643015,-823.38046030443275,283.0457655666292,248.89000542872975,-41.733469783819046,1368.4462217629707,-634.94458070272708,-1284.8884680582887,1284.8884680582887,634.94458070272708,2631.920566940501,0.0
693204.59901257406,4142374.0504322448,-7500.0,-1330.6797305593359,-1097.9995133226082,-648.89888514141592,248.71912799631156,197.04950092212101,-33.818542271592811,1173.4730095754985,-675.49948006072259,-1025.3815269764448,1025.3815269764448,675.49948006072259,2276.2637963623902,0.0
698204.59901257406,4142374.0504322448,-7500.0,-1252.3055416588302,-919.62071471102115,-516.81558106607361,215.97597430896482,156.52700028686857,-27.297151103627808,1009.6426220917469,-676.31940086254883,-821.53577780669309,821.53577780669309,676.31940086254883,1972.6011793663463,0.0
703204.59901257406,4142374.0504322448,-7500.0,-1160.2186092349943,-771.45364198268055,-416.2237816173506,186.36872447292095,124.96607983564762,-22.028304473478034,872.04084790700642,-654.03487053148228,-661.70278445248505,661.70278445248505,654.03487053148228,1714.2547671470215,0.0
708204.59901257406,4142374.0504322448,-7500.0,-1064.5598382169965,-649.12611784106537,-338.97847795445517,160.37231693369588,100.36991631599885,-17.81326322287514,756.34392665550024,-619.2106685029222,-536.17878317075872,536.17878317075872,619.2106685029222,1494.6977118795953,0.0
713204.59901257406,4142374.0504322448,-7500.0,-971.07678014838825,-548.33175713523076,-279.09530530530395,137.92660361297655,81.140892330774633,-14.455154599343793,658.88787721842039,-578.43988078435245,-437.2366934385534,437.2366934385534,578.43988078435245,1307.9850066060601,0.0
718204.59901257406,4142374.0504322448,-7500.0,-882.82587786487022,-465.23139848507321,-232.20196333961556,118.73028126316798,66.036997848452884,-11.78131070565111,576.75967051340092,-535.75183169398235,-358.86297429120111,358.86297429120111,535.75183169398235,1148.9132895257171,0.0
523204.59901257406,4147374.0504322448,-7500.0,-1410.2589689746881,327.28514009129213,-171.16518239608683,-174.71309539028269,42.810300814515493,-15.804304578904137,759.40738984285588,-1007.5740702524068,393.06077230841777,-393.06077230841777,1007.5740702524068,1473.2331669217428,0.0
528204.59901257406,4147374.0504322448,-7500.0,-1611.1981732964653,402.59567189927185,-205.62859457555138,-209.19706706955719,55.029967223616268,-19.860273313605305,876.36029301352551,-1150.0024568995932,466.28776487959823,-466.28776487959823,1150.0024568995932,1702.3134160463826,0.0
533204.59901257406,4147374.0504322448,-7500.0,-1848.1562744707837,498.74390323373848,-250.38081380440269,-252.11977321424959,71.367227951332652,-25.176345513563991,1017.2686438412748,-1317.1544020135548,556.18654298556658,-556.18654298556658,1317.1544020135548,1978.7973810284395,0.0
538204.59901257406,4147374.0504322448,-7500.0,-2128.2181704882501,622.47027442352476,-309.42503600512509,-305.88665527072692,93.435389496585245,-32.20723180340228,1188.1842572369644,-1513.434125468508,667.03233133702884,-667.03233133702884,1513.434125468508,2314.812778027615,0.0
543204.59901257406,4147374.0504322448,-7500.0,-2459.5626161368,782.96755959415077,-388.65033471780481,-373.64148949782572,123.56672717833681,-41.589285737606225,1396.9264365478043,-1743.6097975800644,804.17460536301951,-804.17460536301951,1743.6097975800644,2726.0973445818368,0.0
548204.59901257406,4147374.0504322448,-7500.0,-2851.208908806108,992.82417854297637,-496.86198540889143,-459.47005716807894,165.16585793720819,-54.214370116421868,1653.6289324256772,-2012.353919258177,974.17002582961834,-974.17002582961834,2012.353919258177,3233.1578107064479,0.0
553204.59901257406,4147374.0504322448,-7500.0,-3312.2218791387122,1269.2982037659833,-647.44464581413365,-568.60932762557616,223.24493933532278,-71.327043135770566,1971.431139789571,-2323.197193138375,1184.7361372917426,-1184.7361372917426,2323.197193138375,3862.7700770497941,0.0
558204.59901257406,4147374.0504322448,-7500.0,-3849.7955769775699,1635.949615940244,-861.08040512764467,-707.5784939582561,305.22554878565188,-94.638801912371022,2367.3016288593062,-2676.3285964422239,1444.2170245582313,-1444.2170245582313,2676.3285964422239,4649.8397905054644,0.0
563204.59901257406,4147374.0504322448,-7500.0,-4465.0782973849009,2124.496167461893,-1170.2332723503171,-884.01356790159809,422.1067210887224,-126.42186778390277,2862.9038943353671,-3064.1528769593501,1759.8698575787025,-1759.8698575787025,3064.1528769593501,5639.5174362755588,0.0
568204.59901257406,4147374.0504322448,-7500.0,-5144.5283461375475,2776.2365382528774,-1626.5658382228808,-1105.6791554423799,590.05069588825029,-169.45953118768375,3485.2324484864926,-3462.5314136235802,2133.4363336571123,-2133.4363336571123,3462.5314136235802,6889.1066880819735,0.0
573204.59901257406,4147374.0504322448,-7500.0,-5842.5765012520242,3640.9255498873963,-2313.0697654219734,-1377.4618082684806,832.16530046363152,-226.50579503159804,4266.5951822726929,-3813.8256824552118,2550.6273754372251,-2550.6273754372251,3813.8256824552118,8468.4370181341328,0.0
578204.59901257406,4147374.0504322448,-7500.0,-6447.8727097400142,4767.0378396265996,-3363.0433045832633,-1693.8005200133998,1179.2717846145665,-298.38236363156398,5249.1589980654426,-3994.854148312193,2957.2358439793738,-2957.2358439793738,3994.854148312193,10455.388613219997,0.0
583204.59901257406,4147374.0504322448,-7500.0,-6720.3565835064574,6166.9798517509607,-4985.885904122696,-2021.709935877511,1665.4066767162215,-378.80720367769482,6517.9324546280777,-3759.0709578167571,3206.7130219682458,-3206.7130219682458,3759.0709578167571,12919.055634217564,0.0
588204.59901257406,4147374.0504322448,-7500.0,-6184.15722369996,7714.5650612237023,-7485.0310983741338,-2267.4176297803874,2305.5780464972886,-443.00464005497844,8102.4965415484721,-2643.4963773308186,2950.9713948610738,-2950.9713948610738,2643.4963773308186,15875.634853247078,0.0
593204.59901257406,4147374.0504322448,-7500.0,-3988.028246544894,8872.3759820898376,-11185.568635677842,-2225.5976696594012,3025.0537393557706,-431.28572555731967,9983.1778602337999,131.25450499911744,1440.9353232738085,-1440.9353232738085,-131.25450499911744,19196.996509990851,0.0
598204.59901257406,4147374.0504322448,-7500.0,1079.5044639440678,8062.7216453106294,-15918.77587785451,-1552.0578989596561,3486.6994418922764,-260.58086833495969,12088.64945838319,5525.6593816726809,-2683.3647190681741,2683.3647190681741,-5525.6593816726809,22509.520835968047,0.0
603204.59901257406,4147374.0504322448,-7500.0,9496.9368784782764,1791.798118247626,-18884.289800512779,78.267902464651314,2812.0375892086586,9.4662205840905216,14508.961301354711,13223.980772204915,-10713.951601717876,10713.951601717876,-13223.980772204915,25682.92695993602,0.0
608204.59901257406,4147374.0504322448,-7500.0,16664.542345293183,-13169.346533479958,-9538.5854503913615,2365.7385169807981,-423.63069232612332,-199.46714113273106,18707.511059255983,16536.587482987532,-18560.750858878695,18560.750858878695,-16536.587482987532,32660.871634940351,0.0
613204.59901257406,4147374.0504322448,-7500.0,11361.653592526944,-25280.144307780363,25494.005962032174,3603.6823462151101,-6688.1615943138368,-1459.0821473953183,26968.664053428241,1774.4802967740825,-7687.6172357027854,7687.6172357027854,-1774.4802967740825,51339.000653309413,0.0
618204.59901257406,4147374.0504322448,-7500.0,1424.4966448942853,-11093.276724220632,60641.021014264377,1869.3790702647652,-12654.518969951099,-2212.1014577394785,34881.098527083872,-18515.645370587048,24981.869296641958,-24981.869296641958,18515.645370587048,67788.236111898455,0.0
623204.59901257406,4147374.0504322448,-7500.0,5439.7677065137041,10130.254255909551,58121.051377929609,-1574.9875878213741,-14022.412873742422,-984.50397589475119,33647.782839589556,-16380.245478560948,39851.000987561201,-39851.000987561201,16380.245478560948,63719.854792516409,0.0
628204.59901257406,4147374.0504322448,-7500.0,12058.595010519884,16331.838795568048,38293.251472850192,-3974.1121818883194,-11368.80492752693,491.6168180098972,25886.755965225166,-5307.3336208088367,32591.033218212637,-32591.033218212637,5307.3336208088367,48588.317917650747,0.0
633204.59901257406,4147374.0504322448,-7500.0,13922.511045671317,14290.274460396364,21682.73783128351,-4530.6046723939235,-7574.0543860714506,987.8292526674386,18185.82252887209,1826.4164947602567,21330.150133869058,-21330.150133869058,-1826.4164947602567,34266.850527094932,0.0
638204.59901257406,4147374.0504322448,-7500.0,12964.544118923883,10397.884880288913,10578.592265609132,-3922.1253548787622,-4358.714746801912,854.94328051945251,12268.842266380703,5170.1435178387683,12141.92963562912,-12141.92963562912,-5170.1435178387683,23471.997970557692,0.0
643204.59901257406,4147374.0504322448,-7500.0,10856.04770916368,6518.3835436841864,3724.0201432415893,-2915.4085606995209,-2141.8852771586598,568.88659195506943,8077.8048678263285,6232.4230071953662,5537.1416314148246,-5537.1416314148246,-6232.4230071953662,15813.064070764827,0.0
648204.59901257406,4147374.0504322448,-7500.0,8343.7025316157524,3326.0431638152372,-26.062116883458096,-1939.3999576292115,-797.17816556657419,322.88041463391221,5578.9281411123684,5896.4178272648951,1289.8059042518776,-1289.8059042518776,-5896.4178272648951,10659.837679323629,0.0
653204.59901257406,4147374.0504322448,-7500.0,5907.4564100887492,1067.8362335349714,-1733.289218362992,-1163.2368421595183,-70.865716011664517,155.75747952479784,4079.2322068713693,4854.2556084800099,-1076.983883103492,1076.983883103492,-4854.2556084800099,7416.9410307496446,0.0
658204.59901257406,4147374.0504322448,-7500.0,3839.9239834312148,-324.81161137196165,-2273.7602589734597,-614.4198097551108,269.70574047862686,56.02018056795162,3136.8238409943428,3622.3293399741297,-2157.3897351872938,2157.3897351872938,-3622.3293399741297,5498.0666026027793,0.0
663204.59901257406,4147374.0504322448,-7500.0,2244.8451042454617,-1067.5837134662809,-2241.204466265574,-258.06683055578964,393.74914804144737,2.4826657071298408,2528.3448245315212,2494.2391317703941,-2473.7913071389703,2473.7913071389703,-2494.2391317703941,4379.223287084098,0.0
668204.59901257406,4147374.0504322448,-7500.0,1097.8543436060202,-1385.6970859774406,-1977.6468291555504,-42.840261906326859,408.19280273799319,-22.914879938619784,2106.9713717909699,1585.071874175087,-2394.069510653545,2394.069510653545,-1585.071874175087,3678.8236236189732,0.0
673204.59901257406,4147374.0504322448,-7500.0,317.55301363267876,-1454.3999119291936,-1655.4983407527741,77.671504557159608,373.98370498919917,-32.579798592020296,1790.1136590159235,906.76466130753317,-2141.7360636212879,2141.7360636212879,-906.76466130753317,3179.3430057129303,0.0
678204.59901257406,4147374.0504322448,-7500.0,-187.57309947531942,-1391.0315249000362,-1350.418442584642,138.43644370967877,322.99171494999689,-34.122782889886984,1536.4446917727103,426.62024015647444,-1838.1144005772733,1838.1144005772733,-426.62024015647444,2780.2097543365967,0.0
683204.59901257406,4147374.0504322448,-7500.0,-497.3786340634594,-1266.996618145205,-1088.9920015581615,163.34698299756789,270.46468058871039,-31.873949346593946,1325.9578384636795,100.37155880233627,-1542.1965345612962,1542.1965345612962,-100.37155880233627,2440.7870071509542,0.0
688204.59901257406,4147374.0504322448,-7500.0,-673.8166289703745,-1122.6472094730423,-875.42244226267235,167.768562678884,222.83447554726328,-28.152098145541146,1148.3182517064354,-113.0464341201847,-1278.520828119114,1278.520828119114,113.0464341201847,2145.2533804493924,0.0
693204.59901257406,4147374.0504322448,-7500.0,-761.89336961753179,-979.15883093964658,-705.0391892526435,161.17746139868316,182.16160051104063,-24.123927861027209,997.34024766444361,-246.71112907714479,-1054.0808894732945,1054.0808894732945,246.71112907714479,1886.6186649711779,0.0
698204.59901257406,4147374.0504322448,-7500.0,-793.01296154167437,-846.56728194080733,-570.57718536990967,149.22626967940792,148.50419598825033,-20.328097604467509,868.66206325569908,-325.42707319486431,-867.72446232475613,867.72446232475613,325.42707319486431,1660.6147150848478,0.0
703204.59901257406,4147374.0504322448,-7500.0,-788.51438542433846,-728.75824105126696,-464.82324407694637,135.17964112643364,121.11511543949568,-16.975832894342727,758.83609079171299,-367.04757404694806,-715.04907508740007,715.04907508740007,367.04757404694806,1463.6941073032642,0.0
708204.59901257406,4147374.0504322448,-7500.0,-762.62270631570379,-626.40249403301596,-381.55501156790649,120.85079368602902,99.013954177646283,-14.11610423603801,664.98401158897093,-384.10200091376691,-590.79418495908135,590.79418495908135,384.10200091376691,1292.5205305684306,0.0
713204.59901257406,4147374.0504322448,-7500.0,-724.6735489530098,-538.61651883356296,-315.73558360783204,107.18997173312016,81.240211220625184,-11.723499474263118,584.66064860778522,-385.2388388637163,-489.91571238699521,489.91571238699521,385.2388388637163,1143.9265443571685,0.0
718204.59901257406,4147374.0504322448,-7500.0,-680.69949661933958,-463.86675880132361,-263.41602286473159,94.645001807125013,66.94993713953501,-9.7432844458527299,515.78659995891155,-376.35653121845985,-407.99623541492065,407.99623541492065,376.35653121845985,1014.970846025949,0.0
523204.59901257406,4152374.0504322448,-7500.0,-1303.6487339091843,393.86617057816767,-212.81409607437243,-162.57299957118309,52.210899146034201,-14.838634195078079,728.37581551237952,-920.2062284331588,405.54857930522564,-405.54857930522564,920.2062284331588,1413.4824149529293,0.0
528204.59901257406,4152374.0504322448,-7500.0,-1473.6351976862336,478.28801831382418,-257.9165469321174,-192.85564713300909,66.285936433443268,-18.499556757897579,835.63840595743375,-1036.9525851538181,475.06343428625064,-475.06343428625064,1036.9525851538181,1624.0060642205897,0.0
533204.59901257406,4152374.0504322448,-7500.0,-1669.3615340691781,584.16265894856758,-316.42944555889289,-229.91677482557597,84.820799331975039,-23.237461034162884,963.41326556879369,-1169.8424140006193,558.32500162880342,-558.32500162880342,1169.8424140006193,1875.3566408110164,0.0
538204.59901257406,4152374.0504322448,-7500.0,-1894.0534981957542,717.64146495092643,-393.33616245370968,-275.41930818167589,109.43463661008168,-29.411811347008964,1116.3482305460175,-1320.0586328402485,657.9637976505112,-657.9637976505112,1320.0586328402485,2176.985084792298,0.0
543204.59901257406,4152374.0504322448,-7500.0,-2150.4392823885855,886.70573174112553,-495.78619227955562,-331.39542724585118,142.39648330694556,-37.509101208791101,1300.207557554329,-1487.8315779882203,776.77318506790539,-776.77318506790539,1487.8315779882203,2540.7133983892581,0.0
548204.59901257406,4152374.0504322448,-7500.0,-2439.8160763103961,1101.6100121974082,-634.14367660154392,-400.25287495669994,186.89681953414012,-48.183200192995507,1522.0829123627793,-1671.4325241507358,917.32316699692444,-917.32316699692444,1671.4325241507358,2981.2560048852538,0.0
553204.59901257406,4152374.0504322448,-7500.0,-2760.3147623759246,1375.2636206749887,-823.56741060775471,-484.67943936322445,247.41999407286423,-62.298747277459285,1790.5594947718421,-1865.3921493920418,1081.0966206280543,-1081.0966206280543,1865.3921493920418,3516.7240247594627,0.0
558204.59901257406,4152374.0504322448,-7500.0,-3103.7592603467397,1723.2744225386828,-1086.3694491083006,-587.31298399956336,330.22609541373436,-80.960674612138959,2115.7204947895389,-2057.3940830021079,1266.6914380847361,-1266.6914380847361,2057.3940830021079,4168.9317005737739,0.0
563204.59901257406,4152374.0504322448,-7500.0,-3450.112569711469,2162.9802842550907,-1455.4397549011546,-709.90877689862111,443.89355039628015,-105.48414992395473,2508.7536385433145,-2222.9505189058459,1466.2258267426032,-1466.2258267426032,2222.9505189058459,4963.0944497393484,0.0
568204.59901257406,4152374.0504322448,-7500.0,-3757.9133047827768,2709.9196383814979,-1978.9015805878846,-851.48400251735484,599.70080404569899,-137.19325709499449,2980.9197418107583,-2316.5057568257771,1658.3605483440861,-1658.3605483440861,2316.5057568257771,5926.0597774484404,0.0
573204.59901257406,4152374.0504322448,-7500.0,-3948.47377629434,3368.3178478083455,-2725.4217929915017,-1004.4902494011608,811.15845583879604,-176.80024173849529,3552.0225842575246,-2257.2489210437984,1795.1696352509048,-1795.1696352509048,2257.2489210437984,7081.3880055237541,0.0
578204.59901257406,4152374.0504322448,-7500.0,-3881.7682122701794,4108.3640257694396,-3786.8845173316968,-1147.4879937094311,1090.8493411086556,-222.87721326060699,4267.0445821710109,-1908.6488496505563,1778.6085492580987,-1778.6085492580987,1908.6488496505563,8438.3247749573002,0.0
583204.59901257406,4152374.0504322448,-7500.0,-3326.0111503630824,4816.2682688933101,-5266.6245230414324,-1232.581310675655,1440.1679588877594,-268.6788902299399,5107.2489597216527,-1056.0592260781768,1422.3551169471834,-1422.3551169471834,1056.0592260781768,9970.7423046306631,0.0
588204.59901257406,4152374.0504322448,-7500.0,-1940.4964017535619,5194.983009569276,-7217.3370079202659,-1168.2225851334247,1822.8502748581752,-297.00748386749007,6049.3882906708759,592.82997209690905,404.69837091390229,-404.69837091390229,-592.82997209690905,11586.399720009224,0.0
593204.59901257406,4152374.0504322448,-7500.0,654.05507449011907,4603.1324345274897,-9434.239242988182,-809.36393587368707,2108.5884244702961,-276.51937311527092,7052.7205947516368,3299.1227974978788,-1732.4151840737072,1732.4151840737072,-3299.1227974978788,13119.522557232753,0.0
598204.59901257406,4152374.0504322448,-7500.0,4522.9613611074938,1935.2859641843934,-10915.827760113445,2.1965766948283076,1984.9415884956736,-174.47762979522767,8136.0667645090107,6860.5524042443376,-5318.9922850087551,5318.9922850087551,-6860.5524042443376,14524.302451615677,0.0
603204.59901257406,4152374.0504322448,-7500.0,8529.1441042194474,-3895.7591434504852,-8918.2186472074354,1266.0684066700999,913.9045373521036,-10.849181074601141,9680.5857560431796,9599.8564110110656,-9497.3061602501166,9497.3061602501166,-9599.8564110110656,16768.627302259643,0.0
608204.59901257406,4152374.0504322448,-7500.0,9568.6033646665092,-11636.806867678022,1015.2111805362579,2517.2007044862826,-1611.5218091538968,89.281764383952193,12645.317261488948,7628.1472418645053,-10262.071471987645,10262.071471987645,-7628.1472418645053,22693.246320909224,0.0
613204.59901257406,4152374.0504322448,-7500.0,5397.2505700250003,-14823.081277206511,19606.462834176185,2786.3916757836128,-5286.3533798706821,58.679625000203146,17063.506528890161,-1461.7644884789584,-1686.6313797322109,1686.6313797322109,1461.7644884789584,32749.941804270537,0.0
618204.59901257406,4152374.0504322448,-7500.0,627.33972744923392,-7790.1207441869219,36043.694838193049,1460.1651049478071,-8478.8825260107442,149.73420772810437,20699.036098965462,-11072.620779121678,13929.46000752273,-13929.46000752273,11072.620779121678,40933.969997422697,0.0
623204.59901257406,4152374.0504322448,-7500.0,1276.7678318208307,3431.4705121912148,38714.507205366295,-747.94632368221073,-9507.5933954810444,527.94158220906843,21484.326456789582,-12379.062125996923,24278.270457049974,-24278.270457049974,12379.062125996923,41693.712588128728,0.0
628204.59901257406,4152374.0504322448,-7500.0,5209.8332590246173,10066.22420488938,30666.88181632437,-2512.3771787791802,-8347.0638430583986,876.21147037682351,18807.060498516039,-7290.6632336473212,24415.464943069142,-24415.464943069142,7290.6632336473212,36181.569483001578,0.0
633204.59901257406,4152374.0504322448,-7500.0,8215.6064252427423,11229.830695487366,20309.364573554507,-3228.0107141296457,-6168.9550069214711,933.36318992675433,14809.338182298057,-1675.7274086832185,19039.737932857388,-19039.737932857388,1675.7274086832185,28480.084456424229,0.0
638204.59901257406,4152374.0504322448,-7500.0,9219.6805277640797,9545.8881558539597,11739.099140405964,-3095.5396920286694,-4008.6237531298716,769.63187850770794,10944.600881885242,2085.9216621977166,12719.643987379492,-12719.643987379492,-2085.9216621977166,21198.260196408948,0.0
643204.59901257406,4152374.0504322448,-7500.0,8749.5416286514974,6961.672079037603,5735.4199526400325,-2541.2412421301497,-2321.3227963677127,543.01450069858663,7762.7358742067072,3966.838013916728,7361.3557424107839,-7361.3557424107839,-3966.838013916728,15252.229994776648,0.0
648204.59901257406,4152374.0504322448,-7500.0,7475.2105111519704,4448.9785645467291,1978.4323281521495,-1884.0612516472313,-1170.452029921235,344.06856502501802,5486.0011290808679,4492.0724543503957,3452.2086204037487,-3452.2086204037487,-4492.0724543503957,10770.729568876626,0.0
653204.59901257406,4152374.0504322448,-7500.0,5902.7900102119811,2419.6932860280335,-117.12766563553896,-1290.9631584194583,-459.97964715066962,198.88606872249096,3999.4531457237695,4199.4558421410311,910.2371172260423,-910.2371172260423,-4199.4558421410311,7591.8472778979831,0.0
658204.59901257406,4152374.0504322448,-7500.0,4362.1413887645631,970.19033732985326,-1124.4157653771142,-823.09887006748465,-60.170138820672292,103.5676110562427,2986.0680252738603,3517.7143162144421,-562.96368705025839,562.96368705025839,-3517.7143162144421,5453.4389203330484,0.0
663204.59901257406,4152374.0504322448,-7500.0,3028.5933379692565,33.932807676495599,-1492.0305911440887,-484.10266202416852,141.45432071139899,45.543330555409781,2305.7658016195337,2732.5339834794777,-1300.8255619353067,1300.8255619353067,-2732.5339834794777,4076.2641294373952,0.0
668204.59901257406,4152374.0504322448,-7500.0,1963.1851351194653,-513.2749339546283,-1522.2719967937812,-253.11910993173714,226.43235202731861,12.498143326744673,1847.199727456878,2000.5949945772015,-1582.1229670489508,1582.1229670489508,-2000.5949945772015,3207.948164439395,0.0
673204.59901257406,4152374.0504322448,-7500.0,1158.7191348709312,-794.00603701118268,-1397.1281399737813,-103.41660352248226,247.79339962846944,-4.9693457356871233,1528.0101011524557,1387.6004735834458,-1605.7185143010174,1605.7185143010174,-1387.6004735834458,2649.5174256989467,0.0
678204.59901257406,4152374.0504322448,-7500.0,576.69227930842908,-905.72143097904575,-1216.3515173542332,-10.892302853063386,237.4435255133497,-13.235895197650512,1294.1416180186716,906.4797605269946,-1499.1816134065175,1499.1816134065175,-906.4797605269946,2266.2176408864661,0.0
683204.59901257406,4152374.0504322448,-7500.0,170.3026637897905,-917.41319289672583,-1029.7356583199678,43.240060827338638,213.40007220958319,-16.328926833722083,1113.3394917633595,544.96075294714228,-1337.9614931950841,1337.9614931950841,-544.96075294714228,1979.4259382021014,0.0
688204.59901257406,4152374.0504322448,-7500.0,-104.02262061636652,-874.4017611707585,-859.21720413048433,72.493366203365909,185.232567830302,-16.669573752353987,967.37204510243555,281.89499989866147,-1163.4944011588354,1163.4944011588354,-281.89499989866147,1748.2426772080944,0.0
693204.59901257406,4152374.0504322448,-7500.0,-282.30623791394021,-804.85495960394928,-712.30286806800484,86.114026929950015,157.65690193240329,-15.657813211690364,845.99780205589889,95.48266084432089,-996.64613354777748,996.64613354777748,-95.48266084432089,1552.6895695785984,0.0
698204.59901257406,4152374.0504322448,-7500.0,-392.42978672462476,-725.45238374033215,-589.60710710617843,90.219858672555105,132.73133144776997,-14.074241281081598,743.22566810875549,-33.304628293407234,-846.56121671980964,846.56121671980964,33.304628293407234,1383.0220959936828,0.0
703204.59901257406,4152374.0504322448,-7500.0,-455.12101146832038,-645.56588223428912,-488.83013137844875,88.760080992143628,111.12881439244894,-12.336196450750597,655.27240472904953,-119.7808817737706,-716.07335030087427,716.07335030087427,119.7808817737706,1234.127385893323,0.0
708204.59901257406,4152374.0504322448,-7500.0,-485.39187318697617,-570.09452756358905,-406.73633096393706,84.232608458374301,92.845003226883549,-10.653806638164056,579.52326826873423,-175.7153064630871,-604.84615705704255,604.84615705704255,175.7153064630871,1102.9013727637446,0.0
713204.59901257406,4152374.0504322448,-7500.0,-493.9224379874679,-501.29104456290634,-340.06728598913156,78.186459337322844,77.57807666194519,-9.1220907211383828,514.02031675330943,-209.90055643013915,-511.11952198185264,511.11952198185264,209.90055643013915,987.11008943896798,0.0
523204.59901257406,4157374.0504322448,-7500.0,-1178.1782494526435,440.38095892979436,-255.34164523749192,-148.16748405195361,59.186682390987706,-13.68077634576577,689.18368362449587,-817.05858221781398,398.48207533796005,-398.48207533796005,817.05858221781398,1338.3635665709701,0.0
528204.59901257406,4157374.0504322448,-7500.0,-1314.7512495264884,527.74832327928857,-310.07667000200206,-173.80395722993154,74.234595612122632,-16.894897798477892,785.14676451500975,-906.16223602209561,459.53256990654035,-459.53256990654035,906.16223602209561,1527.2817311759022,0.0
533204.59901257406,4157374.0504322448,-7500.0,-1467.0047589457433,635.07205193000505,-380.52081971599893,-204.51715529574776,93.724218693097129,-20.991093623573093,897.88726066879485,-1003.1020778036154,530.21774557224262,-530.21774557224262,1003.1020778036154,1749.8903590199068,0.0
538204.59901257406,4157374.0504322448,-7500.0,-1634.8598358243974,767.14796921709456,-472.09761558679077,-241.27687037270806,119.1201227109959,-26.234318550236068,1030.6492546485288,-1106.3699763510142,611.30485450536662,-611.30485450536662,1106.3699763510142,2012.9588850985531,0.0
543204.59901257406,4157374.0504322448,-7500.0,-1816.6441982205515,929.71870606555683,-592.32735252538441,-285.1195882550258,152.39394367687055,-32.966952627758943,1187.2082913235367,-1212.6512922039387,702.88111022908402,-702.88111022908402,1212.6512922039387,2324.5111430769693,0.0
548204.59901257406,4157374.0504322448,-7500.0,-2007.8711834998101,1129.3714277395165,-751.66266173683323,-337.02286722744077,196.18319328196193,-41.622441046345578,1371.8220896710986,-1315.6351750449614,803.60526108385898,-803.60526108385898,1315.6351750449614,2693.8507348475532,0.0
553204.59901257406,4157374.0504322448,-7500.0,-2199.2644334467395,1373.0518822972856,-964.60489464729176,-397.63232936322885,253.9655046883762,-52.728517299091138,1589.0250773758739,-1404.1439959581296,909.37330320841397,-909.37330320841397,1404.1439959581296,3131.358144165672,0.0
558204.59901257406,4157374.0504322448,-7500.0,-2373.6371904570296,1666.7573719133193,-1251.0896561888073,-466.71578339306853,330.19545839598351,-66.88046941862865,1843.121949670699,-1459.2630791021095,1010.9926424755602,-1010.9926424755602,1459.2630791021095,3647.8204269826642,0.0
563204.59901257406,4157374.0504322448,-7500.0,-2501.1279247824796,2012.5607163535269,-1637.9214128368067,-542.12932234957293,430.25921731076892,-84.641718903948487,2137.2225786946833,-1450.110783407951,1090.2311886765758,-1090.2311886765758,1450.110783407951,4252.8682011378987,0.0
568204.59901257406,4157374.0504322448,-7500.0,-2532.3626267555633,2402.3931701214588,-2159.456410772586,-617.95660896482286,559.89899900639011,-106.28774005459063,2483.480210523504,-1328.0781937458135,1113.3673910564196,-1113.3673910564196,1328.0781937458135,4951.8431524637936,0.0
573204.59901257406,4157374.0504322448,-7500.0,-2389.7977742199178,2805.8514212011919,-2855.2444020920793,-681.36534165466196,723.33280859798117,-131.24127369503614,2905.8984853856914,-1020.2817162172065,1021.386236244729,-1021.386236244729,1020.2817162172065,5740.1889666165453,0.0
578204.59901257406,4157374.0504322448,-7500.0,-1959.9587482488209,3147.8987358141421,-3758.8309053003668,-707.81792801649829,918.49271720572381,-156.97172377031339,3382.6128388965612,-425.85833017524004,717.22204260295621,-717.22204260295621,425.85833017524004,6594.8275967517257,0.0
583204.59901257406,4157374.0504322448,-7500.0,-1096.0853817328289,3272.3572158335364,-4864.420279884951,-655.20920288750176,1126.5769646505951,-177.16906504372531,3900.415710999469,573.72629906800626,55.783298964420908,-55.783298964420908,-573.72629906800626,7465.114134486661,0.0
588204.59901257406,4157374.0504322448,-7500.0,344.21976150904698,2895.0535086366772,-6045.0210250749415,-460.78070526677681,1292.2325743221713,-179.54324707308504,4441.5591526139724,2063.0321154241037,-1141.3636107357863,1141.3636107357863,-2063.0321154241037,8278.9391620083443,0.0
593204.59901257406,4157374.0504322448,-7500.0,2378.8322994072109,1584.6489556173146,-6884.6847951471418,-52.441617778051608,1293.842770257314,-145.40569581722463,5014.4349289260826,3949.0430682291585,-2987.6221842826967,2987.6221842826967,-3949.0430682291585,9020.2482919282356,0.0
598204.59901257406,4157374.0504322448,-7500.0,4653.6760418974436,-1100.4757049985249,-6428.5343618988463,603.19437345829931,920.37544060289508,-56.208331800826748,5748.5042064960253,5683.741350231021,-5241.7169741632151,5241.7169741632151,-5683.741350231021,10003.420024378032,0.0
603204.59901257406,4157374.0504322448,-7500.0,6183.0844216057712,-5079.7097749748064,-3096.0871774103257,1400.8167077801597,-87.823794611871477,89.424804208728645,7003.4270451572229,6001.528800095125,-6792.1317865116462,6792.1317865116462,-6001.528800095125,12247.936782898287,0.0
608204.59901257406,4157374.0504322448,-7500.0,5659.6177444584391,-8840.2617724816118,4472.9643573938902,2004.1887082169035,-1847.3951056867729,264.03317679359748,9122.0531337147841,3360.9196728387387,-5456.2687087124314,5456.2687087124314,-3360.9196728387387,16758.800618404061,0.0
613204.59901257406,4157374.0504322448,-7500.0,2982.7136943043856,-9463.3885579454854,15121.313732860015,1951.8095676208327,-4031.5212743013258,438.08730194275989,11736.997684081625,-2152.2660637821823,460.88239196406505,-460.88239196406505,2152.2660637821823,22661.956634706519,0.0
618204.59901257406,4157374.0504322448,-7500.0,415.09143010789876,-5394.3010357256444,24052.407541861969,1057.0268943841825,-5836.2032331307491,611.39919016895556,13765.107726764658,-7376.0635064448034,9139.6036229780111,-9139.6036229780111,7376.0635064448034,27330.42689416981,0.0
623204.59901257406,4157374.0504322448,-7500.0,315.83184654265392,985.89127599037465,26780.982777505149,-304.69991450770772,-6525.6727257732309,765.23637307672152,14574.135010280064,-8872.0498390816938,15779.042830606744,-15779.042830606744,8872.0498390816938,28629.710164668795,0.0
628204.59901257406,4157374.0504322448,-7500.0,2341.0990738164201,5931.2408090709059,23527.048460208585,-1497.0934307372409,-6018.9555725701457,831.94828027956976,13617.425661684652,-6672.4341305137541,17569.540713880189,-17569.540713880189,6672.4341305137541,26533.770505321343,0.0
633204.59901257406,4157374.0504322448,-7500.0,4646.5815634838282,7976.6976520794224,17540.444093950588,-2142.4426144517165,-4798.0836619845759,775.46205891516956,11557.117341912173,-3116.5085212139056,15465.926549633125,-15465.926549633125,3116.5085212139056,22469.291438607415,0.0
638204.59901257406,4157374.0504322448,-7500.0,6075.9394633624561,7757.9313234281517,11538.074897194554,-2247.8486128597883,-3416.6622868027002,632.95356175080462,9171.6487198104896,-22.493303625935368,11688.548006306279,-11688.548006306279,22.493303625935368,17886.504805131117,0.0
643204.59901257406,4157374.0504322448,-7500.0,6456.3668455585957,6380.8288769937926,6726.5341743967019,-2007.9787513553638,-2212.2673590174345,466.27411454678139,6943.4189248041239,1988.3302280710973,7825.4975592805986,-7825.4975592805986,-1988.3302280710973,13656.345658255799,0.0
648204.59901257406,4157374.0504322448,-7500.0,6055.7544336516257,4663.3105943095779,3336.2089933814923,-1619.7223877499027,-1303.0090859904305,317.47181989565746,5107.5958230171846,2971.2638674858572,4615.474243253303,-4615.474243253303,-2971.2638674858572,10145.032844277146,0.0
653204.59901257406,4157374.0504322448,-7500.0,5214.076042214163,3061.557423183433,1174.1823574906498,-1214.2974019881397,-680.2983715387802,202.50767503973881,3808.1099374207279,3205.9478363747317,2259.1123219867036,-2259.1123219867036,-3205.9478363747317,7424.4009062249124,0.0
658204.59901257406,4157374.0504322448,-7500.0,4207.9947778127616,1769.9617369865689,-76.586824560372023,-858.51862925266607,-285.77506911782535,121.36904667601192,2862.8788041642811,2987.8394704439297,688.68334817919163,-688.68334817919163,-2987.8394704439297,5422.4649821155308,0.0
663204.59901257406,4157374.0504322448,-7500.0,3220.0529343264961,825.31891131510076,-718.45401187759308,-575.57057316183773,-53.578344536173759,67.631952527157623,2185.7100417849529,2550.4993349920369,-265.81526432428427,265.81526432428427,-2550.4993349920369,4009.9468032397422,0.0
668204.59901257406,4157374.0504322448,-7500.0,2348.2787097995902,186.28417114311733,-986.99533644598205,-364.70734314163951,71.879201157194771,33.784933009572249,1709.5248763530669,2048.8473199878736,-785.55392408845626,785.55392408845626,-2048.8473199878736,3046.3261409099191,0.0
673204.59901257406,4157374.0504322448,-7500.0,1629.8935216877896,-215.21229503264962,-1044.7084498586487,-214.8255313282956,131.43458056793853,13.414416919185284,1375.7778160809598,1570.4590939733141,-1022.1429554257822,1022.1429554257822,-1570.4590939733141,2402.5582971520566,0.0
678204.59901257406,4157374.0504322448,-7500.0,1065.484736436169,-446.49583238826796,-994.28882371129032,-112.23183366876792,152.59993093190764,1.7428099352676125,1138.342463626002,1155.6921201163984,-1087.0818726297546,1087.0818726297546,-1155.6921201163984,1972.0218724697297,0.0
683204.59901257406,4157374.0504322448,-7500.0,637.50609577006117,-562.96056413187091,-896.1873969030803,-44.333495887301865,152.7984475740306,-4.5219790440625793,964.10383199383045,816.35785160414343,-1055.6880646492796,1055.6880646492796,-816.35785160414343,1675.2473732199899,0.0
688204.59901257406,4157374.0504322448,-7500.0,322.05511456457765,-605.85612361735832,-783.67620291947219,-0.93827532711537298,142.53247170523392,-7.5364717160649102,831.06887336033515,549.30617891769305,-975.69823344215763,975.69823344215763,-549.30617891769305,1459.0979084383555,0.0
693204.59901257406,4157374.0504322448,-7500.0,95.274537830002416,-604.00094044261346,-673.6821500934908,25.634351640766777,127.85305108370373,-8.6636853135926799,725.42622909934221,344.93061428625617,-875.7562485283255,875.7562485283255,-344.93061428625617,1291.3696319986836,0.0
698204.59901257406,4157374.0504322448,-7500.0,-63.766351921519359,-576.62689901887916,-573.82957206447452,40.918966197350876,112.07796425934028,-8.741512245096871,638.74568347822003,191.8901731856231,-772.10480229971745,772.10480229971745,-191.8901731856231,1153.8897720558671,0.0
703204.59901257406,4157374.0504322448,-7500.0,-172.1913346703592,-536.10352007507049,-486.72798324511439,48.786485764549056,96.9085302635619,-8.2727152996605859,565.87925693528109,79.41838230199869,-673.3099145658241,673.3099145658241,-79.41838230199869,1036.771978909941,0.0
708204.59901257406,4157374.0504322448,-7500.0,-243.42596410387935,-490.1154099015871,-412.45460849746098,51.887541550396747,83.122463537532212,-7.5515794907153646,503.59454881207256,-1.7483594362308281,-583.37520726631624,583.37520726631624,1.7483594362308281,934.62359440984744,0.0
713204.59901257406,4157374.0504322448,-7500.0,-287.7099498368234,-443.25543605303574,-349.9334194024633,52.008214659203148,70.989728206160962,-6.7452339250391287,449.76059870358881,-59.15798205550513,-503.70485368730328,503.70485368730328,59.15798205550513,844.36654580928234,0.0
528204.59901257406,4162374.0504322448,-7500.0,-1145.4468739031417,551.49628781629553,-357.40599699885217,-153.30939886266503,78.872078002508019,-15.149194295510778,727.75107547158495,-767.292103088212,424.51446559363546,-424.51446559363546,767.292103088212,1417.5608238898444,0.0
533204.59901257406,4162374.0504322448,-7500.0,-1255.689721974486,653.17677560677373,-436.52587165117893,-177.70031340037349,98.195823330205201,-18.589097155470235,824.62885970756258,-829.89776716728613,479.02952880427063,-479.02952880427063,829.89776716728613,1609.8566465441695,0.0
538204.59901257406,4162374.0504322448,-7500.0,-1370.2603691137117,774.78736203974472,-537.76442550101081,-205.973065155189,122.85013867727541,-22.900841991382869,936.54453348500545,-889.80931522172978,537.72193129566676,-537.72193129566676,889.80931522172978,1833.0830314250666,0.0
543204.59901257406,4162374.0504322448,-7500.0,-1484.5588643690828,919.42546864045289,-668.09797185028583,-238.38085370543104,154.37069684805803,-28.302071429454845,1065.5487525667299,-941.52898359530889,598.4003997866904,-598.4003997866904,941.52898359530889,2091.9637479233611,0.0
548204.59901257406,4162374.0504322448,-7500.0,-1590.7188320288435,1089.7159197928338,-836.6929256954636,-274.84940710619907,194.6748407761655,-35.043692148618931,1213.5570144011986,-976.37593456936725,656.73809566620525,-656.73809566620525,976.37593456936725,2391.3227885750021,0.0
553204.59901257406,4162374.0504322448,-7500.0,-1675.944282956282,1286.749899268543,-1055.36855321232,-314.64987486967863,246.06164696371022,-43.389325558580595,1381.9511909361145,-981.02072124063659,704.89710787715956,-704.89710787715956,981.02072124063659,2735.517224333576,0.0
558204.59901257406,4162374.0504322448,-7500.0,-1720.2261583312443,1508.0714948542609,-1338.8197224528717,-355.84458564923477,311.08124332001609,-53.561025728553624,1570.8801540129155,-935.56836664018658,729.42752842584116,-729.42752842584116,935.56836664018658,3127.3944991884755,0.0
563204.59901257406,4162374.0504322448,-7500.0,-1693.4659639955353,1744.0432024672987,-1704.0465448857553,-394.38717424225285,392.10558555746474,-65.619413041305464,1788.7965245847172,-811.34393591412038,708.22273840593277,-708.22273840593277,811.34393591412038,3566.5310990889207,0.0
568204.59901257406,4162374.0504322448,-7500.0,-1552.486843657286,1971.6104285904521,-2167.7456298493298,-422.74792696932826,490.27481680581207,-79.225171367930827,2049.43612349963,-569.07712645210222,606.52618879023862,-606.52618879023862,569.07712645210222,4046.5391609240282,0.0
573204.59901257406,4162374.0504322448,-7500.0,-1239.5428581502315,2144.3305248706079,-2739.0806643043265,-428.0222825008812,603.23749951237812,-93.205732061433068,2335.3193639552146,-159.45408441937968,372.79552577351183,-372.79552577351183,159.45408441937968,4551.6408209550491,0.0
578204.59901257406,4162374.0504322448,-7500.0,-686.37459123470364,2178.2469515811349,-3402.9230666229487,-389.85125390971251,720.77338919787348,-104.8522568997211,2639.2913834098654,469.35810302803895,-62.498264825126881,62.498264825126881,-469.35810302803895,5054.3359244985204,0.0
583204.59901257406,4162374.0504322448,-7500.0,167.84090609613631,1936.7437049174118,-4085.6014213189646,-279.5071913402852,817.2478620090086,-108.97621688507265,2953.4332717078978,1348.1304207219405,-776.81310151327943,776.81310151327943,-1348.1304207219405,5521.0467516495273,0.0
588204.59901257406,4162374.0504322448,-7500.0,1331.3873414533757,1227.968537432014,-4594.488573304282,-63.633008175839826,840.82029218840489,-97.114831456527511,3282.3522888993002,2433.1677015918003,-1816.362337750056,1816.362337750056,-2433.1677015918003,5945.4437304302292,0.0
593204.59901257406,4162374.0504322448,-7500.0,2677.5342327613289,-149.69539177649688,-4536.01398071535,280.96171452687088,703.5504747589971,-58.021831405219132,3677.9327110788236,3514.2974342508742,-3100.4410338381631,3100.4410338381631,-3514.2974342508742,6447.8270484299446,0.0
598204.59901257406,4162374.0504322448,-7500.0,3850.1116116427415,-2254.3138203446338,-3270.2252915215945,735.16382322130812,286.52428072108057,18.749367367921025,4286.1509453341823,4117.8661214420226,-4258.3025640602173,4258.3025640602173,-4117.8661214420226,7430.4389316618863,0.0
603204.59901257406,4162374.0504322448,-7500.0,4279.5049373025513,-4715.1788803291565,-70.624215466475775,1195.3452974529291,-514.17256345115959,135.70094762075871,5311.5998145900321,3549.9139481491898,-4493.952981163111,4493.952981163111,-3549.9139481491898,9478.7688888246921,0.0
608204.59901257406,4162374.0504322448,-7500.0,3515.6055050801551,-6514.5450312304256,5297.6303584576217,1463.0821795370261,-1686.399083764602,281.28134501930987,6798.7729407082843,1319.2677134872824,-2790.6361102390406,2790.6361102390406,-1319.2677134872824,12715.016959513108,0.0
613204.59901257406,4162374.0504322448,-7500.0,1828.8062891874881,-6358.7508624564462,11782.135996324992,1330.6440276404912,-3002.5862404567661,432.09590089559498,8436.7750958395645,-2122.0488544380969,1248.9588117475876,-1248.9588117475876,2122.0488544380969,16388.442321929218,0.0
618204.59901257406,4162374.0504322448,-7500.0,343.97273680274793,-3801.5392629031981,17081.679947757904,748.43686963488051,-4061.0373967998548,560.64324301542013,9698.8918416932138,-5204.4460552430664,6506.335282176904,-6506.335282176904,5204.4460552430664,19263.51138951505,0.0
623204.59901257406,4162374.0504322448,-7500.0,112.08043841725612,64.488119380596487,19190.207726447883,-89.609065481232335,-4518.0077346564622,639.52385627653223,10322.417826954561,-6390.9412008497857,10812.905481864098,-10812.905481864098,6390.9412008497857,20382.940217051822,0.0
628204.59901257406,4162374.0504322448,-7500.0,1145.27297243931,3494.5116505829928,17898.783217446071,-872.0039773331373,-4308.5507678059421,649.07826946569753,9993.4969394907803,-5464.5720664312748,12657.169355860613,-12657.169355860613,5464.5720664312748,19591.99210765741,0.0
633204.59901257406,4162374.0504322448,-7500.0,2658.5822564471123,5452.1032289665127,14499.907066705824,-1378.4355447409623,-3633.4502507024922,591.21717268595762,8911.1058682053717,-3357.8548586550532,12065.146870889053,-12065.146870889053,3357.8548586550532,17419.923587482637,0.0
638204.59901257406,4162374.0504322448,-7500.0,3904.1583225308796,5913.4170094953661,10505.825550060759,-1563.787768601376,-2776.2581557990097,490.00520914026566,7460.6535389274186,-1129.8627073352491,9988.219284205974,-9988.219284205974,1129.8627073352491,14599.389753216656,0.0
643204.59901257406,4162374.0504322448,-7500.0,4558.0915768019513,5364.1643386747082,6894.280139026645,-1502.1711616870641,-1953.5697192342636,375.72397635190021,5957.5462088560444,612.79134163679237,7415.5334578163674,-7415.5334578163674,-612.79134163679237,11715.904181599588,0.0
648204.59901257406,4162374.0504322448,-7500.0,4634.1151676701338,4329.7825462970604,4067.2379309920038,-1300.2709783092962,-1274.8889776210299,270.54392103876597,4592.7393418699621,1703.3054568382479,4989.9030518645695,-4989.9030518645695,-1703.3054568382479,9114.6960935122952,0.0
653204.59901257406,4162374.0504322448,-7500.0,4293.1746016372044,3187.9611056445788,2064.3079085314102,-1046.5210424435018,-767.91700621024495,184.92409217098577,3505.7972625603334,2217.1747474063491,3008.9029652491286,-3008.9029652491286,-2217.1747474063491,6944.9854393008809,0.0
658204.59901257406,4162374.0504322448,-7500.0,3717.6129181999527,2152.0732489939555,757.31959699268748,-797.12326105390264,-416.19154567526454,120.68710370915366,2694.5685113780519,2315.1763760712142,1541.2959999420896,-1541.2959999420896,-2315.1763760712142,5231.957271627899,0.0
663204.59901257406,4162374.0504322448,-7500.0,3055.295815042944,1312.0323986500528,-29.57632617837573,-580.31243667541412,-186.82765240031449,75.213162189277014,2077.6233620569956,2158.4816586464949,536.13123896390539,-536.13123896390539,-2158.4816586464949,3934.9006498391414,0.0
668204.59901257406,4162374.0504322448,-7500.0,2405.0764783495028,681.98250290538761,-459.74244899463156,-405.53900649712239,-45.891724776513072,44.413961887123143,1620.0248147994828,1873.9019688144981,-103.05732303013519,103.05732303013519,-1873.9019688144981,2985.3054376821533,0.0
673204.59901257406,4162374.0504322448,-7500.0,1821.9129030236377,238.0039800182177,-661.64065403219729,-271.74950093431613,35.029080599548493,24.2991175051095,1286.2780193435779,1547.1322157888726,-476.4027796361288,476.4027796361288,-1547.1322157888726,2308.7108195190731,0.0
678204.59901257406,4162374.0504322448,-7500.0,1328.7841574357892,-57.420567328318242,-726.58836383381663,-173.15797699456061,77.228129521208672,11.591554225265561,1044.3319892695706,1228.8484674170213,-668.85115752499678,668.85115752499678,-1228.8484674170213,1835.746726784417,0.0
683204.59901257406,4162374.0504322448,-7500.0,928.66100207531088,-242.07077924200308,-715.01726191145997,-102.65650011385455,95.564921714163873,3.8381744489694527,867.8305905300158,944.58922702548989,-744.97270087805509,744.97270087805509,-944.58922702548989,1507.2067338342201,0.0
688204.59901257406,4162374.0504322448,-7500.0,613.80006631580443,-348.15980313633156,-664.7114550452925,-53.531707256983218,99.891773487322112,-0.69414462215309902,736.67051670794285,703.92313525553004,-750.44183260218028,750.44183260218028,-703.92313525553004,1276.2189047620759,0.0
693204.59901257406,4162374.0504322448,-7500.0,371.92289218814113,-400.77754516849319,-598.11544553190197,-20.147243948209521,96.483108937719379,-3.1828608463243042,636.46944243863641,507.3439178384354,-715.89938895192722,715.89938895192722,-507.3439178384354,1108.5235084761537,0.0
698204.59901257406,4162374.0504322448,-7500.0,189.839836481503,-418.37143847717533,-527.85446134240476,1.9236899121508726,89.195853039633818,-4.4057474611917611,557.45533600876911,350.84011452859795,-661.02318195646217,661.02318195646217,-350.84011452859795,981.01492750338059,0.0
703204.59901257406,4162374.0504322448,-7500.0,55.305477535775509,-413.96640296895447,-460.54193876872813,16.014888940060604,80.317516414264503,-4.8656191909183297,493.21898424696008,228.64223718987355,-597.94020298672194,597.94020298672194,-228.64223718987355,879.15112563197636,0.0
708204.59901257406,4162374.0504322448,-7500.0,-42.211314911886923,-396.47598586601606,-399.25518974340349,24.567267867912953,71.148020329414337,-4.8817577846756004,439.62590856293542,134.7282304844278,-533.78794367855517,533.78794367855517,-134.7282304844278,794.21565746314434,0.0
528204.59901257406,4167374.0504322448,-7500.0,-975.35605860053204,552.13445908615847,-396.30556624613109,-132.51212245047887,80.455519757386654,-13.356642827278254,666.24434263506532,-628.86144834120296,375.66531871626648,-375.66531871626648,628.86144834120296,1300.1350529057313,0.0
533204.59901257406,4167374.0504322448,-7500.0,-1047.7873663994294,642.88304005066846,-480.09307383737428,-151.00634197449409,98.711703382265526,-16.165710478617981,747.3675341018228,-661.16196876752554,412.72103254178694,-412.72103254178694,661.16196876752554,1462.3306333659548,0.0
538204.59901257406,4167374.0504322448,-7500.0,-1116.0390751166478,747.79573540191154,-585.23858187648239,-171.5846314183099,121.46821377597877,-19.603098415264498,839.03054652538151,-684.29954929592611,448.40492198523054,-448.40492198523054,684.29954929592611,1646.8500481635454,0.0
543204.59901257406,4167374.0504322448,-7500.0,-1174.0681814840768,867.47095001312982,-717.46240112693238,-193.96199222457878,149.78257615760594,-23.787975582661069,941.93206338942218,-691.93909996048478,479.00392725723447,-479.00392725723447,691.93909996048478,1855.8271931119079,0.0
548204.59901257406,4167374.0504322448,-7500.0,-1212.832811826966,1001.0981631819465,-883.71007740404241,-217.40980855665225,184.84140190639025,-28.834736714219304,1056.2635916546606,-675.01105936230408,498.50759452373939,-498.50759452373939,675.01105936230408,2090.7857937333056,0.0
553204.59901257406,4167374.0504322448,-7500.0,-1219.2132658697192,1145.1966599800169,-1091.9899323620257,-240.46118452413114,227.84286258976007,-34.822580457193084,1181.2705486426041,-620.87143192326153,497.51848905270941,-497.51848905270941,620.87143192326153,2352.0019058416628,0.0
558204.59901257406,4167374.0504322448,-7500.0,-1174.8228304346035,1291.5631851086644,-1350.6391440390125,-260.47057239800785,279.71728019479639,-41.735867675274768,1322.9584054305524,-512.51082126466565,461.8345920387016,-461.8345920387016,512.51082126466565,2637.5517104407722,0.0
563204.59901257406,4167374.0504322448,-7500.0,-1055.0465142950334,1424.0895384344699,-1666.38700406053,-272.99493360229371,340.54640377617318,-49.355284794001825,1490.1397294833573,-328.24778580138508,370.84254992346274,-370.84254992346274,328.24778580138508,2942.0331598141047,0.0
568204.59901257406,4167374.0504322448,-7500.0,-829.13782022900523,1514.1803928625543,-2040.0805455460716,-271.01451383777902,408.4583534824223,-57.072927198056249,1669.7333205694649,-42.879613367830217,196.27826523729075,-196.27826523729075,42.879613367830217,3255.2236351511751,0.0
573204.59901257406,4167374.0504322448,-7500.0,-463.08204782878192,1514.9695674632867,-2458.2008297757179,-244.1603826904429,477.68521852327268,-63.604378573896369,1857.7175799381423,367.80367198511414,-97.159317609570905,97.159317609570905,-367.80367198511414,3561.7239527569741,0.0
578204.59901257406,4167374.0504322448,-7500.0,71.764391284714947,1356.0005381143769,-2877.5756789821489,-178.46198806266796,535.46538968673417,-66.596701825058574,2050.3162684111612,915.91808130345987,-546.06819248435329,546.06819248435329,-915.91808130345987,3844.6852534895593,0.0
583204.59901257406,4167374.0504322448,-7500.0,780.10508306267445,943.49215632274843,-3201.0724102718336,-57.773120675133889,557.80985360328145,-62.22175329010166,2250.1467304941607,1579.5848319370361,-1171.4743192248552,1171.4743192248552,-1579.5848319370361,4101.1994752303854,0.0
588204.59901257406,4167374.0504322448,-7500.0,1611.4433160079816,177.4807601816394,-3246.5541961100057,131.11937202281607,505.35137033016673,-45.041194242736537,2480.4934767268783,2268.0736483503711,-1942.6607037297956,1942.6607037297956,-2268.0736483503711,4382.8185318504593,0.0
593204.59901257406,4167374.0504322448,-7500.0,2422.8335068314782,-996.43302221902297,-2725.7404895856112,387.47515383915771,323.18595639280369,-8.707961569838,2805.8098360744843,2783.1419478180464,-2717.9806803896613,2717.9806803896613,-2783.1419478180464,4862.4717694582923,0.0
598204.59901257406,4167374.0504322448,-7500.0,2966.3837769297052,-2488.9615144192398,-1277.7037519459916,680.10365527240822,-47.670275943223359,51.851325240273425,3331.6853609003711,2813.3768070197775,-3183.3616226859249,3183.3616226859249,-2813.3768070197775,5840.931099246156,0.0
603204.59901257406,4167374.0504322448,-7500.0,2961.6010037289325,-3955.9155342209401,1374.9907886411361,934.18672354694002,-639.27581884456708,136.84436702288835,4138.7057124086978,2031.3789913413418,-2862.9752824513289,2862.9752824513289,-2031.3789913413418,7537.0241248787879,0.0
608204.59901257406,4167374.0504322448,-7500.0,2291.101885100974,-4798.7449682514662,5132.3709691013237,1041.3455699823855,-1410.8840902464613,238.38214146783639,5178.8423708672281,337.1285971975509,-1316.4183359304679,1316.4183359304679,-337.1285971975509,9819.7576776086171,0.0
613204.59901257406,4167374.0504322448,-7500.0,1211.3477165818374,-4431.9819620751432,9270.8621726951533,909.24596357408416,-2220.9131897740817,340.42894226250093,6246.2347625664415,-1882.6141307548578,1475.5234479350856,-1475.5234479350856,1882.6141307548578,12204.032056018681,0.0
618204.59901257406,4167374.0504322448,-7500.0,306.35055578393576,-2739.0432087215049,12607.545774840179,530.03947137858188,-2863.2907215504501,422.99148037081716,7073.6116527725717,-3807.8558364216833,4846.9501638056836,-4846.9501638056836,3807.8558364216833,14065.681143424412,0.0
623204.59901257406,4167374.0504322448,-7500.0,89.398082202849736,-274.91782403169998,14150.914512307283,5.6827130386313494,-3168.4494882154595,468.81346188692083,7546.0818440261346,-4682.295481958482,7715.0796837702301,-7715.0796837702301,4682.295481958482,14929.135860353324,0.0
628204.59901257406,4167374.0504322448,-7500.0,627.22002251456081,2083.3821884533245,13687.327605405089,-506.15384742024321,-3092.6060453337996,469.97287105781413,7461.3681285812972,-4315.5808481336562,9249.3553696993986,-9249.3553696993986,4315.5808481336562,14667.223905518676,0.0
633204.59901257406,4167374.0504322448,-7500.0,1578.8278488192905,3690.6811024310468,11751.789700964353,-879.59112650154827,-2720.47548449536,431.04200579614962,6881.4168915343071,-3088.5050803287345,9290.6686802187414,-9290.6686802187414,3088.5050803287345,13485.930817572667,0.0
638204.59901257406,4167374.0504322448,-7500.0,2516.1730538659067,4371.5498288633462,9150.1900978880094,-1067.720049492289,-2195.6157958813342,366.0556300915872,5997.1758133621452,-1574.3793406490136,8220.9583050140918,-8220.9583050140918,1574.3793406490136,11752.051349134816,0.0
643204.59901257406,4167374.0504322448,-7500.0,3164.1109928884321,4295.1619221201117,6544.0775035754314,-1091.4942050561929,-1647.9129337464167,291.3966735875602,4997.5790981532509,-212.33382008255194,6591.310071302637,-6591.310071302637,212.33382008255194,9821.0242383379482,0.0
648204.59901257406,4167374.0504322448,-7500.0,3440.951644558575,3751.521053817637,4310.0086839048217,-1003.2569541894942,-1159.81465586831,219.87493113977837,4021.3276215417445,787.62584160012034,4857.8463075897207,-4857.8463075897207,-787.62584160012034,7950.2647145511746,0.0
653204.59901257406,4167374.0504322448,-7500.0,3392.4959510257154,3004.1041902796237,2582.1950977278329,-856.71890607912212,-766.97977498516968,158.67048633972865,3151.4376293777432,1393.2432892467482,3298.7749045249789,-3298.7749045249789,-1393.2432892467482,6287.6422299166479,0.0
658204.59901257406,4167374.0504322448,-7500.0,3116.6014864870572,2235.9790803662881,1346.43929844232,-692.70996682654072,-473.24755294442986,110.18436714947424,2480.0432014290641,1666.9965408368262,2036.362732551424,-2036.362732551424,-1666.9965408368262,4894.9372353811468,0.0
663204.59901257406,4167374.0504322448,-7500.0,2713.9664194359111,1549.910424347222,520.11827088217876,-536.57199536503708,-266.0058691132669,73.855700445353946,1949.6082664976284,1702.8538055570909,1089.9081714354213,-1089.9081714354213,-1702.8538055570909,3778.0716180276286,0.0
668204.59901257406,4167374.0504322448,-7500.0,2265.1980057131627,988.67083211912484,3.116176127468572,-400.97103621497126,-126.95388121047947,47.75729297537994,1536.1424629854469,1590.6017744482965,424.26562672109242,-424.26562672109242,-1590.6017744482965,2912.2363221661149,0.0
673204.59901257406,4167374.0504322448,-7500.0,1824.9705162015896,557.7301610957885,-296.00227059410241,-290.05289716712338,-38.095529239889821,29.621676120273555,1220.8284330585175,1400.9281692352986,-16.40392326238657,16.40392326238657,-1400.9281692352986,2259.1705651828638,0.0
678204.59901257406,4167374.0504322448,-7500.0,1424.8615746026994,243.28312300752441,-450.11821852745589,-203.078659853,15.659581099785528,17.366586047545404,983.88846651812116,1182.7626845199807,-289.16138722217323,289.16138722217323,-1182.7626845199807,1777.5222171624227,0.0
683204.59901257406,4167374.0504322448,-7500.0,1079.2715032749604,24.16258564562964,-512.60463927520891,-136.99808832590875,45.865221264361246,9.2939100470766149,807.08690765511255,966.37898138574667,-443.20545722630129,443.20545722630129,-966.37898138574667,1428.2918732956571,0.0
688204.59901257406,4167374.0504322448,-7500.0,791.39540948496722,-121.40858735294526,-520.26574967995464,-88.027133918195617,60.850812359716102,4.1129724841595117,674.9416061556966,768.25492905399858,-517.10235490120215,517.10235490120215,-768.25492905399858,1177.3681524596768,0.0
693204.59901257406,4167374.0504322448,-7500.0,557.99364837817041,-212.62698423927725,-497.3119562099115,-52.491184704149049,66.365236326592537,0.88710268480779719,575.10913945506081,595.6770291804022,-539.24443508805882,539.24443508805882,-595.6770291804022,996.60908724512126,0.0
698204.59901257406,4167374.0504322448,-7500.0,372.7135732894003,-265.04241389218652,-459.02929978686279,-27.199255155175177,66.243452371428262,-1.0419400031083554,498.26085541300785,450.34157078411909,-529.59786543991618,529.59786543991618,-450.34157078411909,864.1454351267131,0.0
703204.59901257406,4167374.0504322448,-7500.0,228.17045234183172,-290.59133595091112,-414.68449432667381,-9.551827368765121,62.970346104264095,-2.1260402514417009,437.66116137094946,330.87025511511399,-501.69765796004924,501.69765796004924,-330.87025511511399,764.03612268391157,0.0
528204.59901257406,4172374.0504322448,-7500.0,-812.17554920005,533.62245523750312,-424.53151244252973,-112.34390991412184,79.422422503275712,-11.595963678618135,603.14916439208116,-497.61189403616436,318.64963359460512,-318.64963359460512,497.61189403616436,1179.7888242327483,0.0
533204.59901257406,4172374.0504322448,-7500.0,-852.63833808407696,610.15369601964687,-508.88714701064714,-125.63215060165373,95.971960642570707,-13.828196896137126,669.35916940756636,-505.03675147743263,338.87232335106694,-338.87232335106694,505.03675147743263,1313.4953791272892,0.0
538204.59901257406,4172374.0504322448,-7500.0,-883.27893245296843,695.04963447890839,-612.40330740431614,-139.62673229433261,116.08168430346227,-16.486137588553007,742.29642128125795,-499.42307519108726,353.4177345739032,-353.4177345739032,499.42307519108726,1462.22571511766,0.0
543204.59901257406,4172374.0504322448,-7500.0,-897.82535777432815,786.91986985860319,-739.14893597959087,-153.7320390562675,140.36404084900946,-19.617718079894612,821.70982010282876,-474.66681155113207,357.87654320808832,-357.87654320808832,474.66681155113207,1626.2876361560884,0.0
548204.59901257406,4172374.0504322448,-7500.0,-887.68344480240489,882.49368364223346,-893.47026079203272,-166.90503426801126,169.37259735722969,-23.24519485100501,906.70664661298508,-422.71054923796748,345.80783126825258,-345.80783126825258,422.71054923796748,1805.0783160043597,0.0
553204.59901257406,4172374.0504322448,-7500.0,-841.45759579754906,975.46621654875401,-1079.3820256064112,-177.43522459570082,203.4287697618206,-27.334352431258189,1001.504546500112,-333.30450564372012,308.08292137991049,-308.08292137991049,333.30450564372012,1996.5738370837721,0.0
558204.59901257406,4172374.0504322448,-7500.0,-744.70062708873604,1054.8492988877456,-1299.2761308962724,-182.65700908116932,242.30047495873407,-31.742243384539513,1112.4488294396381,-194.12738016697921,232.25445247359681,-232.25445247359681,194.12738016697921,2196.7233190916568,0.0
563204.59901257406,4172374.0504322448,-7500.0,-580.3037293471283,1102.7910899287881,-1551.4410063737153,-178.61474838635561,284.64349813830654,-36.133464979869572,1229.8068347718686,8.2619982001713055,102.27318499120915,-102.27318499120915,-8.2619982001713055,2398.9399593212361,0.0
568204.59901257406,4172374.0504322448,-7500.0,-330.26832292971682,1092.0776782421776,-1825.6463044651503,-159.76304665785725,327.09206013005576,-39.855377829403338,1351.169231556898,285.8274219625859,-100.73871642077397,100.73871642077397,-285.8274219625859,2594.2654869106477,0.0
573204.59901257406,4172374.0504322448,-7500.0,19.980567921566379,984.14348918783355,-2095.8914040618379,-118.91060025303688,362.89785178785661,-41.770878936742875,1474.6031658575794,643.58865646454342,-395.30425476486857,395.30425476486857,-643.58865646454342,2773.6597221656202,0.0
578204.59901257406,4172374.0504322448,-7500.0,473.30708262008864,729.65019982340436,-2309.7213789793122,-47.828427317696757,380.1437278064418,-40.073920796329681,1601.6195377120616,1069.8662297045291,-791.78799255921126,791.78799255921126,-1069.8662297045291,2935.5769803646094,0.0
583204.59901257406,4172374.0504322448,-7500.0,1007.758895223358,275.65686561708418,-2375.1603047116373,60.790498001245858,359.94089693164909,-32.17104804071041,1743.5878031642269,1521.651853497166,-1277.2157499138611,1277.2157499138611,-1521.651853497166,3104.0806292700904,0.0
588204.59901257406,4172374.0504322448,-7500.0,1560.6912670369732,-414.63668853154127,-2150.7582868235777,209.21878174372597,275.82670294770008,-14.804061511820157,1931.1845478259479,1907.9950223932487,-1791.363261061108,1791.363261061108,-1907.9950223932487,3359.3155915138627,0.0
593204.59901257406,4172374.0504322448,-7500.0,2019.0445418695235,-1324.7020999308118,-1452.5029448329155,388.2164364082883,96.761490453270241,15.328155516912306,2218.5104587722071,2082.234110714955,-2199.3944591791706,2199.3944591791706,-2082.234110714955,3854.2516845091013,0.0
598204.59901257406,4172374.0504322448,-7500.0,2234.2908864290962,-2335.7483789402072,-99.99588219625754,570.07081377346867,-203.18811791593055,60.253569262886565,2663.5230282345374,1864.7193202126273,-2281.1731207562561,2281.1731207562561,-1864.7193202126273,4750.4174902583991,0.0
603204.59901257406,4172374.0504322448,-7500.0,2082.1256228438765,-3196.7200149222153,1981.1639812042295,706.68070425984149,-627.43998776637602,118.91049362939943,3282.5236277198919,1118.9541682062895,-1774.4891920141122,1774.4891920141122,-1118.9541682062895,6082.9671792472418,0.0
608204.59901257406,4172374.0504322448,-7500.0,1559.4318536712431,-3569.2496120123737,4626.5314159591844,740.43250429478189,-1137.8185046429846,185.70421107767456,4015.4284169698558,-128.61042437539351,-501.23168957287891,501.23168957287891,128.61042437539351,7697.7158248170172,0.0
613204.59901257406,4172374.0504322448,-7500.0,851.59906994974767,-3181.0787662161474,7369.4453126052704,630.12350871961087,-1649.12896916007,250.70703029870748,4733.7820778446276,-1605.4996842635953,1463.7154197834718,-1463.7154197834718,1605.4996842635953,9298.8034251295903,0.0
618204.59901257406,4172374.0504322448,-7500.0,276.30476173736884,-2016.9195079120802,9565.7385124310877,379.20721551812642,-2052.0278458945199,302.15800515625256,5298.1797452384353,-2861.6379453016179,3719.3311679830749,-3719.3311679830749,2861.6379453016179,10550.915973924451,0.0
623204.59901257406,4172374.0504322448,-7500.0,102.60428601191106,-380.36307434523962,10687.93328408118,43.055952818390899,-2258.6021374108582,330.45648251832159,5659.0700909796115,-3496.9754187418125,5683.5748686468887,-5683.5748686468887,3496.9754187418125,11199.672167229361,0.0
628204.59901257406,4172374.0504322448,-7500.0,389.93932331157623,1258.6988095566373,10578.313247503902,-295.30391220693616,-2240.8492770110061,331.66038175427951,5670.5024119119062,-3377.4850724786475,6883.3192332698736,-6883.3192332698736,3377.4850724786475,11157.012370287899,0.0
633204.59901257406,4172374.0504322448,-7500.0,985.56875177831193,2507.7228285961523,9465.7871371544607,-563.69639756227684,-2034.9612038779417,308.5427180025622,5355.5589662292314,-2661.9531249402394,7158.6433355542667,-7158.6433355542667,2661.9531249402394,10505.059746522687,0.0
638204.59901257406,4172374.0504322448,-7500.0,1652.2230411504413,3194.0960651860596,7779.2036109857736,-725.91446940694993,-1714.0239854117792,268.71580841979937,4811.0765333973368,-1656.2055426740785,6651.087225384781,-6651.087225384781,1656.2055426740785,9430.3734941209932,0.0
643204.59901257406,4172374.0504322448,-7500.0,2196.5782994525021,3350.640847700633,5936.4621844456169,-782.63656726828572,-1353.6359131979086,221.23559208008209,4147.403117222314,-646.1858783706698,5652.8480330810471,-5652.8480330810471,646.1858783706698,8141.9405217709154,0.0
648204.59901257406,4172374.0504322448,-7500.0,2522.5791206321646,3120.9543333026004,4229.4600252501778,-757.2362508906657,-1010.2048572513002,173.72929982301986,3457.9139647273664,187.59290310369488,4457.9999582485016,-4457.9999582485016,-187.59290310369488,6814.8789014722352,0.0
653204.59901257406,4172374.0504322448,-7500.0,2620.3901415227474,2670.3487891805626,2807.6033817909092,-680.02940233756874,-715.39103924895835,131.10499217186032,2807.0250157503706,774.48543148910471,3283.9592993103188,-3283.9592993103188,-774.48543148910471,5568.8937357207787,0.0
658204.59901257406,4172374.0504322448,-7500.0,2531.0733009719138,2135.6784895492628,1711.7469339740819,-578.05684521342425,-480.44691282082925,95.635365273785538,2239.9567637210948,1120.1949009750165,2256.2288976143891,-2256.2288976143891,-1120.1949009750165,4470.5189640099861,0.0
663204.59901257406,4172374.0504322448,-7500.0,2314.1044853051681,1609.4204892532787,918.30963792331113,-470.9533196210898,-303.59466715357399,67.697038294133804,1800.5470407886453,1269.2156275257412,1425.7305399234697,-1425.7305399234697,-1269.2156275257412,3545.6549354878807,0.0
668204.59901257406,4172374.0504322448,-7500.0,2026.7098947660634,1143.0644836839813,374.80562064117424,-370.75910946634059,-176.55886344859968,46.586240282087147,1442.6369813596634,1277.3587330300932,794.80998352331949,-794.80998352331949,-1277.3587330300932,2793.6352625036725,0.0
673204.59901257406,4172374.0504322448,-7500.0,1714.2494408118257,757.79320912635433,22.526274239190943,-283.49290589934083,-89.016869546843552,31.143380564853956,1158.1050776954753,1196.1763547389392,340.05500086447097,-340.05500086447097,-1196.1763547389392,2198.8751906626258,0.0
678204.59901257406,4172374.0504322448,-7500.0,1407.961278730183,455.68805264441471,-191.63389979788712,-211.10029475607874,-31.091234868544554,20.139371340033573,936.05280721089036,1066.4294510820973,28.243816563841847,-28.243816563841847,-1066.4294510820973,1739.0646773622907,0.0
683204.59901257406,4172374.0504322448,-7500.0,1126.5556523035784,228.63354022386272,-310.62116158029232,-153.12749956967733,5.5490349422364691,12.471462293466768,764.98517539209354,917.0246883244829,-174.24858102878329,174.24858102878329,-917.0246883244829,1390.2450021792561,0.0
688204.59901257406,4172374.0504322448,-7500.0,879.22430567685535,64.335602408256506,-366.75499243766041,-107.92686399844163,27.415262512186395,7.2358856193718415,634.14040709116784,766.60043564126283,-296.8725957019318,296.8725957019318,-766.60043564126283,1129.5863488207656,0.0
693204.59901257406,4172374.0504322448,-7500.0,668.70411515907745,-50.120867454002081,-383.13561883523414,-73.423284975787325,39.340108451060438,3.7330560599116196,534.15125298737382,625.9787898768144,-363.35158498592068,363.35158498592068,-625.9787898768144,936.72969757751605,0.0
698204.59901257406,4172374.0504322448,-7500.0,493.79665201540826,-126.46457041146428,-375.62386656078905,-47.547385473540459,44.777144123962309,1.441985628701566,457.2920159697469,500.54750153629368,-391.75932180924985,391.75932180924985,-500.54750153629368,794.36704895948435,0.0
703204.59901257406,4172374.0504322448,-7500.0,351.20087337987417,-174.52505796707803,-354.74479539546297,-28.446628286830112,46.122519152651549,-0.014745912315908299,397.47363608704694,392.19625672035346,-395.31700699451966,395.31700699451966,-392.19625672035346,688.44682665311814,0.0
533204.59901257406,4177374.0504322448,-7500.0,-676.38779070908186,561.43816488225843,-522.43921704334309,-102.40058667527511,90.770297089331592,-11.653399750711214,593.23833022619272,-366.71813503694005,263.88651079125617,-263.88651079125617,366.71813503694005,1168.3539200158311,0.0
538204.59901257406,4177374.0504322448,-7500.0,-678.45502540439543,625.52236528652622,-619.69279484367144,-111.04486885352291,107.86235539288603,-13.645924922260829,649.56980031324224,-340.51371433125962,260.72334186971932,-260.72334186971932,340.51371433125962,1285.3361095187051,0.0
543204.59901257406,4177374.0504322448,-7500.0,-661.93114579202006,690.07995639099863,-735.2839353416424,-118.70039591987306,127.82795606460375,-15.90566552165525,708.79994755986922,-294.46258101783644,244.6306521740845,-244.6306521740845,294.46258101783644,1410.6869509776459,0.0
548204.59901257406,4177374.0504322448,-7500.0,-619.61629819764221,750.44861416271215,-871.06601405553738,-124.25715401365217,150.73817333771328,-18.399703240515869,773.85280722117113,-222.265569623826,209.6829620130446,-209.6829620130446,222.265569623826,1542.6823959578883,0.0
553204.59901257406,4177374.0504322448,-7500.0,-542.77385178193072,799.14729823930043,-1027.5756793120249,-126.08174639885863,176.30903729956759,-21.03504414597597,849.68938746129118,-116.71236556246333,148.19687338364264,-148.19687338364264,116.71236556246333,1678.403344217405,0.0
558204.59901257406,4177374.0504322448,-7500.0,-421.48801272965807,824.80056841706619,-1202.5838109358294,-121.86755830447485,203.60922053368745,-23.618794703231622,929.01013137005953,29.651298999456564,50.744588080998263,-50.744588080998263,-29.651298999456564,1813.559405535962,0.0
563204.59901257406,4177374.0504322448,-7500.0,-245.72800326223603,811.00759097922332,-1388.7207252204448,-108.5143794743974,230.61310368587309,-25.801275920465987,1010.2545959893725,223.02797709041334,-93.242420944485289,93.242420944485289,-223.02797709041334,1942.7424010597056,0.0
568204.59901257406,4177374.0504322448,-7500.0,-7.5927449290465754,735.56358231444165,-1569.8423259565236,-82.126707295533478,253.56559498306828,-27.001498426482847,1092.3646034400253,465.55054130249141,-293.69037872744525,293.69037872744525,-465.55054130249141,2060.8157142320974,0.0
573204.59901257406,4177374.0504322448,-7500.0,294.72611768793217,570.91730007823492,-1715.9794227785255,-38.296259310969951,266.17689678386756,-26.323662660450836,1176.2279202602931,750.62263856255368,-556.04018695540776,556.04018695540776,-750.62263856255368,2166.8555747843925,0.0
578204.59901257406,4177374.0504322448,-7500.0,650.97843491998071,287.43909333931606,-1777.360873653605,27.074657954407201,258.80050012923357,-22.491840717371943,1267.7775946475701,1056.2491595494766,-874.31774343236077,874.31774343236077,-1056.2491595494766,2272.8782570334188,0.0
583204.59901257406,4177374.0504322448,-7500.0,1031.5969104736623,-138.26427699135226,-1679.5436334341016,116.10602853700422,218.01494576497413,-13.860977490299316,1382.5927585547993,1337.3889291224327,-1220.5901897514736,1220.5901897514736,-1337.3889291224327,2418.5256640180023,0.0
588204.59901257406,4177374.0504322448,-7500.0,1382.0679004319743,-707.96458963357827,-1324.4108068582725,226.2712354374342,127.42780121280558,1.4026948937333652,1549.1453572177952,1520.9288337061325,-1532.340612929268,1532.340612929268,-1520.9288337061325,2683.3698127846146,0.0
593204.59901257406,4177374.0504322448,-7500.0,1625.1307717912005,-1380.1569091635454,-604.97994691635267,347.13995832962718,-29.142049824447749,24.86972564328228,1803.354766048393,1510.588763754361,-1703.8634068457282,1703.8634068457282,-1510.588763754361,3169.2326252130706,0.0
598204.59901257406,4177374.0504322448,-7500.0,1679.0239335155145,-2050.1748151179895,557.76265900983651,458.07700888634798,-261.22039022886241,57.095908894354835,2169.6782818371835,1211.2180333330177,-1594.0398941812184,1594.0398941812184,-1211.2180333330177,3938.6716683891532,0.0
603204.59901257406,4177374.0504322448,-7500.0,1495.2623366484188,-2550.2136726747462,2156.8769493568752,529.66427734890158,-562.7700562525697,96.747015678692236,2639.3114266017028,576.18701440782615,-1065.037895240511,1065.037895240511,-576.18701440782615,4961.9945232557902,0.0
608204.59901257406,4177374.0504322448,-7500.0,1103.0833468850258,-2690.2602650038425,4043.6086650212301,531.3962198766078,-904.82558363964472,140.04645713288153,3162.5413815241491,-337.79669940132527,-53.535005530184378,53.535005530184378,337.79669940132527,6117.3309762132712,0.0
613204.59901257406,4177374.0504322448,-7500.0,627.33429885291241,-2340.7334841313886,5920.1646839413834,444.77071820822096,-1236.2440597972436,181.09601332199844,3659.7525231823815,-1348.5521537077138,1356.3922409485908,-1356.3922409485908,1348.5521537077138,7224.2997226109756,0.0
618204.59901257406,4177374.0504322448,-7500.0,248.53251810802718,-1515.5402726015473,7418.2858703383163,275.222530935713,-1496.8753558413546,213.29407126255944,4061.3758598674694,-2197.7990376331586,2917.5943341741763,-2917.5943341741763,2197.7990376331586,8093.1447919434995,0.0
623204.59901257406,4177374.0504322448,-7500.0,115.98419034301868,-390.57609664181547,8240.7128496149035,53.948682638088265,-1639.0134933889376,231.3973509716028,4337.550330056225,-2661.4204860484256,4298.6026779148087,-4298.6026779148087,2661.4204860484256,8579.7617395843808,0.0
628204.59901257406,4177374.0504322448,-7500.0,273.31976529563104,768.47102213760502,8279.3282347410259,-173.5217540015872,-1644.9844347459227,233.23024626507018,4384.0956879522628,-2649.8640477309018,5219.6397457245976,-5219.6397457245976,2649.8640477309018,8625.4640290167772,0.0
633204.59901257406,4177374.0504322448,-7500.0,650.10132714197516,1720.7975636270533,7634.0124916621317,-365.13783859592615,-1530.3610915458501,220.15750779716413,4212.361585248017,-2229.7261120978255,5556.0676651732574,-5556.0676651732574,2229.7261120978255,8262.6860754703102,0.0
638204.59901257406,4177374.0504322448,-7500.0,1114.7662989036021,2331.1267596540483,6536.2672394230367,-495.57887259595384,-1332.9161974329622,196.18263132829671,3872.8207531068483,-1565.3431627714465,5351.267026453258,-5351.267026453258,1565.3431627714465,7588.5320420914059,0.0
643204.59901257406,4177374.0504322448,-7500.0,1540.7855202949343,2581.7879971842517,5243.6427768117437,-559.29399604953767,-1096.2707735731403,166.322014385329,3429.8734020327488,-835.39561801385139,4756.2731686229954,-4756.2731686229954,835.39561801385139,6725.3616924391936,0.0
648204.59901257406,4177374.0504322448,-7500.0,1846.6215737884338,2536.1375328969289,3964.3712394383524,-565.44665714154974,-857.22983001686873,135.13061232809346,2944.2819921963765,-175.16729542777125,3951.7925330321232,-3951.7925330321232,175.16729542777125,5787.7693316900377,0.0
653204.59901257406,4177374.0504322448,-7500.0,2002.6156961195209,2290.6187708408361,2829.2775201441909,-530.19505310397176,-640.22841757645028,105.88654181858068,2463.3810221698623,341.77897002282111,3093.0600506191722,-3093.0600506191722,-341.77897002282111,4864.4327070543768,0.0
658204.59901257406,4177374.0504322448,-7500.0,2018.0601192219015,1939.1073513281885,1897.7839761851199,-470.36898063916351,-457.52501175538657,80.443681291426429,2018.4116072695299,694.86022152354815,2286.8541669479991,-2286.8541669479991,-694.86022152354815,4013.4667162188089,0.0
663204.59901257406,4177374.0504322448,-7500.0,1923.1996889368306,1555.0113419740201,1178.4302312214504,-399.90820512630978,-312.22236602443934,59.489719353455548,1639.6761136298253,897.70211870250932,1591.6519747448128,-1591.6519747448128,-897.70211870250932,3265.956381920621,0.0
668204.59901257406,4177374.0504322448,-7500.0,1754.4687627428627,1186.9383198794451,650.44570440943471,-328.66982752014474,-201.81398049692513,42.937215544115418,1338.674580355193,980.32766580598195,1028.6773389058055,-1028.6773389058055,-980.32766580598195,2632.7481454839258,0.0
673204.59901257406,4177374.0504322448,-7500.0,1545.3736575424584,861.77675768515269,280.39996047181234,-262.66573100526557,-121.09087281869,30.27969961680488,1090.3089685066302,976.5815935534539,595.18689698653782,-595.18689698653782,-976.5815935534539,2111.4119796215427,0.0
678204.59901257406,4177374.0504322448,-7500.0,1322.3309294855317,590.46494723514377,32.800945174507504,-204.91162628781416,-64.09078622768827,20.848726926185446,889.53382774232944,917.03561434287371,275.69933403631109,-275.69933403631109,-917.03561434287371,1691.9453158746855,0.0
683204.59901257406,4177374.0504322448,-7500.0,1103.8129943345314,373.73925519625118,-124.30767057489641,-156.37680462011761,-25.198225069191736,13.970472974268148,729.75686498819186,826.01870956004677,49.864179603431637,-49.864179603431637,-826.01870956004677,1360.840926154262,0.0
688204.59901257406,4177374.0504322448,-7500.0,901.2583395947421,206.70801178346332,-217.13441932141177,-116.79197674142983,0.35923308912944207,9.0452116569071421,604.04238510399125,721.18172783028933,-102.7933689556354,102.7933689556354,-721.18172783028933,1103.6793094963145,0.0
693204.59901257406,4177374.0504322448,-7500.0,720.65333029986721,82.013594772140962,-265.88664441030829,-85.241183023421883,16.382968112190529,5.5768323749063313,505.82014466417002,614.32853573028251,-200.4629327902378,200.4629327902378,-614.32853573028251,906.60136850304184,0.0
698204.59901257406,4177374.0504322448,-7500.0,564.15699765311876,-8.2215658609626452,-285.46221403649355,-60.551257041712105,25.767513085665129,3.1741679610455154,429.2558470121287,512.69331037585027,-258.14757322190906,258.14757322190906,-512.69331037585027,757.05137960543254,0.0
533204.59901257406,4182374.0504322448,-7500.0,-522.28565571075637,502.84514907379145,-521.75016294995601,-81.785665034479095,83.888258281326614,-9.6889872036945697,520.98000722422307,-248.74587567752044,192.60103134132837,-192.60103134132837,248.74587567752044,1030.6402262675322,0.0
538204.59901257406,4182374.0504322448,-7500.0,-504.14956428898381,547.2102430360643,-609.36427749813004,-86.287078169680029,97.899069840793558,-11.134207063821284,563.17162097526045,-209.34442892053525,175.85157681290846,-175.85157681290846,209.34442892053525,1120.4521235682994,0.0
543204.59901257406,4182374.0504322448,-7500.0,-467.38385427918001,587.18970125304224,-710.12339669294079,-89.179811079751715,113.66850019806328,-12.699970194951002,608.83239163392454,-151.4349998244563,145.20619009473515,-145.20619009473515,151.4349998244563,1213.6826659222268,0.0
548204.59901257406,4182374.0504322448,-7500.0,-406.55122877262113,617.65123567165733,-823.8105989922451,-89.440150071279888,130.94341892912652,-14.325621698011595,662.02114151825685,-70.678332141342793,95.81239113686965,-95.81239113686965,70.678332141342793,1308.2516667943239,0.0
553204.59901257406,4182374.0504322448,-7500.0,-315.68962074958949,631.18324091023453,-948.35783279492944,-85.679325304551952,149.08485680228253,-15.896601398505288,717.21589717394659,37.20739282561037,21.954012860251595,-21.954012860251595,-37.20739282561037,1401.3183111898063,0.0
558204.59901257406,4182374.0504322448,-7500.0,-188.95152229446967,617.56086081005469,-1078.5242769042902,-76.093842892501655,166.83827948536714,-17.217166595412763,773.31566049364801,175.57194087903417,-82.529029183515277,82.529029183515277,-175.57194087903417,1489.504173283362,0.0
563204.59901257406,4182374.0504322448,-7500.0,-21.821012147639912,563.43358287123158,-1203.9849014329029,-58.476041668475681,182.02093078322585,-17.975701482333115,829.70281877261664,345.31633201647372,-223.21948169750721,223.21948169750721,-345.31633201647372,1569.7443874575042,0.0
568204.59901257406,4182374.0504322448,-7500.0,186.87561629672598,452.63538957016442,-1306.7925880534453,-30.354517237332953,191.13697668765965,-17.70571352293501,886.90931125406576,542.5309615022735,-403.12453810764032,403.12453810764032,-542.5309615022735,1641.4390658925422,0.0
573204.59901257406,4182374.0504322448,-7500.0,432.06230590018134,267.78359914219686,-1358.4519044090694,10.632403044515874,188.98325167595618,-15.752623468341156,948.20379776170319,755.24010825626408,-619.28619688920173,619.28619688920173,-755.24010825626408,1710.9259697005959,0.0
578204.59901257406,4182374.0504322448,-7500.0,698.88085241224996,-5.9224303237877161,-1317.4288056503447,66.008170060711947,168.40476016138064,-11.266907337117132,1021.9505483235276,959.65936737778452,-857.7801939300191,857.7801939300191,-959.65936737778452,1798.942367632028,0.0
583204.59901257406,4182374.0504322448,-7500.0,959.59446940946134,-373.82873667257786,-1128.9159412683655,135.29256685253313,120.50282170173453,-3.2580369932683766,1123.6842351066744,1117.2923226208311,-1087.5998641259678,1087.5998641259678,-1117.2923226208311,1948.2689753121531,0.0
588204.59901257406,4182374.0504322448,-7500.0,1173.1829130188044,-821.84848129347301,-729.89674979885729,214.48755177533039,35.741901224803861,9.2476438156706955,1274.8899082142714,1175.5522632276766,-1255.4737298088266,1255.4737298088266,-1175.5522632276766,2220.2585284130428,0.0
593204.59901257406,4182374.0504322448,-7500.0,1290.9261982886746,-1305.6217553712245,-63.119724281178527,294.66522542287879,-93.601475837779475,26.913695804864183,1495.3233097733068,1075.7333163849491,-1285.9689095862016,1285.9689095862016,-1075.7333163849491,2668.3980194400142,0.0
598204.59901257406,4182374.0504322448,-7500.0,1270.6758360477756,-1744.7376155134323,898.32618686335911,361.59938630647929,-269.59848579455507,49.686631127835959,1791.1963519114806,771.35741392798479,-1092.9934926178801,1092.9934926178801,-771.35741392798479,3304.1586550574712,0.0
603204.59901257406,4182374.0504322448,-7500.0,1098.3096289232747,-2030.9509087813942,2120.5532573041846,397.6533512545812,-484.36384903068023,76.395678666593369,2147.1256310606932,254.90255628262736,-606.9315145709902,606.9315145709902,-254.90255628262736,4084.9026355071674,0.0
608204.59901257406,4182374.0504322448,-7500.0,807.07374330607502,-2056.8954686426428,3487.1471667664496,386.56825453260757,-717.49169096917285,104.57971650777377,2526.4714494772156,-418.35274335131606,187.11404247123102,-187.11404247123102,418.35274335131606,4923.8371131691792,0.0
613204.59901257406,4182374.0504322448,-7500.0,479.58403483414622,-1760.0030463965768,4806.5525248297827,320.04424203547444,-937.93029847094556,130.76588581493334,2879.3122838326467,-1127.8806245759381,1218.1037851539616,-1218.1037851539616,1127.8806245759381,5709.0202669959335,0.0
618204.59901257406,4182374.0504322448,-7500.0,222.53989280823257,-1160.0308922822719,5859.2997464760965,202.92484818456552,-1111.3945221881643,151.24988409100493,3178.8147619861174,-1719.5012180779868,2329.7368336957798,-2329.7368336957798,1719.5012180779868,6328.2013573683744,0.0
623204.59901257406,4182374.0504322448,-7500.0,122.81305680804411,-363.73995244832571,6469.7989787393435,53.436106076582178,-1210.9040795746037,163.1312691456915,3388.6508774410077,-2061.5790930058952,3324.1478653950312,-3324.1478653950312,2061.5790930058952,6695.8426882989306,0.0
628204.59901257406,4182374.0504322448,-7500.0,210.7450467279354,471.59141969389043,6565.1368071755423,-102.46460146870457,-1225.2615771339977,165.14597054578672,3444.6037914488015,-2094.7714182700397,4029.9822068069502,-4029.9822068069502,2094.7714182700397,6772.9327840471515,0.0
633204.59901257406,4182374.0504322448,-7500.0,453.11263957352105,1195.4050339608627,6188.8789587238161,-239.73496759772326,-1161.1297813334272,157.91032364521899,3351.8527432030896,-1846.3787860951634,4356.9559837501274,-4356.9559837501274,1846.3787860951634,6571.4105360483718,0.0
638204.59901257406,4182374.0504322448,-7500.0,775.97365089453808,1709.2594980839965,5468.5229680882467,-341.31598245328064,-1038.4183257821987,143.51628195748157,3137.382903595179,-1406.1151575933334,4310.1003233360025,-4310.1003233360025,1406.1151575933334,6143.0440797330893,0.0
643204.59901257406,4182374.0504322448,-7500.0,1098.6759516374982,1981.5288077374037,4562.1375551474375,-400.77815042733118,-882.38755317874256,124.75249245989163,2839.1577324817226,-884.21349790895329,3966.0152825984242,-3966.0152825984242,884.21349790895329,5560.0631018197246,0.0
648204.59901257406,4182374.0504322448,-7500.0,1359.7026926323874,2034.990612462989,3612.6022011539449,-420.78904071757728,-716.53101400550929,104.33490877533843,2496.2543417661659,-375.97277184554605,3433.0822303047653,-3433.0822303047653,375.97277184554605,4896.3989464100023,0.0
653204.59901257406,4182374.0504322448,-7500.0,1526.7431095605712,1922.6420192768803,2723.2048226109955,-409.50076902644344,-558.46359055209325,84.406427839972267,2142.0987887476776,55.797288810167856,2816.8315268353381,-2816.8315268353381,-55.797288810167856,4214.9650935118343,0.0
658204.59901257406,4182374.0504322448,-7500.0,1594.0332928046123,1705.2455167796936,1953.2578045831315,-376.93040310478938,-418.87505592675365,66.358783199014681,1801.3869304612747,382.0644354416271,2199.99415340818,-2199.99415340818,-382.0644354416271,3561.9931398459562,0.0
663204.59901257406,4182374.0504322448,-7500.0,1573.7234672450138,1436.7502308570165,1325.6337797328097,-332.4277153362238,-302.46572168764521,50.890608259247664,1489.9102640925455,599.82046365694737,1636.4986222732812,-1636.4986222732812,-599.82046365694737,2966.7328924424091,0.0
668204.59901257406,4182374.0504322448,-7500.0,1486.7100432860777,1157.8045579022653,838.40498877902894,-283.40441072980525,-209.67874316621007,38.17927944334366,1228.7714980735088,721.91203960700068,1154.3155400408818,-1154.3155400408818,-721.91203960700068,2444.142976721776,0.0
673204.59901257406,4182374.0504322448,-7500.0,1355.6453952961026,894.94770629417826,475.74769962020588,-235.01989850557223,-138.42816795248089,28.07145748598591,1016.8763192305191,768.27659222037755,762.06828664339218,-762.06828664339218,-768.27659222037755,1998.6314289088666,0.0
678204.59901257406,4182374.0504322448,-7500.0,1200.7407694095241,662.79201153996655,216.10533868439816,-190.41681707263794,-85.451788505408018,20.241974603646764,840.10962317344922,759.92511704278377,456.03844249465396,-456.03844249465396,-759.92511704278377,1627.6623929781431,0.0
683204.59901257406,4182374.0504322448,-7500.0,1037.9031003223968,467.21451498952371,37.376455086494055,-151.18023143342728,-47.211109134404794,14.30534824061956,695.13078567476384,715.56849664004505,225.92783020325706,-225.92783020325706,-715.56849664004505,1324.685005421692,0.0
688204.59901257406,4182374.0504322448,-7500.0,878.42330937695397,308.41816078526284,-80.309426949172192,-117.819165071163,-20.403949268687526,9.8834381775719606,577.80893506579025,650.21070784379435,58.910678109790695,-58.910678109790695,-650.21070784379435,1081.2449659355941,0.0
693204.59901257406,4182374.0504322448,-7500.0,729.50561275986081,183.37499268889877,-153.46373470321257,-90.174027301838848,-2.2009978512995056,6.6401459404195133,483.81621899649826,574.9660638090661,-57.868917080462097,57.868917080462097,-574.9660638090661,888.36313787965412,0.0
698204.59901257406,4182374.0504322448,-7500.0,595.12917948719348,87.552477638057468,-195.09161270394929,-67.720417994000613,9.6901564540060345,4.2944239169164469,409.01479705866933,497.50856220564538,-135.97622102472428,135.97622102472428,-497.50856220564538,737.34718529199324,0.0
538204.59901257406,4187374.0504322448,-7500.0,-360.04297755571014,466.55922551926739,-584.71519898548854,-65.416329540077299,87.1100965652371,-8.9672708305068181,486.6941262740653,-105.0764850201669,102.04166546175037,-102.04166546175037,105.0764850201669,970.17712088488815,0.0
543204.59901257406,4187374.0504322448,-7500.0,-311.73336845124476,485.90108310749696,-668.85889176231797,-64.988046561173533,99.066069007262882,-9.9995342100990428,524.84145878518859,-42.631614728628477,62.396121193681211,-62.396121193681211,42.631614728628477,1037.6661235428182,0.0
548204.59901257406,4187374.0504322448,-7500.0,-242.61581287555342,492.70716193188071,-759.49988478764976,-61.825691246587219,111.45186070992997,-10.984465456361306,564.23133735096758,38.328738248376737,5.7336190014545991,-5.7336190014545991,-38.328738248376737,1103.4317474400282,0.0
553204.59901257406,4187374.0504322448,-7500.0,-149.14536770064149,480.40571753065041,-852.90594056705311,-54.84225601857387,123.46966919511827,-11.808347499678657,604.01886642237332,139.67762485305968,-71.666177423480377,71.666177423480377,-139.67762485305968,1165.2978323711188,0.0
558204.59901257406,4187374.0504322448,-7500.0,-28.622432649202231,440.66436618744279,-942.29013461548539,-42.735861438858919,133.80185091224342,-12.296746960526612,643.82060692706659,261.77420356116761,-173.07580015262675,173.07580015262675,-261.77420356116761,1221.3576739511179,0.0
563204.59901257406,4187374.0504322448,-7500.0,119.73390671194457,363.59197421089755,-1016.4680113432082,-24.06344332325213,140.41728488126171,-12.195666254221504,683.96130064262127,402.20405628796749,-300.23100165742625,300.23100165742625,-402.20405628796749,1271.1990944335237,0.0
568204.59901257406,4187374.0504322448,-7500.0,293.28461568073544,238.56863379903132,-1058.3406459497123,2.5784483063475991,140.37291753154722,-11.15468432303248,726.32497031602395,554.09588762124338,-451.57363918698718,451.57363918698718,-554.09588762124338,1318.3189594936227,0.0
573204.59901257406,4187374.0504322448,-7500.0,484.15511510315758,56.103195411885473,-1043.5651340049287,38.213677730860105,129.67587630739894,-8.7200011981655248,775.62174071997583,704.18868898362587,-619.72913110292245,619.72913110292245,-704.18868898362587,1374.0999978679076,0.0
578204.59901257406,4187374.0504322448,-7500.0,677.52547071898618,-188.88538803379402,-940.16877432289959,82.947343203570924,103.32682037911282,-4.3508007462891207,840.64915514962877,831.18269292287539,-788.39507158134541,788.39507158134541,-831.18269292287539,1462.3699087267976,0.0
583204.59901257406,4187374.0504322448,-7500.0,850.91230922598163,-492.24359746475636,-710.3577121561126,135.2427990673568,55.725150338855322,2.5234204542207994,934.26378468354483,905.43930972803219,-929.39167079597951,929.39167079597951,-905.43930972803219,1619.8341417316565,0.0
588204.59901257406,4187374.0504322448,-7500.0,975.80729081605193,-834.87035502510935,-316.11826541110156,191.15328466854984,-18.359827709524883,12.387428459294956,1070.318952923197,891.62635485149087,-1001.5147932523372,1001.5147932523372,-891.62635485149087,1885.2687463858738,0.0
593204.59901257406,4187374.0504322448,-7500.0,1023.0947096099659,-1178.1306582674085,270.16460728598236,243.83347462872308,-122.13918925832687,25.463085783763674,1257.6283382280594,755.92873565160403,-953.71733306072429,953.71733306072429,-755.92873565160403,2279.9384846504067,0.0
598204.59901257406,4187374.0504322448,-7500.0,972.62557003284417,-1463.9295817695399,1050.689177874016,283.82924886080775,-254.65358365299548,41.498003162032354,1494.2267699430136,478.17324260335852,-735.15263059389906,735.15263059389906,-478.17324260335852,2794.8652170640839,0.0
603204.59901257406,4187374.0504322448,-7500.0,824.7290635833333,-1623.336361729439,1987.022617148348,300.61812745650576,-408.78613933925726,59.592023704969236,1765.2292370674213,66.121681242292794,-312.46343779305585,312.46343779305585,-66.121681242292794,3391.7207686143634,0.0
608204.59901257406,4187374.0504322448,-7500.0,608.14977316347279,-1595.02560153129,2992.7836862316826,285.44195610741173,-570.55834753190663,78.166250841796341,2044.6840630536099,-434.75823422335066,310.11012524302146,-310.11012524302146,434.75823422335066,4010.5535699374686,0.0
613204.59901257406,4187374.0504322448,-7500.0,377.67888434555431,-1348.7557075501902,3942.8781878322607,234.64713199548069,-720.78552121901657,95.161659860714579,2300.7574848027698,-944.30049461271062,1077.5682407168963,-1077.5682407168963,944.30049461271062,4580.2719652958103,0.0
618204.59901257406,4187374.0504322448,-7500.0,198.63790062115737,-902.90534757976138,4701.7108536238984,151.99905281123267,-839.2591257087638,108.46518443987084,2532.4612542171899,-1367.2040078023804,1888.5158470862314,-1888.5158470862314,1367.2040078023804,5031.8927288477007,0.0
623204.59901257406,4187374.0504322448,-7500.0,123.64349908805883,-324.83111208827239,5161.3796171693866,48.514036116063259,-910.14214880528664,116.43422955442367,2692.2045767313002,-1623.0045442083747,2620.0895113115848,-2620.0895113115848,1623.0045442083747,5312.6112551965407,0.0
628204.59901257406,4187374.0504322448,-7500.0,173.51984149702812,288.61451565966911,5272.5467076968489,-60.464587102891983,-926.25651319457722,118.31084029907197,2746.9985241695827,-1672.0857086295714,3163.9298330497318,-3163.9298330497318,1672.0857086295714,5396.2349370593893,0.0
633204.59901257406,4187374.0504322448,-7500.0,332.39960715772753,841.15121902573594,5053.5837850789467,-159.65890771216132,-890.36410537332392,114.35529637809925,2698.5005462124691,-1524.7433627352243,3456.101716876879,-3456.101716876879,1524.7433627352243,5286.1965962408403,0.0
638204.59901257406,4187374.0504322448,-7500.0,557.93775333521307,1262.9864151630693,4576.2267551744198,-237.70278333633232,-813.18507715842281,105.66795940851483,2561.4650150861416,-1230.8655404445051,3488.0622971061175,-3488.0622971061175,1230.8655404445051,5010.7152195087401,0.0
643204.59901257406,4187374.0504322448,-7500.0,799.03146093210046,1522.5563877442808,3938.0727936095241,-289.01591917460109,-709.50136792648004,93.812141334408437,2358.6029977916128,-858.52695246799999,3297.7142879224639,-3297.7142879224639,858.52695246799999,4613.0172782324671,0.0
648204.59901257406,4187374.0504322448,-7500.0,1011.6551175765992,1623.5457841460545,3235.5323891715689,-313.53721308157822,-594.20069698434338,80.409838109263518,2115.0449687512232,-472.96536371545744,2949.2735422154929,-2949.2735422154929,472.96536371545744,4140.7325435773555,0.0
653204.59901257406,4187374.0504322448,-7500.0,1167.4919823202258,1593.2507547299392,2545.9988178014796,-315.1011764881265,-479.54221231786141,66.842488650195989,1853.9571440802213,-123.29167612594438,2512.5723813343652,-2512.5723813343652,123.29167612594438,3637.5892581044709,0.0
658204.59901257406,4187374.0504322448,-7500.0,1255.177623452119,1469.3338055829311,1920.9809994922218,-299.45877923033862,-373.98253574833876,54.104957360060332,1593.9814392857575,161.78571671962095,2048.432917849048,-2048.432917849048,-161.78571671962095,3138.6285077926259,0.0
663204.59901257406,4187374.0504322448,-7500.0,1276.8453562369705,1289.4579828622479,1387.4277014309641,-272.63962690345795,-282.23628058761477,42.791204603147307,1348.381477089478,371.78570139119756,1601.6988042446669,-1601.6988042446669,-371.78570139119756,2668.6433684238932,0.0
668204.59901257406,4187374.0504322448,-7500.0,1243.0007534500421,1085.220208368542,953.24241324842262,-239.92270825442256,-206.01679082067011,33.159905820550165,1125.5295322581055,509.29606565711725,1200.3214491407716,-1200.3214491407716,-509.29606565711725,2242.8195358643861,0.0
673204.59901257406,4187374.0504322448,-7500.0,1167.7852261759406,879.84116882778983,613.79958246889021,-205.37908992736433,-144.98382458343127,25.229802392786677,940.19025933950547,584.46814478707586,857.94311083052833,-857.94311083052833,-584.46814478707586,1868.5121821753733,0.0
678204.59901257406,4187374.0504322448,-7500.0,1065.5462138797852,688.33759761679948,357.63321429019913,-171.81705647303835,-97.607480380119853,18.872238555429412,787.41393202767301,610.55775877727115,577.78445353899633,-577.78445353899633,-610.55775877727115,1547.3474142503489,0.0
683204.59901257406,4187374.0504322448,-7500.0,948.82996470807166,518.95075720263321,170.60808966438148,-140.9494338420505,-61.825649929854038,13.884537853757678,658.71177056764861,600.92710982935193,356.45199896426567,-356.45199896426567,-600.92710982935193,1277.1665442356043,0.0
688204.59901257406,4187374.0504322448,-7500.0,827.51892356786925,374.95541061545453,38.571887376372828,-113.64580206079509,-35.479745494882067,10.040897408772535,551.80929050018403,567.3723780074813,187.01074572572344,-187.01074572572344,-567.3723780074813,1053.5929503974037,0.0
693204.59901257406,4187374.0504322448,-7500.0,708.72941702508592,256.35007585452922,-51.20511313253035,-90.186128587312311,-16.565820335212599,7.1232960000933101,464.03649186454379,519.42974276062318,61.158064941436891,-61.158064941436891,-519.42974276062318,871.17558390917043,0.0
543204.59901257406,4192374.0504322443,-7500.0,-190.56648539485957,391.33407119700922,-616.70333078823001,-45.638620776079982,84.870873060894354,-7.7709962618445676,451.22958396111983,36.553813812434434,-3.356314599292638,3.356314599292638,-36.553813812434434,883.28229189808496,0.0
548204.59901257406,4192374.0504322443,-7500.0,-120.24490064084769,380.64465154178777,-685.26057206623591,-40.474516414045198,93.219478787554976,-8.2999066197383122,480.11320033792413,112.33740600637518,-61.768050705485507,61.768050705485507,-112.33740600637518,927.72856588414163,0.0
553204.59901257406,4192374.0504322443,-7500.0,-31.273108607724698,350.86337640401138,-750.50672797890286,-31.943000595687369,100.43159100992972,-8.6212435221376875,508.88871903057299,202.2569183138084,-136.56921531417925,136.56921531417925,-202.2569183138084,967.85225893264749,0.0
558204.59901257406,4192374.0504322443,-7500.0,76.880465146875679,295.71737304463716,-805.22963381608406,-19.170480570849502,105.2809186071884,-8.5910684604695806,537.75755882710644,304.76778373048967,-228.79959350372556,228.79959350372556,-304.76778373048967,1003.35902765973,0.0
563204.59901257406,4192374.0504322443,-7500.0,202.78743874790231,208.48599123381098,-838.75306396031169,-1.2973899185377911,106.03256005755922,-8.0141180613924696,567.84793999950216,415.74848128067305,-337.59343539966432,337.59343539966432,-415.74848128067305,1036.252161563579,0.0
568204.59901257406,4192374.0504322443,-7500.0,342.08050794310168,82.963000186665852,-836.19846340281777,22.353761649157178,100.36503721359261,-6.6391234380242619,601.92381820059097,527.45424657140506,-458.83870668803178,458.83870668803178,-527.45424657140506,1073.0446306369943,0.0
573204.59901257406,4192374.0504322443,-7500.0,486.48908122638085,-84.883953512438623,-778.16987348491386,52.015265444058485,85.369981578397315,-4.1635944415504094,645.14673238244416,627.56920957769864,-583.52008160621756,583.52008160621756,-627.56920957769864,1127.470949252574,0.0
578204.59901257406,4192374.0504322443,-7500.0,623.26240659191012,-294.46673771238625,-641.4121309985087,87.115957482123434,57.706770325552306,-0.25558554392978222,705.32064949107155,698.81013426318702,-696.04325363366809,696.04325363366809,-698.81013426318702,1221.6868695325222,0.0
583204.59901257406,4192374.0504322443,-7500.0,735.5710793208807,-537.53704533776488,-401.17159357496496,125.87227258263852,14.005573140255406,5.3994704731906937,791.70893399749434,719.77840086036053,-773.20060772528382,773.20060772528382,-719.77840086036053,1382.1271421324138,0.0
588204.59901257406,4192374.0504322443,-7500.0,804.58312052248391,-795.27209792698659,-35.945201249356657,164.94532230000934,-48.40731575954895,13.021871364407932,912.03947824768375,667.86119325232892,-784.84934125724874,784.84934125724874,-667.86119325232892,1629.0338346582889,0.0
593204.59901257406,4192374.0504322443,-7500.0,813.6691051608617,-1036.8842613617908,465.23359391994393,199.36303076051854,-130.47468047288177,22.635462183003707,1068.8945867291745,524.67721867177556,-697.57482983219506,697.57482983219506,-524.67721867177556,1966.522822962324,0.0
598204.59901257406,4192374.0504322443,-7500.0,754.35918470569754,-1221.6291037814383,1094.0823948333368,222.94711200579096,-230.25143371306351,33.961514977207514,1257.4518762809525,283.5625110084859,-482.15019269031518,482.15019269031518,-283.5625110084859,2380.0035472729346,0.0
603204.59901257406,4192374.0504322443,-7500.0,632.29331569409987,-1305.6971642414353,1815.8230535725008,229.40114484004309,-342.03381585487546,46.348452559632086,1465.376902134464,-43.057696596984712,-124.06814106939346,124.06814106939346,43.057696596984712,2839.177433131611,0.0
608204.59901257406,4192374.0504322443,-7500.0,470.1511199347496,-1253.6574005407217,2567.631056705553,213.95566993864063,-456.32040413350654,58.785939313025416,1674.4844868092866,-420.08443214888126,365.98358254137025,-365.98358254137025,420.08443214888126,3302.7958252968174,0.0
613204.59901257406,4192374.0504322443,-7500.0,304.6507827936087,-1051.1845377004711,3266.3578773614049,175.09045276094673,-561.02096618103974,70.035171613903231,1864.5272243155732,-793.55639714864139,946.79036377349382,-946.79036377349382,793.55639714864139,3724.6189723889374,0.0
618204.59901257406,4192374.0504322443,-7500.0,177.05065529500811,-713.4895525849148,3825.5451643992669,115.59267808353925,-643.84937870635804,78.863182797301889,2048.1237087255308,-1102.7211832274531,1550.9774927333062,-1550.9774927333062,1102.7211832274531,4060.8253484968855,0.0
623204.59901257406,4192374.0504322443,-7500.0,120.34147719848072,-284.48798626009858,4176.602994153709,42.331145075060689,-695.1944403589772,84.31455332599424,2170.9665284381804,-1296.6796776713998,2099.6413744312763,-2099.6413744312763,1296.6796776713998,4277.7040580527591,0.0
628204.59901257406,4192374.0504322443,-7500.0,148.85212182189289,174.09846179520912,4285.7738891362305,-35.320726872781322,-710.38306514768817,85.923560686732287,2220.6518260237299,-1348.6248308838385,2522.2553082864761,-2522.2553082864761,1348.6248308838385,4357.4095549094591,0.0
633204.59901257406,4192374.0504322443,-7500.0,255.0204604948384,599.26197002673052,4160.0237410178552,-107.81146498030664,-690.46170956469314,83.789629285195559,2197.2005431245602,-1261.5100833077452,2773.6819300604566,-2773.6819300604566,1261.5100833077452,4299.9365524716932,0.0
638204.59901257406,4192374.0504322443,-7500.0,414.09755803030077,941.81920638465374,3840.5564231552862,-167.55588439909963,-641.32565632982767,78.498986698892594,2108.8349157649363,-1063.5875255359656,2841.8260334690103,-2841.8260334690103,1063.5875255359656,4120.9649869261284,0.0
643204.59901257406,4192374.0504322443,-7500.0,593.56643207110415,1174.7644636236184,3388.3021676437434,-210.17182272074064,-571.74819725361135,70.939079015305552,1969.3677489390811,-797.23282483045887,2744.6247055332346,-2744.6247055332346,797.23282483045887,3846.7793990799414,0.0
648204.59901257406,4192374.0504322443,-7500.0,762.66516236954999,1293.6411873702177,2868.0159921390914,-234.61310769897915,-491.17670741979964,62.084181991093729,1795.0632465918352,-506.59534814886217,2519.8713847011441,-2519.8713847011441,506.59534814886217,3508.2332796536703,0.0
653204.59901257406,4192374.0504322443,-7500.0,898.74208930897555,1311.2151967084287,2336.1319967242503,-242.47599422314559,-407.99650881119209,52.819170371704807,1601.8666845406044,-228.39992529129927,2213.1153846407396,-2213.1153846407396,228.39992529129927,3135.4775633101867,0.0
658204.59901257406,4192374.0504322443,-7500.0,989.54047082037846,1249.9693554296291,1834.3955400056484,-236.94903571752698,-328.56825483145769,43.835156406405979,1403.5124187777321,12.475338066380118,1867.7270438175519,-1867.7270438175519,-12.475338066380118,2754.3962238297941,0.0
663204.59901257406,4192374.0504322443,-7500.0,1032.2888000442731,1135.247253556862,1388.6552999114319,-221.80849589349367,-256.98663739396522,35.596232402109479,1210.596956038821,203.27636615469112,1518.8957353975111,-1518.8957353975111,-203.27636615469112,2384.8822613430871,0.0
668204.59901257406,4192374.0504322443,-7500.0,1031.1148051515236,990.45289408781616,1010.9808646535677,-200.67857585421774,-195.32680178142283,28.357277169946535,1030.4471286517178,341.13178931869157,1191.4074655142606,-1191.4074655142606,-341.13178931869157,2040.5888199746032,0.0
673204.59901257406,4192374.0504322443,-7500.0,994.10403050225716,834.50243301727062,703.22643573018638,-176.60633030837317,-144.12156088785861,22.208130024900278,867.76061734196242,429.88462620424514,900.08915294139854,-900.08915294139854,-429.88462620424514,1729.6109583932021,0.0
678204.59901257406,4192374.0504322443,-7500.0,930.80497775641265,681.06320600368531,460.70220475409553,-151.90035454189552,-102.87741971454568,17.124409458805715,732.798675186624,477.07588483779057,651.66722861794153,-651.66722861794153,-477.07588483779057,1455.6094065996383,0.0
683204.59901257406,4192374.0504322443,-7500.0,850.48959006384166,538.91798198571701,275.23500256146622,-128.14541259838853,-70.519465004709389,13.013245399881942,620.26632893125861,491.60203601818489,447.05882524143522,-447.05882524143522,-491.60203601818489,1219.0171689471522,0.0
688204.59901257406,4192374.0504322443,-7500.0,761.15870466530987,412.87517949732251,137.38272235991036,-106.31092919758566,-45.724000931950108,9.7484926186129748,524.6298653068061,482.16376886760793,283.50276158107533,-283.50276158107533,-482.16376886760793,1018.1247345264077,0.0
548204.59901257406,4197374.0504322443,-7500.0,-31.617438378098733,283.72980624765245,-606.95604450273049,-24.347663034231559,76.785362337834457,-6.1791617200594873,408.75056686726691,158.91003293322751,-109.44295977160056,109.44295977160056,-158.91003293322751,779.27623523699799,0.0
553204.59901257406,4197374.0504322443,-7500.0,48.970084881574913,243.30260159042115,-648.12572648458649,-15.381408921167216,80.384307433357534,-6.1782401110789475,429.96726189564038,235.37372363495211,-177.85816036912314,177.85816036912314,-235.37372363495211,805.12321001529142,0.0
558204.59901257406,4197374.0504322443,-7500.0,142.31268385654357,180.78760442264388,-674.92391596186633,-3.054436908967757,81.372403115304152,-5.8474538712082103,451.85304342988525,318.13629736219684,-257.8869540203558,257.8869540203558,-318.13629736219684,828.66764493879748,0.0
563204.59901257406,4197374.0504322443,-7500.0,245.89179012593115,92.040317158970268,-677.92231563087796,13.083034597906503,78.349819139238775,-5.0427586845841557,476.0888022321551,402.49019001080245,-347.13278936299008,347.13278936299008,-402.49019001080245,853.77257731647239,0.0
568204.59901257406,4197374.0504322443,-7500.0,354.91097274860476,-25.96008026119469,-644.93772729874433,33.254223245764251,69.567682129315145,-3.5901380310190611,505.80310521215762,481.03168666504871,-440.38667244714293,440.38667244714293,-481.03168666504871,888.61234203736819,0.0
573204.59901257406,4197374.0504322443,-7500.0,461.89630012137036,-173.81359790008688,-561.26665653497116,57.271180837794319,52.988754483255804,-1.2941689732403419,545.82717181295959,543.34315482349712,-528.65935149106849,528.65935149106849,-543.34315482349712,946.77632305291536,0.0
578204.59901257406,4197374.0504322443,-7500.0,556.72357267445534,-348.0426846585753,-410.72424454758072,84.315095125914013,26.46205768461196,2.0422227743535024,602.26982889060173,576.23267023004951,-598.44740960489889,598.44740960489889,-576.23267023004951,1045.8634595787767,0.0
583204.59901257406,4197374.0504322443,-7500.0,627.41196580033329,-539.34364166377929,-177.85088639233282,112.72514210093644,-11.947620266692285,6.5837152209472514,681.05822782647863,564.92489360125762,-631.70594507449334,631.70594507449334,-564.92489360125762,1202.152174784944,0.0
588204.59901257406,4197374.0504322443,-7500.0,661.9801574833989,-731.31384744371667,148.50781828616226,139.8764786931894,-63.460768435035519,12.414140454540902,785.80020442569969,495.53550463769068,-607.14415670536084,607.14415670536084,-495.53550463769068,1423.8306068585839,0.0
593204.59901257406,4197374.0504322443,-7500.0,651.39884164780597,-900.51102944339425,570.48547059480177,162.25828864310054,-127.96187863321734,19.479404093978971,916.00455604090382,358.84157990168512,-503.39898161337715,503.39898161337715,-358.84157990168512,1707.5142001005158,0.0
598204.59901257406,4197374.0504322443,-7500.0,593.13893742693858,-1018.7522338891746,1076.3243502342661,175.85714490787484,-203.3966891254006,27.535800701757932,1066.4113056065567,154.71987075701028,-304.17912708102244,304.17912708102244,-154.71987075701028,2038.9022596427587,0.0
603204.59901257406,4197374.0504322443,-7500.0,494.14535639069231,-1058.0983419541819,1637.14208312404,176.87993755677391,-285.42128454254259,36.124894729240609,1227.4052125497001,-104.17840821648913,-4.5393224452727026,4.5393224452727026,104.17840821648913,2395.143402545707,0.0
608204.59901257406,4197374.0504322443,-7500.0,371.65193342422776,-997.87500985974623,2207.4808713619882,162.70638195129945,-367.56319891916974,44.596759228229892,1386.2168137988494,-391.45842083100388,383.69447376242033,-383.69447376242033,391.45842083100388,2747.6612147641554,0.0
613204.59901257406,4197374.0504322443,-7500.0,250.60743611831637,-831.68999744874736,2731.0587531117567,132.79351060462139,-442.04678249270557,52.192410074803526,1536.9808405005515,-670.26416703006873,829.97291290933833,-829.97291290933833,670.26416703006873,3065.6825096341458,0.0
618204.59901257406,4197374.0504322443,-7500.0,157.80649351773886,-571.5767622409071,3151.1929473296614,89.168248045394535,-501.18776270251027,58.17464890833714,1678.3549608563796,-900.79107943846896,1288.5213220371948,-1288.5213220371948,900.79107943846896,3320.5490533306624,0.0
623204.59901257406,4197374.0504322443,-7500.0,114.56751023578943,-246.99054351814402,3422.9814782387534,36.235617929022062,-538.9762968919074,61.972591910096952,1773.9778490141741,-1049.868160107832,1707.1675614100218,-1707.1675614100218,1049.868160107832,3490.1021995296505,0.0
628204.59901257406,4197374.0504322443,-7500.0,130.84221789313145,101.53849834622687,3522.9992542105347,-20.104610475370826,-552.31839492801771,63.293860455008407,1817.4829086421696,-1099.0684026258186,2038.8052416546429,-2038.8052416546429,1099.0684026258186,3561.9848946562897,0.0
633204.59901257406,4197374.0504322443,-7500.0,203.11780329202224,431.84535665769153,3453.0818677004945,-73.737784007823493,-541.51466617292692,62.16812066197793,1808.2473608333491,-1048.2748665166127,2251.3905737271052,-2251.3905737271052,1048.2748665166127,3534.9274470673504,0.0
638204.59901257406,4197374.0504322443,-7500.0,316.63483031591147,709.15188033335983,3237.3443104689222,-119.56085413090804,-509.871438258995,58.912440238645459,1750.9224864277642,-913.7523984022173,2333.1073393875749,-2333.1073393875749,913.7523984022173,3417.7737107755688,0.0
643204.59901257406,4197374.0504322443,-7500.0,450.50646144248878,911.76417729129287,2914.3408554031612,-154.27805811592765,-462.67935418270787,54.038264631246868,1654.0524874357063,-722.18098289521163,2291.680917464525,-2291.680917464525,722.18098289521163,3226.7727512710408,0.0
648204.59901257406,4197374.0504322443,-7500.0,583.43415603516564,1032.4002732429392,2527.6612667496111,-176.61925327455427,-405.97231820449304,48.136184418339887,1528.2654616602415,-503.37780908480238,2149.2309261325004,-2149.2309261325004,503.37780908480238,2982.0929611742617,0.0
653204.59901257406,4197374.0504322443,-7500.0,698.09874609821634,1075.9313820541386,2117.9150417614674,-187.06876538868198,-345.44733102687195,41.772783624698086,1384.5375720147124,-284.18074432109279,1935.2562366944339,-1935.2562366944339,284.18074432109279,2704.5101479554792,0.0
658204.59901257406,4197374.0504322443,-7500.0,783.37605210779498,1055.249711475991,1717.6751314495114,-187.32111652935779,-285.75904725853889,35.420666404415819,1232.8655196386414,-84.785103002263554,1680.1393993100105,-1680.1393993100105,84.785103002263554,2412.8954015843783,0.0
663204.59901257406,4197374.0504322443,-7500.0,834.53025980624238,986.92472081342817,1349.5248293902184,-179.68451694159936,-230.221823028112,29.426094244790111,1081.4722620234061,82.399742945875346,1410.5524392793004,-1410.5524392793004,-82.399742945875346,2122.7254771302223,0.0
668204.59901257406,4197374.0504322443,-7500.0,852.07846940669901,887.71304171521376,1026.4630467502202,-166.58213324535723,-180.83234844025208,24.007631193703268,936.50687987986612,212.05205442951041,1147.0834425449004,-1147.0834425449004,-212.05205442951041,1845.5262789830776,0.0
673204.59901257406,4197374.0504322443,-7500.0,840.09534175627493,772.3192240500141,753.65155387422931,-150.21494897658312,-138.48383115102078,19.274117810198039,802.1259844748115,304.2757567887578,903.70552276893739,-903.70552276893739,-304.2757567887578,1589.0006208439345,0.0
678204.59901257406,4197374.0504322443,-7500.0,804.53477480836807,652.32979710465929,530.62748061870309,-132.38449568313922,-103.25511773245218,15.251093490311844,681.12136153798815,362.701678549799,688.44055577712516,-688.44055577712516,-362.701678549799,1357.5594618965617,0.0
683204.59901257406,4197374.0504322443,-7500.0,751.88604491591434,536.01894320707822,353.40265215873848,-114.44012456761037,-74.694752475913461,11.90787156379881,580.61697948009328,392.80472937530584,504.60070608477616,-504.60070608477616,-392.80472937530584,1153.0239221989968,0.0
553204.59901257406,4202374.0504322443,-7500.0,101.03543164347667,156.45339129764449,-550.50901824713424,-3.7289268449374662,63.369432157873902,-4.3322131908847767,365.12464802397437,247.69417453272914,-200.74079280384043,200.74079280384043,-247.69417453272914,672.6682443814376,0.0
558204.59901257406,4202374.0504322443,-7500.0,179.401241393682,92.184939062961192,-555.82278949366832,7.5567990126024434,61.77358481652297,-3.8461117615935296,382.78995179062923,312.31427382379542,-267.67827292640681,267.67827292640681,-312.31427382379542,690.30394924535017,0.0
563204.59901257406,4202374.0504322443,-7500.0,262.71792161506391,7.2834680900930202,-537.06004514853782,21.59829773122112,56.506739637935937,-2.9661729298332991,403.82135424910638,374.09500247391219,-338.35494789595458,338.35494789595458,-374.09500247391219,713.35979019605679,0.0
568204.59901257406,4202374.0504322443,-7500.0,346.46782824116093,-99.150177621543435,-484.67574765760429,38.357874659500183,46.296322351956036,-1.5751257057287831,431.27444567114202,426.56007877213705,-407.39597300206634,407.39597300206634,-426.56007877213705,750.33071204793293,0.0
573204.59901257406,4202374.0504322443,-7500.0,424.42323806534796,-225.76465259339625,-387.94618569523982,57.458072233219568,29.760021024842111,0.44987957529908151,469.1818484426085,461.3980138073415,-466.69220698776928,466.69220698776928,-461.3980138073415,812.86210286515404,0.0
578204.59901257406,4202374.0504322443,-7500.0,488.93994223625026,-367.91928138892604,-236.03299843015941,78.056334263252751,5.5607789167606523,3.221775202985659,521.85334138703718,468.95524749476209,-505.21650992075996,505.21650992075996,-468.95524749476209,913.14856852048797,0.0
583204.59901257406,4202374.0504322443,-7500.0,531.78444937459608,-516.77392149836487,-19.784321819256309,98.74849878497794,-27.348142571419249,6.8203988615699158,592.65326651249188,439.38120332788276,-509.44307754155295,509.44307754155295,-439.38120332788276,1059.6815587668293,0.0
588204.59901257406,4202374.0504322443,-7500.0,545.58414929666253,-658.89681758131314,265.73832826999006,117.55126955364814,-69.39640360299299,11.263015009576131,682.74853640017739,364.51797995285966,-464.68848494520336,464.68848494520336,-364.51797995285966,1254.0425653269976,0.0
593204.59901257406,4202374.0504322443,-7500.0,525.78825611276181,-776.87246228357787,618.3220128175243,132.02105518672388,-120.03460582612507,16.473207324597087,790.37630420303526,240.38396783982034,-357.56418695245634,357.56418695245634,-240.38396783982034,1490.3688183304228,0.0
598204.59901257406,4202374.0504322443,-7500.0,472.72052913953814,-851.30871436101279,1025.9693573982834,139.55058055766827,-177.43050768463004,22.256635972693815,910.77998254668114,69.73263194025094,-179.38896987074332,179.38896987074332,-69.73263194025094,1756.4931073872049,0.0
603204.59901257406,4202374.0504322443,-7500.0,393.00228118847912,-864.28271298203481,1465.6234265007222,137.83588735091129,-238.3516682773481,28.29453289178965,1036.6560888127165,-136.19709910003513,70.11519216138332,-70.11519216138332,136.19709910003513,2035.4620307037942,0.0
608204.59901257406,4202374.0504322443,-7500.0,299.53106974178996,-803.64742587676767,1904.3184458017247,125.43059100462112,-298.35664525812689,34.164722987522062,1158.9775344193652,-357.74482794485567,380.03682384249845,-380.03682384249845,357.74482794485567,2307.2525873421087,0.0
613204.59901257406,4202374.0504322443,-7500.0,209.5150164652174,-666.96937054810348,2303.2741942650568,102.22987648232596,-352.34408065925425,39.393107909794402,1282.7342964569448,-569.34713380842084,727.75089390159121,-727.75089390159121,569.34713380842084,2550.9409216965346,0.0
618204.59901257406,4202374.0504322443,-7500.0,140.79355398683518,-463.59612855320569,2624.3997796859712,69.702175813696428,-395.3824241904511,43.528082632851934,1391.4882456215166,-744.27864920838783,1081.5175067598498,-1081.5175067598498,744.27864920838783,2747.2987936687432,0.0
623204.59901257406,4202374.0504322443,-7500.0,107.5130019311258,-213.77809226491988,2837.5304470239948,30.745008278106361,-423.6114655474023,46.219621587455947,1466.8326619151856,-860.3480419702596,1405.9470890429652,-1405.9470890429652,860.3480419702596,2881.3821566431066,0.0
628204.59901257406,4202374.0504322443,-7500.0,116.66951116499067,55.157726156864975,2926.1653394983018,-10.826736382635108,-434.94738817414816,47.280468539731409,1504.2946729329631,-904.68185462341194,1668.8353803242396,-1668.8353803242396,904.68185462341194,2944.4942426181556,0.0
633204.59901257406,4202374.0504322443,-7500.0,166.74455670605712,314.39496202472213,2889.9148112807816,-51.009799057757284,-429.37924024000222,46.711717758803459,1503.0665975962261,-875.99573784374866,1847.2168341219719,-1847.2168341219719,875.99573784374866,2935.0250672704992,0.0
638204.59901257406,4202374.0504322443,-7500.0,248.76642896266932,539.14241014171569,2743.1257317887876,-86.331802756658234,-408.79442674377822,44.68754656030908,1465.8074983962897,-783.78352410136222,1930.8207198425953,-1930.8207198425953,783.78352410136222,2858.0140633700007,0.0
643204.59901257406,4202374.0504322443,-7500.0,349.15680596641948,712.4672176985282,2510.5443045305169,-114.36037222800239,-376.43614548960858,41.507577879353455,1397.8893459231413,-645.05942280008549,1922.2329351990284,-1922.2329351990284,645.05942280008549,2723.6683296629308,0.0
648204.59901257406,4202374.0504322443,-7500.0,453.18322017339926,826.69821202544961,2221.6941451738944,-133.90454166913389,-336.19471326508943,37.533900948232059,1306.3365266951184,-480.02897532579573,1834.2994013878338,-1834.2994013878338,480.02897532579573,2545.3167477263914,0.0
653204.59901257406,4202374.0504322443,-7500.0,547.90769513348744,882.61078744786471,1905.6513953051428,-144.92883838226385,-291.93937999242189,33.130734118671526,1198.7364816523175,-308.09026622640238,1686.0638940119452,-1686.0638940119452,308.09026622640238,2337.3281255468678,0.0
658204.59901257406,4202374.0504322443,-7500.0,623.99683536571899,887.20985643289862,1587.2976015238751,-148.27777830555527,-247.02762440925136,28.618887469816666,1082.3308366185911,-145.06188913911069,1498.6015086933915,-1498.6015086933915,145.06188913911069,2113.386412519018,0.0
663204.59901257406,4202374.0504322443,-7500.0,676.30189538315994,851.05335201343928,1285.3868776992231,-145.32912994455597,-204.03988299281383,24.250063295318629,963.39602750061215,-1.8928392712266486,1291.7035843263236,-1291.7035843263236,1.8928392712266486,1885.3235795308112,0.0
668204.59901257406,4202374.0504322443,-7500.0,703.4886866838915,785.83794545005378,1012.1885373171682,-137.67042086527832,-164.71544051362343,20.199200648695836,846.92483850809651,115.37553472502952,1081.8104852422862,-1081.8104852422862,-115.37553472502952,1662.5246688959369,0.0
673204.59901257406,4202374.0504322443,-7500.0,707.13399555506192,702.62639510965516,774.19439090907213,-126.85189843264993,-130.02878548961675,16.569998981114662,736.55988492175209,204.844896456794,881.14065772043637,-881.14065772043637,-204.844896456794,1451.803514772814,0.0
678204.59901257406,4202374.0504322443,-7500.0,690.66447878315421,610.79682083180478,573.35918817668323,-114.23112316098927,-100.34047806601767,13.407680330562737,634.71857217814818,267.64254836540238,697.72065717523458,-697.72065717523458,-267.64254836540238,1257.6011485455024,0.0
558204.59901257406,4207374.0504322443,-7500.0,197.04610832632136,25.629557609874052,-450.03949850737297,14.198883271851328,45.985551349140643,-2.4061741011119362,327.47613457883608,294.91141825994947,-264.214755485784,264.214755485784,-294.91141825994947,581.68527113458174,0.0
563204.59901257406,4207374.0504322443,-7500.0,262.947730454912,-52.450761983417323,-416.6267504780331,26.118622952344491,39.545419266183444,-1.5392405115798975,346.83153631114237,338.38004128490968,-318.40325755573133,318.40325755573133,-338.38004128490968,605.827988942199,0.0
568204.59901257406,4207374.0504322443,-7500.0,326.35950842651124,-145.83819530963376,-353.08243603464427,39.801635642885444,28.98386543674458,-0.27670360357249374,372.95891582262891,371.06400685279681,-367.47688148188621,367.47688148188621,-371.06400685279681,646.12790488369774,0.0
573204.59901257406,4207374.0504322443,-7500.0,382.34885481425465,-252.22071891536217,-251.83787077080527,54.813343848628982,13.389512988582576,1.4566231609157168,408.92312209094354,386.59414943134772,-404.54167535625339,404.54167535625339,-386.59414943134772,711.41557205722461,0.0
578204.59901257406,4207374.0504322443,-7500.0,425.34084836885347,-366.77549044202209,-105.9123824252121,70.390106317854091,-8.036607344322185,3.7226216957641562,457.48596971174698,378.12807275399632,-420.92675287929819,420.92675287929819,-378.12807275399632,809.09623825132462,0.0
583204.59901257406,4207374.0504322443,-7500.0,449.83335038086034,-481.76234114055313,89.720878165906569,85.404517899270587,-35.808601442421278,6.5547310409822961,520.27782866485381,339.30556259163853,-406.74280336438602,406.74280336438602,-339.30556259163853,942.63470675888379,0.0
588204.59901257406,4207374.0504322443,-7500.0,451.45267898494433,-586.56047728343253,336.42415291915523,98.391085017925761,-69.948504394847873,9.9404428487376855,597.17191008160273,265.60624412624151,-352.04308843203245,352.04308843203245,-265.60624412624151,1110.5217205760766,0.0
593204.59901257406,4207374.0504322443,-7500.0,428.21197174240751,-668.40114502530844,630.11576664606559,107.65993175359014,-109.78038004396352,13.804723409316047,686.05285246847859,155.93461224734955,-248.61101188778827,248.61101188778827,-155.93461224734955,1306.666122694822,0.0
598204.59901257406,4207374.0504322443,-7500.0,381.67018981420705,-713.94644154841365,959.90183826366558,111.51140682434855,-153.78388884932127,17.999227466553748,782.93597985507961,14.060005854888828,-92.175871792103209,92.175871792103209,-14.060005854888828,1521.2842822229368,0.0
603204.59901257406,4207374.0504322443,-7500.0,317.5649584782812,-711.62232650664885,1307.720811887531,108.5343876841043,-199.57643878803768,22.302902410640264,882.33207671974117,-150.61315905454009,115.42363619510249,-115.42363619510249,150.61315905454009,1741.8364332895783,0.0
608204.59901257406,4207374.0504322443,-7500.0,245.50652016217606,-654.27439108150406,1649.5205254215009,97.931698035638846,-244.07990274099075,26.438187596209584,978.09650491277819,-323.45830703272321,364.83109154875666,-364.83109154875666,323.45830703272321,1954.1092738152574,0.0
613204.59901257406,4207374.0504322443,-7500.0,177.54489676258203,-541.4152502830882,1958.1230072458918,79.783752247249794,-283.88318441022136,30.103118344414245,1080.8641235134778,-486.47123243914655,639.22012392248678,-639.22012392248678,486.47123243914655,2143.5918074660249,0.0
618204.59901257406,4207374.0504322443,-7500.0,125.82526598179912,-380.26248363875368,2207.3590603712446,55.157458620014815,-315.74619358546272,33.014527524356886,1165.7528016974431,-621.31005831520451,916.1679211853766,-916.1679211853766,621.31005831520451,2297.0847046516301,0.0
623204.59901257406,4207374.0504322443,-7500.0,99.958451952365678,-185.04467669835321,2376.4952155330288,26.00284600937109,-337.12889206429173,34.952558538205366,1225.8078791932364,-712.78029185319053,1171.1209031713411,-1171.1209031713411,712.78029185319053,2404.2783572286453,0.0
628204.59901257406,4207374.0504322443,-7500.0,104.92822956002126,25.377114062447337,2453.7327894666828,-5.1526245091207521,-346.60411675700061,35.794981651081308,1257.8223519585274,-751.74427805993901,1381.5964654920076,-1381.5964654920076,751.74427805993901,2458.9545823714511,0.0
633204.59901257406,4207374.0504322443,-7500.0,140.19607127729063,230.91988115003565,2437.8103359106831,-35.632372010931213,-344.04389471549342,35.532564816094975,1260.9993868486622,-736.59013682416094,1530.9491111526479,-1530.9491111526479,736.59013682416094,2459.5409532823041,0.0
638204.59901257406,4207374.0504322443,-7500.0,200.21195336210522,413.72870014301401,2337.380092095631,-63.043047391065137,-330.54211164810971,34.262395763964342,1236.8665214258142,-672.91712774956784,1610.690320766892,-1610.690320766892,672.91712774956784,2408.9211004468229,0.0
643204.59901257406,4207374.0504322443,-7500.0,276.03237420724514,560.75270464832317,2168.5531469714897,-85.601414596979339,-308.11926759529689,32.162900279273565,1188.8530638206269,-571.71872683715151,1620.9032886243747,-1620.9032886243747,571.71872683715151,2313.6035278228828,0.0
648204.59901257406,4207374.0504322443,-7500.0,357.42834690478639,664.94629933828026,1951.4943076498782,-102.29410135360197,-279.31157174889245,29.45898272717357,1121.6580246918929,-446.775833018355,1568.9477054956456,-1568.9477054956456,446.775833018355,2182.501510998959,0.0
653204.59901257406,4207374.0504322443,-7500.0,434.84290189868318,725.10305734388135,1707.0221007529556,-112.86833303792623,-246.75641273306525,26.386315318984064,1040.5608870978804,-312.05480964269771,1467.1007976893734,-1467.1007976893734,312.05480964269771,2025.614466030205,0.0
658204.59901257406,4207374.0504322443,-7500.0,500.76412913228796,744.70243814128401,1453.9268801819098,-117.69687338660663,-212.85985594727197,23.162341535325428,950.80658528055017,-179.70052544505165,1329.9086040017166,-1329.9086040017166,179.70052544505165,1852.8587944670212,0.0
663204.59901257406,4207374.0504322443,-7500.0,550.36730066589132,730.2925781421593,1207.3282648797715,-117.57957321810611,-179.58680087905361,19.967374527285912,857.14418406012737,-58.881881245158183,1171.8691119846981,-1171.8691119846981,58.881881245158183,1673.1959572556343,0.0
668204.59901257406,4207374.0504322443,-7500.0,581.51477402021294,689.87161359239087,978.04847013646838,-113.53856317276274,-148.37394900632952,16.936166023785447,763.54575091485242,44.546989212119058,1005.788735213868,-1005.788735213868,-44.546989212119058,1494.1045649065898,0.0
673204.59901257406,4207374.0504322443,-7500.0,594.32416992864887,631.56520231639502,772.76658410563221,-106.64547898051887,-120.13946484641389,14.157949378907958,673.09053793512146,127.78071538954788,841.88361888209806,-841.88361888209806,-127.78071538954788,1321.364772345494,0.0
563204.59901257406,4212374.0504322443,-7500.0,253.22537028827261,-92.973422999471353,-315.52943354979419,27.990501095382943,26.550159430465545,-0.57724797537176809,301.62658143353872,300.33232465339887,-292.37483896267457,292.37483896267457,-300.33232465339887,523.39626199181953,0.0
568204.59901257406,4212374.0504322443,-7500.0,300.66354458843449,-173.36698575566461,-246.71664839354372,39.029459732401811,16.286629974342961,0.53221780849010614,326.69776888219769,318.44214359381772,-325.53808364262602,325.53808364262602,-318.44214359381772,566.52620397446924,0.0
573204.59901257406,4212374.0504322443,-7500.0,340.31419961264197,-261.59069336468002,-146.4720962641058,50.736985194212018,2.0706335628151029,1.9887246781010282,360.53682729740524,320.83469543391595,-346.03355359937893,346.03355359937893,-320.83469543391595,632.26377425394992,0.0
578204.59901257406,4212374.0504322443,-7500.0,368.21631033947858,-353.14158480593477,-10.504125247724851,62.464701083804563,-16.550792028189512,3.8239628695794501,404.73899575071772,302.78875564991705,-347.21708008826823,347.21708008826823,-302.78875564991705,724.47385199193377,0.0
583204.59901257406,4212374.0504322443,-7500.0,380.78633442994135,-441.54620011216281,163.60283024341891,73.334209347912065,-39.782952578241265,6.0470468094139065,459.87123024647423,260.33832532486883,-321.98714339942421,321.98714339942421,-260.33832532486883,843.79021431001354,0.0
588204.59901257406,4212374.0504322443,-7500.0,375.55463019092974,-518.57692562351212,375.26307931474582,82.275970421071833,-67.455126271498216,8.6343237621538016,525.20668617326896,191.21174575989451,-263.70862159967913,263.70862159967913,-191.21174575989451,987.54660234814776,0.0
593204.59901257406,4212374.0504322443,-7500.0,351.95385298434775,-574.93218670077943,619.8390886409918,88.123225477927846,-98.906174207676344,11.520748775546025,598.69859791969782,95.820560719718316,-167.47314840058598,167.47314840058598,-95.820560719718316,1150.2780797177149,0.0
598204.59901257406,4212374.0504322443,-7500.0,311.95684181935422,-601.41740715966307,887.97175085661115,89.762227927387514,-132.91912582672774,14.59552973436236,677.12908082524336,-21.951445607201968,-31.520751735948934,31.520751735948934,21.951445607201968,1324.3052601696443,0.0
603204.59901257406,4212374.0504322443,-7500.0,260.31675767341255,-590.51059296292487,1165.6295284209871,86.322228602551832,-167.74147693604453,17.704982535398887,756.3982915370799,-154.46436274187519,141.4997539881364,-141.4997539881364,154.46436274187519,1500.3218643316234,0.0
608204.59901257406,4212374.0504322443,-7500.0,204.20392292610003,-538.01372992883864,1435.1220336733961,77.368658172281997,-201.21596741520062,20.664184034150022,836.62792971309148,-290.80125929091759,343.84121857622284,-343.84121857622284,290.80125929091759,1668.1025942575036,0.0
613204.59901257406,4212374.0504322443,-7500.0,152.18163884712482,-444.3558109626756,1677.0957935021715,63.049150095549805,-231.02043779602309,23.277144620983123,918.69108667367573,-418.09304503556586,562.90518541751987,-562.90518541751987,418.09304503556586,1817.3995184806531,0.0
618204.59901257406,4212374.0504322443,-7500.0,112.68640692412666,-315.11072609369677,1873.2118296910498,44.143787818406949,-254.9802461613433,25.362398063222564,985.84398152819745,-523.50035400549041,782.57851360927862,-782.57851360927862,523.50035400549041,1938.9653151240218,0.0
623204.59901257406,4212374.0504322443,-7500.0,92.386541240004718,-160.47114392266874,2008.9242254477817,21.992336189865085,-271.38706994843864,26.778685378360318,1034.2301262859883,-596.40142531381252,985.47939598425955,-985.47939598425955,596.40142531381252,2025.5413576949231,0.0
628204.59901257406,4212374.0504322443,-7500.0,94.88005200475709,6.2706250038161881,2075.6737899696427,-1.6935005824218166,-279.24768313018478,27.444792712700128,1061.5172362156527,-630.21106631873909,1155.6122744587865,-1155.6122744587865,630.21106631873909,2072.6145462983823,0.0
633204.59901257406,4212374.0504322443,-7500.0,120.10021826918212,170.8627923850479,2071.9519828371381,-25.088936804483648,-278.40285358866691,27.348943533835708,1066.9934010592535,-623.34616571354945,1280.7692160214872,-1280.7692160214872,623.34616571354945,2078.7880944059466,0.0
638204.59901257406,4212374.0504322443,-7500.0,164.55905389834214,320.30025874261275,2003.030190726507,-46.522055290609941,-269.49420668804618,26.54589452877509,1051.5332881432605,-579.12895273749473,1354.0987428201961,-1354.0987428201961,579.12895273749473,2045.7047728265261,0.0
643204.59901257406,4212374.0504322443,-7500.0,222.28663282298834,444.56540945383085,1879.543545445601,-64.685581293429152,-253.80034031939991,25.143710837352604,1017.357174824925,-504.75456121702337,1374.5473817663824,-1374.5473817663824,504.75456121702337,1977.5727540924704,0.0
648204.59901257406,4212374.0504322443,-7500.0,286.1349037939105,537.57677474771322,1715.3955703660879,-78.755990943564711,-232.99425584484462,23.283919564545013,967.64658030205339,-409.69854692802693,1346.2287252632821,-1346.2287252632821,409.69854692802693,1880.4233885464614,0.0
653204.59901257406,4212374.0504322443,-7500.0,349.07409089050873,597.29106019890128,1525.5398940112736,-88.412389132976315,-208.88471462564223,21.120374010894665,906.10461068567702,-304.02167293429608,1277.0491206377278,-1277.0491206377278,304.02167293429608,1761.2695179025982,0.0
658204.59901257406,4212374.0504322443,-7500.0,405.19666943989756,625.13064190083946,1324.0916294831366,-93.773719227190213,-183.19328019518369,18.800741628855679,836.5402878663989,-196.94816407175466,1177.0276279555458,-1177.0276279555458,196.94816407175466,1627.3143072491557,0.0
663204.59901257406,4212374.0504322443,-7500.0,450.29352552926872,625.0222876339094,1123.0271055412466,-95.286768529491269,-157.39762835287928,16.453269175768227,762.53351274958129,-95.926952833668622,1056.7054576242404,-1056.7054576242404,95.926952833668622,1485.3168253405386,0.0
668204.59901257406,4212374.0504322443,-7500.0,482.00951280038163,602.33391945613391,931.52363129697824,-93.598507612806017,-132.64837694020918,14.179463466416539,687.20600621753556,-6.2106365667138448,925.90159890933614,-925.90159890933614,6.2106365667138448,1341.1604598999268,0.0
573204.59901257406,4217374.0504322443,-7500.0,300.73847808879123,-259.86455072480265,-65.945626032703416,46.079734680541456,-5.5752814654384402,2.2212529435423667,320.84998262852918,264.38529818309814,-293.02243369596533,293.02243369596533,-264.38529818309814,568.471877898755,0.0
578204.59901257406,4217374.0504322443,-7500.0,318.17361941782366,-332.62341686046426,58.271595645734067,54.885973054520541,-21.571788030874778,3.7003581757977639,360.63691561268632,241.10347845367008,-284.11993052983479,284.11993052983479,-241.10347845367008,653.49728808983878,0.0
583204.59901257406,4217374.0504322443,-7500.0,323.12726347400701,-400.36969257776042,211.63106657834297,62.741170609449476,-40.9158235381176,5.4456972264915846,408.70553959896301,198.40363099893153,-252.82952950569739,252.82952950569739,-198.40363099893153,758.71736668893072,0.0
588204.59901257406,4217374.0504322443,-7500.0,314.31303065011105,-456.80589389582019,392.57494477501564,68.869709442966553,-63.360505823369003,7.4314343537934153,464.1130050644432,135.36612731028379,-194.79357735651598,194.79357735651598,-135.36612731028379,881.25253378839102,0.0
593204.59901257406,4217374.0504322443,-7500.0,291.91257843681467,-495.17228241379092,596.5665485132098,72.464982278684801,-88.316717532141737,9.6043703654187684,525.04625843528572,53.12101766926817,-107.19629044446019,107.19629044446019,-53.12101766926817,1016.4930392144612,0.0
598204.59901257406,4217374.0504322443,-7500.0,257.91474065585948,-509.10722661623419,815.79782037697794,72.792818044130257,-114.82833088188117,11.882631849508885,588.95643954426009,-44.735551085794228,10.330601957859926,-10.330601957859926,44.735551085794228,1158.4670923890681,0.0
603204.59901257406,4217374.0504322443,-7500.0,216.16798731052648,-493.69563476880694,1039.3936821468646,69.312748830050282,-141.60352388917286,14.158740508155043,652.86593887417507,-152.08887843782094,154.97763168484772,-154.97763168484772,152.08887843782094,1300.2234683886597,0.0
608204.59901257406,4217374.0504322443,-7500.0,172.04616350357554,-446.50595962411671,1254.225478537435,61.794067674802008,-167.11272725792125,16.307823924263182,721.5969896988687,-260.74450144495125,320.44116479842916,-320.44116479842916,260.74450144495125,1434.308731454362,0.0
613204.59901257406,4217374.0504322443,-7500.0,131.72096612671785,-368.3558896958437,1446.3042849747487,50.397850368265878,-189.74832266560927,18.200339235393642,787.02986608684034,-361.37369779741681,497.21277496243675,-497.21277496243675,361.37369779741681,1553.3640428531628,0.0
618204.59901257406,4217374.0504322443,-7500.0,101.16044210203869,-263.56490897044222,1602.5457400406247,35.699080285267783,-208.02209514389841,19.717602141182724,840.79878132887166,-444.82662303121259,673.53104115962617,-673.53104115962617,444.82662303121259,1650.7907391647882,0.0
623204.59901257406,4217374.0504322443,-7500.0,85.079699962800831,-139.56186014702081,1712.5555692682958,18.635600672619308,-220.76212504791457,20.766960240478056,880.17392584509446,-503.53850462281616,836.8673318431911,-836.8673318431911,503.53850462281616,1721.3841548232811,0.0
628204.59901257406,4217374.0504322443,-7500.0,86.110413629951907,-5.8915364159449162,1770.0388172807441,0.38997605216874642,-227.26659025155894,21.293519172601425,903.43632840946736,-532.69512226605161,975.6443421793258,-975.6443421793258,532.69512226605161,1761.8223531400281,0.0
633204.59901257406,4217374.0504322443,-7500.0,104.40091274950514,127.16267894663198,1773.5164174221268,-17.771090187982228,-227.38084149071781,21.286037427310539,909.9781678047915,-530.87771453885,1080.802262443744,-1080.802262443744,530.87771453885,1770.917161932967,0.0
638204.59901257406,4217374.0504322443,-7500.0,137.72856398775929,250.01828388599475,1726.2213686490838,-34.663908123810096,-221.48452508829871,20.775724025260569,900.29344172828746,-500.05865748735374,1146.8708215819915,-1146.8708215819915,500.05865748735374,1749.5898013457727,0.0
643204.59901257406,4217374.0504322443,-7500.0,182.05555037552827,354.98086000733628,1635.2655758788433,-49.326560975449198,-210.39869837138241,19.829024763308478,875.83770998177829,-445.00459658218836,1172.3586557416293,-1172.3586557416293,445.00459658218836,1700.5947300443338,0.0
648204.59901257406,4217374.0504322443,-7500.0,232.34686821079592,436.96597296857692,1510.3317165859544,-61.105252664900767,-195.24031421818535,18.536246372460209,838.79067775820022,-372.28951494522283,1159.4622073909932,-1159.4622073909932,372.28951494522283,1628.0610157525828,0.0
653204.59901257406,4217374.0504322443,-7500.0,283.43141073897687,493.69287120647363,1362.2153010460465,-69.680592869460952,-177.25922777277972,16.998799335916779,791.77226025319942,-289.18389757110401,1113.2620605050924,-1113.2620605050924,289.18389757110401,1536.9485473623297,0.0
658204.59901257406,4217374.0504322443,-7500.0,330.7223178187096,525.42308833425136,1201.5053549163906,-75.041244411117958,-157.68935821389098,15.317420785530503,737.56144309468755,-202.65846619859434,1040.6567867281969,-1040.6567867281969,202.65846619859434,1432.512552251374,0.0
583204.59901257406,4222374.0504322443,-7500.0,275.16941227567236,-360.60773537347899,241.06488767713259,53.607935710897365,-40.298299841256821,4.8322645852198125,364.88132028018373,149.99861198830894,-196.8143846660904,196.8143846660904,-149.99861198830894,684.56751294054197,0.0
588204.59901257406,4222374.0504322443,-7500.0,264.74830550279989,-401.78458870775682,395.55051341991481,57.777937740550115,-58.543067859145111,6.364483455230741,411.86505359766107,93.491790571645481,-141.20550553766026,141.20550553766026,-93.491790571645481,788.8332531826386,0.0
593204.59901257406,4222374.0504322443,-7500.0,244.25422581122285,-427.44114074796443,566.15227484197089,59.892406792014704,-78.456306759685717,8.0137063342622259,462.5722388126074,22.904353833485516,-62.531322291394019,62.531322291394019,-22.904353833485516,901.56450857999289,0.0
598204.59901257406,4222374.0504322443,-7500.0,215.51536200433014,-433.15703909123556,746.45981175604982,59.464453192828586,-99.293720815776737,9.7196359050448233,515.01231140279367,-58.604005060856892,38.838609359203602,-38.838609359203602,58.604005060856892,1018.1261426079172,0.0
603204.59901257406,4222374.0504322443,-7500.0,181.61190675926889,-415.70820789677902,928.03501936321754,56.15739692167179,-120.09866294420308,11.406555351948739,567.81530789476903,-146.17295183896204,160.23873013887334,-160.23873013887334,146.17295183896204,1133.284828013074,0.0
608204.59901257406,4222374.0504322443,-7500.0,146.59622032157804,-373.72462571608895,1101.0434110094066,49.855336202677442,-139.77394955643356,12.98897494932379,626.37311922625304,-233.60871654980485,296.58255043041981,-296.58255043041981,233.60871654980485,1241.5388105074635,0.0
613204.59901257406,4222374.0504322443,-7500.0,114.97611638698756,-308.14570683801617,1255.2317709151073,40.709787339478765,-157.18903759191662,14.379824560099619,679.10611852580621,-314.05857889039322,440.63204088901642,-440.63204088901642,314.05857889039322,1337.5224981636147,0.0
618204.59901257406,4222374.0504322443,-7500.0,91.043842844829314,-222.33613831261462,1381.1113824665099,29.148281748283338,-171.30718085091468,15.49997792865933,722.63286111218076,-380.89515529374131,583.67837279252819,-583.67837279252819,380.89515529374131,1416.4480975585095,0.0
623204.59901257406,4222374.0504322443,-7500.0,78.190940250386376,-121.79543947594411,1471.1304171787474,15.83858212899108,-181.30986309433175,16.287475630188876,754.97185241429497,-428.63947792528745,716.54301783950029,-716.54301783950029,428.63947792528745,1474.521947478027,0.0
628204.59901257406,4222374.0504322443,-7500.0,78.366578867467879,-13.493855560563864,1520.5989960739532,1.6125792331697675,-186.69402202229318,16.704644509229972,774.83991142603941,-453.72441760666811,830.71485848479597,-830.71485848479597,453.72441760666811,1509.2665129972136,0.0
633204.59901257406,4222374.0504322443,-7500.0,91.804756645151514,95.033867223436943,1528.1786222699436,-12.635630686533933,-187.32279335516444,16.741804133210152,781.72970267268238,-454.93219103263709,919.39229836772347,-919.39229836772347,454.93219103263709,1519.6925886285405,0.0
638204.59901257406,4222374.0504322443,-7500.0,117.07212399379887,196.64622426880612,1495.8563296558946,-26.056999250155414,-183.42183768502792,16.416839695933483,775.91154313185882,-433.4259181468754,978.22517872245976,-978.22517872245976,433.4259181468754,1506.2988130026602,0.0
643204.59901257406,4222374.0504322443,-7500.0,151.4029802804198,285.41304486134982,1428.4458828961958,-37.939585116533792,-175.52569814820123,15.771242991582103,758.35033622748176,-392.39908417964904,1005.633161128882,-1005.633161128882,392.39908417964904,1470.9078685540562,0.0
648204.59901257406,4222374.0504322443,-7500.0,191.21953665994076,357.15518821459023,1332.7582823713356,-47.770357907575395,-164.38895642006037,14.863393595337282,730.5562109768025,-336.45502686913466,1002.6862602746833,-1002.6862602746833,336.45502686913466,1416.3778666647249,0.0
598204.59901257406,4227374.0504322443,-7500.0,181.86664172542893,-370.42080560335262,681.52138124166243,48.922326525654462,-86.020785157301788,7.9909930300430094,452.65322907023193,-66.463604713601541,57.859513674998929,-57.859513674998929,66.463604713601541,898.76527530505973,0.0
603204.59901257406,4227374.0504322443,-7500.0,154.19148409658465,-352.41165415966287,830.15288828286737,45.884972983002129,-102.34759546129558,9.2560037905738071,498.64531748781758,-138.38166118334783,160.19422247569344,-160.19422247569344,138.38166118334783,993.08821827409611,0.0
608204.59901257406,4227374.0504322443,-7500.0,126.15805133682052,-315.27174594702933,970.79717737909414,40.600481782308329,-117.69367014254415,10.436266681575233,546.92859407859203,-209.38005806551519,273.36448605062401,-273.36448605062401,209.38005806551519,1081.3137150964592,0.0
613204.59901257406,4227374.0504322443,-7500.0,101.10035552689182,-259.9310294551496,1095.8410715755811,33.20231775371969,-131.25226469610698,11.472304798038172,589.85507466926174,-274.36187808864315,391.81262817064999,-391.81262817064999,274.36187808864315,1159.4740289888559,0.0
618204.59901257406,4227374.0504322443,-7500.0,82.152450436226147,-189.02664735401581,1198.3005520304093,24.011292426896805,-142.28929726823509,12.31043656112719,625.44362214649573,-328.45504033281458,509.00457181960593,-509.00457181960593,328.45504033281458,1224.0425245332074,0.0
623204.59901257406,4227374.0504322443,-7500.0,71.792042397781472,-106.68765069104688,1272.6056332731957,13.510277188819867,-150.22361649879034,12.908493496014597,652.23110073658393,-367.63022646540713,618.11630416520529,-618.11630416520529,367.63022646540713,1272.2124312486494,0.0
628204.59901257406,4227374.0504322443,-7500.0,71.48009498809634,-18.082421117104357,1315.2194069451175,2.2941929427539556,-154.68971787041937,13.24023561961361,669.24790055408312,-389.21086697406821,712.80099839746845,-712.80099839746845,389.21086697406821,1302.1128976454575,0.0
633204.59901257406,4227374.0504322443,-7500.0,81.472093051173232,71.189723476013071,1324.9778454664977,-8.9960618527184621,-155.57178579736868,13.297698181848959,676.07554787882145,-392.17476511892698,787.89584313028683,-787.89584313028683,392.17476511892698,1312.9295547645088,0.0
603204.59901257406,4017374.0504322448,-12500.0,90.576695406879054,210.96983861845419,1251.092088841777,43.528573155021007,242.32918378399052,34.837698458444962,673.34063612763305,-371.58141518995956,856.44909125401875,-856.44909125401875,371.58141518995956,1315.282519672684,0.0
608204.59901257406,4017374.0504322448,-12500.0,64.469699939177488,129.56974757825375,1293.1754072335891,27.117250161680968,250.01194505333521,35.850921339692519,683.38097004792974,-398.59052349856807,819.36212854155679,-819.36212854155679,398.59052349856807,1336.3344336156629,0.0
613204.59901257406,4017374.0504322448,-12500.0,47.472469195618984,39.954868666307952,1305.52229161265,9.209780764125906,252.44501333343345,36.189865037020169,683.69166247281589,-408.21402404645119,757.54378948381327,-757.54378948381327,408.21402404645119,1339.1190462556337,0.0
618204.59901257406,4017374.0504322448,-12500.0,41.313432106918249,-52.791868782754079,1285.4195503008229,-9.2735709894813141,249.16227817104797,35.796016284377458,673.77680164682829,-398.66420955151438,673.24609832666602,-673.24609832666602,398.66420955151438,1322.7090345808808,0.0
623204.59901257406,4017374.0504322448,-12500.0,46.57138986367778,-142.95063674003512,1232.3899064083537,-27.302702170168242,240.07379691649584,34.656925602857299,653.67403783964448,-369.80461459739792,570.67113894035083,-570.67113894035083,369.80461459739792,1287.1997324200552,0.0
628204.59901257406,4017374.0504322448,-12500.0,62.521205330637414,-224.79491989902814,1148.4018156521397,-43.84485585381438,225.5009105309795,32.8105159528249,623.98617250775897,-323.28478269123462,455.61103120044567,-455.61103120044567,323.28478269123462,1233.7743110442909,0.0
633204.59901257406,4017374.0504322448,-12500.0,87.191144915863418,-293.2629228206535,1037.7481651998532,-57.978820050886874,206.15766202884981,30.343086381717299,585.85314664016175,-262.40417126547175,334.83481165844159,-334.83481165844159,262.40417126547175,1164.6564613509204,0.0
638204.59901257406,4017374.0504322448,-12500.0,117.63100373111425,-344.54489312574447,906.5982894050901,-68.995719365624367,183.07896594869209,27.380862704104807,542.09232983870288,-191.71720920687221,215.32481004200582,-215.32481004200582,191.71720920687221,1082.953081137354,0.0
643204.59901257406,4017374.0504322448,-12500.0,150.33882180938392,-376.47562458147394,762.29986568092954,-76.468170101507638,157.50741318150108,24.076613334869506,501.32030558513986,-116.45251551408441,103.5023247128544,-103.5023247128544,116.45251551408441,992.40899021232246,0.0
648204.59901257406,4017374.0504322448,-12500.0,181.75589316534365,-388.66694326137008,612.56147438750031,-80.276744079049266,130.75934255284935,20.593597062823413,458.32518947998926,-41.862059785746979,4.5826844561953628,-4.5826844561953628,41.862059785746979,897.11170620358666,0.0
653204.59901257406,4017374.0504322448,-12500.0,208.72952159116792,-382.37670290822223,464.66226320481525,-80.592452217722396,104.09352668377794,17.089666967532509,414.99150825335761,27.375991015440093,-77.83901208779811,77.83901208779811,-27.375991015440093,801.18784391864006,0.0
658204.59901257406,4017374.0504322448,-12500.0,228.85967323792298,-360.16717491086268,324.81566673908554,-77.823157877979824,78.603133833140419,13.703940454743064,373.06576226831191,87.600314888687947,-141.92880444865978,141.92880444865978,-87.600314888687947,708.52727218945734,0.0
593204.59901257406,4022374.0504322448,-12500.0,193.46591130750394,402.38306533476674,1225.5550686965883,86.782741006941663,251.01356452567674,38.296237788208138,714.03186075987605,-302.23054487495017,978.19129663489446,-978.19129663489446,302.23054487495017,1395.2735032664266,0.0
598204.59901257406,4022374.0504322448,-12500.0,148.62168611274743,341.69423992371901,1336.2212571976215,73.37514775651924,271.81186707899576,41.139892298478124,748.1840811947626,-367.80079686504905,999.18441862664577,-999.18441862664577,367.80079686504905,1462.0711612116206,0.0
603204.59901257406,4022374.0504322448,-12500.0,107.35121651476484,261.65143868896854,1423.9740392413021,56.268779805147986,288.3094772622012,43.394945501568117,773.30711558429175,-421.48735644774763,991.2862803146578,-991.2862803146578,421.48735644774763,1511.9663901299793,0.0
608204.59901257406,4022374.0504322448,-12500.0,73.723958868782361,165.21633955484697,1481.1236497743953,36.052592917455492,299.13870093781321,44.883719117674211,787.61157563666404,-457.93228434622483,951.88233108093164,-951.88233108093164,457.93228434622483,1541.5693192437627,0.0
613204.59901257406,4022374.0504322448,-12500.0,51.337183145321433,57.343144270369592,1501.339747775002,13.673234353501897,303.17596402344657,45.460281233595623,789.73394449521254,-472.74101658831898,880.78781544794776,-880.78781544794776,472.74101658831898,1548.3010283323265,0.0
618204.59901257406,4022374.0504322448,-12500.0,42.709911389315465,-55.352963123055176,1480.6078060762668,-9.6262288041560602,299.70549922775041,45.031041198356355,778.91545630885412,-463.225303341737,780.61847974414684,-780.61847974414684,463.225303341737,1530.7377955572874,0.0
623204.59901257406,4022374.0504322448,-12500.0,48.78490264925869,-165.26181152048517,1417.9762604795876,-32.424944337935436,288.5470071103008,43.570823605076754,755.13236771098184,-428.9696079198871,656.75941306893378,-656.75941306893378,428.9696079198871,1488.864630840515,0.0
628204.59901257406,4022374.0504322448,-12500.0,68.670405013181622,-264.69045235218584,1315.9128895493566,-53.285008120447152,270.11739787421919,41.130809198656102,719.15166285333987,-372.06964837057978,516.87915673842019,-516.87915673842019,372.06964837057978,1424.1881923923718,0.0
633204.59901257406,4022374.0504322448,-12500.0,99.70646383303496,-346.854924900421,1180.1544335829005,-70.926119588743035,245.40720540225283,37.835858094042827,672.49927332684251,-296.95463027342981,370.0431898776979,-370.0431898776979,296.95463027342981,1339.6769786190305,0.0
638204.59901257406,4022374.0504322448,-12500.0,137.8603887198397,-406.74870637964057,1019.0503902634121,-84.379975043366812,215.87159812849268,33.87125184983136,622.22352589301113,-209.80609141229962,225.58844189218325,-225.58844189218325,209.80609141229962,1239.5317094417014,0.0
643204.59901257406,4022374.0504322448,-12500.0,178.36658729092662,-441.70699037345338,842.52323634682068,-93.093575266767985,183.25550186384126,29.46107674223903,572.33043827242216,-117.69132398980712,91.985518162110097,-91.985518162110097,117.69132398980712,1128.8204749477075,0.0
648204.59901257406,4022374.0504322448,-12500.0,216.46305543296501,-451.56491338265982,660.85763939930928,-96.963494281830478,149.38753994967965,24.842494763784384,520.05012202940509,-27.599930188960624,-24.086781770949134,24.086781770949134,27.599930188960624,1013.0391931259697,0.0
653204.59901257406,4022374.0504322448,-12500.0,248.06018819930136,-438.41203826973555,483.55869529106963,-96.300247254273771,115.98259540479566,20.24073205916801,467.87325171562992,54.414634584028192,-118.29508529443015,118.29508529443015,-54.414634584028192,897.66632961227333,0.0
658204.59901257406,4022374.0504322448,-12500.0,270.21291250213187,-406.04085178852944,318.47400989068439,-91.7379637960682,84.485978743605429,15.848939350043674,418.05527315484835,123.83549024175421,-188.78091044105355,188.78091044105355,-123.83549024175421,787.76568382984294,0.0
663204.59901257406,4022374.0504322448,-12500.0,281.33363817891524,-359.24055167255079,171.28820585423492,-84.114133282099772,55.978659105993437,11.81541892726927,372.44319342237674,177.95399197479446,-235.91557264071997,235.91557264071997,-177.95399197479446,687.66164187373886,0.0
668204.59901257406,4022374.0504322448,-12500.0,281.15559979212344,-303.09195275331024,45.398857134520043,-74.345755054058301,31.146835707364218,8.2388073296415492,332.35090123894571,215.82893031617633,-261.80136018138143,261.80136018138143,-215.82893031617633,600.67402872762898,0.0
583204.59901257406,4027374.0504322448,-12500.0,338.68821560999942,542.97324748255005,1050.6701352377718,125.13172789187743,231.59797538070202,38.176289201825703,703.95686978410129,-147.32870748745455,968.64401329606903,-968.64401329606903,147.32870748745455,1379.6852130278535,0.0
588204.59901257406,4027374.0504322448,-12500.0,291.21682593371435,526.5465967185695,1213.4580958124254,119.81907797021634,263.85984233811973,42.843538769607406,761.96357437629001,-235.89434652805528,1054.6562869731238,-1054.6562869731238,235.89434652805528,1491.6327243940082,0.0
593204.59901257406,4027374.0504322448,-12500.0,237.5087268332058,485.76539183629529,1370.5131967774555,109.51327817621197,294.79757330470056,47.292780715343127,814.63521974073296,-325.20406010477222,1119.0246756909073,-1119.0246756909073,325.20406010477222,1593.7368358561298,0.0
598204.59901257406,4027374.0504322448,-12500.0,181.80748894542774,418.90924645207531,1511.9417843569227,93.950312136550821,322.54524952790598,51.267166483750238,859.20920732599836,-408.65950948665449,1154.1327295430237,-1154.1327295430237,408.65950948665449,1680.7662976090535,0.0
603204.59901257406,4027374.0504322448,-12500.0,129.32435799316539,326.51793628384905,1626.9120178067374,73.30265451996344,345.08066930849645,54.490467632853402,892.91309306854612,-478.81109635494715,1153.4838604485012,-1153.4838604485012,478.81109635494715,1747.467582339428,0.0
608204.59901257406,4027374.0504322448,-12500.0,85.634601017443856,211.8873412835471,1704.7820054855365,48.264226392908768,360.43080150469547,56.694482692505275,913.22541704730031,-528.22226766701908,1112.8283731267661,-1112.8283731267661,528.22226766701908,1789.0618480566143,0.0
613204.59901257406,4027374.0504322448,-12500.0,55.842828117869153,81.192819980504879,1736.5032406261309,20.066602671394747,366.92356170543002,57.652241016652034,918.16338400979316,-550.56751936221985,1031.1852324626939,-1031.1852324626939,550.56751936221985,1801.794998217023,0.0
618204.59901257406,4027374.0504322448,-12500.0,43.663570970339372,-56.894572894228986,1716.0779207755888,-9.5960826242869786,363.44726086877506,57.212093021086687,906.55961009882219,-541.77103339997575,911.50314881883878,-911.50314881883878,541.77103339997575,1783.4695240364056,0.0
623204.59901257406,4027374.0504322448,-12500.0,50.630088103907376,-192.13030881870543,1641.7486637116178,-38.738028034032659,349.66181655694527,55.325472754337277,878.27269852854658,-500.91814318847014,760.72099190415975,-760.72099190415975,500.91814318847014,1733.8522669379659,0.0
628204.59901257406,4027374.0504322448,-12500.0,75.65597138317861,-314.03452422546064,1516.6090858542861,-65.326379050780929,326.10828072125099,52.061465286506561,834.289220738376,-430.67875231235899,589.11397893835965,-589.11397893835965,430.67875231235899,1654.8705818726246,0.0
633204.59901257406,4027374.0504322448,-12500.0,115.10393142560582,-413.38419611029298,1348.4277444757749,-87.553658974432651,294.18102280193983,47.60368748117034,776.80683289644367,-337.07962744766871,408.99306465410996,-408.99306465410996,337.07962744766871,1550.5410029804477,0.0
638204.59901257406,4027374.0504322448,-12500.0,163.37876877147659,-483.52185079877449,1148.6694092652278,-104.0790462610197,255.95898333720118,42.228819328079425,718.35506917626662,-228.63423883561654,233.01506624998802,-233.01506624998802,228.63423883561654,1426.6272657712882,0.0
643204.59901257406,4027374.0504322448,-12500.0,213.90618711297847,-521.18050372485868,930.91588545742616,-114.18560752230593,213.92988542048147,36.271089244067916,656.75820737352467,-115.02396065179008,72.479097155010464,-72.479097155010464,115.02396065179008,1290.0866724238858,0.0
648204.59901257406,4027374.0504322448,-12500.0,260.24739698924509,-526.65972359683076,709.04265442980557,-117.82309583474843,170.66742439979791,30.080140691105523,592.72214076541275,-5.648043346169537,-64.018391952814397,64.018391952814397,5.648043346169537,1148.4043148582164,0.0
653204.59901257406,4027374.0504322448,-12500.0,297.07774053146051,-503.37382973444761,495.54665609029627,-115.5378011352926,128.52967921137505,23.981043002622481,529.56120259317402,91.625732774428997,-171.32071355443648,171.32071355443648,-91.625732774428997,1008.9277205123032,0.0
658204.59901257406,4027374.0504322448,-12500.0,320.82656727435733,-456.95227877212778,300.33362642999299,-108.31861519640903,89.43322960116366,18.24356923179911,470.19603557675873,171.27050757964247,-247.77781458887296,247.77781458887296,-171.27050757964247,878.28551504592474,0.0
663204.59901257406,4027374.0504322448,-12500.0,329.89844503122004,-394.15295151182698,130.111029571068,-97.403780129307847,54.730958998499091,13.06458029894142,416.90181168677299,230.38232328136704,-294.7559789887942,294.7559789887942,-230.38232328136704,761.9172268546638,0.0
668204.59901257406,4027374.0504322448,-12500.0,324.51764814482726,-321.83808013494189,-11.635693359060735,-84.092445771152484,25.19275098516357,8.5638085502387664,371.14122429706782,268.49275526328734,-315.80892326227683,315.80892326227683,-268.49275526328734,663.68279374023871,0.0
673204.59901257406,4027374.0504322448,-12500.0,306.31830723701842,-246.18507849573953,-124.22809145174429,-69.593117419686266,1.0667238643884964,4.7903922135609598,333.48273109133993,287.06469881004949,-315.74871135203074,315.74871135203074,-287.06469881004949,585.50988492306044,0.0
678204.59901257406,4027374.0504322448,-12500.0,277.82558561150859,-172.20391131034907,-209.13341427381977,-54.924256817737977,-17.811284387792355,1.7362289266413844,303.6289322174548,288.84900024431511,-299.80530180977928,299.80530180977928,-288.84900024431511,527.13803900027483,0.0
573204.59901257406,4032374.0504322448,-12500.0,483.43016724157849,584.27184248411834,764.63089024794272,147.29961218463293,186.77326484636023,34.180362778315022,641.15790435520648,52.515490738547953,817.51286164434964,-817.51286164434964,-52.515490738547953,1265.3432916200313,0.0
578204.59901257406,4032374.0504322448,-12500.0,456.30718195019091,619.74322254972765,942.8651416875274,152.91200884617561,224.58493912054905,40.050208477904967,716.19695587329318,-30.350767845132964,950.31972391402019,-950.31972391402019,30.350767845132964,1409.3431369129403,0.0
583204.59901257406,4032374.0504322448,-12500.0,414.63238847394189,636.12905598762893,1135.5008791166899,154.14557918824033,265.01208296300956,46.259849054504301,791.74353772669645,-127.29211014380644,1078.3414449688623,-1078.3414449688623,127.29211014380644,1554.623807806749,0.0
588204.59901257406,4032374.0504322448,-12500.0,359.81108793724286,627.47570783635149,1335.4174208736051,149.84537519558933,306.5827150929511,52.588434340837104,865.05412303790763,-234.40308688835518,1192.6005679396289,-1192.6005679396289,234.40308688835518,1696.0067591187626,0.0
593204.59901257406,4032374.0504322448,-12500.0,295.12441855572717,588.63483590398596,1532.5428183095419,139.04924447934209,347.26845041822912,58.737925137890443,932.82937533800725,-345.46433613174361,1282.8010104584891,-1282.8010104584891,345.46433613174361,1827.2533989531364,0.0
598204.59901257406,4032374.0504322448,-12500.0,225.79349378659938,516.3031509425407,1714.1320650962564,121.18716441455096,384.54763972365771,64.343047716025296,991.37372515061884,-452.07107398021247,1338.3035815293065,-1338.3035815293065,452.07107398021247,1941.3673930386426,0.0
603204.59901257406,4032374.0504322448,-12500.0,158.65693206732601,410.10961828454123,1865.6352485185992,96.284099404299155,415.57759469297207,68.996062157870867,1036.8607831468744,-544.24913668122872,1349.533258660201,-1349.533258660201,544.24913668122872,2031.0979782503098,0.0
608204.59901257406,4032374.0504322448,-12500.0,101.38961202779235,273.50140464157687,1972.2205179114062,65.120057868594245,437.48572146369804,72.287589296610591,1065.7033453642284,-611.61402260725265,1309.6679060357196,-1309.6679060357196,611.61402260725265,2089.6440749497469,0.0
613204.59901257406,4032374.0504322448,-12500.0,61.306298027139604,114.11998181762951,2020.8212047867621,29.291265089361772,447.75337233219335,73.85979892797495,1074.9861738698742,-644.97238792989037,1216.2817585020114,-1216.2817585020114,644.97238792989037,2111.4807081138952,0.0
618204.59901257406,4032374.0504322448,-12500.0,43.953677416229013,-56.596278592303712,2002.3778171334102,-8.8739544308209695,444.63191149106922,73.463513063184777,1062.8991045364405,-638.08419049478232,1072.5154153105834,-1072.5154153105834,638.08419049478232,2093.1892973495324,0.0
623204.59901257406,4032374.0504322448,-12500.0,51.834007428033082,-224.68502889946416,1913.7600717714959,-46.561302513286215,427.49761613540278,71.006876582894037,1029.083872487867,-589.15094033517244,887.34625337598118,-887.34625337598118,589.15094033517244,2034.1225110350897,0.0
628204.59901257406,4032374.0504322448,-12500.0,83.649252409005129,-375.65158039324007,1758.8339257645462,-80.848769246772306,397.05059855603781,66.582938431455801,974.84123657373414,-501.57544255156085,674.72094013178594,-674.72094013178594,501.57544255156085,1936.7559500326952,0.0
633204.59901257406,4032374.0504322448,-12500.0,134.35189889904876,-496.75766367945096,1548.2708607540712,-109.14034356561135,355.28468780083716,60.466306255621951,904.98040737951715,-383.67958138082014,451.61391007712535,-451.61391007712535,383.67958138082014,1806.6032085521065,0.0
638204.59901257406,4032374.0504322448,-12500.0,196.0513538583902,-579.03712426594234,1298.0647733784469,-129.55191611255927,305.22216478966288,53.078010097480849,834.48485489727523,-247.37738180688837,235.4393822037033,-235.4393822037033,247.37738180688837,1651.7016309440169,0.0
643204.59901257406,4032374.0504322448,-12500.0,259.54319938454694,-618.52211595634071,1027.0813167427161,-141.15499218394478,250.46849659903336,44.925550629886679,757.74365899058023,-106.12510365545123,41.449087961366736,-41.449087961366736,106.12510365545123,1481.7520526168023,0.0
648204.59901257406,4032374.0504322448,-12500.0,316.02868288253683,-616.41001058561267,754.25933703737712,-144.02654801350539,194.6961863150988,36.532480557935195,678.72088098173913,27.30262186516633,-119.25100174003892,119.25100174003892,-27.30262186516633,1307.0893981969305,0.0
653204.59901257406,4032374.0504322448,-12500.0,358.56300889597139,-578.23567008630539,496.1308756004417,-139.11250818667131,141.17717994647646,28.373353249419697,601.87483720842204,142.65095318107396,-240.66753488303945,240.66753488303945,-142.65095318107396,1137.6699617534698,0.0
658204.59901257406,4032374.0504322448,-12500.0,382.9120914038017,-512.38799646577115,265.15022293425261,-127.96225684594528,92.454616633549676,20.826590396109012,530.99080149031045,233.26257842838356,-321.81331505642845,321.81331505642845,-233.26257842838356,982.20408534557987,0.0
663204.59901257406,4032374.0504322448,-12500.0,387.72597959919199,-428.42589254442862,69.019473967220591,-112.41510915140594,50.193048246341526,14.151001242383813,468.82219406535421,296.30008610440149,-365.77052333209696,365.77052333209696,-296.30008610440149,847.45917779183333,0.0
668204.59901257406,4032374.0504322448,-12500.0,374.14633565051139,-335.59533709256448,-89.093982830744551,-94.313284287300732,15.19408041643171,8.4849588801187696,416.87585628990007,332.26640502311875,-378.3218607902329,378.3218607902329,-332.26640502311875,737.67269188300156,0.0
673204.59901257406,4032374.0504322448,-12500.0,345.0811949467145,-241.78842355277487,-209.73529067337958,-75.289276591363105,-12.470169591456322,3.8623521987299108,375.35585691866493,344.1110359902392,-366.54085510003495,366.54085510003495,-344.1110359902392,654.06013362044416,0.0
678204.59901257406,4032374.0504322448,-12500.0,304.39148422086123,-153.0072441757687,-296.0675639906309,-56.644115376327548,-33.264340180393866,0.23761712561921483,343.31141712222245,336.21923820243137,-337.61770156925832,337.61770156925832,-336.21923820243137,594.64911386143365,0.0
683204.59901257406,4032374.0504322448,-12500.0,256.17301612418072,-73.26246942047311,-352.78101627140552,-39.308114432062631,-47.988843629000861,-2.4870660097822404,319.00013328142887,313.50710907221782,-298.04945518771007,298.04945518771007,-313.50710907221782,554.85519806617879,0.0
568204.59901257406,4037374.0504322448,-12500.0,585.09964981198834,589.33663073561081,597.20979573637021,162.51786875503998,163.39306340571713,33.284464028536277,618.19278999246001,183.48660519810682,711.06748157551692,-711.06748157551692,-183.48660519810682,1229.8822150110248,0.0
573204.59901257406,4037374.0504322448,-12500.0,578.93169208516736,656.71847879398865,779.10079022201057,175.83930793309739,204.77654850830913,40.186458125841874,705.25924266304366,112.31685907917864,868.00051807064528,-868.00051807064528,-112.31685907917864,1396.6210705980841,0.0
578204.59901257406,4037374.0504322448,-12500.0,554.58575366022308,711.05660605290996,987.50451063212108,185.68003722299395,251.49496354881404,47.866199436702978,797.08989823906222,19.840511631080858,1032.358712583386,-1032.358712583386,-19.840511631080858,1572.7481127292699,0.0
583204.59901257406,4037374.0504322448,-12500.0,510.8925014138548,744.49489151660805,1218.3419615303326,190.37856226913667,302.57838182654558,56.159314527432201,891.20218981401467,-92.809924016239052,1195.7715975395013,-1195.7715975395013,92.809924016239052,1753.618747128093,0.0
588204.59901257406,4037374.0504322448,-12500.0,448.65035461190604,748.63803478339457,1463.7849313190563,188.21116620008655,356.29601224827064,64.788115883729816,984.22413789605127,-221.74529182883327,1347.014249583814,-1347.014249583814,221.74529182883327,1932.8755402315169,0.0
593204.59901257406,4037374.0504322448,-12500.0,371.23491800789975,715.63061002921222,1711.740287231022,177.61866278400919,410.06967073694409,73.350866614975033,1071.9117801399109,-359.78185513216556,1472.480012149389,-1472.480012149389,359.78185513216556,2102.4991809756407,0.0
598204.59901257406,4037374.0504322448,-12500.0,284.90676788303051,639.63977895840469,1945.9105479499128,157.5064091008029,460.50368636325788,81.328181753800919,1149.3145944446894,-496.3517708057924,1557.3477844665481,-1557.3477844665481,496.3517708057924,2253.1212754514531,0.0
603204.59901257406,4037374.0504322448,-12500.0,198.57684993925412,518.55856116050518,2146.7453658516388,127.57880632588044,503.58883752631834,88.114624067266931,1211.1219037520432,-618.13103394018128,1587.5134516158032,-1587.5134516158032,618.13103394018128,2374.6799051136904,0.0
608204.59901257406,4037374.0504322448,-12500.0,122.84230535059994,355.55173861653168,2293.4465091706211,88.633605009001016,535.10693925233386,93.078820110432659,1252.1828760569913,-710.54786461143703,1552.1055174543003,-1552.1055174543003,710.54786461143703,2457.4072504360824,0.0
613204.59901257406,4037374.0504322448,-12500.0,68.284431845732513,159.93287889934882,2366.9468697010448,42.718617453073449,551.21652795752073,95.648580122312509,1268.1603309903153,-760.11052606880639,1446.1335065918497,-1446.1335065918497,760.11052606880639,2493.0756226399521,0.0
618204.59901257406,4037374.0504322448,-12500.0,43.29709475213744,-53.132927003026992,2353.3932777982177,-6.9425387214984591,549.12791856670617,95.408121829386857,1256.2187007187974,-757.15845716957915,1272.5583542455138,-1272.5583542455138,757.15845716957915,2476.3111239294994,0.0
623204.59901257406,4037374.0504322448,-12500.0,51.994728730940018,-264.36955781280278,2247.3095623189774,-56.302840530970307,527.71217788358922,92.185256159573015,1215.6141868871546,-698.33315671265245,1043.0187729994827,-1043.0187729994827,698.33315671265245,2405.7048619776192,0.0
628204.59901257406,4037374.0504322448,-12500.0,92.885428090579808,-453.39459140606544,2053.473920520295,-101.08586174646456,487.86438515738848,86.103799934178952,1148.1679573006688,-587.95208432800905,776.70296594519391,-776.70296594519391,587.95208432800905,2284.4341104638011,0.0
633204.59901257406,4037374.0504322448,-12500.0,158.85185931713227,-602.30581039115805,1786.7789214921222,-137.49199234084861,432.48534871884408,77.582142754377443,1064.4854705795713,-437.69273186465176,497.41144178972962,-497.41144178972962,437.69273186465176,2120.1915478690789,0.0
638204.59901257406,4037374.0504322448,-12500.0,238.56530599630838,-698.8602534146255,1469.9281002713628,-162.83118918412603,366.05293679056285,67.274033563931994,975.83326911512472,-264.52328020978223,229.49792664959332,-229.49792664959332,264.52328020978223,1924.3856002668051,0.0
643204.59901257406,4037374.0504322448,-12500.0,318.93163355138461,-738.33120562534259,1129.547906656537,-175.90866650099593,293.886497404061,55.965034886635969,879.29378905653948,-87.442768462913605,-6.1918830030704015,6.1918830030704015,87.442768462913605,1710.7756962609756,0.0
648204.59901257406,4037374.0504322448,-12500.0,387.79900071133267,-723.59236432324997,791.80226461072755,-177.07348484840446,221.3028243228658,44.451982135896984,781.03633232389336,75.999525060579941,-195.28877577361894,195.28877577361894,-75.999525060579941,1493.8429418617759,0.0
653204.59901257406,4037374.0504322448,-12500.0,436.12409565639996,-663.59640090225105,478.66742419778825,-167.95302871941348,152.87971509898989,33.435359628262582,687.11282769465117,212.43642278330529,-331.12891735119388,331.12891735119388,-212.43642278330529,1287.2147075875341,0.0
658204.59901257406,4037374.0504322448,-12500.0,459.08841860047056,-570.89983552691774,205.65436195159393,-150.98900194470431,91.980802959587308,23.446782072042009,602.41227261018435,314.07816866257991,-414.23888378613748,414.23888378613748,-314.07816866257991,1102.3431119366376,0.0
663204.59901257406,4037374.0504322448,-12500.0,456.09031991090529,-459.03922093103813,-18.813880812300745,-128.92452486808338,40.591112598753526,14.819880634768573,530.15517927620328,378.70954390761227,-450.59062366627762,450.59062366627762,-378.70954390761227,947.44443047527079,0.0
668204.59901257406,4037374.0504322448,-12500.0,429.89632829683006,-340.40156972170922,-192.66755359835378,-104.36812173841487,-0.58143879632850026,7.6996605488324379,471.64355644257091,408.64878355601269,-449.35237990769207,449.35237990769207,-408.64878355601269,826.61371367002823,0.0
673204.59901257406,4037374.0504322448,-12500.0,385.39117342904729,-224.90597425607874,-318.65682321297169,-79.503483460780558,-31.836986980149163,2.0774242686811815,426.31632776492449,409.20543902403034,-420.77328837537613,420.77328837537613,-409.20543902403034,739.25166169895454,0.0
678204.59901257406,4037374.0504322448,-12500.0,328.32853999184522,-119.50010665373661,-402.58333602877502,-55.955042362372104,-54.152316856682468,-2.1633285119946977,392.16667654342461,387.12380255775929,-374.58623756936026,374.58623756936026,-387.12380255775929,680.38794894410637,0.0
683204.59901257406,4037374.0504322448,-12500.0,264.33890750246564,-28.279091616898025,-451.70433572664859,-34.779943227636728,-68.867857831696355,-5.2017884842077562,366.44377429638791,349.32306199593023,-319.04581755564988,319.04581755564988,-349.32306199593023,642.35793665080746,0.0
688204.59901257406,4037374.0504322448,-12500.0,198.29148307768634,47.029466572197968,-473.51799873043109,-16.540818355096004,-77.438396827180796,-7.2425722682362439,346.38385451954503,302.05581733863721,-260.52982276956118,260.52982276956118,-302.05581733863721,617.20233687310656,0.0
693204.59901257406,4037374.0504322448,-12500.0,133.98927029632301,106.4414439624416,-474.97402100171388,-1.4159729339102112,-81.261684184575174,-8.4890101743309767,329.70798335512808,250.46644403685727,-203.54442088516188,203.54442088516188,-250.46644403685727,598.47978228720194,0.0
563204.59901257406,4042374.0504322448,-12500.0,665.55348104048142,546.29235459745473,402.78364804058293,168.67260746668407,130.58752227838841,30.666222922029313,582.52265026756208,311.71646952001515,554.49812000666304,-554.49812000666304,-311.71646952001515,1156.3378638592449,0.0
568204.59901257406,4042374.0504322448,-12500.0,688.7645741092382,640.85450341660464,571.70469525403655,189.86075045341119,172.36013254448255,38.240041123861417,669.32975250625555,264.42971092604216,721.08123592584843,-721.08123592584843,-264.42971092604216,1337.9400971038704,0.0
573204.59901257406,4042374.0504322448,-12500.0,693.62446378161167,731.90760132685011,776.77002818064886,209.39192503990387,222.0410143869679,47.071340499732251,773.37720909670429,191.71030924840323,908.13539658103014,-908.13539658103014,-191.71030924840323,1537.9239032279263,0.0
578204.59901257406,4042374.0504322448,-12500.0,675.99558245934088,811.34150331677859,1018.4615511173123,225.37336562229865,279.55802134429797,57.121838432819118,885.73108723389544,90.985659819098544,1110.1294440020608,-1110.1294440020608,-90.985659819098544,1753.2522567108954,0.0
583204.59901257406,4042374.0504322448,-12500.0,633.03911919237521,868.97083813000393,1293.6934736032101,235.51232517414516,344.04647363144613,68.224842439127883,1003.1564401539845,-37.993359588554881,1317.6623264921545,-1317.6623264921545,37.993359588554881,1978.7519807038263,0.0
588204.59901257406,4042374.0504322448,-12500.0,564.27900688974057,893.17261185949656,1594.4488577744057,237.27522483188611,413.57883328128258,80.045410770656289,1121.595194487558,-191.95885097588439,1517.033881959039,-1517.033881959039,191.95885097588439,2206.7822374419343,0.0
593204.59901257406,4042374.0504322448,-12500.0,472.68060720115221,872.20715838045442,1906.6537348952265,228.18617225614233,484.95400902727891,92.05096417692819,1235.6369600928065,-363.05548715346868,1690.4919270847249,-1690.4919270847249,363.05548715346868,2427.1288547231975,0.0
598204.59901257406,4042374.0504322448,-12500.0,365.42725936660918,796.27859053052123,2209.7559676453993,206.26983696451765,553.6403312350941,103.50649065063101,1338.6649996752035,-538.28866033696636,1817.514119871553,-1817.514119871553,538.28866033696636,2627.2784842017904,0.0
603204.59901257406,4042374.0504322448,-12500.0,253.96833692144529,660.15043599539638,2477.5604420641707,170.59393893446318,613.97904745845142,113.50966360856172,1423.2767747844412,-699.97683224427101,1877.3563206170643,-1877.3563206170643,699.97683224427101,2793.2108349767391,0.0
608204.59901257406,4042374.0504322448,-12500.0,152.93677581453696,465.79614056975561,2680.7655294122865,121.80154302729282,659.72940031784367,121.07713319897863,1482.0098792532447,-827.61336291179543,1852.7672475086861,-1852.7672475086861,827.61336291179543,2910.7735383086483,0.0
613204.59901257406,4042374.0504322448,-12500.0,77.772056718365107,224.24117316065013,2791.2601938937178,62.463779897667401,684.95811983329054,125.28099527919912,1508.3309626865353,-901.21223006130776,1734.2564728068405,-1734.2564728068405,901.21223006130776,2967.5613538788539,0.0
618204.59901257406,4042374.0504322448,-12500.0,41.355179106566638,-44.356320492492763,2787.5801043722113,-2.9318889274067064,685.14703978988553,125.41619737936568,1497.7466947926114,-905.6337512118206,1523.7677992520398,-1523.7677992520398,905.6337512118206,2955.0253412007914,0.0
623204.59901257406,4042374.0504322448,-12500.0,50.525640700473929,-313.02874641269693,2660.1898818445552,-68.477270885126828,658.25483412541848,121.15939235533358,1448.8330570534936,-834.74911700162511,1236.3560246927464,-1236.3560246927464,834.74911700162511,2870.3541385239546,0.0
628204.59901257406,4042374.0504322448,-12500.0,103.70437858783698,-552.59068631244531,2414.8682731008366,-127.78991444185658,605.3987625320932,112.67131678800874,1364.5225838712502,-693.97143193368856,898.80929074869141,-898.80929074869141,693.97143193368856,2717.6125663883258,0.0
633204.59901257406,4042374.0504322448,-12500.0,190.67962763703611,-737.39125869952477,2072.7508125340623,-175.19164156706159,530.87681923335344,100.60188758540156,1262.5694502209144,-499.9743380830314,545.11793419693049,-545.11793419693049,499.9743380830314,2507.7167291914357,0.0
638204.59901257406,4042374.0504322448,-12500.0,294.8618218419997,-850.46257258250728,1666.6973023998914,-206.77499679935207,441.46496335541553,85.988874723463368,1149.2483498997071,-277.3996004197279,209.96145551929658,-209.96145551929658,277.3996004197279,2257.1887858900204,0.0
643204.59901257406,4042374.0504322448,-12500.0,397.29902401167834,-886.38835499279446,1234.9429948089964,-221.02725821670589,345.16376607673357,70.073445169777301,1026.5501941327716,-53.53124357915101,-77.795989065478778,77.795989065478778,53.53124357915101,1985.9125622571589,0.0
648204.59901257406,4042374.0504322448,-12500.0,481.03613691656346,-851.1241762850384,814.08104504234996,-218.85140137390761,249.7868928750481,54.088990452901882,903.45557651749652,147.26873473892613,-299.60904712332643,299.60904712332643,-147.26873473892613,1714.497221767265,0.0
653204.59901257406,4042374.0504322448,-12500.0,534.38374390973206,-759.17762144753249,433.40047028194641,-203.046773812076,161.78371398213503,39.079966961889497,788.23778356730941,307.65589012222483,-448.71040405134647,448.71040405134647,-307.65589012222483,1461.7673981489734,0.0
658204.59901257406,4042374.0504322448,-12500.0,552.28954235188746,-629.42558009936442,111.85679021802709,-177.48591037747462,85.55975364988798,25.790833629716406,687.14035380448274,419.00546412165164,-528.69689802449648,528.69689802449648,-419.00546412165164,1242.6944380227208,0.0
663204.59901257406,4042374.0504322448,-12500.0,535.85108283215106,-481.01586028800767,-142.18411879134345,-146.27010278899124,23.345782021463421,14.635709431903459,603.68190245704943,480.81640552545389,-550.32454547137547,550.32454547137547,-480.81640552545389,1066.7443500608731,0.0
668204.59901257406,4042374.0504322448,-12500.0,490.61151307703329,-330.36476391179934,-329.16644314057436,-113.07392984844545,-24.509030470752634,5.733315049929681,538.4440550422014,498.61861496137419,-527.83769220374722,527.83769220374722,-498.61861496137419,936.60672455980784,1.0
673204.59901257406,4042374.0504322448,-12500.0,424.45459663033557,-189.61097545555475,-455.59651418690657,-80.768799610265802,-59.019117538239264,-1.0206902969612328,489.44925630819012,481.37326325910487,-475.85139709089492,475.85139709089492,-481.37326325910487,847.91315019105753,1.0
678204.59901257406,4042374.0504322448,-12500.0,345.73831373570238,-66.350066466707943,-531.25695133296654,-51.308244182500395,-82.005165854457672,-5.8712417402623158,453.11723307028694,439.13715477584537,-407.27287755351858,407.27287755351858,-439.13715477584537,790.99254266629032,0.0
683204.59901257406,4042374.0504322448,-12500.0,261.99125742362298,35.787264544690224,-566.94837992078271,-25.79908481194612,-95.61913657556866,-9.1305341510129043,425.46347521518447,381.38627270569742,-332.28352968304506,332.28352968304506,-381.38627270569742,754.43513288010331,0.0
688204.59901257406,4042374.0504322448,-12500.0,179.2194155232159,116.16795354358197,-572.96034608540788,-4.6709507584827215,-102.00376656843409,-11.123044341463485,403.04155303696371,316.06568755667348,-258.13964589380356,258.13964589380356,-316.06568755667348,728.42133311212729,0.0
693204.59901257406,4042374.0504322448,-12500.0,101.70583557173416,176.14079418896455,-558.22433126507838,12.126628172495213,-103.08733748668972,-12.15036932313919,383.36636950761465,249.23649903781882,-189.47472199841366,189.47472199841366,-249.23649903781882,706.21017913790388,0.0
698204.59901257406,4042374.0504322448,-12500.0,32.130843374158218,218.16576637834663,-529.98573429546889,24.943755118802748,-100.48750028791322,-12.4728484352378,364.90409533651746,185.12253581340448,-128.82934312733201,128.82934312733201,-185.12253581340448,683.98885398936682,0.0
558204.59901257406,4047374.0504322448,-12500.0,708.0062655604645,455.47209418793875,201.56755190541045,163.67100749901573,91.096008207950561,26.3961073653082,539.09448540899109,417.99285609915461,362.14040396976219,-362.14040396976219,-417.99285609915461,1050.4776707223132,0.0
563204.59901257406,4047374.0504322448,-12500.0,764.86492317569093,566.72973566057215,341.96536302744801,191.54187530600237,129.62846167802621,34.122484128627107,627.84082008446103,403.80461446224604,520.58093590046042,-520.58093590046042,-403.80461446224604,1236.0506293058281,0.0
568204.59901257406,4047374.0504322448,-12500.0,807.64265153413066,685.61649188269064,523.22784329694241,220.28698419720291,177.91215897107855,43.539902624045396,729.28189877120349,364.8618368331671,710.34047611850167,-710.34047611850167,-364.8618368331671,1448.5060766892575,0.0
573204.59901257406,4047374.0504322448,-12500.0,829.88372786288858,805.85045719347715,750.77683199364913,248.22262908200477,237.00331858210996,54.794502299762058,844.16059378866396,295.07399981054886,930.49637090288229,-930.49637090288229,-295.07399981054886,1687.3785360140382,0.0
578204.59901257406,4047374.0504322448,-12500.0,825.08490109578815,917.97914112512717,1027.787321480761,272.96507051621563,307.38137369163172,67.926493026732487,981.34791056636436,189.32290755743162,1176.3417738168248,-1176.3417738168248,-189.32290755743162,1950.1004575497984,0.0
583204.59901257406,4047374.0504322448,-12500.0,787.80862360433468,1009.1808103435884,1353.3551444381872,291.42182704331429,388.54553899524541,82.804619112809817,1127.9080937249244,44.916507755690532,1438.0178518820635,-1438.0178518820635,-44.916507755690532,2231.2791736667127,0.0
588204.59901257406,4047374.0504322448,-12500.0,715.23022335320968,1063.7241656543583,1720.3258626588397,299.9356803089654,478.55331541399062,99.05338886398161,1279.0863364350823,-136.57516025647101,1699.4107810429957,-1699.4107810429957,136.57516025647101,2522.0347243323563,0.0
593204.59901257406,4047374.0504322448,-12500.0,608.93213186658261,1064.4360763678615,2113.1611993638899,294.64965329335638,573.5867461411209,115.98748644154304,1428.0988991574281,-347.39406333157478,1937.8341937672435,-1937.8341937672435,347.39406333157478,2809.5790036759454,0.0
598204.59901257406,4047374.0504322448,-12500.0,476.51243368383069,995.43309808938216,2506.5372645241987,272.13641931257843,667.69670790334158,132.57768186503588,1566.1529741569784,-572.15145081944945,2125.1610785018402,-2125.1610785018402,572.15145081944945,3077.3008539006,0.0
603204.59901257406,4047374.0504322448,-12500.0,332.30885531015673,846.04143760709053,2865.6305436320804,230.26153314546474,752.92261454548623,147.47849923051061,1682.9106421763177,-787.69972478021032,2230.9950365138884,-2230.9950365138884,787.69972478021032,3305.6334704007882,0.0
608204.59901257406,4047374.0504322448,-12500.0,196.43364694417249,615.25722451723107,3149.0653204229029,169.13072614948638,819.97921422380762,159.14590804693921,1767.4733720985826,-965.18900054125277,2228.0407986595428,-2228.0407986595428,965.18900054125277,3473.911172356748,0.0
613204.59901257406,4047374.0504322448,-12500.0,91.573662869220954,315.40737613849137,3314.996777157116,91.835182562646622,859.58987196019586,166.0544300212386,1809.8744984150285,-1074.7647857973502,2098.9597043948575,-2098.9597043948575,1074.7647857973502,3563.1940330214429,0.0
618204.59901257406,4047374.0504322448,-12500.0,37.779843481714202,-26.759433641520438,3329.6914101332991,4.6333868086403127,864.31699420737596,166.98792147513379,1802.8955141580766,-1092.3867417650329,1842.9026480590558,-1842.9026480590558,1092.3867417650329,3559.6880663529064,0.0
623204.59901257406,4047374.0504322448,-12500.0,46.580120535522475,-373.00761874850673,3176.5009834982384,-83.715812312487301,830.44900469489596,161.3350274437629,1743.9244158508036,-1006.9613305039817,1479.1613513307661,-1479.1613513307661,1006.9613305039817,3458.0001779398876,0.0
628204.59901257406,4047374.0504322448,-12500.0,116.62632477313933,-680.71131994620566,2862.0835977053544,-163.48213573893065,759.30568251777288,149.29287783473831,1638.4860933994594,-825.0877024728677,1045.7045448931042,-1045.7045448931042,825.0877024728677,3263.2554915970131,0.0
633204.59901257406,4047374.0504322448,-12500.0,232.98761910098389,-912.31679248387684,2417.0126494575043,-225.98307780598719,657.38793734080559,131.89300570974621,1510.6621241135308,-571.03760686260318,592.08437027801449,-592.08437027801449,571.03760686260318,2991.2582911799864,0.0
638204.59901257406,4047374.0504322448,-12500.0,370.831531191978,-1043.9222388404653,1889.8625563047235,-265.43493476547633,535.18443373740467,110.82139722497394,1363.7823898483703,-281.37212598408695,168.67313753273692,-168.67313753273692,281.37212598408695,2666.45441658462,0.0
643204.59901257406,4047374.0504322448,-12500.0,502.21150633996729,-1069.8185586837731,1336.5943700392163,-279.99004893947381,404.98590268440273,88.082826742077387,1206.1468834916298,3.9970935584817937,-184.01973306747104,184.01973306747104,-3.9970935584817937,2318.1886187863774,0.0
648204.59901257406,4047374.0504322448,-12500.0,603.25418598807232,-1001.6076186421462,809.01793531756573,-271.65613964469765,278.45335645332051,65.619614881802875,1050.8288845102907,250.92492435957362,-442.28760363255242,442.28760363255242,-250.92492435957362,1976.2765020748091,0.0
653204.59901257406,4047374.0504322448,-12500.0,659.11491902482567,-862.90590739733511,346.11150487877569,-245.26779662990569,164.71131881313048,45.001784060262274,909.17809369410406,437.19359581802877,-600.67811368143202,600.67811368143202,-437.19359581802877,1666.9027322484815,0.0
658204.59901257406,4047374.0504322448,-12500.0,665.44411114307775,-682.19065852343488,-29.788628257527559,-207.00508828102477,69.408293793284585,27.260265060904974,788.96290178333845,554.3137550881487,-668.6626944888036,668.6626944888036,-554.3137550881487,1409.2902529203423,0.0
663204.59901257406,4047374.0504322448,-12500.0,626.77976072026763,-486.41311214814107,-312.13521667538379,-162.99900582374593,-5.2474638416388304,12.871551963519618,693.47585760683262,605.54854180620089,-664.80159742937701,664.80159742937701,-605.54854180620089,1213.1029609834302,1.0
668204.59901257406,4047374.0504322448,-12500.0,553.27293871610163,-296.91637780509865,-506.35882807020084,-118.36840069649239,-59.788358116153809,1.8518775369686595,621.60469801821432,601.89348630463303,-610.81638303012312,610.81638303012312,-601.89348630463303,1076.9478069850331,0.0
673204.59901257406,4047374.0504322448,-12500.0,457.23291429603609,-127.90844574219892,-625.09824505856659,-76.780480935007688,-96.522188139052574,-6.0979811776279114,568.99403626188791,557.80191747208437,-527.13362876793963,527.13362876793963,-557.80191747208437,989.62408448426959,0.0
678204.59901257406,4047374.0504322448,-12500.0,350.45022016755189,13.134440310203763,-683.94775584853971,-40.437071749387584,-118.61830817075328,-11.447723593453331,529.94170623568618,487.81021247357961,-430.38501055115847,430.38501055115847,-487.81021247357961,935.00626410496227,0.0
683204.59901257406,4047374.0504322448,-12500.0,242.62387193500729,124.02687512746985,-698.4143217576908,-10.316092129298854,-129.41333390182149,-14.721663139840448,499.16192096232652,404.46651467527033,-332.59340419125954,332.59340419125954,-404.46651467527033,897.95229518974372,0.0
688204.59901257406,4047374.0504322448,-12500.0,140.77184056754885,206.1510577507614,-682.15665459406625,13.490307948182084,-131.97540993936576,-16.421482162357762,472.73449842389005,317.43853655505552,-241.46334423017163,241.46334423017163,-317.43853655505552,867.67243351574086,0.0
693204.59901257406,4047374.0504322448,-12500.0,49.313370540922911,262.91387062892147,-646.24567821974097,31.447479227234755,-128.88926250708218,-16.984119821802061,448.23043231773568,233.44662164492325,-161.21000028196244,161.21000028196244,-233.44662164492325,838.009066857074,0.0
698204.59901257406,4047374.0504322448,-12500.0,-29.494436204506474,298.57971077146027,-599.09551155954989,44.312784437327579,-122.19646330869027,-16.765764965307881,424.39814919790922,156.65430975369341,-93.522285103350526,93.522285103350526,-156.65430975369341,806.22205100403664,0.0
703204.59901257406,4047374.0504322448,-12500.0,-95.003849558758972,317.49826664925484,-546.75685441458779,52.946984525131576,-113.4275596575919,-16.042366195222556,400.75585905973446,89.235552802515812,-38.433199850505474,38.433199850505474,-89.235552802515812,771.62802695662879,0.0
553204.59901257406,4052374.0504322448,-12500.0,699.44672675272875,325.82803812483002,15.304002030954935,146.96373989375198,48.861790936446468,20.788736249208629,487.06753182551245,484.69084540164158,155.45465906045536,-155.45465906045536,-484.69084540164158,924.54214979241476,0.0
558204.59901257406,4052374.0504322448,-12500.0,787.99818722638133,439.45031667649948,116.22891921147168,179.03126428968798,80.802732148959151,28.069202298575401,572.34579239562311,506.98117548726498,288.48363546531527,-288.48363546531527,-506.98117548726498,1101.5274129423003,0.0
563204.59901257406,4052374.0504322448,-12500.0,870.79041926641116,570.73589281622435,256.62642625920654,214.72102673057972,123.13739366711604,37.332809678944741,673.24514640620885,510.32865521589667,458.71001054477074,-458.71001054477074,-510.32865521589667,1311.8656687876314,0.0
568204.59901257406,4052374.0504322448,-12500.0,940.70816996358371,716.94204805965228,445.78101001649884,253.02546984800486,177.98966007280362,48.931528527922296,791.08023643827346,486.57557563452616,670.31140650076998,-670.31140650076998,-486.57557563452616,1558.197136017284,0.0
573204.59901257406,4052374.0504322448,-12500.0,989.06178802996715,872.04168783880607,692.80806732825363,292.1136738850048,247.34211431696528,63.176128291980206,926.48892054937335,426.71976402478862,925.00451315567261,-925.00451315567261,-426.71976402478862,1841.6376207709052,0.0
578204.59901257406,4052374.0504322448,-12500.0,1006.2201289139338,1025.675016157677,1005.0391298143809,329.11700379556112,332.63515962921713,80.263430085212818,1082.4061672331604,322.00803852945245,1220.1992297019822,-1220.1992297019822,-322.00803852945245,2160.8386843941012,0.0
583204.59901257406,4052374.0504322448,-12500.0,982.91433037354466,1162.3586650073676,1385.5718394230025,359.99497457785861,434.18421629310347,100.17410504019502,1264.8215111208017,165.78537939225464,1546.7805531425624,-1546.7805531425624,-165.78537939225464,2510.8515089182802,0.0
588204.59901257406,4052374.0504322448,-12500.0,912.34059028152581,1261.4328738953188,1830.0082960609748,379.59160631032199,550.43276184485501,122.54601595884964,1457.9864663082667,-43.851599641728512,1886.8942218477214,-1886.8942218477214,43.851599641728512,2881.9256041104586,0.0
593204.59901257406,4052374.0504322448,-12500.0,792.96659038670441,1298.3907264576376,2322.7565389489628,382.02165726362972,677.14017983356257,146.54187771276005,1653.4213590833433,-300.84426773389623,2212.4758935972468,-2212.4758935972468,300.84426773389623,3258.5042226108244,0.0
598204.59901257406,4052374.0504322448,-12500.0,631.52703327968425,1248.2273429340287,2833.8151439940493,361.51176133042236,806.72042904267983,170.74926001109733,1839.5718239171611,-588.14432862147055,2485.6328170749885,-2485.6328170749885,588.14432862147055,3618.8167682645362,0.0
603204.59901257406,4052374.0504322448,-12500.0,445.15873582556287,1091.0982169417646,3317.61066582998,313.73445922985451,928.0822328719097,193.17093606561178,2002.0244218081777,-876.19441957798063,2662.1602266310992,-2662.1602266310992,876.19441957798063,3935.6174313384145,0.0
608204.59901257406,4052374.0504322448,-12500.0,261.16246627560753,819.65048231181322,3715.8123976190159,237.46144602985808,1027.3750003716327,211.36897722330229,2124.7593915712641,-1124.6305253002902,2699.0105088334913,-2699.0105088334913,1124.6305253002902,4178.5460799060811,0.0
613204.59901257406,4052374.0504322448,-12500.0,113.01085246075918,446.04449045628263,3965.6196144902642,136.08127939088112,1089.9315646228379,222.80347352070677,2192.379728860677,-1288.571501691571,2565.1963859410935,-2565.1963859410935,1288.571501691571,4318.3254314477917,0.0
618204.59901257406,4052374.0504322448,-12500.0,32.358367009941837,5.4418574736915097,4013.2315450758388,18.283943075192298,1103.3001534644993,225.34059151290447,2193.1103014730743,-1329.3236710619447,2253.4325470585363,-2253.4325470585363,1329.3236710619447,4332.3505251210963,0.0
623204.59901257406,4052374.0504322448,-12500.0,38.957911885579236,-447.24652408011644,3829.3188576705325,-102.7489403885109,1060.6552266858596,217.81118597756929,2122.2419155657453,-1226.7715802666846,1787.8623278128518,-1787.8623278128518,1226.7715802666846,4210.419818935804,0.0
628204.59901257406,4052374.0504322448,-12500.0,132.49771801671386,-848.4031488013278,3420.7501589295753,-211.83778864616647,963.36496761250771,200.42669794174188,1989.9892793961328,-988.47669993446198,1223.1540941277162,-1223.1540941277162,988.47669993446198,3958.7948247779295,0.0
633204.59901257406,4052374.0504322448,-12500.0,290.69342533452067,-1141.6948061987116,2832.6567143789853,-295.36261133770904,821.47706168961463,174.8605894748203,1824.6466390024166,-650.51871585660751,633.21063129468052,-633.21063129468052,650.51871585660751,3600.8373223200429,0.0
638204.59901257406,4052374.0504322448,-12500.0,475.45431684485555,-1292.8614388830656,2138.5940409097529,-344.58797840646173,651.64936136705649,143.92278952272099,1631.4921544268029,-268.4681771280259,92.84560182005076,-92.84560182005076,268.4681771280259,3173.6360131227984,0.0
643204.59901257406,4052374.0504322448,-12500.0,644.73314975600317,-1297.0700299972259,1422.1686695216747,-357.43141680112234,473.19725849782208,110.9268632108534,1426.6968600323607,98.120643789037302,-340.32109269533294,340.32109269533294,-98.120643789037302,2721.4969565356487,0.0
648204.59901257406,4052374.0504322448,-12500.0,764.68826398903991,-1176.3124762040777,757.59206839229512,-338.09248739852029,303.79308815883832,78.984330183044818,1229.474472613889,401.02361822946705,-636.67729847602368,636.67729847602368,-401.02361822946705,2288.2958261462909,0.0
653204.59901257406,4052374.0504322448,-12500.0,817.16805192298966,-969.27315793952187,196.29220158019271,-294.97757992469724,156.33911961698428,50.466328743714854,1055.3496697414391,612.57722965620383,-795.26505971847223,795.26505971847223,-612.57722965620383,1910.5298250944518,0.0
658204.59901257406,4052374.0504322448,-12500.0,800.67561925815176,-718.96957361766624,-237.26865772111742,-237.99907279000138,37.768780914183097,26.764604043791856,913.45920684750104,726.82471277565639,-836.42445675006513,836.42445675006513,-726.82471277565639,1611.8163462991117,1.0
663204.59901257406,4052374.0504322448,-12500.0,726.29205366697988,-462.9057542709549,-541.9726407171172,-176.27851709433619,-50.417261650569415,8.3377794355836432,805.61121366056466,754.51414249423067,-791.24366665967102,791.24366665967102,-754.51414249423067,1398.9606414456146,0.0
668204.59901257406,4052374.0504322448,-12500.0,611.59272364982417,-227.9197499649112,-732.39869341489214,-116.79823291524642,-110.61747461090394,-5.0625760486831703,727.32407080456915,715.63023621614263,-692.16813205480059,692.16813205480059,-715.63023621614263,1261.456956730618,1.0
673204.59901257406,4052374.0504322448,-12500.0,475.16722052200862,-29.370566809603286,-830.81152285583073,-64.009928231617991,-147.38272176644682,-14.110370678285072,670.641280300527,632.59075180742036,-566.96558544219113,566.96558544219113,-632.59075180742036,1177.2984366903261,0.0
678204.59901257406,4052374.0504322448,-12500.0,333.02976770468661,126.96061167455173,-860.9525028723159,-20.101864636991539,-165.96844812232931,-19.656723118514144,627.37086869774305,525.657714315112,-436.1747039926268,436.1747039926268,-525.657714315112,1122.9807785972389,0.0
683204.59901257406,4052374.0504322448,-12500.0,197.01818311340318,241.94021495908709,-844.25174098208265,14.428718330504136,-171.37720531754377,-22.554677967423679,591.17393219408166,410.71159117872719,-313.05639821665898,313.05639821665898,-410.71159117872719,1080.8149174797056,0.0
688204.59901257406,4052374.0504322448,-12500.0,74.651694206482773,320.26622844962628,-798.12208193687684,40.163300981044117,-167.86188929306445,-23.559127538630534,558.08745092904803,298.79350546405749,-204.85942061308546,204.85942061308546,-298.79350546405749,1040.551337129986,0.0
693204.59901257406,4052374.0504322448,-12500.0,-30.207595445336988,368.2964839973144,-735.65474850482747,58.251880642795939,-158.76424349025254,-23.285354320179596,526.0943762946597,196.66144006899964,-114.48915698299186,114.48915698299186,-196.66144006899964,997.65318557061028,0.0
698204.59901257406,4052374.0504322448,-12500.0,-116.40663434239512,392.6200634181875,-666.072564326151,70.050085286187254,-146.55297120435267,-22.205128413083106,494.44184173671749,107.75445247342697,-42.055397943405247,42.055397943405247,-107.75445247342697,950.9951749165424,0.0
703204.59901257406,4052374.0504322448,-12500.0,-184.57961428923227,399.25527596179927,-595.48201057540564,76.893728771768252,-132.95631965747896,-20.662655920576832,463.06692907331347,33.188852469014023,13.916211446867596,-13.916211446867596,-33.188852469014023,901.13696574607002,0.0
553204.59901257406,4057374.0504322448,-12500.0,746.06209521547351,274.6063721507532,-80.019631442662714,152.72239835201887,31.256985614371551,20.625710330760182,511.02281266573129,555.21955903497235,53.5012419087316,-53.5012419087316,-555.21955903497235,953.16766386011648,0.0
558204.59901257406,4057374.0504322448,-12500.0,862.51637765613577,399.77682123131103,9.9713031155673875,191.59027984122787,63.909823910207848,28.95614303020934,604.55375862281653,600.85117428243916,185.08998424942055,-185.08998424942055,-600.85117428243916,1145.7951473351832,0.0
563204.59901257406,4057374.0504322448,-12500.0,978.02468082848372,550.40353999373565,143.46013806290773,236.40226862806759,109.05426351676795,39.876798497377052,717.7002560968524,629.11632695917115,361.57674671672839,-361.57674671672839,-629.11632695917115,1380.5228111927936,0.0
568204.59901257406,4057374.0504322448,-12500.0,1084.2970244626783,725.56562798256107,333.28898393698154,286.44755582353292,169.89375695175539,53.966768295376895,852.97231159373951,629.64862089075984,590.78113816236498,-590.78113816236498,-629.64862089075984,1662.4956905580352,0.0
573204.59901257406,4057374.0504322448,-12500.0,1170.2693774749462,920.55240538986516,593.40384257735377,339.96540420597211,249.76686948181049,71.804252530817408,1012.2671932551972,589.96373424437661,878.56765322363435,-878.56765322363435,-589.96373424437661,1995.4605716110204,0.0
578204.59901257406,4057374.0504322448,-12500.0,1222.4728070677261,1125.0987439025539,937.13932300227259,393.73941788168383,351.67181033818099,93.870975045829908,1196.440506269279,496.44883207513436,1226.4144486183329,-1226.4144486183329,-496.44883207513436,2380.5004356758654,0.0
583204.59901257406,4057374.0504322448,-12500.0,1226.3270655142533,1321.6273924016512,1374.1957923942552,442.72907569218432,477.47897511499065,120.40140050692779,1412.0871028714473,336.47354628121343,1628.103708904737,-1628.103708904737,-336.47354628121343,2814.3473610197948,0.0
588204.59901257406,4057374.0504322448,-12500.0,1168.7414045225366,1484.1303058639401,1906.0599476357506,479.89946353752731,626.79219695085169,151.17343113489704,1658.2621551707102,101.93876595598135,2065.836091064114,-2065.836091064114,-101.93876595598135,3287.3696330466532,0.0
593204.59901257406,4057374.0504322448,-12500.0,1042.1925073010405,1578.7233965544958,2520.046049096175,496.49502473654803,795.53049026740064,185.25875109367061,1915.1082962153037,-205.75285141475547,2506.6666848735322,-2506.6666848735322,205.75285141475547,3781.5393744220573,0.0
598204.59901257406,4057374.0504322448,-12500.0,849.8759198313777,1567.2017647314074,3182.9969684755647,483.0508611752233,974.50883473253839,220.78822539770704,2167.4613196988253,-570.05705484443956,2900.9703226825714,-2900.9703226825714,570.05705484443956,4268.9956454339545,0.0
603204.59901257406,4057374.0504322448,-12500.0,610.50908296512364,1414.6995699014644,3836.9466959636688,431.35144418187463,1148.5758911530768,254.83270912072061,2395.3471691792588,-954.8897866923005,3185.3400762659257,-3185.3400762659257,954.8897866923005,4712.1088210858579,0.0
608204.59901257406,4057374.0504322448,-12500.0,360.20339681013172,1101.3570679946572,4400.3197818182471,337.24440284515794,1297.1244263930007,283.53750113735947,2575.135263728188,-1304.5716221421299,3292.2672529010251,-3292.2672529010251,1304.5716221421299,5066.1539725221401,0.0
613204.59901257406,4057374.0504322448,-12500.0,148.2915454796215,635.38494843430101,4778.3461537121584,203.64270182755595,1396.7513920024689,302.62834971382489,2682.7526863815656,-1551.4440327760688,3167.0903401386831,-3167.0903401386831,1551.4440327760688,5285.3509054733595,0.0
618204.59901257406,4057374.0504322448,-12500.0,25.398701359621665,61.908850568810891,4883.9370412898706,42.419132256266209,1426.248340520767,308.29826195983276,2698.6510326586304,-1632.395854350114,2788.7075869359187,-2788.7075869359187,1632.395854350114,5332.0163027347826,0.0
623204.59901257406,4057374.0504322448,-12500.0,26.011578511393949,-539.32457209037523,4664.7277378735307,-126.31367051308213,1372.8697339836995,298.28090375590682,2614.2857698941921,-1510.6455890662328,2185.7562151226202,-2185.7562151226202,1510.6455890662328,5186.8709648118729,0.0
628204.59901257406,4057374.0504322448,-12500.0,152.78006509861325,-1071.0969009105897,4125.7050659139277,-278.27949780163578,1237.5059968404144,272.71722395497773,2446.0589099922204,-1193.5870103481002,1438.1783732290128,-1438.1783732290128,1193.5870103481002,4856.9891984633505,0.0
633204.59901257406,4057374.0504322448,-12500.0,371.69526659880074,-1446.5468515742668,3335.0101530622742,-391.49773054790808,1036.0599344432426,234.38596160945895,2226.5437572977944,-736.10483066090467,659.05614218467474,-659.05614218467474,736.10483066090467,4377.7328644909257,0.0
638204.59901257406,4057374.0504322448,-12500.0,622.70271567210648,-1615.6339729487627,2407.081987887283,-452.48319065767953,795.74911801117798,188.09797503751255,1968.5474878354212,-224.98343080603229,-37.688599625276353,37.688599625276353,224.98343080603229,3806.9781785632317,0.0
643204.59901257406,4057374.0504322448,-12500.0,841.16474303189761,-1577.3707085533958,1469.6768453984994,-459.35184864068179,547.69000917300525,139.46348121436552,1699.4662348997626,248.99378141024545,-569.05089579578362,569.05089579578362,-248.99378141024545,3213.3534378519862,0.0
648204.59901257406,4057374.0504322448,-12500.0,979.00859919785557,-1373.047043013428,630.13510238930485,-420.66672736015647,319.05376095907138,93.547543702273586,1447.8425939781919,617.46827003652675,-899.90556548886684,899.90556548886684,-617.46827003652675,2662.4954541764187,0.0
653204.59901257406,4057374.0504322448,-12500.0,1015.8202739505865,-1066.4688516208064,-45.158952955781658,-351.17037951069142,127.91925829956256,53.926895488172484,1234.600375058666,848.0485382176231,-1040.5716211726001,1040.5716211726001,-848.0485382176231,2204.8778308809424,0.0
658204.59901257406,4057374.0504322448,-12500.0,957.5396825668472,-722.41959370285406,-533.65151795062013,-266.79413651360807,-17.96759496694186,22.38124057423299,1069.1537966378896,942.61889256759764,-1031.0306918600481,1031.0306918600481,-942.61889256759764,1866.5070355291912,0.0
663204.59901257406,4057374.0504322448,-12500.0,827.15705947072854,-391.92632177694287,-846.61535667593216,-180.9387153990354,-119.35283630013411,-0.87427974811606046,949.18782505444574,925.94816180494604,-922.04690295581099,922.04690295581099,-925.94816180494604,1644.0755652909436,0.0
668204.59901257406,4057374.0504322448,-12500.0,653.77611547246283,-106.77738858636211,-1014.5012668144077,-102.77015899269252,-182.28267692208675,-16.679915066747338,864.30322237926589,832.258566795614,-760.79546455087768,760.79546455087768,-832.258566795614,1509.8756085736636,0.0
673204.59901257406,4057374.0504322448,-12500.0,464.37305762071753,118.9468519632579,-1074.0297543614799,-37.201803653092163,-215.04635214290545,-26.39899046434115,801.77298574517772,694.92120679018865,-583.50034562513895,583.50034562513895,-694.92120679018865,1427.5388262148836,0.0
678204.59901257406,4057374.0504322448,-12500.0,279.54841449455211,284.01452303568539,-1059.7415017863975,14.195525370728765,-225.99833986022799,-31.508756122625428,751.08375619707772,540.85994812805245,-413.87831055796232,413.87831055796232,-540.85994812805245,1367.3629170105801,0.0
683204.59901257406,4057374.0504322448,-12500.0,112.55630779264273,394.75929683456053,-999.92888392814768,52.029722259678195,-222.36441505452237,-33.35313402417011,705.54944194492691,388.88113671376107,-264.91175888284033,264.91175888284033,-388.88113671376107,1311.6991103948781,0.0
688204.59901257406,4057374.0504322448,-12500.0,-29.756410564787473,460.86432356434989,-915.64423143549959,78.067388952465265,-209.80507016904258,-33.032029113930577,661.80668490985261,250.36397516948193,-141.80747984790395,141.80747984790395,-250.36397516948193,1252.7697148830628,0.0
693204.59901257406,4057374.0504322448,-12500.0,-145.27862871190928,492.5951525397831,-821.38488052027117,94.502973682909612,-192.43758800819813,-31.380773939668565,618.64551576810686,130.94166385419328,-44.859606093597314,44.859606093597314,-130.94166385419328,1188.6708970914513,0.0
698204.59901257406,4057374.0504322448,-12500.0,-234.95671122244732,499.28525871147002,-726.43226982897579,103.51205959619752,-173.07386519586751,-28.997462718765455,575.99141225665312,32.309193364992232,28.318390260343897,-28.318390260343897,-32.309193364992232,1120.293091136029,0.0
703204.59901257406,4057374.0504322448,-12500.0,-301.43619839947587,488.69698235931747,-636.25504675268758,107.02224192857555,-153.51924904518901,-26.288646290764156,534.24249241984342,-46.252152095934498,81.275973593886221,-81.275973593886221,46.252152095934498,1049.5115078711581,0.0
708204.59901257406,4057374.0504322448,-12500.0,-348.09915948626866,466.90647159979886,-553.70970740580026,106.62679514233241,-134.85212676799506,-23.516673492980487,493.90750100576031,-106.75148153600388,117.80363293450283,-117.80363293450283,106.75148153600388,978.28172767018782,0.0
548204.59901257406,4062374.0504322448,-12500.0,637.98145051391828,94.89847076983537,-228.01935427873696,115.31769262952916,-13.64018670620781,12.546821536391036,454.47291397678725,539.61347690187006,-155.54138761625055,155.54138761625055,-539.61347690187006,816.68158484794117,0.0
553204.59901257406,4062374.0504322448,-12500.0,774.13301732717207,197.05328788922068,-188.6198838234998,152.88453314200271,7.240278595800862,19.282954003401446,535.2138586613687,618.63118616970473,-73.920437860657501,73.920437860657501,-618.63118616970473,978.12370357927784,0.0
558204.59901257406,4062374.0504322448,-12500.0,922.38799046169675,329.45134100287731,-116.85335077165685,198.80927276391162,38.86844661298246,28.554439336300497,635.82530822404317,693.2751761005087,48.055170265271158,-48.055170265271158,-693.2751761005087,1182.6979375300598,0.0
563204.59901257406,4062374.0504322448,-12500.0,1077.456874193366,496.17431368729387,0.62485052266375873,253.74428685211646,85.019261205016562,41.130904767706419,760.42291051466361,754.82677336521056,221.99356742246476,-221.99356742246476,-754.82677336521056,1439.0969020940236,0.0
568204.59901257406,4062374.0504322448,-12500.0,1230.5149892355264,699.32944120995296,180.57396430712933,317.63661655324211,150.27282434589173,57.91688572742013,913.21567133972019,790.96633816364715,460.41729424590261,-460.41729424590261,-790.96633816364715,1756.0789963205032,0.0
573204.59901257406,4062374.0504322448,-12500.0,1368.4427920523558,937.11888204920933,442.82078662649263,389.20392851237585,239.84443659821716,79.903686395297512,1098.0531085606422,785.48255528078266,775.15076568374184,-775.15076568374184,-785.48255528078266,2141.4946941744638,0.0
578204.59901257406,4062374.0504322448,-12500.0,1473.5723982848913,1201.1982520768543,808.78871241996728,465.25724853181515,359.10171316499822,108.05709443765041,1317.752701384132,718.78970862762264,1174.4274002633454,-1174.4274002633454,-718.78970862762264,2600.7083386536074,0.0
583204.59901257406,4062374.0504322448,-12500.0,1524.5342406818691,1473.5162726014482,1298.194146832911,539.94293715545325,512.59780027765612,143.1106613162398,1573.9235595449147,569.91447814204287,1658.3753858171331,-1658.3753858171331,-569.91447814204287,3134.2502546345222,0.0
588204.59901257406,4062374.0504322448,-12500.0,1498.9981645531091,1723.3219626617367,1923.1591222670568,604.10716456135856,702.45903380388086,185.24019656444514,1877.8352139061933,320.73678343982135,2212.8793770233297,-2212.8793770233297,-320.73678343982135,3734.6774421262885,0.0
593204.59901257406,4062374.0504322448,-12500.0,1379.0461751173671,1905.7827360266172,2679.3387941334818,645.16593521999823,926.07828151253182,233.62169917194336,2214.8561692954331,-36.950484521571298,2802.6251069424925,-2802.6251069424925,36.950484521571298,4382.8927468121619,0.0
598204.59901257406,4062374.0504322448,-12500.0,1159.3058251532161,1964.5466888092892,3534.7820504936135,648.05475659334752,1173.3705356274259,285.93745901789947,2558.1936642730834,-491.8938543783504,3365.5712038708434,-3365.5712038708434,491.8938543783504,5044.6978711952952,0.0
603204.59901257406,4062374.0504322448,-12500.0,856.39623466358478,1841.0194575363603,4419.4564677580074,597.87431118007612,1424.3952490623519,337.99454720716977,2880.2834749703684,-1003.6175615023867,3812.9393843306416,-3812.9393843306416,1003.6175615023867,5669.0704223183993,0.0
608204.59901257406,4062374.0504322448,-12500.0,515.70499344484631,1491.9612851563149,5221.3777267101177,484.48019647356244,1648.8229844312505,383.72733691732424,3146.2833595423513,-1497.5114160896414,4039.9847794792709,-4039.9847794792709,1497.5114160896414,6190.2890035642095,0.0
613204.59901257406,4062374.0504322448,-12500.0,209.2041062940302,913.01454201328511,5797.4461837545787,308.26003666377125,1809.1143948979523,415.8924420995246,3318.1684258354053,-1871.9485318455918,3951.2086402893729,-3951.2086402893729,1871.9485318455918,6536.1065798582322,0.0
618204.59901257406,4062374.0504322448,-12500.0,18.692869913791057,159.02369335763481,6004.7236071985981,84.803798014719334,1868.5435971146376,427.59550389198813,3362.8511472476607,-2022.7813094985449,3496.8502757844944,-3496.8502757844944,2022.7813094985449,6642.5799051887525,0.0
623204.59901257406,4062374.0504322448,-12500.0,5.6261263457999107,-653.31925684936186,5748.0490520238454,-154.86915936383193,1802.8459671926826,414.37630462679527,3264.2815695079585,-1881.8387089582595,2706.6242042841259,-2706.6242042841259,1881.8387089582595,6472.9030302413275,0.0
628204.59901257406,4062374.0504322448,-12500.0,180.14548513040563,-1371.5931227276631,5024.9559452366175,-370.89376211665081,1610.9533283699518,376.05776192269769,3045.5030433582679,-1452.8331788196513,1699.1199178954646,-1699.1199178954646,1452.8331788196513,6033.5241506533539,0.0
633204.59901257406,4062374.0504322448,-12500.0,489.08708382357531,-1857.5652323265613,3940.8722500116914,-526.64924519739623,1318.6785324806365,317.36250683087229,2747.2413194270098,-821.38714326452123,652.45081094810985,-652.45081094810985,821.38714326452123,5379.3614664674742,0.0
638204.59901257406,4062374.0504322448,-12500.0,834.77782042329284,-2036.6602040447253,2679.4397840975157,-600.82411607287315,971.93194094216835,246.76256382650735,2396.7809880330365,-127.2735474042864,-254.92849555289112,254.92849555289112,127.2735474042864,4603.7058321720388,0.0
643204.59901257406,4062374.0504322448,-12500.0,1115.567420426067,-1918.8847224139627,1440.7380939831885,-593.04511657074886,622.20637051344352,173.99168383076989,2039.3539195808598,487.93211266046296,-902.17381455660507,902.17381455660507,-487.93211266046296,3815.9349075015944,0.0
648204.59901257406,4062374.0504322448,-12500.0,1263.6755911727596,-1581.8832592599701,380.94203499996627,-520.65608498287793,311.79132616201457,107.40960005532075,1717.7265072818684,927.75141818154145,-1252.5482034715301,1252.5482034715301,-927.75141818154145,3115.6778541221215,0.0
653204.59901257406,4062374.0504322448,-12500.0,1260.7139658629487,-1131.491361461714,-418.41906978292434,-409.72812499249727,65.36390114735272,52.346034829322576,1458.9591896947861,1159.4951478544999,-1341.7259589400696,1341.7259589400696,-1159.4951478544999,2570.5830325182737,0.0
658204.59901257406,4062374.0504322448,-12500.0,1129.3995906244006,-664.20176133198186,-946.77928712589983,-285.77693017743513,-110.34200255493742,10.815315342523741,1269.3888188447615,1203.9547033662438,-1244.4362866366641,1244.4362866366641,-1203.9547033662438,2200.9979194262,0.0
663204.59901257406,4062374.0504322448,-12500.0,913.52222674844654,-246.52654685287195,-1240.5684534949426,-167.97520434014302,-221.53762617025995,-17.755740543628313,1137.6717764901675,1110.9304223349559,-1041.2937063720142,1041.2937063720142,-1110.9304223349559,1978.7718168529748,0.0
668204.59901257406,4062374.0504322448,-12500.0,659.13560949772398,88.066229716789167,-1356.3662673112353,-67.52071460127047,-281.00341817471173,-35.429248372153175,1044.3386035454723,936.07765291154567,-798.23204604046566,798.23204604046566,-936.07765291154567,1848.9467998928369,0.0
673204.59901257406,4062374.0504322448,-12500.0,403.27770444029005,331.88420530229263,-1351.3639989482522,11.214265519452422,-302.98378731451459,-44.785417625402481,971.52568112621918,726.58011787403279,-559.50447916072244,559.50447916072244,-726.58011787403279,1760.5550293773072,0.0
678204.59901257406,4062374.0504322448,-12500.0,170.25685271201704,492.89947915683359,-1273.2388018592319,68.466518772941896,-300.18691062231176,-48.287730311687156,907.51819598192299,515.79676634645421,-349.46271398146291,349.46271398146291,-515.79676634645421,1682.0292832691928,0.0
683204.59901257406,4062374.0504322448,-12500.0,-27.285259773334076,586.1785700593507,-1157.1585103735918,106.95884011419747,-282.57808618242575,-47.976189199768633,846.48163120630852,323.71143940000377,-177.88436735199625,177.88436735199625,-323.71143940000377,1599.4846676637135,0.0
688204.59901257406,4062374.0504322448,-12500.0,-185.34975857896362,628.23188940908369,-1026.7339027705875,130.35088836930441,-257.29036023912113,-45.388362066196848,786.40682141058778,159.92820283968666,-45.505388990806743,45.505388990806743,-159.92820283968666,1509.5935684014712,0.0
693204.59901257406,4062374.0504322448,-12500.0,-305.38859866531772,634.00206206835787,-896.49901556564942,142.30597784062223,-229.06094274775941,-41.603378788876448,727.22541922747837,27.097589604466577,51.667488220121797,-51.667488220121797,-27.097589604466577,1413.8443772468202,0.0
698204.59901257406,4062374.0504322448,-12500.0,-391.74241489768127,615.67000224491221,-774.54579803211379,146.03127276801445,-200.81525262181236,-37.333458012870317,669.61075378645296,-76.212702068526909,119.5098261225383,-119.5098261225383,76.212702068526909,1315.2632574873264,0.0
703204.59901257406,4062374.0504322448,-12500.0,-449.88393315860003,582.50266604552451,-664.72815025961393,144.11991150550975,-174.20963523847047,-33.020610991623549,614.35625699627019,-153.46815435525758,164.13586587668868,-164.13586587668868,153.46815435525758,1216.8732253756714,0.0
708204.59901257406,4062374.0504322448,-12500.0,-485.35569565622092,541.19247586847177,-568.29332922513515,138.55771117135626,-150.0635884483537,-28.919468471962279,562.11267814210976,-208.86132243050159,191.08115886378047,-191.08115886378047,208.86132243050159,1121.1102838815912,0.0
713204.59901257406,4062374.0504322448,-12500.0,-503.20979183245038,496.36155718011054,-484.99793118900288,130.80382380776848,-128.67436016258861,-25.160971071935318,516.39394690262088,-246.56247149150784,204.98741051296764,-204.98741051296764,246.56247149150784,1029.6993583521889,0.0
543204.59901257406,4067374.0504322448,-12500.0,474.41556721277431,-75.432400963667405,-319.3881553601459,71.234567164769459,-49.668557684141298,4.6394631711443122,412.65270001033855,463.2827528596178,-316.31808315003121,316.31808315003121,-463.2827528596178,719.44287238478057,0.0
548204.59901257406,4067374.0504322448,-12500.0,612.04964264077319,-7.489760610803498,-322.47963530158916,103.31686296725755,-40.67091981543723,9.3655989497545491,478.44810520302417,560.41340532723154,-286.10253567589018,286.10253567589018,-560.41340532723154,842.91217033056762,0.0
553204.59901257406,4067374.0504322448,-12500.0,772.35776947288593,89.035397163413734,-306.80040949968549,144.7021011750769,-23.886015769021835,16.275908063317846,561.72782004216049,665.67555162183942,-226.20429633506535,226.20429633506535,-665.67555162183942,1004.3006805875189,0.0
558204.59901257406,4067374.0504322448,-12500.0,954.5253004203455,221.47762218532839,-261.41016885914462,197.22232520129788,4.2626091369789014,26.200870877605592,667.47700363037245,774.20271982431518,-124.49404219707321,124.49404219707321,-774.20271982431518,1214.662162343137,0.0
563204.59901257406,4067374.0504322448,-12500.0,1154.8209351442306,397.40420219487385,-171.02271601435717,262.56688790893338,48.573999586650544,40.21776178769364,801.53633537569169,877.49543069054414,34.25612241558656,-34.25612241558656,-877.49543069054414,1486.6421198023857,0.0
568204.59901257406,4067374.0504322448,-12500.0,1365.1575646337556,623.34295803839962,-15.076884742162385,341.85790808285725,115.25876499531904,59.673474553639124,970.39750184504669,962.14758889528389,268.11221801557809,-268.11221801557809,-962.14758889528389,1834.0079872085864,0.0
573204.59901257406,4067374.0504322448,-12500.0,1571.491174538354,902.53807165318005,232.75493278062973,434.96078471757738,211.96294359426648,86.164105042000045,1180.755633001841,1008.6776602543423,596.7227955803919,-596.7227955803919,-1008.6776602543423,2270.6898694061715,0.0
578204.59901257406,4067374.0504322448,-12500.0,1752.4508300428631,1231.424489876244,603.92773729847329,539.46875430564717,347.42671141801532,121.4284821554179,1438.7108864262218,991.01228359806714,1038.3684974247117,-1038.3684974247117,-991.01228359806714,2809.0010244536907,0.0
583204.59901257406,4067374.0504322448,-12500.0,1878.9967442385428,1594.7112207170751,1132.142539496856,649.37345113130857,530.47627745264879,167.09532193450943,1748.6768167136722,877.59317360375428,1604.4758341747352,-1604.4758341747352,-877.59317360375428,3456.6517643293664,0.0
588204.59901257406,4067374.0504322448,-12500.0,1916.4066880748433,1959.5304588359318,1846.7036634897925,753.60515832272085,767.96461516989814,224.2144961182988,2115.6976727558695,635.54167059978374,2290.8962359097654,-2290.8962359097654,-635.54167059978374,4212.2169963007245,0.0
593204.59901257406,4067374.0504322448,-12500.0,1830.3073449359408,2270.2889910543195,2760.5440674526303,834.95271030555705,1061.3178266857396,292.52483103945758,2550.7688268679717,239.54658365146406,3066.0961886005148,-3066.0961886005148,-239.54658365146406,5059.0392533963241,0.0
598204.59901257406,4067374.0504322448,-12500.0,1598.215719520716,2447.7095324104894,3852.3489043414311,870.33255552702519,1401.6861817188494,369.49831857938966,3017.9639003329794,-313.52774092696109,3858.4842146139626,-3858.4842146139626,313.52774092696109,5958.2724113092827,0.0
603204.59901257406,4067374.0504322448,-12500.0,1226.1735774397575,2397.5809599671702,5045.3655768634435,833.79765307132709,1764.5978048293143,449.39031219252792,3475.911802737674,-985.92811784104742,4548.7995427953028,-4548.7995427953028,985.92811784104742,6843.1395862985873,0.0
608204.59901257406,4067374.0504322448,-12500.0,765.53127598600895,2034.9813391241023,6191.4754400687125,703.52498925476334,2106.5226564775721,522.79496219495502,3873.466567977564,-1683.1827435805108,4977.7777733011435,-4977.7777733011435,1683.1827435805108,7618.2325486315513,0.0
613204.59901257406,4067374.0504322448,-12500.0,318.50500048484838,1324.6647414033812,7076.3161679929608,472.50726710780083,2367.3312757594917,577.42094669815776,4150.1397963581621,-2254.9163628802512,4980.3536840901761,-4980.3536840901761,2254.9163628802512,8168.9727421177486,0.0
618204.59901257406,4067374.0504322448,-12500.0,17.876622078448683,325.05264968496596,7462.6451062991537,159.3699707797802,2482.4978754969593,600.63998752453824,4248.7649924023071,-2527.8983370734841,4448.402658238213,-4448.402658238213,2527.8983370734841,8384.9396974827305,0.0
623204.59901257406,4067374.0504322448,-12500.0,-24.495811354730868,-793.15817399189461,7173.9052416227623,-187.84472937926259,2404.7978476014368,583.54876177968811,4137.6605100696561,-2373.6290630246112,3400.8556296292982,-3400.8556296292982,2373.6290630246112,8194.6361654670382,0.0
628204.59901257406,4067374.0504322448,-12500.0,219.74333127254667,-1784.328357102693,6185.8478841227961,-501.82666345611671,2127.2198815613588,524.98673017869578,3845.6829805634497,-1782.4044151616019,2015.4987002357996,-2015.4987002357996,1782.4044151616019,7599.2518952889914,0.0
633204.59901257406,4067374.0504322448,-12500.0,665.34650952569916,-2420.2628734875507,4666.0404655711436,-719.34167589937135,1692.8129487859242,433.16618328695387,3430.6948147755011,-891.53405193878325,582.31903405639127,-582.31903405639127,891.53405193878325,6686.5958282868132,0.0
638204.59901257406,4067374.0504322448,-12500.0,1147.6969294934736,-2587.4216536631798,2919.9291893737413,-805.85473556903185,1181.8596094918018,323.43793365265623,2945.8818212101828,65.73755073754387,-609.8926405091911,609.8926405091911,-65.73755073754387,5612.8266384957251,0.0
643204.59901257406,4067374.0504322448,-12500.0,1503.1556058271597,-2323.848896169975,1269.3464189117387,-766.10123943085466,682.08639089289443,213.09680301264714,2466.4977907342077,863.3162824401594,-1384.2466338865979,1384.2466338865979,-863.3162824401594,4557.9129860752837,0.0
648204.59901257406,4067374.0504322448,-12500.0,1638.7730774985762,-1776.8113036345899,-59.031173255858008,-635.35247554302464,259.78797810813433,116.06878375742744,2056.6661255316158,1367.8980766741722,-1715.8838932895126,1715.8838932895126,-1367.8980766741722,3674.3130962014156,0.0
653204.59901257406,4067374.0504322448,-12500.0,1550.5992975992092,-1122.1545911312544,-976.31157868716116,-459.99282715791048,-53.416080647031386,40.040637654868668,1747.8708588129421,1560.474581858517,-1694.5382592539563,1694.5382592539563,-1560.474581858517,3044.840184650318,0.0
658204.59901257406,4067374.0504322448,-12500.0,1296.3670525783384,-499.88043256920213,-1506.5046500321682,-280.31592484164901,-256.87823122890768,-13.409034949697684,1535.1322776604629,1502.7316322687252,-1454.7390835435694,1454.7390835435694,-1502.7316322687252,2661.5410045800181,0.0
663204.59901257406,4067374.0504322448,-12500.0,954.36998483493323,10.348586751389941,-1733.3291029336751,-122.34830662904808,-368.63350340998682,-46.847252383505179,1390.3583773033042,1286.8780692331825,-1119.7368254132384,1119.7368254132384,-1286.8780692331825,2447.0578806032636,0.0
668204.59901257406,4067374.0504322448,-12500.0,593.35819564456085,382.35052336958535,-1753.7340649486082,2.1542924368279097,-413.23256048508279,-64.711180193651956,1282.6128595868875,998.33091848303866,-775.99875664309639,775.99875664309639,-998.33091848303866,2312.6221010824656,0.0
673204.59901257406,4067374.0504322448,-12500.0,259.93797771192681,624.13201610398914,-1651.417782269016,91.669755637834427,-413.84909803432885,-71.628280374049368,1190.4858243609208,699.02325951307819,-471.68898262284313,471.68898262284313,-699.02325951307819,2199.3457045701525,0.0
678204.59901257406,4067374.0504322448,-12500.0,-21.431876738001215,759.59585054361321,-1487.7844121927906,150.32452943989242,-388.80584399424163,-71.529498273385997,1103.3713573546411,425.79572217377762,-226.18339827061828,226.18339827061828,-425.79572217377762,2081.2252808081485,0.0
683204.59901257406,4067374.0504322448,-12500.0,-242.86468707862755,816.28149686558686,-1302.9091885593546,184.41930693777374,-351.01098463532077,-67.36798828098533,1017.802746517149,195.79797690735154,-41.295198068350274,41.295198068350274,-195.79797690735154,1952.2120196562737,0.0
688204.59901257406,4067374.0504322448,-12500.0,-406.66433040550589,819.00236862916017,-1120.3394656988494,200.35787208560254,-308.76941933802937,-61.174550233409846,933.77980004069991,13.312413147098482,89.919465671560445,-89.919465671560445,-13.312413147098482,1814.9388380002481,0.0
693204.59901257406,4067374.0504322448,-12500.0,-520.24076264867153,787.49952250432113,-952.30118181261639,203.67003506729193,-266.98055413097819,-54.246220071224265,852.494522149467,-124.55827427294784,177.54253089311644,-177.54253089311644,124.55827427294784,1674.4884917947334,0.0
698204.59901257406,4067374.0504322448,-12500.0,-592.75969561554678,736.27835473016182,-803.9329118847478,198.71058361379269,-228.24340096573599,-47.352378219683537,775.23163284911175,-223.98160380121325,231.74354011625488,-231.74354011625488,223.98160380121325,1535.6754122651548,0.0
703204.59901257406,4067374.0504322448,-12500.0,-633.23949334814085,675.38090953588949,-676.28091283605283,188.7039101745525,-193.70852852040986,-40.908999599312288,702.96826683538711,-292.04393980547809,261.40569627991783,-261.40569627991783,292.04393980547809,1402.1473963103483,0.0
708204.59901257406,4067374.0504322448,-12500.0,-649.64124829285583,611.40647228314106,-568.24091505426122,175.92851975294451,-163.67301881571686,-35.108694857594088,640.13709262201996,-335.50576914267435,273.70227855699238,-273.70227855699238,335.50576914267435,1276.2937927251335,0.0
713204.59901257406,4067374.0504322448,-12500.0,-648.55660059127047,548.46155310943459,-477.73443951215353,161.9308701697789,-137.9683590426726,-30.010588862616245,584.22082703558965,-360.25000861026649,274.1433727562038,-274.1433727562038,360.25000861026649,1159.4476542910656,0.0
543204.59901257406,4072374.0504322448,-12500.0,396.21035736089027,-186.03421574298596,-388.92902652049656,49.150388695527198,-75.743098813303874,0.2045483617893632,443.70202263215509,437.80151275230992,-430.98115598979552,430.98115598979552,-437.80151275230992,768.52405131738431,0.0
548204.59901257406,4072374.0504322448,-12500.0,545.58841037048433,-133.93697121770839,-415.2009122752678,81.410730860512345,-72.609109298528836,4.4300971012328505,510.13064075451246,552.65122727436756,-428.32870300776858,428.32870300776858,-552.65122727436756,886.31034046458512,0.0
553204.59901257406,4072374.0504322448,-12500.0,726.61033838132482,-51.877316546521371,-428.31455557365132,124.84778063910082,-62.32938678392771,11.032989822852379,594.50656687168532,684.02682535675092,-399.49583074635541,399.49583074635541,-684.02682535675092,1042.0911137346498,0.0
558204.59901257406,4072374.0504322448,-12500.0,941.4112028668111,70.127297609920788,-417.4617871290024,182.36343601344734,-40.861033295144814,21.066360483438597,702.96110824782681,829.07171703854624,-330.79166829747851,330.79166829747851,-829.07171703854624,1249.9881352097152,0.0
563204.59901257406,4072374.0504322448,-12500.0,1189.4108564857977,243.6848510769336,-366.4147543907709,257.09319464488215,-2.4457080047930675,35.969498638754587,843.22915160068567,980.97301964235112,-203.74496124983142,203.74496124983142,-980.97301964235112,1527.3906798403059,0.0
568204.59901257406,4072374.0504322448,-12500.0,1465.3162171419924,481.05933973172705,-251.69465326454042,351.99429484041428,60.865517234864377,57.651584166386129,1024.6201979617467,1126.9482652687466,5.4741863799915791,-5.4741863799915791,-1126.9482652687466,1894.6605555384817,0.0
573204.59901257406,4072374.0504322448,-12500.0,1756.488105553982,792.97655841276617,-40.778542734613737,469.05049011150703,159.60621099152303,88.539870978925421,1257.6953117344665,1245.8731629842237,325.73668646689526,-325.73668646689526,-1245.8731629842237,2374.3112614731426,0.0
578204.59901257406,4072374.0504322448,-12500.0,2039.9351108198539,1184.5288828064247,308.91223176632411,607.92048708995071,306.95780946972383,131.53036001664881,1553.4857898178634,1306.0478125431684,788.74132436348759,-788.74132436348759,-1306.0478125431684,2989.2564097819586,0.0
583204.59901257406,4072374.0504322448,-12500.0,2279.7451263627954,1648.4942170283014,848.79080662337299,763.88632690608222,518.02957130823074,189.73633364319582,1922.0903148722018,1264.2420300361568,1423.4134077160074,-1423.4134077160074,-1264.2420300361568,3759.4268620189268,0.0
588204.59901257406,4072374.0504322448,-12500.0,2426.6985754746174,2155.8124234607731,1633.2095321689858,925.13369519261255,807.64525619340952,265.88566812775667,2371.4202169112978,1068.1483599908629,2245.0570607334189,-2245.0570607334189,-1068.1483599908629,4695.8734195813422,0.0
593204.59901257406,4072374.0504322448,-12500.0,2423.0358250901982,2644.3404800281378,2705.4631393918626,1069.8511568618301,1185.7260974396779,361.20267635834063,2916.1724748776537,665.50062466627014,3237.7497507342996,-3237.7497507342996,-665.50062466627014,5791.5828985449516,0.0
598204.59901257406,4072374.0504322448,-12500.0,2216.3189468996184,3010.0073209807347,4072.2085250182145,1164.5151041819727,1649.5192693312629,473.69953789263968,3546.9203504449979,23.61085677189476,4330.6740824572516,-4330.6740824572516,-23.61085677189476,7009.0382857409477,0.0
603204.59901257406,4072374.0504322448,-12500.0,1785.3034851279224,3109.3595285230563,5665.8957852633966,1165.9625881218669,2173.0422056498769,596.10630483847285,4199.8613196317583,-839.09868250821728,5374.8615775643302,-5374.8615775643302,839.09868250821728,8266.6238296423726,0.0
608204.59901257406,4072374.0504322448,-12500.0,1174.5659971125883,2787.2318948306497,7304.3196441640066,1030.715188096872,2696.9094154722279,714.25796368575254,4799.6217146002546,-1816.1204095408152,6136.9497579176168,-6136.9497579176168,1816.1204095408152,9429.7616934488433,0.0
613204.59901257406,4072374.0504322448,-12500.0,520.838523534616,1940.8030676127541,8673.8328477721534,733.60046340054873,3126.0850096079776,807.45581577284315,5249.8907555492606,-2692.843768699976,6336.6031223179461,-6336.6031223179461,2692.843768699976,10317.391036001767,0.0
618204.59901257406,4072374.0504322448,-12500.0,38.224613184671725,609.72546753627307,9378.5664309558269,291.54801213130872,3346.0654343995134,852.45122442102559,5449.9392774151229,-3181.1498744804417,5748.4658465921766,-5748.4658465921766,3181.1498744804417,10735.85363268551,0.0
623204.59901257406,4072374.0504322448,-12500.0,-65.548351999601678,-960.59655474318913,9083.3774347656363,-221.73747683379818,3262.6988526108944,831.28426803594209,5334.2602664850547,-3034.3127872570994,4346.4916133116012,-4346.4916133116012,3034.3127872570994,10542.933551605975,0.0
628204.59901257406,4072374.0504322448,-12500.0,282.00712375160589,-2362.7428125967872,7705.488719661751,-689.35375131616468,2852.4022360065956,740.10966465751881,4933.6150411653498,-2203.1287828319669,2397.5357257321007,-2397.5357257321007,2203.1287828319669,9721.0649256173056,0.0
633204.59901257406,4072374.0504322448,-12500.0,940.59412128783197,-3203.2898697831524,5519.0037252668753,-997.56458051647178,2188.9942294454322,593.4906168142237,4340.6551474246908,-914.42190288792494,392.16568325801512,-392.16568325801512,914.42190288792494,8415.1760420794217,0.0
638204.59901257406,4072374.0504322448,-12500.0,1621.034561720993,-3305.5372677146611,3054.0888820259756,-1088.9049614483686,1418.8504751628066,420.01999305354445,3656.6529964570218,426.02568641738605,-1184.0579480734159,1184.0579480734159,-426.02568641738605,6898.8029206548335,0.0
643204.59901257406,4072374.0504322448,-12500.0,2053.8700052850404,-2776.7906781590405,843.5118500545957,-982.815891674515,696.2013890038578,251.09761998007372,3009.3216549755612,1448.4846837185369,-2073.907848047827,2073.907848047827,-1448.4846837185369,5478.7338539522389,0.0
648204.59901257406,4072374.0504322448,-12500.0,2121.1677543264095,-1899.9469037065144,-790.48963512736213,-751.78160956277156,124.59448305353591,109.94454631782379,2492.997091846516,1979.7206217479711,-2303.0235107884168,2303.0235107884168,-1979.7206217479711,4386.1449431497822,0.0
653204.59901257406,4072374.0504322448,-12500.0,1865.1870132861245,-964.93932394590024,-1781.9987700048619,-478.30160376261375,-261.64714799808849,6.8409006253849611,2133.8842549297542,2051.5251556745557,-2072.5468281344297,2072.5468281344297,-2051.5251556745557,3696.3089087757044,0.0
658204.59901257406,4072374.0504322448,-12500.0,1412.3351036751205,-163.63477894793891,-2236.6114281008827,-223.84912897615098,-480.36035817117494,-59.035154149618229,1898.6101978609408,1807.792198935945,-1615.3247504922908,1615.3247504922908,-1807.792198935945,3321.6987174493397,0.0
663204.59901257406,4072374.0504322448,-12500.0,893.58412656721555,425.32087540709728,-2320.5707786613434,-20.088785429633084,-573.19326007650966,-94.726776697705105,1733.3921992357048,1407.2948186125927,-1108.6716742790118,1108.6716742790118,-1407.2948186125927,3108.1379663650746,0.0
668204.59901257406,4072374.0504322448,-12500.0,402.78388240956929,802.29583781000713,-2187.619932908266,125.13458380771077,-583.92620507842264,-109.01673370023597,1597.226849074782,971.00035396577346,-653.83247978279064,653.83247978279064,-971.00035396577346,2940.6262587480492,0.0
673204.59901257406,4072374.0504322448,-12500.0,-10.109587153176035,1005.7045025991416,-1950.7195342369278,217.64648820594897,-547.93691835367406,-109.76304918360741,1469.7278912599722,570.77664220419206,-291.68835215297668,291.68835215297668,-570.77664220419206,2767.6069988623631,0.0
678204.59901257406,4072374.0504322448,-12500.0,-328.78689281232232,1083.4626760221213,-1681.2844695722015,268.65930061543526,-489.78517715665816,-102.90144294923709,1344.6234466983901,238.93844033418384,-26.760777709686081,26.760777709686081,-238.93844033418384,2577.5297447117937,0.0
683204.59901257406,4072374.0504322448,-12500.0,-557.06946892858309,1078.5651032410265,-1418.986374541995,289.84991513206012,-424.71243009701732,-92.436730117603958,1222.1709850579321,-17.349040497835063,153.58881872112636,-153.58881872112636,17.349040497835063,2375.362721179808,0.0
688204.59901257406,4072374.0504322448,-12500.0,-708.20646483355029,1024.1974415029149,-1182.6797407712777,291.14264196770938,-361.23526247109157,-80.836480827813276,1104.5893536655112,-204.11286643880976,267.39059196044275,-267.39059196044275,204.11286643880976,2170.0447769489629,0.0
693204.59901257406,4072374.0504322448,-12500.0,-798.15701283124918,943.70983724287271,-978.96912588292344,280.10643689649345,-303.51961399864825,-69.48997357029107,994.03900139444204,-332.73109004681419,332.14638642015257,-332.14638642015257,332.73109004681419,1969.4965316944692,0.0
698204.59901257406,4072374.0504322448,-12500.0,-842.06650265396854,852.4368108241988,-807.93857018267215,262.11997794369591,-253.14292553161425,-59.092313540770775,892.11431024711942,-415.54779616538752,362.4935910047696,-362.4935910047696,415.54779616538752,1779.2701386904484,0.0
703204.59901257406,4072374.0504322448,-12500.0,-852.79203096418303,759.83805257241158,-666.62070583233617,240.80561995675507,-210.26243971367489,-49.9217420510791,804.14063792445779,-463.78572548751958,369.72611009290551,-369.72611009290551,463.78572548751958,1602.6364392485386,0.0
708204.59901257406,4072374.0504322448,-12500.0,-840.55743201726125,671.34639309275019,-550.93765726643687,218.48801834127283,-174.33259259059545,-42.022894135816699,726.25508463386734,-486.78350481938162,362.12280088272439,-362.12280088272439,486.78350481938162,1441.1003326189248,0.0
713204.59901257406,4072374.0504322448,-12500.0,-813.14695342094785,589.76912807989731,-456.70306240585847,196.58308214572583,-144.51910026858906,-35.320495299052446,655.01668029566952,-491.91114677491998,345.53403834350922,-345.53403834350922,491.91114677491998,1294.9477464447777,0.0
718204.59901257406,4072374.0504322448,-12500.0,-776.30058059422618,516.27533160394512,-380.08491563248407,175.89513117112242,-119.92324505461488,-29.686370503801051,590.46483276410822,-484.78327414482794,323.97342492151665,-323.97342492151665,484.78327414482794,1163.6932954347801,0.0
538204.59901257406,4077374.0504322448,-12500.0,154.52776031026499,-319.19238383098076,-397.34626139090039,-3.3088552734099399,-96.57762891747349,-7.4449468336044271,431.45771049646464,273.00141750701016,-502.86913019782753,502.86913019782753,-273.00141750701016,758.33861755126043,0.0
543204.59901257406,4077374.0504322448,-12500.0,273.56073999430225,-310.28055930320028,-448.05039474778869,17.196633481979443,-104.05226254709223,-5.8255371187377154,486.72329119524539,377.12538186298644,-543.49049900259149,543.49049900259149,-377.12538186298644,848.15148543247335,0.0
548204.59901257406,4077374.0504322448,-12500.0,426.67292675651487,-281.94365183282451,-498.79772569271006,47.064210956939064,-108.58757188624926,-2.6538963160657283,554.52247241298062,504.85097440268635,-574.14846201099374,574.14846201099374,-504.85097440268635,961.24068010118799,0.0
553204.59901257406,4077374.0504322448,-12500.0,620.47723757353788,-224.97958194758701,-544.14225213066629,89.576482707905555,-107.48566452918519,2.9282340090295222,639.63193900638021,658.49107894368331,-585.51109929141126,585.51109929141126,-658.49107894368331,1108.6363254397243,0.0
558204.59901257406,4077374.0504322448,-12500.0,861.21654606108916,-127.14052887005845,-574.63788275015941,148.8601041514581,-96.523284648156164,12.182599383841181,748.82989038718142,838.4973484495822,-563.50954240653368,563.50954240653368,-838.4973484495822,1306.2809032920252,0.0
563204.59901257406,4077374.0504322448,-12500.0,1153.3508144202819,27.208369580339099,-574.73370083262694,229.86630977798475,-69.26968374861535,26.929257181920907,891.42793397882429,1041.6824618231842,-487.65488363752343,487.65488363752343,-1041.6824618231842,1575.9699490332616,0.0
568204.59901257406,4077374.0504322448,-12500.0,1497.1919523973866,256.83972480437671,-519.9348835313682,338.10372195397588,-16.219529812860177,49.72896620411715,1079.6738652193455,1258.5395315111768,-329.25980984489286,329.25980984489286,-1258.5395315111768,1945.7299061564734,0.0
573204.59901257406,4077374.0504322448,-12500.0,1885.2933854721787,582.14200567224179,-373.31987299278859,478.89961510390037,76.186305536818438,84.062523579027783,1328.8333620199987,1469.527003048388,-50.112629311017599,50.112629311017599,-1469.527003048388,2449.407702021098,0.0
578204.59901257406,4077374.0504322448,-12500.0,2297.4882375625634,1021.2446035566844,-81.968776433403377,655.85922261603935,226.41114323858406,134.43075334120854,1656.7066400250333,1640.5131108036212,397.23964922585401,-397.23964922585401,-1640.5131108036212,3125.1868195187872,0.0
583204.59901257406,4077374.0504322448,-12500.0,2695.0419776076137,1582.3012506643734,425.19510740254844,868.10931398402522,457.98558119799702,206.21974714451704,2082.2853106362695,1718.3468821830788,1065.4924568710344,-1065.4924568710344,-1718.3468821830788,4012.2713047735151,0.0
588204.59901257406,4077374.0504322448,-12500.0,3015.6266512784168,2250.3324928126935,1234.9980271433335,1105.9669222712828,797.90752928770962,305.06194928893785,2623.5458102343423,1629.0027242615263,2001.5459892810852,-2001.5459892810852,-1629.0027242615263,5144.1944913475354,0.0
593204.59901257406,4077374.0504322448,-12500.0,3173.0959512174491,2967.959667440366,2437.4224253324292,1345.1269863630887,1271.5162720824403,435.3087244436519,3299.473515496345,1283.1786857545974,3224.0954667483511,-3224.0954667483511,-1283.1786857545974,6536.6116096205697,0.0
598204.59901257406,4077374.0504322448,-12500.0,3069.2559068853088,3612.836559819244,4094.5665482188479,1540.7382227287401,1891.5459157412286,597.23293164789595,4132.5896183017612,597.21471086819497,4686.2844226848965,-4686.2844226848965,-597.21471086819497,8167.617501717923,0.0
603204.59901257406,4077374.0504322448,-12500.0,2627.3297140518171,3982.8403403860925,6182.8323069122607,1625.2900465193725,2639.6917928910016,782.96021598436892,5060.763689180736,-461.58684002123118,6226.0022970286873,-6226.0022970286873,461.58684002123118,9950.8105743775413,0.0
608204.59901257406,4077374.0504322448,-12500.0,1852.7548903271124,3814.0596636207515,8510.0340023296903,1517.7251231894302,3442.9231106903035,972.23224530666221,5972.0770713113334,-1803.6275139497461,7523.8427337967587,-7523.8427337967587,1803.6275139497461,11707.662061909428,0.0
613204.59901257406,4077374.0504322448,-12500.0,904.98603008539305,2867.9047353285673,10641.110773017765,1152.4697882716428,4156.2442497574066,1130.9125620608681,6714.7645633119118,-3145.9177567555425,8119.2665716336987,-8119.2665716336987,3145.9177567555425,13157.728156944899,0.0
618204.59901257406,4077374.0504322448,-12500.0,119.12375792639062,1102.4046776077109,11919.988942268417,528.58862809166351,4576.3157105278397,1216.4342060038989,7108.7536298846962,-4017.011403596638,7556.0607707661675,-7556.0607707661675,4017.011403596638,13958.058573293516,0.0
623204.59901257406,4077374.0504322448,-12500.0,-113.26497491977189,-1149.5051292128258,11695.788423245256,-245.32606298210646,4510.7158885858771,1192.4765031380659,7013.6432819672891,-3935.1558746119354,5670.9312486218332,-5670.9312486218332,3935.1558746119354,13817.505070383286,0.0
628204.59901257406,4077374.0504322448,-12500.0,389.1146115928596,-3192.7609639679135,9730.4638066315383,-960.76249111298625,3890.2356935965945,1048.2839347562617,6447.1304499216785,-2741.2939617138118,2855.4265087924387,-2855.4265087924387,2741.2939617138118,12660.566370475786,1.0
633204.59901257406,4077374.0504322448,-12500.0,1389.7171717964814,-4312.3052131780942,6485.9270722224019,-1403.1661076698958,2844.9246167629344,809.99056903462019,5572.3411441554417,-821.85850442491403,-22.195750442021449,22.195750442021449,821.85850442491403,10734.858596778287,0.0
638204.59901257406,4077374.0504322448,-12500.0,2354.8423223614304,-4227.2428467747341,2931.773636817376,-1474.2049110255994,1655.374760882318,532.16811560967778,4586.4995797598531,1080.8029814899819,-2106.8571769465907,2106.8571769465907,-1080.8029814899819,8547.2763056007061,0.0
643204.59901257406,4077374.0504322448,-12500.0,2832.5708248985188,-3217.2746127846945,-23.199067031656966,-1233.8652550028378,602.13116662646996,272.82095635992675,3711.5051510643661,2349.3197189349066,-3038.1499806159736,3038.1499806159736,-2349.3197189349066,6641.1752340891217,0.0
648204.59901257406,4077374.0504322448,-12500.0,2705.960105987419,-1833.1135705194254,-1950.5284586277278,-833.09886494657394,-157.6298752067043,70.144033918246734,3076.5996605582604,2796.4999479101693,-2995.8924468325199,2995.8924468325199,-2796.4999479101693,5347.3716437533285,0.0
653204.59901257406,4077374.0504322448,-12500.0,2139.1208604860612,-539.31272700362626,-2895.9047285436332,-416.51406174559037,-605.81166735089562,-64.497314835123845,2671.6120903504698,2595.3374372603007,-2402.9518623525923,2402.9518623525923,-2595.3374372603007,4648.24609029166,0.0
658204.59901257406,4077374.0504322448,-12500.0,1383.0213916414848,433.33521433764685,-3136.7278463868365,-70.869223583317691,-806.52449785819442,-139.21911604498999,2406.6475071712621,2042.5160827642576,-1639.8843134342242,1639.8843134342242,-2042.5160827642576,4288.9456541943628,0.0
663204.59901257406,4077374.0504322448,-12500.0,636.94432930976825,1047.7603667900214,-2969.5717226157667,174.67970018404083,-844.91766059764097,-170.24840681429023,2199.1917011189234,1387.8110128322417,-935.08831542103394,935.08831542103394,-1387.8110128322417,4034.1004570294599,0.0
668204.59901257406,4077374.0504322448,-12500.0,9.5693977531128294,1365.3573920748645,-2615.7127054686821,326.39481042953884,-793.15038117242068,-173.74236880251215,2007.2612041174641,781.07163810564998,-381.44971464424953,381.44971464424953,-781.07163810564998,3774.1131339394501,0.0
673204.59901257406,4077374.0504322448,-12500.0,-463.46504835014753,1473.7855883104251,-2210.1067564091218,404.89571037747521,-700.75536721597473,-162.19438297971308,1818.8142111196471,287.14349532615608,9.4024840426544074,-9.4024840426544074,-287.14349532615608,3485.5216142668428,0.0
678204.59901257406,4077374.0504322448,-12500.0,-788.93671402605753,1451.3866768400467,-1822.6686025165118,432.51589858448773,-597.2232602576438,-143.91443865064383,1634.9200310500567,-81.580343552159377,261.79967352454497,-261.79967352454497,81.580343552159377,3178.4024572644171,0.0
683204.59901257406,4077374.0504322448,-12500.0,-991.87534230227232,1356.3123051181281,-1482.9666875356493,427.88315245125017,-497.9876998972548,-123.83313380899713,1459.9327869225181,-338.16737278133292,409.57901113140076,-409.57901113140076,338.16737278133292,2869.3087028452701,0.0
688204.59901257406,4077374.0504322448,-12500.0,-1101.316762249601,1227.2732842563264,-1198.6550118320545,404.65187579626547,-409.85682972155007,-104.56604391281648,1297.6235891040694,-504.49160781060374,484.02374707359121,-484.02374707359121,504.49160781060374,2571.7280429007401,0.0
693204.59901257406,4077374.0504322448,-12500.0,-1143.5799864317239,1088.0304852810643,-966.93052146903199,372.04363641536412,-334.85658128928634,-87.303395056867799,1150.7115444904853,-602.77049361151694,509.92333692715692,-509.92333692715692,602.77049361151694,2294.2104914832257,0.0
698204.59901257406,4077374.0504322448,-12500.0,-1139.9487319981065,952.06352761885739,-780.87371766005765,335.90321035547606,-272.61705626415875,-72.428606209926272,1024.8475871221017,-652.08692591564943,505.36191998284301,-505.36191998284301,652.08692591564943,2041.0639971733067,0.0
703204.59901257406,4077374.0504322448,-12500.0,-1106.5307990730114,826.27574160563461,-632.64863142348247,299.71804209722478,-221.73548845348247,-59.907644611505553,914.28065078623013,-667.4991329687806,482.85422678527459,-482.85422678527459,667.4991329687806,1813.6139846768613,0.0
708204.59901257406,4077374.0504322448,-12500.0,-1054.9867547970803,713.59135341565695,-514.93811645670519,265.42061396765371,-180.49664229796875,-49.515905543694053,815.13692997079875,-660.29876881850612,450.72945190497774,-450.72945190497774,660.29876881850612,1611.3163181230359,0.0
713204.59901257406,4077374.0504322448,-12500.0,-993.47764071664517,614.65543205688414,-421.46891033119414,233.96210855462181,-147.22275366824456,-40.962425108466469,726.87002052149444,-638.66650497049329,414.34594959291951,-414.34594959291951,638.66650497049329,1432.5761854894388,0.0
718204.59901257406,4077374.0504322448,-12500.0,-927.54873555907989,528.89372331995094,-347.09987407000807,205.69924334305733,-120.42130579521498,-33.953088542710212,648.72043433475278,-608.37725514557076,377.03022178456075,-377.03022178456075,608.37725514557076,1275.2935370862806,0.0
538204.59901257406,4082374.0504322448,-12500.0,-7.4454283324690937,-424.39718014756301,-423.32835550043507,-40.710764538685218,-118.42351736612362,-13.766272772217318,484.84771200815857,170.66922286618606,-575.2108331405276,575.2108331405276,-170.66922286618606,870.49021699966693,0.0
543204.59901257406,4082374.0504322448,-12500.0,99.051645979917652,-441.96331620298224,-490.44447487960986,-26.030514735648705,-133.06711457449339,-13.644400011920602,545.01033306377121,273.1732210465953,-644.15031422361199,644.15031422361199,-273.1732210465953,966.91273959204477,0.0
548204.59901257406,4082374.0504322448,-12500.0,243.73965799030401,-445.20824279156989,-564.615248898971,-2.0854690705325458,-146.88303707189345,-12.240012709643736,616.87876379493537,405.07530489053102,-711.80216862324755,711.80216862324755,-405.07530489053102,1082.3164463594799,0.0
553204.59901257406,4082374.0504322448,-12500.0,436.6711528603924,-424.76299704214227,-642.78256226041321,35.084068234018211,-157.58366751933488,-8.6532322474659669,704.70609809943085,572.01533791875397,-770.5989187412016,770.5989187412016,-572.01533791875397,1225.6787476447421,0.0
558204.59901257406,4082374.0504322448,-12500.0,689.0607956322425,-367.15955521095549,-718.27984009565967,90.806800744252541,-161.22826427670861,-1.4807284951401831,814.966363900239,778.95021540847142,-807.86347964344009,807.86347964344009,-778.95021540847142,1411.6542833465351,0.0
563204.59901257406,4082374.0504322448,-12500.0,1012.1999364582491,-253.68195526820617,-778.36552220394151,172.02979821254002,-151.29327995392464,11.425413794994808,957.39352763421198,1028.4318336622302,-803.33143939352158,803.33143939352158,-1028.4318336622302,1663.2009325871991,0.0
568204.59901257406,4082374.0504322448,-12500.0,1415.1869903262611,-59.455298474494732,-800.49838397320627,287.38692950291346,-117.34683401550109,33.279602854410285,1146.1806547293252,1317.6069004669757,-725.96489717542897,725.96489717542897,-1317.6069004669757,2014.1368116475796,0.0
573204.59901257406,4082374.0504322448,-12500.0,1900.8217743761199,246.51258282696489,-747.05590597807395,446.80554988498767,-43.284741318346718,68.753045291475019,1401.0633561941368,1633.4137690351108,-530.35491813209921,530.35491813209921,-1633.4137690351108,2510.6711865122343,0.0
578204.59901257406,4082374.0504322448,-12500.0,2458.9578524440421,698.97334661890352,-558.53068295763376,660.1564709111309,94.75592818811981,124.36191031562755,1747.8404320685452,1945.5752664849979,-153.70596884536451,153.70596884536451,-1945.5752664849979,3211.0754830747956,0.0
583204.59901257406,4082374.0504322448,-12500.0,3056.9130794450966,1329.4599930091713,-146.18958493994845,934.16933146326937,330.30104014598959,208.66000286417844,2217.8059175340891,2197.6064476302931,484.27064668727473,-484.27064668727473,-2197.6064476302931,4182.926035485687,0.0
588204.59901257406,4082374.0504322448,-12500.0,3627.7076882480119,2151.3193307568295,612.7299952444929,1266.585988262111,706.96713115745888,331.82285491095257,2845.7463202508907,2297.7062628974058,1474.0149069678096,-1474.0149069678096,-2297.7062628974058,5496.5971684280257,0.0
593204.59901257406,4082374.0504322448,-12500.0,4059.7336398983539,3132.8278953882887,1870.2509542882133,1636.6129137849985,1274.7351278417082,503.89130078773809,3668.9143122036671,2114.8705941290164,2893.6593062158645,-2893.6593062158645,-2114.8705941290164,7211.5587933878351,0.0
598204.59901257406,4082374.0504322448,-12500.0,4197.2088556102408,4156.3094846709073,3779.7331069389857,1991.9435116208097,2077.4251465001639,730.66232764103017,4739.3529060452784,1491.8629482942629,4760.6505413252635,-4760.6505413252635,-1491.8629482942629,9349.8320786916174,0.0
603204.59901257406,4082374.0504322448,-12500.0,3870.0074811529348,4970.1692937955049,6423.0692072134207,2236.409406565801,3125.1444709185012,1006.4575512651159,6042.0325591288238,295.52389381720286,6947.7581991486331,-6947.7581991486331,-295.52389381720286,11850.771094123942,0.0
608204.59901257406,4082374.0504322448,-12500.0,2979.3151953253519,5165.9029259722047,9670.2477048664878,2230.3555554185905,4347.9124333377031,1304.7150282469927,7430.3235089801065,-1470.9445957135458,9071.9912877705465,-9071.9912877705465,1470.9445957135458,14507.709835862534,0.0
613204.59901257406,4082374.0504322448,-12500.0,1648.579881101547,4257.8370862515048,12985.252009139316,1826.2420056434273,5541.4937872208202,1571.3256550382034,8673.5771736083825,-3497.5797980700718,10424.779468138258,-10424.779468138258,3497.5797980700718,16909.150739040222,0.0
618204.59901257406,4082374.0504322448,-12500.0,361.21000942866766,1967.0449055701692,15315.389489227837,959.98420638049083,6351.286785080094,1730.0846488310481,9449.6600628476299,-5051.2484347734608,10114.070511040021,-10114.070511040021,5051.2484347734608,18450.47268065414,0.0
623204.59901257406,4082374.0504322448,-12500.0,-144.11713706262094,-1329.7348181629145,15373.46010919429,-227.26027392132048,6374.9767345089258,1708.4190799071744,9448.9377620268097,-5183.3217710263507,7597.9495165698972,-7597.9495165698972,5183.3217710263507,18516.498887025602,0.0
628204.59901257406,4082374.0504322448,-12500.0,590.53438555806133,-4419.8567997278051,12499.960012519758,-1356.0084410632212,5414.3478481234797,1478.3544094359502,8621.4353033050174,-3429.5899553963868,3399.455505079151,-3399.455505079151,3429.5899553963868,16855.752239009431,0.0
633204.59901257406,4082374.0504322448,-12500.0,2160.1651710835004,-5914.3439973623517,7494.3511734231488,-1997.1407430920169,3703.3146255039551,1086.4036443375417,7275.7233632304997,-467.56779689162829,-858.58869739406134,858.58869739406134,467.56779689162829,13906.181132024432,0.0
638204.59901257406,4082374.0504322448,-12500.0,3517.7942610068017,-5359.3438982978723,2252.8249943116575,-1977.2480382391088,1815.4786754711645,638.79808032433698,5821.0910350157656,2256.1056551009442,-3579.6046520238415,3579.6046520238415,-2256.1056551009442,10678.531898377814,1.0
643204.59901257406,4082374.0504322448,-12500.0,3902.2212673977265,-3478.6743202463858,-1630.1887844343639,-1469.152158469512,280.30584616297261,243.97680051214348,4650.1484702190573,3700.0106363662785,-4322.3874820503152,4322.3874820503152,-3700.0106363662785,8171.0383964258808,0.0
648204.59901257406,4082374.0504322448,-12500.0,3315.8349182525435,-1351.687090299602,-3698.6934155587101,-790.7391272393578,-685.86548959636468,-37.75995705499804,3900.5318120509628,3797.3151147137519,-3692.3824290618736,3692.3824290618736,-3797.3151147137519,6759.773187194106,1.0
653204.59901257406,4082374.0504322448,-12500.0,2210.808698943506,334.07036362045494,-4338.1409342911265,-183.73459750779699,-1142.1554274547086,-200.99160343960969,3448.6960354155963,3065.4435081979532,-2527.8198148493616,2527.8198148493616,-3065.4435081979532,6104.1301250380893,0.0
658204.59901257406,4082374.0504322448,-12500.0,1034.0168526931923,1390.4315375852113,-4148.8404129446808,250.86295002292226,-1255.5397575186769,-271.93162158243439,3120.7436182604451,2050.9584986172522,-1388.3126192305892,1388.3126192305892,-2050.9584986172522,5702.3506384943985,0.0
663204.59901257406,4082374.0504322448,-12500.0,40.341811903329145,1909.6515579686536,-3599.6708241519659,510.72383799630876,-1182.6695334681074,-283.92106194417329,2822.3324470499729,1092.4975800282434,-504.85181884345769,504.85181884345769,-1092.4975800282434,5300.3266743305458,0.0
668204.59901257406,4082374.0504322448,-12500.0,-687.26553130181765,2062.4517717542535,-2964.9231122527758,634.97194191379799,-1030.5525261578341,-264.34110136485532,2528.3871112232455,330.19508198506469,91.288705480334158,-91.288705480334158,-330.19508198506469,4846.3049557902532,0.0
673204.59901257406,4082374.0504322448,-12500.0,-1162.3012791456331,2000.5714250946016,-2374.3440524660296,668.72382877303141,-859.85260305569068,-231.36726409419586,2242.3869848666736,-214.12785138627817,450.48089979777774,-450.48089979777774,214.12785138627817,4362.3949758459394,0.0
678204.59901257406,4082374.0504322448,-12500.0,-1435.3289474208202,1830.8180063769898,-1874.5049442293066,648.72844961445674,-699.84711911783654,-195.4011876262318,1973.3450523102078,-570.46443507490005,639.96237175127737,-639.96237175127737,570.46443507490005,3881.0347083494412,0.0
683204.59901257406,4082374.0504322448,-12500.0,-1561.8748802799171,1619.2654008294578,-1471.4673180730133,600.60266417603327,-561.80628929355066,-161.61272474901807,1728.0673605743416,-782.90853240117269,718.02770768578318,-718.02770768578318,782.90853240117269,3425.9924488051151,0.0
688204.59901257406,4082374.0504322448,-12500.0,-1589.328731774805,1402.9651537394445,-1154.7440754943598,540.55855308496484,-447.86699579447753,-132.09694885141761,1511.0244860355961,-892.84623953426035,727.79474884332285,-727.79474884332285,892.84623953426035,3010.3814663030726,0.0
693204.59901257406,4082374.0504322448,-12500.0,-1553.7404848564295,1200.6079999578083,-909.08451384666193,478.09522261655036,-356.11986878912262,-107.32574714494697,1326.5505740134377,-933.46336639236131,698.5733938337163,-698.5733938337163,933.46336639236131,2639.2849286120681,0.0
698204.59901257406,4082374.0504322448,-12500.0,-1480.7586255761983,1020.1376570382448,-719.58459299417348,418.34036777549568,-283.24786529307022,-87.009000770494026,1166.5098183611472,-929.31478834696566,649.22172953244205,-649.22172953244205,929.31478834696566,2312.7460884484217,0.0
703204.59901257406,4082374.0504322448,-12500.0,-1387.811500763484,863.61196895418948,-573.50845936264943,363.74605688795754,-225.77066115218085,-70.562103850151004,1026.1795523477458,-897.70159719868786,591.35426671812854,-591.35426671812854,897.70159719868786,2028.0342407099372,0.0
708204.59901257406,4082374.0504322448,-12500.0,-1286.3108308278356,730.10913478178406,-460.63910894761256,315.21120312172548,-180.55979508007093,-57.339812981548874,903.73729354625607,-850.40621508451216,531.82017012995755,-531.82017012995755,850.40621508451216,1781.1330133279153,0.0
713204.59901257406,4082374.0504322448,-12500.0,-1183.4568479403806,617.37532039908467,-373.04608033050334,272.78166310091336,-144.99632312301966,-46.741236889981757,797.30654318897575,-795.23113393982192,474.4402934499152,-474.4402934499152,795.23113393982192,1567.6222723608303,0.0
718204.59901257406,4082374.0504322448,-12500.0,-1083.5965954624523,522.71927244929554,-304.68263010659967,236.07155727567678,-116.96996770235246,-38.248579150917642,704.96921581614538,-737.20640301002925,421.16692545578655,-421.16692545578655,737.20640301002925,1383.1720232628581,0.0
723204.59901257406,4082374.0504322448,-12500.0,-989.18786115592013,443.46662087296323,-250.97929752790162,204.50615188949803,-94.816166444015465,-31.433724447416559,624.89406754477136,-679.4729373416983,372.83046688374014,-372.83046688374014,679.4729373416983,1223.784748414703,0.0
533204.59901257406,4087374.0504322448,-12500.0,-265.26459308674424,-474.94235325303958,-363.66497040705616,-87.423369708758386,-118.53331482781174,-19.149123218088075,491.56947772597141,-35.487018525560586,-540.33073992312461,540.33073992312461,35.487018525560586,914.47416994216178,0.0
538204.59901257406,4087374.0504322448,-12500.0,-213.09431557885344,-524.02972068785914,-430.51624397489513,-86.922721571228394,-138.33213976543303,-21.384030225675211,551.30922355469806,29.370547889757916,-625.48600610648168,625.48600610648168,-29.370547889757916,1014.6933596596454,0.0
543204.59901257406,4087374.0504322448,-12500.0,-132.22693041152229,-571.65624722415123,-510.13723541587939,-81.357607563040759,-160.60673052687355,-23.350329042559366,620.42804055313172,119.56903972953774,-721.28970177306383,721.28970177306383,-119.56903972953774,1128.4632223308231,0.0
548204.59901257406,4087374.0504322448,-12500.0,-12.387384945199795,-612.82208794851283,-603.73730392886262,-67.783870503026876,-184.77611572094011,-24.569544372959001,701.18911970810507,242.69528772005964,-826.09354168528421,826.09354168528421,-242.69528772005964,1259.1674016016491,0.0
553204.59901257406,4087374.0504322448,-12500.0,159.58263006519533,-639.33464349467647,-711.3336404423211,-41.888421250695004,-209.37244391123099,-24.210237697461647,796.94685045645065,407.80768253954045,-935.49839791918464,935.49839791918464,-407.80768253954045,1412.5252241880551,0.0
558204.59901257406,4087374.0504322448,-12500.0,399.97491891831748,-638.2754003946784,-830.35067564276687,2.5348650997884388,-231.35629337631624,-20.869879866018131,912.92329238710238,625.02762404663315,-1040.3847338308976,1040.3847338308976,-625.02762404663315,1598.6926616264632,0.0
563204.59901257406,4087374.0504322448,-12500.0,727.92240028150127,-589.98845819998974,-953.14593995674659,74.20791785805622,-245.00069524815069,-12.240891809382198,1057.5009556442624,904.33144267453986,-1123.8706069805178,1123.8706069805178,-904.33144267453986,1835.8711818185973,0.0
568204.59901257406,4087374.0504322448,-12500.0,1163.9557027469814,-465.71521567603531,-1062.8340980569405,184.98793098803213,-240.13463304494442,5.3810400829201015,1244.2106391643333,1252.8923962512768,-1156.8452454170483,1156.8452454170483,-1252.8923962512768,2155.7628208535498,0.0
573204.59901257406,4087374.0504322448,-12500.0,1726.4230330406992,-225.39580408153205,-1126.5925228627646,350.21189566207772,-199.50461159801631,37.777345046526868,1494.4119129781243,1670.0119944767027,-1091.875435401573,1091.875435401573,-1670.0119944767027,2610.2204498434162,0.0
578204.59901257406,4087374.0504322448,-12500.0,2424.3638445549195,183.03486759667283,-1085.631807569278,588.17681879849397,-95.080715137143514,93.651584822881716,1840.2149722320398,2138.4312234726735,-855.85756157103594,855.85756157103594,-2138.4312234726735,3276.7333494718637,0.0
583204.59901257406,4087374.0504322448,-12500.0,3245.1756738129748,820.10932819498339,-841.59345163907642,917.63868353281964,116.53762133061002,185.45935709683366,2326.6156652042068,2610.9341432550495,-343.20508191399722,343.20508191399722,-2610.9341432550495,4259.5604104661707,0.0
588204.59901257406,4087374.0504322448,-12500.0,4135.8625672699745,1742.1430087537103,-241.03968159679798,1351.4723228697444,498.55915870646038,329.6962291913544,3011.751212793894,2992.2988270458468,585.77560176683346,-585.77560176683346,-2992.2988270458468,5684.651290628819,0.0
593204.59901257406,4087374.0504322448,-12500.0,4978.8218979105277,2971.7225286613316,935.7778069260022,1883.8767656144796,1135.2182792714418,545.46988518705029,3966.6676881987596,3119.9918884323624,2091.5627561868541,-2091.5627561868541,-3119.9918884323624,7686.5544246411437,0.0
598204.59901257406,4087374.0504322448,-12500.0,5569.215114841767,4441.214882336234,2966.2506344489848,2468.56477128297,2122.8770491223167,849.28744228354901,5291.2962523800252,2754.8650803001447,4309.1370248078128,-4309.1370248078128,-2754.8650803001447,10379.872981836466,0.0
603204.59901257406,4087374.0504322448,-12500.0,5615.795048981764,5900.9886680745403,6122.4693277200431,2988.5569575669883,3537.9949439367911,1243.5256130935782,7069.969747090061,1610.2189090896231,7239.261073458887,-7239.261073458887,-1610.2189090896231,13798.56586119299,0.0
608204.59901257406,4087374.0504322448,-12500.0,4817.7740012513696,6807.193657134434,10488.471899163549,3229.9368370786137,5363.1112819558912,1698.1530197827813,9171.7216140578694,-521.09088001798864,10543.853208773391,-10543.853208773391,521.09088001798864,17781.43127250941,0.0
613204.59901257406,4087374.0504322448,-12500.0,3102.1031757497581,6293.2222407644686,15580.437380417672,2899.3546494429274,7360.9384252819955,2132.8772937525769,11281.667234395658,-3461.4892471412322,13271.497345110431,-13271.497345110431,3461.4892471412322,21801.960966302293,0.0
618204.59901257406,4087374.0504322448,-12500.0,1024.6266117693531,3507.7973205987796,19855.704229384533,1759.1288453219765,8949.2113250496022,2418.0497344296455,12842.14085570287,-6214.1664691090537,13786.528247270051,-13786.528247270051,6214.1664691090537,24834.937734855226,0.0
623204.59901257406,4087374.0504322448,-12500.0,-70.990748367126827,-1399.1875281807163,20765.201104896129,-81.498733650093968,9275.4114186129482,2413.9693533160871,13155.6706920856,-6941.3467115031517,10559.371591153953,-10559.371591153953,6941.3467115031517,25544.817214613024,0.0
628204.59901257406,4087374.0504322448,-12500.0,1002.3043811453069,-6310.7519184391276,16452.819069859415,-1932.4165502521221,7754.5040190790187,2049.361794497579,11909.551956251313,-4309.3775307488295,4044.549972550175,-4044.549972550175,4309.3775307488295,23123.875662897688,0.0
633204.59901257406,4087374.0504322448,-12500.0,3562.4960285432762,-8283.4204495831927,8315.3694622841485,-2865.1962290235947,4805.456538633759,1401.4437511552289,9711.2668479107178,476.1183386857557,-2514.4523598942305,2514.4523598942305,-476.1183386857557,18365.228279036804,0.0
638204.59901257406,4087374.0504322448,-12500.0,5385.5541099530656,-6586.7968464881878,412.09300304519968,-2563.3372516341524,1712.6099121023317,682.01381423567625,7507.0895988339607,4350.024579922916,-5895.0160269897497,5895.0160269897497,-4350.024579922916,13495.725315465555,0.0
643204.59901257406,4087374.0504322448,-12500.0,5242.7454824665456,-3156.3369808224261,-4419.4428676210537,-1529.88998860783,-486.58684050006661,96.398166668354648,5985.4336128504583,5602.8324294581107,-5848.779057693595,5848.779057693595,-5602.8324294581107,10379.652071648376,0.0
648204.59901257406,4087374.0504322448,-12500.0,3676.3535353838188,-68.305985288052028,-6143.7759651897177,-432.46633014247953,-1593.9392921125188,-269.99721423133684,5137.8559345807644,4786.0109326385891,-4100.1497425702792,4100.1497425702792,-4786.0109326385891,9025.0738575889936,0.0
653204.59901257406,4087374.0504322448,-12500.0,1735.8932558632143,1873.9054348323077,-6005.8290735581268,376.44352183382443,-1916.6528629213449,-439.68371230536604,4591.3057671046199,3156.1052893080841,-2159.1764995936883,2159.1764995936883,-3156.1052893080841,8354.9419793765828,0.0
658204.59901257406,4087374.0504322448,-12500.0,78.899513095372996,2770.4558718955736,-5108.7701140616209,842.9003466390285,-1821.7523862460969,-477.71786128964709,4108.0203009533834,1561.7138836448758,-671.95685602805668,671.95685602805668,-1561.7138836448758,7710.2696115495282,0.0
663204.59901257406,4087374.0504322448,-12500.0,-1087.0827099211538,2983.6234529604726,-4065.9838443764379,1043.9187291691806,-1560.9747891986251,-445.3845548488614,3629.1862506452389,333.99961622479782,272.44988138469228,-272.44988138469228,-333.99961622479782,6962.933031219236,0.0
668204.59901257406,4087374.0504322448,-12500.0,-1795.2039319234448,2831.0317402196283,-3132.689485805301,1076.8608105958617,-1268.2740350131005,-384.36219150159184,3165.219723007634,-490.49048327087598,789.47072500168065,-789.47072500168065,490.49048327087598,6165.6296768648599,0.0
673204.59901257406,4087374.0504322448,-12500.0,-2156.650834249318,2519.4431029075381,-2379.6251550847946,1018.2699890084249,-1001.8448848394278,-317.87912398032267,2735.6336150525085,-986.16907803701781,1022.3252545012739,-1022.3252545012739,986.16907803701781,5385.6549556441005,0.0
678204.59901257406,4087374.0504322448,-12500.0,-2283.6624097082004,2164.2931895243482,-1800.929941751036,918.03595971901302,-780.18332355121174,-256.75018624831887,2352.8090520049627,-1246.8423556870407,1084.5620874273195,-1084.5620874273195,1246.8423556870407,4665.8193935241488,0.0
683204.59901257406,4087374.0504322448,-12500.0,-2264.5598137008697,1822.5640883728322,-1366.4655004686667,805.15376177266069,-603.90616461644106,-204.81116332318729,2022.8712098233439,-1352.2613093766186,1052.8595314048002,-1052.8595314048002,1352.2613093766186,4025.3490065527112,0.0
688204.59901257406,4087374.0504322448,-12500.0,-2161.407084484656,1518.1620177157147,-1043.4214552762653,694.88683856112243,-466.97461080008998,-162.48127919735208,1745.4308788637757,-1361.1160816978986,974.75959511794588,-974.75959511794588,1361.1160816978986,3468.1511891368023,0.0
693204.59901257406,4087374.0504322448,-12500.0,-2014.9991851555621,1257.8376145409477,-803.66290722332542,594.31345047628986,-361.83414886167543,-128.75575851513264,1509.1679383125784,-1313.4912443690271,878.05002542416537,-878.05002542416537,1313.4912443690271,2989.8559214180923,0.0
698204.59901257406,4087374.0504322448,-12500.0,-1850.8712490905025,1040.2132527513509,-625.20627086908712,505.96691812660504,-281.47663538718399,-102.20204235808411,1307.1470105186318,-1235.5094141317916,778.10992407862693,-778.10992407862693,1235.5094141317916,2582.3713360683532,0.0
703204.59901257406,4087374.0504322448,-12500.0,-1684.2986183876048,860.57818815642736,-491.61294468848865,430.0290441931931,-220.08323482087059,-81.405790166661205,1134.8747315518742,-1143.5991277242649,682.88494939041038,-682.88494939041038,1143.5991277242649,2236.4897727026741,0.0
708204.59901257406,4087374.0504322448,-12500.0,-1523.9224984114057,713.28068429875123,-390.84973932268974,365.57491814471496,-173.07098313354928,-65.138074490541641,988.2074444460693,-1047.7399520559864,596.02244095380502,-596.02244095380502,1047.7399520559864,1943.2191699482735,0.0
713204.59901257406,4087374.0504322448,-12500.0,-1374.2328633709317,592.84186970738256,-314.19391856613083,311.25137034191926,-136.92914377443219,-52.394597503793548,863.33924564418658,-953.74947331260967,518.77675969960853,-518.77675969960853,953.74947331260967,1694.4038451204926,0.0
718204.59901257406,4087374.0504322448,-12500.0,-1237.1892671465616,494.40255090611134,-255.33976750076465,265.6242572494902,-109.00640097249079,-42.380804267199153,756.89788643080738,-864.81433300234028,451.1297780734327,-451.1297780734327,864.81433300234028,1482.9333036170406,0.0
723204.59901257406,4087374.0504322448,-12500.0,-1113.2557988610463,413.84554215318838,-209.72223098117885,227.34334004768198,-87.313647024335125,-34.47896743829542,665.97178862830754,-782.49069210951041,392.43578914683997,-392.43578914683997,782.49069210951041,1302.7477425814536,0.0
528204.59901257406,4092374.0504322448,-12500.0,-477.65196100433712,-471.38644816563891,-289.95783958973152,-120.78599427880785,-108.50839190499191,-22.132643962187196,496.00304283130924,-217.15659237898552,-461.74266925258718,461.74266925258718,217.15659237898552,950.22848122878929,0.0
533204.59901257406,4092374.0504322448,-12500.0,-477.37107470698959,-536.19626837027306,-346.57358379032621,-131.68760105125452,-129.31634112031216,-25.924784007361737,558.2044619384053,-192.75553636501294,-545.30147639724748,545.30147639724748,192.75553636501294,1061.4028597126339,0.0
538204.59901257406,4092374.0504322448,-12500.0,-461.05039193536999,-608.36499442861884,-416.45056764534502,-141.50923612174256,-154.26242495177956,-30.212900493605861,629.8959037422826,-151.48174912289957,-644.77501313304492,644.77501313304492,151.48174912289957,1187.5116800521851,0.0
543204.59901257406,4092374.0504322448,-12500.0,-420.84934345695774,-686.87443307081583,-502.65021152842405,-148.66810859151215,-183.89834457843796,-34.892225428948869,712.72537636636821,-86.604543800056433,-762.33854285549569,762.33854285549569,86.604543800056433,1330.555444030218,0.0
548204.59901257406,4092374.0504322448,-12500.0,-345.82929921526596,-769.06217742228148,-608.5703254557128,-150.59288069687295,-218.5495802832601,-39.682371260208861,808.73653511611656,10.873993262143017,-899.54541417872508,899.54541417872508,-10.873993262143017,1492.9475707129484,0.0
553204.59901257406,4092374.0504322448,-12500.0,-220.96450920443627,-849.4696772506669,-737.54109954223372,-143.20252586076626,-257.97275580354716,-43.982291772227406,920.60106668588128,152.72099584848092,-1056.3409611624998,1056.3409611624998,-152.72099584848092,1677.9647986647976,0.0
558204.59901257406,4092374.0504322448,-12500.0,-26.054578979024949,-918.05163814552611,-891.87007032176416,-120.15413799891033,-300.71425180069883,-46.623800250142018,1052.0926355620893,353.81129131688294,-1229.2732163464493,1229.2732163464493,-353.81129131688294,1890.8477127308201,0.0
563204.59901257406,4092374.0504322448,-12500.0,265.21292027578306,-957.50312057761164,-1070.8396137888831,-71.805290070117593,-342.95291885294438,-45.462374090326669,1209.0511989479064,631.93256856969015,-1408.3869766340024,1408.3869766340024,-631.93256856969015,2141.3154341301456,0.0
568204.59901257406,4092374.0504322448,-12500.0,685.48176387559874,-939.50340683427032,-1266.8133867007598,16.11334411930779,-376.48366759236632,-36.718905992757662,1401.2833779093958,1006.3384356691477,-1572.075194019988,1572.075194019988,-1006.3384356691477,2448.8936332193762,0.0
573204.59901257406,4092374.0504322448,-12500.0,1272.1042212245659,-819.94023082451633,-1458.1168252976256,163.96533392242313,-385.34006837836552,-13.967665534928543,1646.0676537620757,1493.7758964336713,-1679.0068038312438,1679.0068038312438,-1493.7758964336713,2853.0418979865449,0.0
578204.59901257406,4092374.0504322448,-12500.0,2061.7266209384388,-533.9385709532886,-1596.8257803373886,399.3035654091687,-340.41974665038316,33.311801219478227,1973.9318750300743,2099.9864288361646,-1656.4252148314986,1656.4252148314986,-2099.9864288361646,3429.2373001440451,0.0
583204.59901257406,4092374.0504322448,-12500.0,3078.1671483965783,6.8249638886008279,-1589.4010797102185,756.35569218205467,-191.53689297271055,121.55399693627822,2436.577662873116,2804.0317556874024,-1385.1670439368581,1385.1670439368581,-2804.0317556874024,4307.4332921886289,0.0
588204.59901257406,4092374.0504322448,-12500.0,4310.0217244092437,909.0629752548133,-1269.1131632494241,1271.3968585988698,143.01791557679448,274.78554259613139,3115.0957745194055,3532.8918512366008,-684.5874113590944,684.5874113590944,-3532.8918512366008,5682.1341891439079,0.0
593204.59901257406,4092374.0504322448,-12500.0,5674.9754128817567,2275.1291582610852,-362.85598770048438,1969.6520371467755,787.28892984667834,524.59412677285513,4127.3610569813618,4125.7675963779602,693.70263737684331,-693.70263737684331,-4125.7675963779602,7804.5754938826949,0.0
598204.59901257406,4092374.0504322448,-12500.0,6970.4749077805582,4146.2069667220085,1536.6889649220332,2837.2704106170099,1911.8336863959346,904.86654595420498,5653.937927492083,4292.8199484674005,3044.1204998156354,-3044.1204998156354,-4292.8199484674005,10956.60293774367,0.0
603204.59901257406,4092374.0504322448,-12500.0,7818.9131281497803,6383.681490081759,4962.8736294632918,3771.1155902930814,3713.7210413805733,1435.5693417758168,7958.7409177294958,3586.8782534516949,6616.7305071237179,-6616.7305071237179,-3586.8782534516949,15393.7076733186,0.0
608204.59901257406,4092374.0504322448,-12500.0,7652.5086221178926,8445.204832285277,10439.638153753014,4505.4053728424915,6333.388033234839,2091.5042681709124,11066.347563874573,1455.6080087349737,11364.931692428323,-11364.931692428323,-1455.6080087349737,21198.773515192133,0.0
613204.59901257406,4092374.0504322448,-12500.0,5910.7148537137527,9066.2870403117486,17969.81017476918,4548.4672387162018,9637.8926287629201,2765.9081042966804,14668.505224577266,-2415.3971439205825,16372.043228359005,-16372.043228359005,2415.3971439205825,27938.510725138629,0.0
618204.59901257406,4092374.0504322448,-12500.0,2792.3425625090563,6267.7472868316727,25801.593640037794,3270.4361437097946,12823.685807830352,3261.5170971817583,17910.528218997457,-7133.0540428239128,19042.722967286667,-19042.722967286667,7133.0540428239128,34090.062836318364,0.0
623204.59901257406,4092374.0504322448,-12500.0,411.05104083741395,-1030.6031275073426,29125.388199232399,441.60411428729157,14118.850625067547,3332.4340253286873,19227.156973457153,-9433.0904817155388,15471.611449897209,-15471.611449897209,9433.0904817155388,36755.399071728745,0.0
628204.59901257406,4092374.0504322448,-12500.0,1912.4731043737731,-9417.1659144866353,22513.724237602459,-2778.1343740378775,11677.260059852601,2781.5228026265891,17334.900022035781,-5436.5235222916554,4823.3306996952224,-4823.3306996952224,5436.5235222916554,33249.686095529563,0.0
633204.59901257406,4092374.0504322448,-12500.0,6312.1130629507243,-11883.068985223828,8240.6660518141216,-4127.9207182062537,6163.9953192581424,1694.4780904011873,13405.309298350299,2811.8073698509215,-5873.2098426387711,5873.2098426387711,-2811.8073698509215,24953.414833966515,0.0
638204.59901257406,4092374.0504322448,-12500.0,8335.8814610515601,-7365.2312404250843,-3826.05682388075,-3008.548411410964,895.15872941254361,536.55909321723493,9965.6663469964133,8014.5668248680522,-9373.9206275507786,9373.9206275507786,-8014.5668248680522,17498.148664951714,0.0
643204.59901257406,4092374.0504322448,-12500.0,6450.9973647548977,-1357.1781031504247,-8892.5600634221282,-986.47080025391381,-2059.3241131121044,-287.41241462232915,8088.0889887698722,7859.2893480601915,-7121.3041603848296,7121.3041603848296,-7859.2893480601915,14092.812424101789,0.0
648204.59901257406,4092374.0504322448,-12500.0,3050.8640569311228,2562.1649235891696,-9124.2782092341713,615.96987241609509,-3005.9710340679544,-702.83907538176163,7080.766153259834,5122.2003316514256,-3574.3866983902212,3574.3866983902212,-5122.2003316514256,12828.188346652547,0.0
653204.59901257406,4092374.0504322448,-12500.0,87.527724570868529,4217.6128555139985,-7537.2593687137951,1494.6607401817885,-2909.1488797723673,-819.29168473256732,6244.7948253704371,2272.5339709323553,-882.81970444257524,882.81970444257524,-2272.5339709323553,11726.109462510081,0.0
658204.59901257406,4092374.0504322448,-12500.0,-1870.4407604830958,4489.89364967445,-5707.6354359406969,1817.9806401860965,-2437.9076120995351,-771.70091990588003,5414.6471231794721,191.18775534672616,678.81968289213921,-678.81968289213921,-191.18775534672616,10410.098329816177,0.0
663204.59901257406,4092374.0504322448,-12500.0,-2936.1848254003098,4118.6748781564884,-4169.2899957658892,1816.9256721053623,-1913.4588289564276,-657.85598507084705,4619.5824681191061,-1083.6016718488731,1419.1072017434722,-1419.1072017434722,1083.6016718488731,9016.5863140511883,0.0
668204.59901257406,4092374.0504322448,-12500.0,-3383.1499422567977,3527.0542621080162,-3009.5429844904629,1660.213519484545,-1455.4837552950792,-532.16102272870785,3901.9135126725319,-1757.3128150673763,1670.8005375641385,-1670.8005375641385,1757.3128150673763,7690.7172397311051,0.0
673204.59901257406,4092374.0504322448,-12500.0,-3452.0666553781093,2917.1260175715192,-2173.7510367036757,1447.4607209576936,-1091.8810206757648,-418.71652385004035,3282.1983691945165,-2041.7357877296145,1664.7744349283648,-1664.7744349283648,2041.7357877296145,6507.5830924090287,0.0
678204.59901257406,4092374.0504322448,-12500.0,-3311.7612549187388,2370.503451796736,-1581.8388231836595,1230.091406457344,-815.6909367575953,-325.02923458482672,2763.7280939220004,-2094.7341837220733,1538.430431743996,-1538.430431743996,2094.7341837220733,5489.9612588922528,0.0
683204.59901257406,4092374.0504322448,-12500.0,-3068.8940765589678,1910.7213260869196,-1164.1620189152995,1031.1923287207742,-610.19389883212068,-251.03758269283912,2335.3074456751128,-2020.2551690860942,1366.9168619413358,-1366.9168619413358,2020.2551690860942,4632.5703913244979,0.0
688204.59901257406,4092374.0504322448,-12500.0,-2786.5524870433201,1536.1540582350669,-868.29957308840346,858.80758338678038,-458.55650589864769,-193.91724553593028,1979.6936795065196,-1882.3400746072884,1188.5854560578218,-1188.5854560578218,1882.3400746072884,3918.0228566981218,0.0
693204.59901257406,4092374.0504322448,-12500.0,-2499.9746181782257,1235.9412188447493,-657.03439853514681,713.67988524863949,-346.80652522756094,-150.28869209647735,1684.1616626225079,-1718.650341242148,1021.3752947960561,-1021.3752947960561,1718.650341242148,3325.4496283456892,0.0
698204.59901257406,4092374.0504322448,-12500.0,-2227.509834159303,997.14932360236867,-504.59769185464143,593.40512090030552,-264.22222974552835,-117.08243528932026,1438.604293414264,-1550.3768298080627,872.40933100695702,-872.40933100695702,1550.3768298080627,2834.6072846737738,0.0
703204.59901257406,4092374.0504322448,-12500.0,-1977.6458613202508,807.690091964158,-393.3099325107865,494.52412525751481,-202.87576201727765,-91.788640618870289,1234.3559607712987,-1388.7816539439984,743.34610993681576,-743.34610993681576,1388.7816539439984,2427.5449224730619,0.0
708204.59901257406,4092374.0504322448,-12500.0,-1753.313034344254,657.28339657763456,-311.04868410518202,413.502405949447,-157.0070457852257,-72.455521961454991,1064.0656951538913,-1239.3001796126041,633.26658421812533,-633.26658421812533,1239.3001796126041,2089.0520126769075,0.0
713204.59901257406,4092374.0504322448,-12500.0,-1554.4461012044885,537.57954502949678,-249.46709396937911,347.14018309131097,-122.46111448605721,-57.603596417561043,921.61737395788248,-1104.0393927974362,540.18669274073977,-540.18669274073977,1104.0393927974362,1806.5558510914746,0.0
718204.59901257406,4092374.0504322448,-12500.0,-1379.4752694652557,441.9583181163004,-202.77759903624511,292.7036907758727,-96.244473177683489,-46.125503810326094,801.99137647341797,-983.27103811163215,461.82137185529064,-461.82137185529064,983.27103811163215,1569.8045274943199,0.0
723204.59901257406,4092374.0504322448,-12500.0,-1226.1742097894914,365.23696134529177,-166.93259420771892,247.92890282901095,-76.19547520962044,-37.196769409725832,701.10104388095658,-876.30980504438014,395.94894382221503,-395.94894382221503,876.30980504438014,1370.4974851394791,0.0
528204.59901257406,4097374.0504322448,-12500.0,-676.26236884085574,-495.96235986346335,-260.20940952464264,-159.77845782199449,-111.57549782413388,-27.737457965236825,556.66729838475987,-371.63605767841091,-432.52131181497612,432.52131181497612,371.63605767841091,1084.3129832857139,0.0
533204.59901257406,4097374.0504322448,-12500.0,-714.78270245945009,-574.70009157130562,-313.58931004417451,-180.58597255457019,-135.02198255991803,-33.317473358668856,631.27682283411286,-375.82671034573855,-519.10035423212571,519.10035423212571,375.82671034573855,1222.8323364406651,0.0
538204.59901257406,4097374.0504322448,-12500.0,-745.28328375376395,-666.60671295840382,-380.94610218806599,-203.10621778662704,-164.00870208231822,-40.03206976197287,718.12010682686605,-368.35661234202655,-625.33482113910452,625.33482113910452,368.35661234202655,1382.2872771523096,0.0
543204.59901257406,4097374.0504322448,-12500.0,-761.20638775666544,-772.95598417077588,-466.33211801208631,-226.54382065337683,-199.78475900526411,-48.017883040531366,819.332289791618,-342.92588798885572,-755.57785233245932,755.57785233245932,342.92588798885572,1565.687950044816,0.0
548204.59901257406,4097374.0504322448,-12500.0,-752.68106562348135,-894.20163836842255,-574.86094112998512,-249.27847891026769,-243.70808860686199,-57.323128574600396,937.36778489259927,-290.49952416379898,-914.66025030134301,914.66025030134301,290.49952416379898,1776.1992878168767,0.0
553204.59901257406,4097374.0504322448,-12500.0,-705.08023928248963,-1029.0187335796111,-712.75136603887643,-268.3053954980374,-297.04572303942331,-67.783561363116689,1075.0307849725223,-198.30462161100439,-1107.3836292815279,1107.3836292815279,198.30462161100439,2017.0288020085397,0.0
558204.59901257406,4097374.0504322448,-12500.0,-597.1063623579505,-1172.6231933873134,-887.04446142503843,-278.34897166144737,-360.50837958969197,-78.787531813614763,1235.5516621547476,-48.647270611889553,-1337.3302559220194,1337.3302559220194,48.647270611889553,2291.3899000767797,0.0
563204.59901257406,4097374.0504322448,-12500.0,-398.43554850518052,-1313.9380888892038,-1104.5442800540509,-270.49840321953587,-433.26904583821897,-88.845586062300896,1422.8321312002172,182.2433893839966,-1604.3880282444029,1604.3880282444029,-182.2433893839966,2602.8856913577324,0.0
568204.59901257406,4097374.0504322448,-12500.0,-67.226510812456368,-1431.0280656412415,-1369.085469321245,-230.19747536985753,-511.01552437423993,-94.828317336344554,1642.1870399891425,524.77023743591417,-1899.975672038031,1899.975672038031,-524.77023743591417,2957.2913542449564,0.0
573204.59901257406,4097374.0504322448,-12500.0,451.59744029062085,-1484.2014695795131,-1675.4558928749871,-134.48672440201841,-582.27134294985024,-90.67050769619388,1902.3797617263569,1014.6420298154065,-2198.4030427658504,2198.4030427658504,-1014.6420298154065,3368.2219876070362,0.0
578204.59901257406,4097374.0504322448,-12500.0,1225.2581361720274,-1406.6155433420786,-1997.1153643970613,51.312341812047826,-621.7795773064604,-65.288609797620978,2220.6806389282201,1687.1893248634021,-2442.3001300527158,2442.3001300527158,-1687.1893248634021,3872.2097700269255,0.0
583204.59901257406,4097374.0504322448,-12500.0,2325.5097494339752,-1093.7766182065109,-2263.4779002681994,376.51337834216434,-579.29010266362252,0.48033847244779371,2634.0662549936633,2563.2678600838549,-2520.2471389174011,2520.2471389174011,-2563.2678600838549,4562.4662269224746,0.0
588204.59901257406,4097374.0504322448,-12500.0,3809.1108857027675,-396.90586603903193,-2322.0091380931945,905.00822480565671,-362.02724225055925,137.67779056465639,3220.355407982669,3621.5660879032093,-2237.0322459558929,2237.0322459558929,-3621.5660879032093,5646.5007203948544,0.0
593204.59901257406,4097374.0504322448,-12500.0,5680.9998078193194,869.21297362848452,-1882.9662684169914,1706.9694182372973,189.65929741248277,392.13423913596682,4131.0542987494355,4753.4549325800235,-1282.9169670431161,1282.9169670431161,-4753.4549325800235,7503.1074479186518,0.0
598204.59901257406,4097374.0504322448,-12500.0,7836.8629186276485,2888.0460260919413,-451.20870557212282,2833.5951506183023,1330.0245011145403,821.50832844929175,5651.3767088172845,5700.6832317293083,783.48589747261303,-783.48589747261303,-5700.6832317293083,10685.53599316568,0.0
603204.59901257406,4097374.0504322448,-12500.0,9974.9750734497029,5750.0203709541192,2747.3969435880813,4262.4905944769826,3427.0311130048235,1475.9614782336414,8339.5482003296511,5972.7894483367045,4517.9713042064404,-4517.9713042064404,-5972.7894483367045,15873.630356047319,0.0
608204.59901257406,4097374.0504322448,-12500.0,11433.869360605206,9225.3855678443397,8827.2304855705479,5792.3571634667005,6937.5331092346896,2351.863913895329,12668.655773433742,4724.7165730142633,10470.170773175811,-10470.170773175811,-4724.7165730142633,23790.111365377961,0.0
613204.59901257406,4097374.0504322448,-12500.0,10992.92086708639,12106.343369048669,19018.608569567768,6841.3140043728026,12207.546713368754,3338.0951957803791,18700.663958761452,737.31185163545706,18564.895428306576,-18564.895428306576,-737.31185163545706,34808.292559606183,0.0
618204.59901257406,4097374.0504322448,-12500.0,7411.1373790106227,10973.987020502529,32828.728879196118,6166.1431001484525,18694.536713620353,4223.8285227367733,25602.703519080769,-6468.4220468340372,25998.11641484929,-25998.11641484929,6468.4220468340372,47550.319181820145,0.0
623204.59901257406,4097374.0504322448,-12500.0,2452.2614114174785,834.5061191734535,42837.784593913937,2158.332645602814,23190.105518949258,4694.0061261828623,30194.817005917401,-12697.698069582926,24332.216532451013,-24332.216532451013,12697.698069582926,56346.155607093402,0.0
628204.59901257406,4097374.0504322448,-12500.0,4093.3650723241431,-15075.232367002211,32875.155198795081,-4098.5562084690291,19416.698136066338,4026.4762644741122,27602.022198141796,-6875.4327567856499,5776.3750490494285,-5776.3750490494285,6875.4327567856499,51899.209800215882,0.0
633204.59901257406,4097374.0504322448,-12500.0,12261.519971181562,-17387.780851835418,4754.6625501178487,-5976.7603235111019,7502.8582948016447,1931.4689931048156,19620.220883672995,8806.0416907275558,-13185.679930013737,13185.679930013737,-8806.0416907275558,35616.920841492982,0.0
638204.59901257406,4097374.0504322448,-12500.0,12361.591890100332,-5670.4032112458435,-12842.840335984181,-2387.5264369103074,-1785.1596904291309,-50.848469245411444,14136.405648248568,13887.457595141221,-13737.618346955014,13737.618346955014,-13887.457595141221,24486.837653570445,0.0
643204.59901257406,4097374.0504322448,-12500.0,5796.4404329964591,3550.9921805184545,-15003.629598148977,1206.0123118147337,-4897.8833198106386,-1077.5209140147674,11787.794913814325,9049.6735685474196,-6532.0005092259807,6532.0005092259807,-9049.6735685474196,21238.530952540772,0.0
648204.59901257406,4097374.0504322448,-12500.0,-142.43172239590649,6900.7010632687188,-11752.753128397077,2956.3411375798255,-4865.9669044391294,-1404.1218365783307,10113.356422655097,3312.3882630047046,-1072.763014821491,1072.763014821491,-3312.3882630047046,19022.475742099596,0.0
653204.59901257406,4097374.0504322448,-12500.0,-3604.8844905712563,7091.5742533805278,-8208.4698359355207,3412.149604588164,-3927.5931592164266,-1354.2193249204913,8499.9064105242051,-449.4131687054296,1630.3948072397116,-1630.3948072397116,449.4131687054296,16391.984501966537,0.0
658204.59901257406,4097374.0504322448,-12500.0,-5153.8234375704687,6151.0708881428363,-5541.8860687155238,3235.4630270286248,-2935.0016526023373,-1147.4841252645704,7019.6744328192399,-2415.7582600621272,2628.3573559056767,-2628.3573559056767,2415.7582600621272,13729.910567036844,0.0
663204.59901257406,4097374.0504322448,-12500.0,-5571.8282744328399,4984.623278980901,-3728.4534054289538,2818.1080527039771,-2124.947803412475,-909.72147600410347,5747.9426894385633,-3243.1351183504212,2783.9092852445556,-2783.9092852445556,3243.1351183504212,11333.581798826766,0.0
668204.59901257406,4097374.0504322448,-12500.0,-5402.9469099839898,3920.3139639294491,-2532.9615249055369,2353.5925105293782,-1521.5170562357159,-696.96523825706049,4699.3531746097497,-3437.6989203995959,2578.9319129565124,-2578.9319129565124,3437.6989203995959,9303.0533313713549,0.0
673204.59901257406,4097374.0504322448,-12500.0,-4967.4214028204151,3045.4987513660658,-1748.6011795933157,1924.7294781179476,-1088.8387489469492,-525.58526104223836,3853.2391188230476,-3312.0886472527682,2251.0853658531951,-2251.0853658531951,3312.0886472527682,7634.7159755682133,0.0
678204.59901257406,4097374.0504322448,-12500.0,-4439.1776749002947,2358.2007278153251,-1230.3985468816149,1559.0788298913999,-783.16387471664689,-394.35784333712576,3174.6632731514583,-3043.2107174167045,1908.3551735579999,-1908.3551735579999,3043.2107174167045,6284.3811855691438,0.0
683204.59901257406,4097374.0504322448,-12500.0,-3906.5586914106507,1829.0621640924917,-883.68249640729005,1259.2782340321376,-567.85950155218723,-296.28909756733577,2629.9786743525651,-2725.7761468516201,1594.783136760354,-1594.783136760354,2725.7761468516201,5198.0354433909824,0.0
688204.59901257406,4097374.0504322448,-12500.0,-3410.5677692008744,1424.9033279526268,-648.08029525884103,1018.2370573876067,-415.69239872189115,-223.73265405510142,2191.8121986422939,-2407.7408754098815,1324.4394310215753,-1324.4394310215753,2407.7408754098815,4324.7580413143332,0.0
693204.59901257406,4097374.0504322448,-12500.0,-2967.1016803134316,1116.5918399156649,-485.25782840681381,826.17491092639659,-307.40427716408931,-170.15401043718219,1838.1898574314957,-2111.4460940295066,1098.1836746266645,-1098.1836746266645,2111.4460940295066,3621.1043791602774,0.0
698204.59901257406,4097374.0504322448,-12500.0,-2579.331636048837,880.80542578766062,-370.75205104036843,673.57762286910065,-229.6651268740988,-130.47733116600827,1551.5431664728667,-1845.6359569428084,911.66159404184486,-911.66159404184486,1845.6359569428084,3051.7265299043811,0.0
703204.59901257406,4097374.0504322448,-12500.0,-2244.4061875888324,699.63972161691697,-288.79925139370965,552.23845902337939,-173.31583079143664,-100.93092939710267,1317.9632276245848,-1612.1104149979021,758.98119036442654,-758.98119036442654,1612.1104149979021,2588.5505379588626,0.0
708204.59901257406,4097374.0504322448,-12500.0,-1956.981316428386,559.6206231002019,-229.11718198107087,455.46151379631209,-132.06161602231933,-78.770347510318004,1126.522548070941,-1409.3339151559007,634.30315032971657,-634.30315032971657,1409.3339151559007,2209.5428597517157,0.0
713204.59901257406,4097374.0504322448,-12500.0,-1711.0206187112358,450.69561747264288,-184.90877332520674,377.93688142245549,-101.55672881373935,-62.016139580449469,968.66984802069476,-1234.3556182884197,532.44853169976568,-532.44853169976568,1234.3556182884197,1897.4977347738811,0.0
718204.59901257406,4097374.0504322448,-12500.0,-1500.6558350882337,365.38101754503282,-151.6171704617812,315.51339069105489,-78.779655803681877,-49.24299050229795,837.71442366806104,-1083.7960687979339,449.05684254805215,-449.05684254805215,1083.7960687979339,1638.98358258182,0.0
723204.59901257406,4097374.0504322448,-12500.0,-1320.5672993651579,298.09928820351706,-126.14461160967414,264.96834735035287,-61.612309732247489,-39.422384476317006,728.41445680382355,-954.33865178050507,380.55760239233939,-380.55760239233939,954.33865178050507,1423.4998277595462,0.0
528204.59901257406,4102374.0504322448,-12500.0,-884.52661211618431,-495.91561012389161,-221.17997592118746,-200.31673521122602,-109.5890079566971,-33.517330540254292,619.13704740760386,-538.3010307731447,-376.87921296973309,376.87921296973309,538.3010307731447,1222.267534167946,0.0
533204.59901257406,4102374.0504322448,-12500.0,-967.94049504241514,-583.11351622047027,-267.44158981985333,-232.20532541661964,-134.25754023952445,-41.048910893125829,707.70032151564806,-577.31368324483037,-458.94971941926525,458.94971941926525,577.31368324483037,1391.5593786160268,0.0
538204.59901257406,4102374.0504322448,-12500.0,-1054.3998724865603,-688.21783333213182,-326.7773191801125,-269.30141892885928,-165.47197164101689,-50.469947599418255,812.12963065480255,-612.75219001409221,-562.15905282626034,562.15905282626034,612.75219001409221,1589.8024594689969,0.0
543204.59901257406,4102374.0504322448,-12500.0,-1140.1016069457621,-814.79792231762372,-403.56933429984235,-312.00534831608223,-205.10009896569213,-62.238166214181362,935.53368043008925,-640.05480742985606,-692.43178508397773,692.43178508397773,640.05480742985606,1822.1732361306322,0.0
548204.59901257406,4102374.0504322448,-12500.0,-1218.3999495958142,-966.66872410208771,-503.75583387148379,-360.29295868071637,-255.47969643831669,-76.864705281015318,1081.5307070139536,-652.02072745942905,-857.22220532320125,857.22220532320125,652.02072745942905,2094.4248426438171,0.0
553204.59901257406,4102374.0504322448,-12500.0,-1278.187212993975,-1147.3736531681498,-635.30056646876778,-413.25032601193203,-319.42008507700587,-94.848218888318769,1254.2075634285982,-637.49903156645132,-1065.6273494941481,1065.6273494941481,637.49903156645132,2412.6034787507665,0.0
558204.59901257406,4102374.0504322448,-12500.0,-1301.476663083836,-1359.0498076878371,-808.64409404619926,-468.24857513495431,-400.03424002884566,-116.51179664617065,1457.9602578399695,-579.54448412543979,-1328.1259507312734,1328.1259507312734,579.54448412543979,2782.4338086849807,0.0
563204.59901257406,4102374.0504322448,-12500.0,-1259.9240784134165,-1600.1491764944442,-1036.8589772643309,-519.52347583024368,-500.1678401040428,-141.64617712151937,1697.1387075908781,-452.9810560763998,-1655.4099302934146,1655.4099302934146,452.9810560763998,3208.1933268509224,0.0
568204.59901257406,4102374.0504322448,-12500.0,-1110.1214162690551,-1861.1452626337295,-1334.8044737105315,-555.81477443109065,-620.94631880161739,-168.78353653192366,1975.4319650736802,-221.55649633806343,-2055.2450569143693,2055.2450569143693,221.55649633806343,3690.961988673615,0.0
573204.59901257406,4102374.0504322448,-12500.0,-787.93389122193128,-2116.9256217736897,-1715.657701827844,-556.630669504087,-758.49986234089522,-193.80282735722264,2295.0879039961965,164.46252469387105,-2525.3683378569258,2525.3683378569258,-164.46252469387105,4226.6362771072463,0.0
578204.59901257406,4102374.0504322448,-12500.0,-203.30953186648208,-2314.3340936228738,-2181.4035757341794,-486.77093388990443,-897.12735372785414,-207.40398156484127,2656.7058879663305,767.92823307366984,-3039.0454979234983,3039.0454979234983,-767.92823307366984,4806.095170480703,0.0
583204.59901257406,4102374.0504322448,-12500.0,760.61583353319577,-2354.2122223661086,-2700.8564936456655,-289.32496464430415,-995.95183620356011,-190.86696865751929,3062.4445743867427,1656.6470862836961,-3518.5410562209736,3518.5410562209736,-1656.6470862836961,5426.5469089048584,0.0
588204.59901257406,4102374.0504322448,-12500.0,2236.9760725596748,-2071.4346730215016,-3165.3075407609517,120.90845610021339,-964.76059886721521,-109.70328228839848,3531.4328977260943,2879.0848655133886,-3792.5698687809272,3792.5698687809272,-2879.0848655133886,6141.8901997875018,0.0
593204.59901257406,4102374.0504322448,-12500.0,4345.7996004828974,-1226.3816513397999,-3312.6191827980915,858.14600759308212,-624.37553635004542,93.907182404555641,4150.5504928895252,4416.4571719128826,-3542.1046963636027,3542.1046963636027,-4416.4571719128826,7215.1236054811843,0.0
598204.59901257406,4102374.0504322448,-12500.0,7153.3353915379103,469.02944642571731,-2625.8990319985405,2051.50602776812,350.34378424467752,504.67976451807829,5217.8317944293121,6120.6483256071506,-2257.6513990163012,2257.6513990163012,-6120.6483256071506,9406.0355459363418,0.0
603204.59901257406,4102374.0504322448,-12500.0,10657.906482594984,3296.9937970923629,-231.02888191274502,3813.154412827203,2503.9521755810524,1218.2534076974821,7651.9405138056463,7673.5300812416299,777.23370866134246,-777.23370866134246,-7673.5300812416299,14139.606248622758,0.0
608204.59901257406,4102374.0504322448,-12500.0,14737.192854233796,7541.2624707304767,5313.074636767542,6208.053262181078,6715.9952554726597,2285.4936316792437,12886.404309169859,8476.8213196098695,6618.2237291947904,-6618.2237291947904,-8476.8213196098695,23410.63869086502,0.0
613204.59901257406,4102374.0504322448,-12500.0,18410.258375850135,13192.474234342364,16789.546500570235,9130.4287438473475,14418.400937900009,3687.0926098278414,22174.187028479777,6870.1255921130723,16979.839526033189,-16979.839526033189,-6870.1255921130723,39892.67452536404,0.0
618204.59901257406,4102374.0504322448,-12500.0,18310.661410385226,16963.145303494875,38077.56337904586,11329.228611053997,27185.245312247585,5612.1673231053519,36366.725901750571,-676.19369834058307,31962.487024556496,-31962.487024556496,676.19369834058307,65333.02304259652,0.0
623204.59901257406,4102374.0504322448,-12500.0,11098.391395765933,7101.4511193090848,64289.68296247848,8054.7693322446121,42271.196015412752,8543.9204681493629,51569.962969337983,-14049.873189161952,39984.285528038577,-39984.285528038577,14049.873189161952,93156.890334917145,0.0
628204.59901257406,4102374.0504322448,-12500.0,9970.735640303501,-27030.009755990966,53258.376339478455,-6704.0545678400167,39114.758448145687,9124.7534019368813,51269.034314213124,-8471.3133740232843,6737.0076158252559,-6737.0076158252559,8471.3133740232843,93956.087663140701,0.0
633204.59901257406,4102374.0504322448,-12500.0,26624.545854954242,-23669.188050520392,-12666.201921415251,-8296.5839375579089,5647.6897148343978,2012.3891165770331,32095.323862748104,25759.998895970566,-30306.069498618468,30306.069498618468,-25759.998895970566,56261.635053181162,1.0
638204.59901257406,4102374.0504322448,-12500.0,13211.003065910909,4856.0565213526461,-28946.330549916547,3023.6588300438425,-9029.7495610436417,-1841.5818398112885,23198.069247751202,19111.509280439263,-14521.741049038312,14521.741049038312,-19111.509280439263,41376.621063974962,0.0
643204.59901257406,4102374.0504322448,-12500.0,-1748.2440137728461,12822.073680496842,-20103.630124020692,7085.285953407657,-8935.5151021192596,-2459.4032045603003,18504.686283752701,4476.7096314914925,-779.3478348547992,779.3478348547992,-4476.7096314914925,34752.311967230409,0.0
648204.59901257406,4102374.0504322448,-12500.0,-8136.9119726130075,11895.267993703705,-12072.186993769154,7151.7179447348517,-6556.2296612967411,-2353.0315955725891,14487.565658503871,-2866.2805597167517,4025.8022242448815,-4025.8022242448815,2866.2805597167517,27903.166028345157,0.0
653204.59901257406,4102374.0504322448,-12500.0,-9878.1707993700238,9323.2131040029017,-7184.7318906820092,6144.5278691698168,-4508.2802498451983,-1989.6761662406066,11267.8800586326,-5594.3173943098736,5000.5847012108534,-5000.5847012108534,5594.3173943098736,21982.768950755508,0.0
658204.59901257406,4102374.0504322448,-12500.0,-9670.2926759915954,6954.0613000094227,-4365.3842660127229,4978.8098307926211,-3045.6980899364198,-1557.4895186721385,8790.7910791578925,-6204.6014618927584,4660.3382870119785,-4660.3382870119785,6204.6014618927584,17268.275213856625,0.0
663204.59901257406,4102374.0504322448,-12500.0,-8734.9634567868034,5110.4117298003293,-2729.2487262357436,3929.4516048718092,-2055.0781585231816,-1167.0993530106791,6904.6692468407346,-5921.313164947841,3957.1015797565042,-3957.1015797565042,5921.313164947841,13609.97708276443,0.0
668204.59901257406,4102374.0504322448,-12500.0,-7604.3792982340437,3750.5339792436794,-1760.0761687551535,3066.8661461458719,-1395.9619367966029,-856.55909276257182,5468.7919663296279,-5307.4411323376553,3233.6354883104686,-3233.6354883104686,5307.4411323376553,10794.225229310057,0.0
673204.59901257406,4102374.0504322448,-12500.0,-6503.8915751147442,2765.8943247021166,-1171.6335910848027,2387.4183046849971,-958.52457500571165,-624.48824665313555,4371.1378380831884,-4617.0080337385498,2600.5702296728964,-2600.5702296728964,4617.0080337385498,8628.7881061605349,0.0
678204.59901257406,4102374.0504322448,-12500.0,-5519.1861343795717,2055.8009450316699,-804.9859521476302,1863.0548869115662,-666.60879154982183,-456.07158781785103,3526.6626909017245,-3958.8029716826932,2080.6997208570283,-2080.6997208570283,3958.8029716826932,6958.1069053534347,0.0
683204.59901257406,4102374.0504322448,-12500.0,-4672.6446170092877,1542.1562700260095,-570.50222193258821,1461.7207854631256,-469.87702386269206,-335.22650241151524,2872.0400802525874,-3373.3765849102642,1665.6782020946143,-1665.6782020946143,3373.3765849102642,5661.7166564064246,0.0
688204.59901257406,4102374.0504322448,-12500.0,-3959.382908567412,1168.1437835799309,-416.61816494057035,1154.9319426939833,-335.68501738440847,-248.62645405031139,2360.4003265138781,-2870.029571761575,1338.3473472937571,-1338.3473472937571,2870.029571761575,4648.4292746023229,0.0
693204.59901257406,4102374.0504322448,-12500.0,-3364.2346451597177,893.48954133907523,-313.03084899092721,919.72876386747612,-242.95392657666125,-186.2944282464332,1957.0657565215379,-2444.6217461002352,1081.1421297034053,-1081.1421297034053,2444.6217461002352,3849.9816732298837,0.0
698204.59901257406,4102374.0504322448,-12500.0,-2869.5365766941509,689.90887442739393,-241.54586372804687,738.43745392823257,-178.02215493182501,-141.09084186457287,1636.3284958987617,-2088.0365008079352,878.85819466089868,-878.85819466089868,2088.0365008079352,3215.476529451656,0.0
703204.59901257406,4102374.0504322448,-12500.0,-2458.4659662823315,537.55197517682791,-191.00548647641384,597.75506955636422,-131.96255289425483,-108.00620172312857,1379.059460823129,-1790.0700003230245,719.20453077918603,-719.20453077918603,1790.0700003230245,2706.9402654050391,0.0
708204.59901257406,4102374.0504322448,-12500.0,-2116.2670561005139,422.43425626782198,-154.42544395631424,487.76765436693603,-98.879484780902672,-83.548712336532816,1170.9505739468384,-1541.0976634353678,592.55987606803046,-592.55987606803046,1541.0976634353678,2295.9377948296524,0.0
713204.59901257406,4102374.0504322448,-12500.0,-1830.5138663920734,334.63892759668369,-127.34582280440731,401.10752552165525,-74.833040841170543,-65.282807694844905,1001.2315071235633,-1332.6819923767905,491.50740594845428,-491.50740594845428,1332.6819923767905,1961.057947958227,0.0
718204.59901257406,4102374.0504322448,-12500.0,-1590.9671885888029,267.07814506069639,-106.86356288981375,332.29191651366182,-57.15778554120083,-51.50162087162046,861.73791891604469,-1157.6955974623368,410.36661087203601,-410.36661087203601,1157.6955974623368,1686.0718764939766,0.0
723204.59901257406,4102374.0504322448,-12500.0,-1389.2838441889589,214.64169660298771,-91.053403753822167,277.22428914864599,-44.028059091949061,-41.000333066794035,746.23335872409984,-1010.2349533671654,344.79229059749088,-344.79229059749088,1010.2349533671654,1458.587162142433,0.0
523204.59901257406,4107374.0504322448,-12500.0,-975.95018661225015,-395.69896133416415,-148.53295087775132,-204.51160666073761,-83.072027038804976,-31.745699248064561,594.36722547551221,-638.07637940639734,-241.32470904952427,241.32470904952427,638.07637940639734,1187.7715310003373,0.0
528204.59901257406,4107374.0504322448,-12500.0,-1092.2042156369353,-467.62074978070893,-176.85357525767,-240.4875696178207,-101.91807937790072,-39.212076991998984,680.55669629723616,-708.5465270786666,-295.81770991712847,295.81770991712847,708.5465270786666,1357.7460754789568,0.0
533204.59901257406,4107374.0504322448,-12500.0,-1223.7522733167837,-555.86545188700711,-213.0581276262414,-283.9841338552298,-126.00174605586736,-48.753198356654387,783.72455361535719,-786.34489879215914,-365.28976922434924,365.28976922434924,786.34489879215914,1559.1953959375405,0.0
538204.59901257406,4107374.0504322448,-12500.0,-1371.6993034486231,-664.66784874690757,-259.94507331576546,-336.66189543620152,-157.00521705331391,-61.010018341067614,907.00829517588204,-871.00870720979788,-454.51303839649376,454.51303839649376,871.00870720979788,1798.9066598190711,0.0
543204.59901257406,4107374.0504322448,-12500.0,-1536.3643614703167,-799.36848861308181,-321.47166548271838,-400.4621675200359,-197.19259686734617,-76.823038532838567,1054.8846073562781,-961.01812157222935,-569.91996164696889,569.91996164696889,961.01812157222935,2085.1315519128198,0.0
548204.59901257406,4107374.0504322448,-12500.0,-1716.4892636246668,-966.59713229081365,-403.27179708682536,-477.54318353417068,-249.5976537418106,-97.278301019933963,1232.8200253505429,-1053.0239674141451,-720.1685137245729,720.1685137245729,1053.0239674141451,2427.7515583098484,0.0
553204.59901257406,4107374.0504322448,-12500.0,-1907.8856314558107,-1174.3417517835483,-513.3940930944168,-570.07572640032117,-318.23628207482886,-123.73976648340749,1447.3343801229039,-1140.5962715065557,-916.83066011606491,916.83066011606491,1140.5962715065557,2838.2784308940372,0.0
558204.59901257406,4107374.0504322448,-12500.0,-2101.1695668941779,-1431.6886029909642,-663.31218171529531,-679.75596519193505,-408.28837998660714,-157.82949509823843,1705.9165827986219,-1212.2345187779895,-1175.1188110279243,1175.1188110279243,1212.2345187779895,3329.4531245771304,0.0
563204.59901257406,4107374.0504322448,-12500.0,-2278.0633395417194,-1747.7791593704096,-869.18825873803667,-806.77760520144363,-526.09072990601715,-201.26825010010472,2016.5749802791875,-1248.2980705775467,-1514.3614448264511,1514.3614448264511,1248.2980705775467,3913.9804085125593,0.0
568204.59901257406,4107374.0504322448,-12500.0,-2405.5684555329985,-2129.0686075537201,-1153.1150460329711,-947.81511946449359,-678.54298216242375,-255.39295443440335,2386.6197961767384,-1216.5088500272832,-1957.4556764734643,1957.4556764734643,1216.5088500272832,4601.5237950175588,0.0
573204.59901257406,4107374.0504322448,-12500.0,-2427.3113185028278,-2573.1614227073915,-1543.3176810239581,-1092.300995133884,-871.00324845691046,-319.99129364475289,2819.953722984098,-1065.9905130074908,-2527.4617421664448,2527.4617421664448,1065.9905130074908,5392.4176798975877,0.0
578204.59901257406,4107374.0504322448,-12500.0,-2252.0384981946322,-3056.2767031663743,-2070.3496953640101,-1216.005178240677,-1101.6492384069531,-390.80548789769637,3311.6738721798797,-721.05927020226977,-3237.3255024824521,3237.3255024824521,721.05927020226977,6265.6535744635748,0.0
583204.59901257406,4107374.0504322448,-12500.0,-1741.8503411653523,-3510.3700075428519,-2751.7484479050299,-1271.0055920241825,-1348.1680649747818,-454.68255353108941,3838.4563662127011,-79.527456096675223,-4064.9077135241832,4064.9077135241832,79.527456096675223,7158.4728273564506,0.0
588204.59901257406,4107374.0504322448,-12500.0,-709.38921219664087,-3788.230687264831,-3548.4912152109587,-1172.6059235635546,-1539.1078229661944,-481.0689994834928,4344.5705759775201,971.93933886293144,-4901.1306996380945,4901.1306996380945,-971.93933886293144,7940.0568338127778,0.0
593204.59901257406,4107374.0504322448,-12500.0,1056.4884301420509,-3630.9420216914982,-4265.1220591867395,-788.94504813296123,-1498.1703334249819,-408.91744758244857,4734.2047014188965,2502.6698744034293,-5463.7623860755903,5463.7623860755903,-2502.6698744034293,8415.5034966436233,0.0
598204.59901257406,4107374.0504322448,-12500.0,3727.8209212875381,-2701.0930987470097,-4379.9576284523,50.145357529633721,-851.47305265281932,-130.76908726933439,4942.5401184156717,4437.0181603488027,-5218.3674874330363,5218.3674874330363,-4437.0181603488027,8567.9910769830876,0.0
603204.59901257406,4107374.0504322448,-12500.0,7477.3019305706794,-787.25796338666021,-2929.3376742416772,1512.562766906527,1089.2505744755808,511.53049674323609,5598.7091241985463,6560.7778862867044,-3482.8701849570434,3482.8701849570434,-6560.7778862867044,9829.1459836379199,0.0
608204.59901257406,4107374.0504322448,-12500.0,13158.29340711953,2124.0646139798932,1241.0843630272454,3848.7105855133418,5471.2871379523931,1677.3142970383228,9731.6375468297574,9112.775952647984,263.91669668418035,-263.91669668418035,-9112.775952647984,16875.696858056075,0.0
613204.59901257406,4107374.0504322448,-12500.0,23014.68695213028,7524.0456624553835,10337.180770444962,8253.26676285137,14811.613965832423,3626.301680499655,20992.622327815196,12885.800120838312,8087.9820939065667,-8087.9820939065667,-12885.800120838312,36375.362861157671,0.0
618204.59901257406,4107374.0504322448,-12500.0,34238.541751676472,16570.791631359793,35027.318408258761,16483.642562778412,36500.505175289269,8637.3104672167447,45683.311870096062,12122.877378737849,27360.139002817861,-27360.139002817861,-12122.877378737849,79448.123463977507,0.0
623204.59901257406,4107374.0504322448,-12500.0,43509.90564576511,11449.8853774366,78951.060817780817,23615.74565192447,76796.863617729279,23695.864752610476,85527.585370277171,4554.9038338744067,46447.801863467816,-46447.801863467816,-4554.9038338744067,148696.29764200668,0.0
628204.59901257406,4107374.0504322448,-12500.0,33216.773283845898,-57422.063448173743,85222.436175101408,-11293.743468399023,113524.62230873897,55485.201380640974,127865.84299252703,285.02768870375871,-3316.9437403364345,3316.9437403364345,-285.02768870375871,225788.46991264817,1.0
633204.59901257406,4107374.0504322448,-12500.0,48822.168148473887,1807.5233647665364,-79786.683420126123,7025.849765657128,-27173.694004131848,-9124.0156884398039,69411.010000425944,62736.684346414491,-51271.453564294963,51271.453564294963,-62736.684346414491,121732.17660679936,1.0
638204.59901257406,4107374.0504322448,-12500.0,-13087.927254761946,29902.778338888391,-39531.500808803386,24543.425815449842,-21093.965165696307,-7166.2645317362094,44454.535191826173,1320.2579796480402,3769.9619715976787,-3769.9619715976787,-1320.2579796480402,81947.863938947237,0.0
643204.59901257406,4107374.0504322448,-12500.0,-22667.654434382664,20836.614242656498,-17589.548870641775,17980.423510485452,-11463.937099900902,-4333.9214075485952,28762.51018224387,-12421.785726710121,10410.726281968778,-10410.726281968778,12421.785726710121,54179.869146764766,0.0
648204.59901257406,4107374.0504322448,-12500.0,-20923.488744474595,13553.662401919115,-8559.8114048113111,12638.74642370145,-6661.6354517539921,-3318.1018867277699,19590.975746322256,-13605.589805631262,9389.8788382645835,-9389.8788382645835,13605.589805631262,37531.240705587668,0.0
653204.59901257406,4107374.0504322448,-12500.0,-17570.640108132357,8934.6455991533767,-4481.7598205860868,9093.6465205228524,-4047.4961633152102,-2569.3870706316329,14000.264391480061,-12144.669645025575,7452.9197050532402,-7452.9197050532402,12144.669645025575,27142.592863431917,0.0
658204.59901257406,4107374.0504322448,-12500.0,-14396.328988855692,6005.0244263962286,-2492.7071476850824,6646.4466069514465,-2526.0059623436218,-1907.5512887691859,10352.286546557692,-10244.417682285421,5719.3456465469253,-5719.3456465469253,10244.417682285421,20220.111901938129,0.0
663204.59901257406,4107374.0504322448,-12500.0,-11709.888162670801,4109.448812743467,-1463.8933771980489,4906.2290808348598,-1609.7695153132699,-1375.4302934814752,7840.3665957426219,-8461.6300987192626,4350.3365903026897,-4350.3365903026897,8461.6300987192626,15380.008480083601,0.0
668204.59901257406,4107374.0504322448,-12500.0,-9518.8453411679675,2859.4465972195417,-905.55057149837603,3654.5541708745582,-1045.8548040652245,-979.89196936692997,6048.4559321041279,-6936.3096457838665,3312.2661802254288,-3312.2661802254288,6936.3096457838665,11892.522397010796,0.0
673204.59901257406,4107374.0504322448,-12500.0,-7760.3037177665528,2020.9165611389815,-589.4323319354794,2749.1219125313642,-692.20518903662662,-697.82441299850427,4739.1851566710984,-5680.5724878820611,2536.3870414230305,-2536.3870414230305,5680.5724878820611,9328.3786793390827,0.0
678204.59901257406,4107374.0504322448,-12500.0,-6358.2666224534796,1449.3023488767426,-403.26106415023042,2090.2206805678152,-466.32841390009372,-500.13495181888345,3764.9827548620106,-4664.850434945266,1958.1377719785432,-1958.1377719785432,4664.850434945266,7413.1961497483771,0.0
683204.59901257406,4107374.0504322448,-12500.0,-5241.8424822848856,1053.6159305118158,-289.36332069570375,1607.0333034339283,-319.43401781847672,-362.06004938121941,3028.901262158442,-3849.1566804893273,1525.8517518351298,-1525.8517518351298,3849.1566804893273,5962.919385984269,0.0
688204.59901257406,4107374.0504322448,-12500.0,-4350.9257642178527,775.6628418916788,-217.008371027349,1249.4441813943545,-222.21350450049007,-265.20695613595637,2465.056442574773,-3194.9587710026226,1200.6379889330346,-1200.6379889330346,3194.9587710026226,4850.6468118080966,0.0
693204.59901257406,4107374.0504322448,-12500.0,-3636.9177426034521,577.67087825878025,-169.28497853782389,982.12672406031686,-156.78126577231538,-196.68903572303284,2027.6582644279986,-2669.1578029898701,953.99837084215028,-953.99837084215028,2669.1578029898701,3987.326359254349,0.0
698204.59901257406,4107374.0504322448,-12500.0,-3061.5036728290024,434.7686788370076,-136.61016588087921,780.18441718098097,-112.04177665710959,-147.69748252758239,1684.3379243836569,-2244.7820312766917,765.27492748687462,-765.27492748687462,2244.7820312766917,3309.6057772772369,0.0
703204.59901257406,4107374.0504322448,-12500.0,-2594.8674569641485,330.34737959198253,-113.40408919405338,626.01193939970392,-80.996252125469056,-112.25834072657968,1411.8853401804622,-1900.4260046465358,619.52801567571373,-619.52801567571373,1900.4260046465358,2771.8670762092993,0.0
708204.59901257406,4107374.0504322448,-12500.0,-2213.9371016368086,253.16109954901074,-96.333238343028484,507.08408796409657,-59.156444365029927,-86.316013753439947,1193.4416272481792,-1619.3208730896677,505.92591472226411,-505.92591472226411,1619.3208730896677,2340.8827135546717,0.0
713204.59901257406,4107374.0504322448,-12500.0,-1900.879776954177,195.49255463210767,-83.356173625657902,414.42057543553562,-43.597532772850059,-67.100909659396933,1016.6136451222917,-1388.4021459005178,416.57383850497064,-416.57383850497064,1388.4021459005178,1992.1817436103258,0.0
718204.59901257406,4107374.0504322448,-12500.0,-1641.8870902502756,151.97696833075818,-73.192298711661124,341.52567518131457,-32.383947165648017,-52.705260168616732,872.18663935020641,-1197.500674454433,345.67750042634998,-345.67750042634998,1197.500674454433,1707.5472162257856,0.0
723204.59901257406,4107374.0504322448,-12500.0,-1426.2272659271675,118.8385405270739,-65.018818449073848,283.65667173173193,-24.215870206293278,-41.801671144312394,753.23412461863109,-1038.6859809009072,288.95084205172293,-288.95084205172293,1038.6859809009072,1473.2756680130876,0.0
523204.59901257406,4112374.0504322448,-12500.0,-1134.3094542919771,-344.80684721788754,-112.89079710459302,-233.74235795465933,-71.725069747953754,-35.689466284078819,649.81407051067254,-770.82541135478596,-155.08714956713851,155.08714956713851,770.82541135478596,1290.0101591279754,0.0
528204.59901257406,4112374.0504322448,-12500.0,-1287.4369224387367,-409.72134837383425,-132.37856462691636,-278.09951665800969,-88.364919940274632,-44.526184231501183,746.16761423769083,-872.00376243568712,-193.06422200753991,193.06422200753991,872.00376243568712,1484.0519962540727,0.0
533204.59901257406,4112374.0504322448,-12500.0,-1466.5085034196577,-490.36577828317598,-157.18660104027651,-332.88938395223681,-109.82854800022869,-56.001584509928882,861.47876087528891,-989.2711031780475,-242.38478977458936,242.38478977458936,989.2711031780475,1716.6987957128717,0.0
538204.59901257406,4112374.0504322448,-12500.0,-1676.2560724672355,-591.31195350198755,-189.30040696461833,-400.95670451598579,-137.7765155928239,-71.024009358906525,1000.4706782863507,-1125.0854037393249,-307.04670280826889,307.04670280826889,1125.0854037393249,1997.2715482414087,0.0
543204.59901257406,4112374.0504322448,-12500.0,-1922.0116017215209,-718.6197606716679,-231.61809698340656,-485.97216810683551,-174.51507092815942,-90.843489267887506,1170.8413546480065,-1281.9219929479757,-392.65071216843916,392.65071216843916,1281.9219929479757,2337.5903467679286,0.0
548204.59901257406,4112374.0504322448,-12500.0,-2209.471397324447,-880.3224068985154,-288.43242906955641,-592.64263589111613,-223.26027299417299,-117.17957149078704,1381.494436701845,-1461.899042276408,-507.09654101266477,507.09654101266477,1461.899042276408,2752.6016097502243,0.0
553204.59901257406,4112374.0504322448,-12500.0,-2544.0994332062255,-1087.0188532431027,-366.18878421680427,-726.92245163727068,-288.49811917738339,-152.38435152575266,1640.7217975768838,-1666.0355717129687,-661.57784958477612,661.57784958477612,1666.0355717129687,3261.0468088462617,0.0
558204.59901257406,4112374.0504322448,-12500.0,-2929.8413503473662,-1352.5087957429521,-474.6742771145681,-896.15058735504363,-376.4461306402294,-199.62829134069611,1960.4684474307785,-1892.852690068707,-871.96480564162187,871.96480564162187,1892.852690068707,3886.0020999521134,0.0
563204.59901257406,4112374.0504322448,-12500.0,-3366.5706707603504,-1694.2494813049075,-628.85829520682591,-1108.9385568717798,-495.56540062433646,-263.05776927791453,2355.3886695993606,-2135.8348583674624,-1160.61545087327,1160.61545087327,2135.8348583674624,4654.8650877541741,0.0
568204.59901257406,4112374.0504322448,-12500.0,-3845.2779699862845,-2133.0242352010678,-851.63124830247955,-1374.4362443300108,-656.90171390898945,-347.77743366365814,2842.1153686793887,-2378.9869512073769,-1558.4276612629278,1558.4276612629278,2378.9869512073769,5597.7952266436696,0.0
573204.59901257406,4112374.0504322448,-12500.0,-4339.439438571213,-2690.3172071548406,-1177.4927734283353,-1700.2419362122339,-873.57727168650661,-459.30696185379333,3437.0393567699039,-2589.4360942617213,-2106.2121355695099,2106.2121355695099,2589.4360942617213,6742.3929360533721,0.0
578204.59901257406,4112374.0504322448,-12500.0,-4790.4906736292496,-3379.9293738494407,-1656.1797891331121,-2087.6507510469974,-1157.6079944531205,-601.77304800367961,4150.3295082934537,-2706.1630086069376,-2852.39007773207,2852.39007773207,2706.1630086069376,8099.8339686660074,0.0
583204.59901257406,4112374.0504322448,-12500.0,-5086.0664227686993,-4186.4454963281732,-2351.2493574708265,-2522.2516818864965,-1509.4752312129474,-773.48949481254976,4971.6161294942358,-2626.1387843929815,-3838.5353147765945,3838.5353147765945,2626.1387843929815,9632.4046792404424,0.0
588204.59901257406,4112374.0504322448,-12500.0,-5036.3029510072593,-5017.1203044469657,-3315.6885664669608,-2957.9374427514522,-1889.6449094111167,-957.90194313307939,5837.6629194353436,-2198.8731883244054,-5051.1167864012459,5051.1167864012459,2198.8731883244054,11182.6408797658,0.0
593204.59901257406,4112374.0504322448,-12500.0,-4381.00893674903,-5614.4457278552636,-4489.873217395967,-3296.9634185881673,-2148.2502805652466,-1107.2767297094883,6563.6868407878119,-1272.9897003501251,-6293.2582922601323,6293.2582922601323,1272.9897003501251,12333.142752122312,0.0
598204.59901257406,4112374.0504322448,-12500.0,-2940.207041147883,-5483.8850187464614,-5393.1422357821002,-3394.7621832372406,-1869.7158828936113,-1114.0662747432652,6726.8929178259314,83.154804267604504,-6929.4826736819723,6929.4826736819723,-83.154804267604504,12211.093894938853,0.0
603204.59901257406,4112374.0504322448,-12500.0,-1073.3548038204663,-4254.9336802550451,-4531.3961806153957,-3224.3082529625499,-117.55249617500992,-762.19221615799222,5732.7315932692773,1071.78094981095,-5766.7663653582567,5766.7663653582567,-1071.78094981095,9933.4895274107166,0.0
608204.59901257406,4112374.0504322448,-12500.0,542.37806562619971,-3588.0846930728508,226.41128759368766,-3453.5970439292996,4541.0745185460828,238.71592078061838,6190.6513374397873,606.38768165088572,-2823.4269806304274,2823.4269806304274,-606.38768165088572,11677.552175947812,0.0
613204.59901257406,4112374.0504322448,-12500.0,8207.9865823631735,-7258.9243579213789,5936.9456202902275,-4375.5630018107613,13026.719894496353,1738.2552085806606,15787.513655467932,4621.0890515896754,-3784.3150344973515,3784.3150344973515,-4621.0890515896754,27512.195895936246,0.0
618204.59901257406,4112374.0504322448,-12500.0,35918.752338380116,2383.7772140880938,17363.961516079777,6672.7955463434791,39169.993871113787,9693.9060583020291,40481.282166490208,20433.818273898534,5846.8410545475144,-5846.8410545475144,-20433.818273898534,72793.662705057039,1.0
623204.59901257406,4112374.0504322448,-12500.0,29534.984462908524,-28218.170447622135,90905.338738445498,-24385.14409935517,132810.47607540895,43742.020930173654,138744.02323657731,-6647.0860962120223,23772.159467083686,-23772.159467083686,6647.0860962120223,245325.98366762567,0.0
628204.59901257406,4112374.0504322448,-12500.0,297967.43850358063,-235669.93696683794,-199177.54268192069,-90283.973277705751,93033.457983623754,87588.374281964614,366843.76004908816,305343.66292426124,-348109.08737650333,348109.08737650333,-305343.66292426124,635502.79702915321,1.0
633204.59901257406,4112374.0504322448,-12500.0,-79362.868978964543,37941.955730944384,-78570.664217722646,141002.3937616318,-41110.347939964638,-76869.732583808101,150789.47907835164,-35004.034121526711,-1026.687908283624,1026.687908283624,35004.034121526711,262752.45292818558,1.0
638204.59901257406,4112374.0504322448,-12500.0,-69188.785105871837,23803.614898949796,-23305.364306272542,54595.644543983799,-16527.741686075366,-13042.906041116712,66151.471381249139,-45018.495180942213,17090.88617953338,-17090.88617953338,45018.495180942213,118923.80433265716,0.0
643204.59901257406,4112374.0504322448,-12500.0,-45510.977370854176,13489.991759760902,-8932.634735190446,27649.78531004005,-7876.2588101241045,-5562.2528743494713,36343.80417105824,-31597.63216177206,13106.010738456665,-13106.010738456665,31597.63216177206,67068.587885985165,0.0
648204.59901257406,4112374.0504322448,-12500.0,-31640.158375980336,7970.6430732508143,-3831.2928161793834,16633.410680557321,-4183.9022609577996,-3867.8722238305772,22753.85211400723,-22658.14582434608,9324.496864471721,-9324.496864471721,22658.14582434608,42958.546646063158,0.0
653204.59901257406,4112374.0504322448,-12500.0,-23131.128296971114,4910.0938863742776,-1771.452214466671,11003.101291485191,-2358.8163335446375,-2882.2921256622612,15502.075420665311,-16839.362316145227,6663.4743533123419,-6663.4743533123419,16839.362316145227,29765.187223876685,0.0
658204.59901257406,4112374.0504322448,-12500.0,-17482.407661723868,3116.4404269215152,-877.16364837640197,7637.3868966756745,-1380.1468223119666,-2086.90222647885,11132.119430124707,-12835.855785763753,4821.1537984766837,-4821.1537984766837,12835.855785763753,21609.01770729099,0.0
663204.59901257406,4112374.0504322448,-12500.0,-13501.804976175716,2022.8579920802306,-469.46762998306201,5446.1286621206327,-830.23112372112553,-1476.3907556334016,8268.6399154662759,-9953.0577527138994,3533.8546189656686,-3533.8546189656686,9953.0577527138994,16157.283675440285,0.0
668204.59901257406,4112374.0504322448,-12500.0,-10592.540308617641,1336.8292330477345,-276.16548611516248,3958.288139461527,-510.95463491446839,-1036.2335454207903,6291.4076684383954,-7819.7832079232676,2624.5677898371823,-2624.5677898371823,7819.7832079232676,12341.508904487779,0.0
673204.59901257406,4112374.0504322448,-12500.0,-8418.3244930170513,896.61472139937268,-181.02447546355458,2923.9582246940236,-320.57222500864361,-729.25031463369874,4879.1777332902857,-6214.5880656834315,1975.1481949692989,-1975.1481949692989,6214.5880656834315,9591.9972406584748,0.0
678204.59901257406,4112374.0504322448,-12500.0,-6768.0784107347281,608.63060609870854,-132.16453499196558,2192.5541161489423,-204.37317565989699,-517.71622580111523,3845.7650967185787,-4991.9998366253658,1505.9322401791032,-1505.9322401791032,4991.9998366253658,7568.6190776956028,0.0
683204.59901257406,4112374.0504322448,-12500.0,-5499.7729162885935,417.0017406852109,-105.63903344668933,1667.6027530017393,-131.96606828419976,-371.92120071194432,3074.8407036413546,-4050.9986891450726,1162.8197922482743,-1162.8197922482743,4050.9986891450726,6053.7457980972458,0.0
688204.59901257406,4112374.0504322448,-12500.0,-4514.0771853098286,287.54490449102889,-90.10524327202728,1285.4856576165309,-86.008162614487446,-270.73223128832109,2490.1895747069848,-3319.4985679392112,908.84385362910325,-908.84385362910325,3319.4985679392112,4902.3181946908853,0.0
693204.59901257406,4112374.0504322448,-12500.0,-3739.9744614422566,198.90653812229493,-80.085329902227116,1003.5331590905845,-56.361107579875807,-199.75978826809737,2040.2683875406019,-2745.3176805101139,718.55865547412452,-718.55865547412452,2745.3176805101139,4015.0433051093087,0.0
698204.59901257406,4112374.0504322448,-12500.0,-3125.9717586671054,137.49685797549853,-72.897790301145577,792.75000191083871,-36.96579500211476,-149.36965255169321,1689.4048494980275,-2290.3342823590169,574.29973394050683,-574.29973394050683,2290.3342823590169,3322.6205944298008,0.0
703204.59901257406,4112374.0504322448,-12500.0,-2634.3182074377319,94.516515372932247,-67.219555263315698,633.18989326562871,-24.125930891088551,-113.1308975780876,1412.4448717022892,-1926.4754016904649,463.68420961559616,-463.68420961559616,1926.4754016904649,2775.8924719507959,0.0
708204.59901257406,4112374.0504322448,-12500.0,-2237.0654749806836,64.176654489199876,-62.395979209158092,510.96366937891491,-15.543626855816587,-86.732123525811119,1191.3634788167503,-1632.9053163606154,377.94106635827677,-377.94106635827677,1632.9053163606154,2339.4847615012432,0.0
713204.59901257406,4112374.0504322448,-12500.0,-1913.328110383608,42.612117697283104,-58.103502823939827,416.28153457595818,-9.765193693086859,-67.258774307671089,1013.0559418210099,-1394.0342421335904,310.79043549288599,-310.79043549288599,1394.0342421335904,1987.6019423867629,0.0
718204.59901257406,4112374.0504322448,-12500.0,-1647.3578505680473,27.20664216422141,-54.182643966934975,342.16004211662846,-5.8562005934640142,-52.720037921002735,867.86843280976086,-1198.1020423070022,257.68756194914249,-257.68756194914249,1198.1020423070022,1701.2006167668285,0.0
723204.59901257406,4112374.0504322448,-12500.0,-1427.1707663176278,16.166178841715471,-50.554272727273897,283.55808241789504,-3.2070302402054942,-41.740389391578915,748.5996638416849,-1036.1609124841989,215.30736870812655,-215.30736870812655,1036.1609124841989,1466.0540377470436,0.0
523204.59901257406,4117374.0504322448,-12500.0,-1272.087525681121,-272.25748506403897,-82.072346466261152,-259.14006061527715,-56.264260778329152,-39.114108791471111,698.44988294848326,-888.48645393816196,-57.607547753075892,57.607547753075892,888.48645393816196,1379.2869971624,0.0
528204.59901257406,4117374.0504322448,-12500.0,-1457.9005797870777,-323.69333213190413,-93.446809673002221,-310.88897847558843,-69.262180346263875,-49.155803835821821,806.39624400517027,-1017.5540118797421,-74.986721280040172,74.986721280040172,1017.5540118797421,1594.6186231713766,0.0
533204.59901257406,4117374.0504322448,-12500.0,-1679.4746306317081,-387.94607298986807,-107.55435975265995,-375.71441478100547,-86.077143594449893,-62.343345868230216,936.83125753125648,-1171.0480701661404,-98.344219260853379,98.344219260853379,1171.0480701661404,1855.0643487449333,0.0
538204.59901257406,4117374.0504322448,-12500.0,-1945.109492726564,-468.96347251757993,-125.42326222043185,-457.58640117154818,-108.0663906156196,-79.833886180698372,1095.632992447642,-1354.4282895403092,-130.06524992826303,130.06524992826303,1354.4282895403092,2172.3871483137782,0.0
543204.59901257406,4117374.0504322448,-12500.0,-2265.217984981869,-572.12187664409373,-148.60372920185208,-561.85562769578348,-137.1470589067159,-103.26502439486782,1290.5187020873227,-1574.4231836900301,-173.62633861819086,173.62633861819086,1574.4231836900301,2561.9366827622162,0.0
548204.59901257406,4117374.0504322448,-12500.0,-2652.81133986234,-704.80135200156667,-179.48925384805338,-695.77197867608868,-176.05119762012711,-134.96820487666378,1531.7201144489152,-1839.2342359976096,-234.15622437857121,234.15622437857121,1839.2342359976096,3043.835082180653,0.0
553204.59901257406,4117374.0504322448,-12500.0,-3123.9919048416855,-877.19629632685712,-221.86470124256414,-869.19167881431986,-228.69863396426521,-178.27321844989024,1832.9288358798444,-2158.650390439393,-319.31083100152421,319.31083100152421,2158.650390439393,3644.5249755297532,0.0
558204.59901257406,4117374.0504322448,-12500.0,-3698.3083786707448,-1103.4351479727875,-281.85751501169807,-1095.5173280459489,-300.73015900387571,-237.92799847926051,2212.4730729803487,-2543.9009685777037,-440.64353529571895,440.64353529571895,2543.9009685777037,4398.7097258187277,0.0
563204.59901257406,4117374.0504322448,-12500.0,-4398.6393273100239,-1403.0569374281185,-369.61524531992632,-1392.8894296102787,-400.23198988750926,-320.63774792808636,2694.4602659065126,-3006.8879347438042,-615.74443479660818,615.74443479660818,3006.8879347438042,5351.5840178883354,0.0
568204.59901257406,4117374.0504322448,-12500.0,-5249.8703214576481,-1802.7540473367408,-502.29882861513732,-1785.5583980714616,-538.60521043213737,-435.65163189819935,3309.9450492178967,-3558.064480809443,-871.52620688226307,871.52620688226307,3558.064480809443,6560.8687551378334,0.0
573204.59901257406,4117374.0504322448,-12500.0,-6274.8328134549893,-2337.8102343024216,-709.44155260940761,-2305.1500988305424,-731.26007759050287,-595.12051700690051,4098.2724120542416,-4201.5219429698645,-1249.038519169231,1249.038519169231,4201.5219429698645,8097.1807062968737,0.0
578204.59901257406,4117374.0504322448,-12500.0,-7484.368571679518,-3051.1894089393049,-1042.3957382179922,-2991.0743242914268,-996.98641777545834,-813.4925106521689,5107.0628727699514,-4924.5542299521985,-1809.654201350827,1809.654201350827,4924.5542299521985,10038.764469185424,0.0
583204.59901257406,4117374.0504322448,-12500.0,-8855.3239465526694,-3983.7684796359295,-1589.8951157082734,-3888.4512825084648,-1352.4998186640507,-1104.4410038667074,6386.5709004095606,-5676.9625742093958,-2639.5767111565019,2639.5767111565019,5676.9625742093958,12450.23354788178,0.0
588204.59901257406,4117374.0504322448,-12500.0,-10285.532871789712,-5135.6348880018813,-2497.6902773679021,-5040.2076641032445,-1792.0113936693158,-1473.2479008248044,7966.3403140507889,-6334.3080755256851,-3837.2698288310694,3837.2698288310694,6334.3080755256851,15318.204918967638,0.0
593204.59901257406,4117374.0504322448,-12500.0,-11517.678276540777,-6337.7275192240922,-3959.5643226669395,-6465.7266280541007,-2221.233846333103,-1903.9726836079608,9776.6859044111952,-6654.9420715412552,-5418.3080098267174,5418.3080098267174,6654.9420715412552,18374.052671830763,0.0
598204.59901257406,4117374.0504322448,-12500.0,-12121.443475680861,-6877.2461213636016,-5982.6319056534721,-8113.8635095332002,-2243.5487375464113,-2340.4194408194057,11418.455838493033,-6375.4991736417478,-6887.544421094487,6887.544421094487,6375.4991736417478,20683.423163480209,0.0
603204.59901257406,4117374.0504322448,-12500.0,-12310.563871895278,-4785.7671927679085,-7060.1744634657834,-9907.5414795874967,-458.02945824321279,-2607.0162439635942,11985.149474907645,-6316.6062541832798,-5793.4720182530709,5793.4720182530709,6316.6062541832798,20846.97177412155,0.0
608204.59901257406,4117374.0504322448,-12500.0,-17615.265744698932,1588.255778551709,-41.385174360612325,-13490.599671742837,7198.289653623513,-2173.4692275381794,17775.061241239848,-13094.995805072031,4092.7944359968324,-4092.7944359968324,13094.995805072031,31383.446269813099,0.0
613204.59901257406,4117374.0504322448,-12500.0,-42670.468509362239,-4155.1503079531394,23006.112091991843,-32987.9442534021,24445.115043877751,-3109.1069721891909,52780.001045634737,-38878.226425174624,16508.497189452966,-16508.497189452966,38878.226425174624,91593.448376140077,0.0
618204.59901257406,4117374.0504322448,-12500.0,-23287.422831540436,-50015.101095556609,-2974.2821035278744,-87042.745980906024,27503.845020373585,-35203.296035370848,104714.44842283049,-12218.077732030524,-37811.102232117293,37811.102232117293,12218.077732030524,182482.58793356802,0.0
623204.59901257406,4117374.0504322448,-12500.0,110819.12999793867,48275.823538244724,-40037.645656662658,-13591.171374111213,345516.1918274893,203822.12853988551,369607.63945041236,91370.415302197536,-1893.300246752231,1893.300246752231,-91370.415302197536,641192.32579835446,1.0
628204.59901257406,4117374.0504322448,-12500.0,131935.14779570198,12767.007531915635,-154458.44984492092,151384.31718194688,-228877.56494009853,-76234.432254537387,307291.05472155369,148302.38419577191,-97913.100796157771,97913.100796157771,-148302.38419577191,540493.17755779892,0.0
633204.59901257406,4117374.0504322448,-12500.0,-64409.660001873526,13275.871003463224,-51187.443661121419,83164.012373475445,-25382.13676182169,-29356.479107952993,89670.587704949547,-31267.542293123173,-7743.9753743515175,7743.9753743515175,31267.542293123173,155403.78202987424,0.0
638204.59901257406,4117374.0504322448,-12500.0,-61893.912476551282,-5035.6198204745278,-19935.860486796846,47445.181933904445,-3070.9539608941304,-10104.161056465397,54457.819668460957,-38503.341737709809,-5206.6352859980652,5206.6352859980652,38503.341737709809,95536.17083676497,0.0
643204.59901257406,4117374.0504322448,-12500.0,-44742.364803061151,-2764.5676646998545,-6898.8462777425848,26462.370240726006,-1248.7730380805781,-5128.4607417538591,33270.745606151104,-30434.912195339435,1154.8035511281687,-1154.8035511281687,30434.912195339435,60254.806437678664,0.0
648204.59901257406,4117374.0504322448,-12500.0,-31688.082468069224,-1409.4517413114652,-2575.219341888519,16294.866730680022,-484.54523088299436,-3720.444341614309,21570.097037890861,-22377.201982518018,2553.5401136506171,-2553.5401136506171,22377.201982518018,40233.836769881498,0.0
653204.59901257406,4117374.0504322448,-12500.0,-23150.816095219347,-896.95130267133993,-1017.2841928455923,10823.94524768078,-118.41308405485903,-2792.6295937091409,14906.125940593838,-16650.175983931855,2456.9155711623662,-2456.9155711623662,16650.175983931855,28419.701331398803,0.0
658204.59901257406,4117374.0504322448,-12500.0,-17407.892344327654,-672.07356780029579,-424.17635136445745,7506.2280864506984,32.615493831064811,-2025.5515622734013,10773.973137107003,-12634.883987631445,2040.7435095933361,-2040.7435095933361,12634.883987631445,20837.522163776648,0.0
663204.59901257406,4117374.0504322448,-12500.0,-13372.722174565752,-542.26841302928449,-194.10597658304926,5342.7720868972156,84.334979604518466,-1434.4086057967947,8028.6816701977996,-9748.4617603582155,1620.9703646761227,-1620.9703646761227,9748.4617603582155,15665.50178466226,0.0
668204.59901257406,4117374.0504322448,-12500.0,-10444.464580123835,-450.14224979238736,-106.13269250055279,3876.5580796786012,94.562768027424838,-1007.5785889451187,6119.6257948418361,-7627.0450056286354,1270.3273951125902,-1270.3273951125902,7627.0450056286354,12003.836144686607,0.0
673204.59901257406,4117374.0504322448,-12500.0,-8271.7236541459115,-378.02986540139693,-74.31791992575279,2859.6893324202256,88.974416331189971,-709.56739610297097,4750.9272411370584,-6041.9902911251775,994.35440665749093,-994.35440665749093,6041.9902911251775,9347.7025670106796,0.0
678204.59901257406,4117374.0504322448,-12500.0,-6632.6713813886818,-319.48210378968571,-64.166007343939569,2142.1585431807257,78.36447652557851,-504.03365309606443,3747.2712400322289,-4841.9305949835643,781.69945585818982,-781.69945585818982,4841.9305949835643,7385.162996811815,0.0
683204.59901257406,4117374.0504322448,-12500.0,-5379.1748010124275,-271.33216704666603,-61.705015134812577,1628.0580587989566,67.070906188881736,-362.27301384824415,2997.65101876065,-3922.6406225963751,618.78117586810686,-618.78117586810686,3922.6406225963751,5912.1605929022235,0.0
688204.59901257406,4117374.0504322448,-12500.0,-4408.7702017552911,-231.51964064923155,-61.378171121644002,1254.3521413710057,56.699848708583787,-263.82695216271969,2428.7453007236832,-3210.6328170796269,493.79419623114404,-493.79419623114404,3210.6328170796269,4790.7541466754865,0.0
693204.59901257406,4117374.0504322448,-12500.0,-3648.9903854540726,-198.48365451240693,-61.115307002264927,978.90042245875463,47.723593055642752,-194.74533769396709,1990.732301682533,-2653.3145642533518,397.42718062930726,-397.42718062930726,2653.3145642533518,3925.6865291850186,0.0
698204.59901257406,4117374.0504322448,-12500.0,-3047.7722770818327,-170.97568496928474,-60.275811667036066,773.14568209740105,40.161490161822819,-145.67764875174129,1649.0336155305508,-2212.6260502834189,322.61637198513893,-322.61637198513893,2212.6260502834189,3250.0908519422414,0.0
703204.59901257406,4117374.0504322448,-12500.0,-2567.2358742915799,-147.98345569103321,-58.779575885838661,617.48749593800881,33.868923346225735,-110.37706313762781,1379.2267993249914,-1860.753838473591,264.08839358095815,-264.08839358095815,1860.753838473591,2716.3571753588535,0.0
708204.59901257406,4117374.0504322448,-12500.0,-2179.5122219117047,-128.68634620569978,-56.741475440346164,498.30352652424779,28.65827220705021,-84.653019277833778,1163.7958338655858,-1577.1825106254305,217.92643563648699,-217.92643563648699,1577.1825106254305,2290.1415934486236,0.0
713204.59901257406,4117374.0504322448,-12500.0,-1863.8794638841168,-112.4196315313538,-54.321953008220348,406.00673949997878,24.346913626842344,-65.671286641122123,989.99879527840142,-1346.6369176357618,181.21955398342357,-181.21955398342357,1346.6369176357618,1946.3574120523269,0.0
718204.59901257406,4117374.0504322448,-12500.0,-1604.7752541733869,-98.645677480000046,-51.670316895639949,333.76668416446671,20.774154416376245,-51.495092808211588,848.44520264491655,-1157.6385684351656,151.79606494252789,-151.79606494252789,1157.6385684351656,1666.4619174170614,0.0
723204.59901257406,4117374.0504322448,-12500.0,-1390.3984573921839,-86.929580434900245,-48.907337325269111,276.65814747601303,17.804939376026336,-40.785884822475523,732.12948634809709,-1001.4827708971109,128.02662125195212,-128.02662125195212,1001.4827708971109,1436.5930999349034,0.0
523204.59901257406,4122374.0504322448,-12500.0,-1380.9395394506957,-181.61533396127504,-60.023799591534711,-279.23484813440371,-37.369261239136158,-41.830928807499127,737.7246895521655,-983.2975288006694,44.703829401432813,-44.703829401432813,983.2975288006694,1451.2886331157911,0.0
528204.59901257406,4122374.0504322448,-12500.0,-1592.2321863011955,-214.01998752421551,-65.465604492227897,-336.77282113803693,-45.50039925187253,-52.821432906346843,854.87641229762255,-1134.6457674008075,49.962571684073851,-49.962571684073851,1134.6457674008075,1683.5537093848143,0.0
533204.59901257406,4122374.0504322448,-12500.0,-1846.9735655194629,-254.23991926324456,-71.665378893598586,-409.4630654072277,-55.916571188920166,-67.357846435939265,997.32593273662542,-1317.1470655995677,55.586472951947712,-55.586472951947712,1317.1470655995677,1966.1278478808281,0.0
538204.59901257406,4122374.0504322448,-12500.0,-2156.3286709126814,-304.66536936342072,-78.865278560724121,-502.17378182254504,-69.407291822699122,-86.795817826296044,1172.0133412260175,-1538.7607167476078,61.337996993280512,-61.337996993280512,1538.7607167476078,2312.7672245174417,0.0
543204.59901257406,4122374.0504322448,-12500.0,-2534.8548705513322,-368.57332815870876,-87.467064457892121,-621.61163404842694,-87.083385148569064,-113.0846731820033,1388.1887677197285,-1809.8227140404704,66.731049979893214,-66.731049979893214,1809.8227140404704,2741.7439022324415,0.0
548204.59901257406,4122374.0504322448,-12500.0,-3001.6543947273112,-450.51241744743692,-98.166890758277205,-777.10914757167006,-110.52379502550544,-149.05298755221366,1658.3118661103674,-2143.8194338484363,70.834558064655312,-70.834558064655312,2143.8194338484363,3277.5461337297015,0.0
553204.59901257406,4122374.0504322448,-12500.0,-3581.9323571045811,-556.87571821168103,-112.21606236749312,-981.7792865072937,-141.99182634464194,-198.83510622898839,1999.3463419732329,-2558.4029449656409,71.920908668367474,-71.920908668367474,2558.4029449656409,3953.274459469575,0.0
558204.59901257406,4122374.0504322448,-12500.0,-4309.0816321783504,-696.76158958675865,-131.93487356920272,-1254.2131473196901,-184.74852556433689,-268.49720094616396,2434.6327908979424,-3076.6866330014282,66.827650022881016,-66.827650022881016,3076.6866330014282,4814.0151097665257,0.0
563204.59901257406,4122374.0504322448,-12500.0,-5227.4181438022379,-883.27619838734461,-161.74992522104529,-1620.9759656569136,-243.48793636671803,-366.92223339925596,2996.603784347998,-3728.8089440657482,49.777891284820271,-49.777891284820271,3728.8089440657482,5921.5567406729042,0.0
568204.59901257406,4122374.0504322448,-12500.0,-6395.6307562908778,-1135.507471057663,-210.34347467565897,-2120.2671743621563,-324.88273272065226,-506.95977327880877,3730.7287810647399,-4553.5960631793041,10.155895636185505,-10.155895636185505,4553.5960631793041,7360.8749247636815,0.0
573204.59901257406,4122374.0504322448,-12500.0,-7890.7779561212965,-1481.5076514697901,-295.24531537701955,-2807.2827437884116,-438.0926342236196,-706.64244674310601,4701.3027640140481,-5599.7247776485019,-71.805677979767097,71.805677979767097,5599.7247776485019,9248.7546621152323,0.0
578204.59901257406,4122374.0504322448,-12500.0,-9811.8380209562183,-1962.6936066918647,-453.00006424859311,-3762.1595377650815,-594.67541655828302,-989.71804175351122,6000.0439807314442,-6924.5651246642428,-233.67378321897695,233.67378321897695,6924.5651246642428,11744.437228091516,0.0
583204.59901257406,4122374.0504322448,-12500.0,-12278.844077398824,-2639.7021297398164,-762.61725891937624,-5102.3166871282547,-806.25682527696188,-1383.7109969579062,7758.7097389403243,-8585.1768023134318,-548.79920162453618,548.79920162453618,8585.1768023134318,15060.269590439797,0.0
588204.59901257406,4122374.0504322448,-12500.0,-15411.216986600431,-3595.9984793312142,-1401.9805572884404,-7003.1588271949231,-1075.6848175676441,-1913.3913053449858,10164.577574735866,-10603.040496793943,-1164.3861554033338,1164.3861554033338,10603.040496793943,19461.587333787076,0.0
593204.59901257406,4122374.0504322448,-12500.0,-19216.039778677557,-4908.6273239185102,-2786.5987499964072,-9729.9686509686071,-1369.7077836820868,-2595.6790014735761,13455.166201357963,-12837.245593554417,-2374.1629912452563,2374.1629912452563,12837.245593554417,25199.776235410212,0.0
598204.59901257406,4122374.0504322448,-12500.0,-23117.008807379727,-6378.5700789238208,-5880.2326784269899,-13622.64519737421,-1514.2994754181157,-3477.4778325721963,17724.810292149938,-14553.852485890788,-4653.9028845411312,4653.9028845411312,14553.852485890788,32093.030295054385,0.0
603204.59901257406,4122374.0504322448,-12500.0,-24471.734934691609,-5805.6812616200641,-12396.417171405008,-18535.893970320183,-517.21350984912385,-4723.8266715876152,21745.155012248739,-13401.138005286155,-7638.0005975700788,7638.0005975700788,13401.138005286155,37815.199886168106,0.0
608204.59901257406,4122374.0504322448,-12500.0,-18500.662645593758,8676.788582903213,-19581.644190904339,-21226.589423085796,8617.5402570952792,-5435.6418241929941,25691.706725009288,-7720.0926486319404,-1084.3649026490552,1084.3649026490552,7720.0926486319404,44568.336436935977,0.0
613204.59901257406,4122374.0504322448,-12500.0,-32396.930300012806,57967.124876109505,13751.37322315824,-23548.305309645941,64980.119808114476,5141.3788964768692,92858.176257955842,-33084.950909766754,59215.099559677816,-59215.099559677816,33084.950909766754,161919.23896732827,0.0
618204.59901257406,4122374.0504322448,-12500.0,-121511.58928449456,40974.993355290157,25331.261377874791,-169950.62115259035,198089.92548688172,-11082.501446078169,274619.16124076641,-101332.16210519987,66573.827465402093,-66573.827465402093,101332.16210519987,476389.57907083177,1.0
623204.59901257406,4122374.0504322448,-12500.0,278829.71081039641,-202860.42524410714,-278093.70284212678,345028.0216404472,-507606.49582097912,186155.14159895689,708326.08141894103,315251.01719144167,-363164.74574881262,363164.74574881262,-315251.01719144167,1233175.881352646,1.0
628204.59901257406,4122374.0504322448,-12500.0,45758.767387614222,-7994.098118537956,-52042.009763174152,4851.0573603894145,-78224.97376631097,41121.27326639375,91924.008519489013,51899.700247437519,-43011.819898658476,43011.819898658476,-51899.700247437519,166591.42379751385,0.0
633204.59901257406,4122374.0504322448,-12500.0,-13991.22411516835,-6896.9314873462408,-27539.499461496926,29454.863738421907,-12666.45787449897,-6207.8500603955954,32156.934087582329,-485.90812375561109,-18709.848873524847,18709.848873524847,485.90812375561109,59802.804465875954,0.0
638204.59901257406,4122374.0504322448,-12500.0,-26159.147634371482,-11266.316116402226,-18537.363981687711,24334.783071294813,130.26062060803125,-5068.0600373475427,28864.464079139365,-12144.354439522287,-15171.596502380822,15171.596502380822,12144.354439522287,49995.593773673951,0.0
643204.59901257406,4122374.0504322448,-12500.0,-26155.757684391087,-10054.179677621862,-9387.0252927151996,17295.938609905006,2158.2155424732873,-3688.9455532970769,22599.185154416344,-15321.75316254493,-9065.0408755277131,9065.0408755277131,15321.75316254493,40297.516302906079,0.0
648204.59901257406,4122374.0504322448,-12500.0,-22119.84873328578,-7376.3076431288791,-4491.085839925081,12149.439699232404,2070.7257178957057,-2973.1610419872536,16730.798667058036,-14208.44079867403,-4830.934547676643,4830.934547676643,14208.44079867403,30963.795415705819,0.0
653204.59901257406,4122374.0504322448,-12500.0,-17823.201885108421,-5239.5761409223069,-2223.9999595070726,8678.2521521168601,1629.924572514283,-2326.0770759422849,12424.397934661392,-11974.164219873699,-2547.4524052943052,2547.4524052943052,11974.164219873699,23622.421910022567,0.0
658204.59901257406,4122374.0504322448,-12500.0,-14203.260414375103,-3748.0353460896758,-1172.7677192120389,6289.6881894856115,1203.7933966327023,-1734.405700622166,9362.8842394604162,-9777.9628481795371,-1352.2946991648432,1352.2946991648432,9777.9628481795371,18109.719836087363,0.0
663204.59901257406,4122374.0504322448,-12500.0,-11325.766535259019,-2723.0383420633789,-667.43631621162547,4610.8895113530234,869.73588998625485,-1255.0744201851917,7162.4257037061934,-7908.2021497907881,-715.9612869423986,715.9612869423986,7908.2021497907881,13999.182900719723,0.0
668204.59901257406,4122374.0504322448,-12500.0,-9075.9612745795566,-2012.5779434755823,-413.44801475084824,3416.9893048397494,626.67347795579042,-896.99536037486462,5556.6228203594565,-6391.5698324239929,-370.26669066994873,370.26669066994873,6391.5698324239929,10928.917390424618,0.0
673204.59901257406,4122374.0504322448,-12500.0,-7323.4237926383648,-1513.1560894919783,-279.35975509679139,2560.989989195431,454.72040331909619,-640.53267677518727,4368.5215565674162,-5184.4033084530238,-179.88843020353352,179.88843020353352,5184.4033084530238,8623.8276895339914,0.0
678204.59901257406,4122374.0504322448,-12500.0,-5956.0020653793854,-1156.5905060769132,-204.57465010312174,1942.1786755982132,333.86837571968084,-460.13291666127151,3478.2477905399883,-4229.8404265572481,-74.523521013728896,74.523521013728896,4229.8404265572481,6880.267844882108,0.0
683204.59901257406,4122374.0504322448,-12500.0,-4884.2324418830003,-897.94715369775008,-160.19655091580657,1490.6130475082434,248.56110619333003,-333.75905746503406,2802.9240776570523,-3475.2233701428768,-16.556283882923026,16.556283882923026,3475.2233701428768,5549.4847011055326,0.0
688204.59901257406,4122374.0504322448,-12500.0,-4038.9421863384,-707.37064037474238,-132.00052856248971,1157.6422412707909,187.74587128272717,-244.89988250059423,2284.432261474733,-2876.7159218074794,14.638221787706925,-14.638221787706925,2876.7159218074794,4523.6180291680994,0.0
693204.59901257406,4122374.0504322448,-12500.0,-3367.4436096040395,-564.80400151500783,-112.77196874165065,909.40005224631818,143.84396320589849,-181.91235944193309,1881.6083691844233,-2399.496902027272,30.595035728195171,-30.595035728195171,2399.496902027272,3724.6137943847239,0.0
698204.59901257406,4122374.0504322448,-12500.0,-2829.8693117703242,-456.60307893632751,-98.745204756447492,722.23887044937351,111.7182201132522,-136.79945483043369,1565.0521167146946,-2016.5263844196431,37.868471987075054,-37.868471987075054,2016.5263844196431,3095.859345847583,0.0
703204.59901257406,4122374.0504322448,-12500.0,-2396.0970157772372,-373.36040351254161,-87.896880368115418,579.55303171592368,87.884641100693827,-104.11809941841238,1313.57499194709,-1707.025931857941,40.229751007857772,-40.229751007857772,1707.025931857941,2596.0777002841164,0.0
708204.59901257406,4122374.0504322448,-12500.0,-2043.3225405532892,-308.49952933858856,-79.105834169467158,469.59205287316888,69.964225576509662,-80.162844934245982,1111.7477578807045,-1455.083725280268,39.867971138774465,-39.867971138774465,1455.083725280268,2194.9540164793707,0.0
713204.59901257406,4122374.0504322448,-12500.0,-1754.2110581167083,-257.35936100807965,-71.729186303432215,383.96659644513323,56.316011019768489,-62.397689734673207,948.2114828790078,-1248.5070014511293,38.059851496889337,-38.059851496889337,1248.5070014511293,1870.0372837369634,0.0
718204.59901257406,4122374.0504322448,-12500.0,-1515.5126578310865,-216.59158730257485,-65.383598770572064,316.62887770111394,45.794834460706824,-49.072765786576284,814.51179709183771,-1077.9228705150581,35.549489112552806,-35.549489112552806,1077.9228705150581,1604.5503826104487,0.0
723204.59901257406,4122374.0504322448,-12500.0,-1317.0338708390559,-183.75907583282529,-59.829887886304647,263.17497345586736,37.591477622436095,-38.968778901889358,704.28826334102394,-936.0908180458523,32.767283204206421,-32.767283204206421,936.0908180458523,1385.8385408506822,0.0
523204.59901257406,4127374.0504322448,-12500.0,-1454.3299402277662,-78.31624853513226,-49.816635242139256,-292.87130729142882,-16.053670678281975,-43.690910772088721,765.88695654363084,-1048.9775224480991,144.72750665581987,-144.72750665581987,1048.9775224480991,1502.5954489439791,0.0
528204.59901257406,4127374.0504322448,-12500.0,-1681.4922030040455,-87.872491972193444,-52.677864760086408,-354.10616913871331,-18.467607889620574,-55.301390890819825,889.21839736869981,-1214.6943142656867,172.23278532057225,-172.23278532057225,1214.6943142656867,1746.1761691209622,0.0
533204.59901257406,4127374.0504322448,-12500.0,-1956.5913016693264,-98.80256983558202,-55.470493953349695,-431.75434954857383,-21.269812783877761,-70.709342002200827,1039.6406112918387,-1415.6587612588123,206.4329103227069,-206.4329103227069,1415.6587612588123,2043.3795952288144,0.0
538204.59901257406,4127374.0504322448,-12500.0,-2292.3911437222891,-111.27883106607844,-58.110444543130562,-531.21014884844783,-24.495306924981545,-91.391637912282178,1224.7541780105544,-1661.293522763086,249.30180984471247,-249.30180984471247,1661.293522763086,2409.2031907249648,0.0
543204.59901257406,4127374.0504322448,-12500.0,-2705.7474950542551,-125.45815691538075,-60.517912670805806,-659.96875621601077,-28.149866421451392,-119.48648315159059,1454.7691790937495,-1964.03702820236,303.48509929623697,-303.48509929623697,1964.03702820236,2863.7395479768747,0.0
548204.59901257406,4127374.0504322448,-12500.0,-3219.1323080707648,-141.44575420842034,-62.664828761361733,-828.56778199807843,-32.17104626011708,-158.1217011787376,1743.5695979094853,-2340.4538731999373,372.54882957871109,-372.54882957871109,2340.4538731999373,3434.2090486553611,0.0
553204.59901257406,4127374.0504322448,-12500.0,-3862.7990410548168,-159.23044653210277,-64.691070625946622,-1052.0003145859016,-36.349942379841153,-211.91270355516465,2110.2828665196571,-2812.7967446557504,461.31601946710043,-461.31601946710043,2812.7967446557504,4157.917225330204,0.0
558204.59901257406,4127374.0504322448,-12500.0,-4677.8973598728126,-178.57512877529464,-67.173955220133251,-1351.8580776481817,-40.173364036597455,-287.70886317651019,2581.6359718980716,-3411.2199779554858,576.30639930010011,-576.30639930010011,3411.2199779554858,5086.6148086792673,0.0
563204.59901257406,4127374.0504322448,-12500.0,-5721.0160054860835,-198.84391534651556,-71.743561037864694,-1759.6150726787721,-42.501644597376306,-395.67624506443434,3195.5643848295845,-4176.9341965001531,726.26337208688278,-726.26337208688278,4176.9341965001531,6293.0119210948278,0.0
568204.59901257406,4127374.0504322448,-12500.0,-7070.9760153894558,-218.77706908322827,-82.486507622818536,-2321.7349288030123,-40.902052555246492,-550.75698575986905,4006.9101683139829,-5166.757973871845,922.6436790026678,-922.6436790026678,5166.757973871845,7880.7187431130269,0.0
573204.59901257406,4127374.0504322448,-12500.0,-8839.3826831136175,-236.36491906617894,-109.19499199719777,-3107.8190802076742,-30.250168263420136,-774.30396779216983,5096.8169926985274,-6459.8101650872532,1179.5994334989573,-1179.5994334989573,6459.8101650872532,9999.8994758403169,0.0
578204.59901257406,4127374.0504322448,-12500.0,-11188.100802705325,-249.56595875856516,-175.08575119191616,-4224.3590624094677,0.21391242639637209,-1094.9537848566367,6589.3219613462006,-8167.7319419945388,1511.8953870278083,-1511.8953870278083,8167.7319419945388,12873.407292909484,0.0
583204.59901257406,4127374.0504322448,-12500.0,-14360.678317758342,-260.93490462782557,-335.88259787659024,-5840.7193977376728,72.894399547301589,-1546.1814803757047,8683.5773562980157,-10451.051148685739,1925.5790781480182,-1925.5790781480182,10451.051148685739,16844.81329328064,0.0
588204.59901257406,4127374.0504322448,-12500.0,-18742.341889901523,-297.98536225912824,-729.83855460588131,-8247.7110637148398,232.57708122232088,-2156.9173062218788,11723.335248691817,-13544.936618795642,2383.3377679521818,-2383.3377679521818,13544.936618795642,22478.532979049207,0.0
593204.59901257406,4127374.0504322448,-12500.0,-24963.478905683885,-493.62959973911808,-1720.8385590692897,-12013.78761591393,555.82819095308355,-2946.6253064435418,16355.494810894414,-17780.893019888295,2676.6677964683677,-2676.6677964683677,17780.893019888295,30787.716496045949,0.0
598204.59901257406,4127374.0504322448,-12500.0,-33930.804068773345,-1381.2524414982645,-4364.4209181856622,-18415.1632320342,1096.4115075385578,-4050.2409353514417,23855.60470950228,-23429.382799748702,1933.703913029889,-1933.703913029889,23429.382799748702,43706.332807844992,0.0
603204.59901257406,4127374.0504322448,-12500.0,-45510.995201375445,-4778.4331543820235,-12201.918315571893,-30294.780791800789,1448.4865596944612,-6558.4136640413244,36418.837702945988,-29055.134032490671,-3306.588483292051,3306.588483292051,29055.134032490671,64478.209636455991,0.0
608204.59901257406,4127374.0504322448,-12500.0,-46599.257495991333,-13109.944165845567,-38406.076297066975,-50429.348015100913,-133.7599395252779,-14881.575590959901,54552.737716806289,-20367.623494246138,-24497.683529047659,24497.683529047659,20367.623494246138,94648.263879866921,0.0
613204.59901257406,4127374.0504322448,-12500.0,34640.287973693426,13954.698268426428,-75968.783318438043,-48184.697305811736,27446.831095169677,-24745.237707859971,79228.166897087591,50038.876194195851,-37141.224383800727,37141.224383800727,-50038.876194195851,137847.41947130341,1.0
618204.59901257406,4127374.0504322448,-12500.0,289014.06934501108,-176347.48188173943,-316101.04925060249,-114865.72986915777,143383.0912295412,149356.26267080929,404493.78558125452,333478.15982199227,-365007.00182908785,365007.00182908785,-333478.15982199227,704069.1747366871,1.0
623204.59901257406,4127374.0504322448,-12500.0,-44848.438802530916,-13074.130398255274,77572.170281774554,164839.01419644078,-162953.68226662732,-59372.286586884664,243919.3261186434,-58172.902246821104,40395.369270564173,-40395.369270564173,58172.902246821104,422688.98037277639,1.0
628204.59901257406,4127374.0504322448,-12500.0,-20547.739536409441,46994.209911011982,64789.475383164929,15926.274045243586,-86176.33424428018,11285.747546145421,107555.19535494695,-40689.476992714393,77212.91508702538,-77212.91508702538,40689.476992714393,187735.49926154208,1.0
633204.59901257406,4127374.0504322448,-12500.0,4538.2057430183577,15937.451283286999,588.65880917475897,4171.8682265955813,-22088.200231623774,1054.2583598824294,27264.213332370371,1889.8367637257352,12313.045085907132,-12313.045085907132,-1889.8367637257352,47873.406801531681,0.0
638204.59901257406,4127374.0504322448,-12500.0,-2703.2617723335848,-2630.5745678786152,-10949.722729137491,7707.9259054720887,-2773.8373486059591,-1729.5329226532815,9073.0637433125121,1905.7703005828303,-7812.4356905013101,7812.4356905013101,-1905.7703005828303,17293.372632312345,0.0
643204.59901257406,4127374.0504322448,-12500.0,-8451.6411446539714,-7810.4769069617896,-9293.8336048838901,7956.6277250829535,1965.4120647083541,-2021.7731676970197,11830.608305560587,-2480.8939288589117,-10085.626935300503,10085.626935300503,2480.8939288589117,20784.384360215274,0.0
648204.59901257406,4127374.0504322448,-12500.0,-10413.928376914397,-7884.8879936140138,-6135.4936847204108,6902.7249554726623,2683.2373396443177,-1917.6754089946191,10907.560376118303,-4985.9574529291167,-8053.5406082333539,8053.5406082333539,4985.9574529291167,20129.509526301572,0.0
653204.59901257406,4127374.0504322448,-12500.0,-10288.604892390831,-6562.164521261916,-3818.1054614646109,5625.5928330468223,2338.7224852063855,-1636.4835176362583,9113.1165393634055,-5779.0114789011977,-5716.6922870109274,5716.6922870109274,5779.0114789011977,17357.412915175064,0.0
658204.59901257406,4127374.0504322448,-12500.0,-9302.814198988619,-5122.3682089642944,-2377.8871518879628,4451.583346277931,1807.2903410061315,-1296.2367332704134,7374.1728468562815,-5651.4027065121318,-3918.3163576011743,3918.3163576011743,5651.4027065121318,14303.13177861539,0.0
663204.59901257406,4127374.0504322448,-12500.0,-8070.3848320719126,-3912.8813803774151,-1517.374823410408,3471.2590196145266,1336.5895972863214,-982.01240566743445,5909.6362271731996,-5128.4407215993797,-2669.2229364069167,2669.2229364069167,5128.4407215993797,11583.481482822022,0.0
668204.59901257406,4127374.0504322448,-12500.0,-6862.4731375979391,-2977.339741365854,-1002.1654929951377,2691.6146317222306,974.71725849864583,-727.39936284277144,4734.4974112819655,-4485.5567494206953,-1828.7068025766912,1828.7068025766912,4485.5567494206953,9338.4774537596495,0.0
673204.59901257406,4127374.0504322448,-12500.0,-5783.6384245556592,-2275.4987875375605,-687.8018996746257,2087.7497978672359,710.88431426140676,-534.34075487543953,3809.0891207440955,-3851.6842618667624,-1266.6027584098438,1266.6027584098438,3851.6842618667624,7543.1402276916433,0.0
678204.59901257406,4127374.0504322448,-12500.0,-4861.4949780301176,-1753.8566116062009,-490.7913449468727,1626.0872288163198,522.19210311471829,-392.65015754818603,3084.8364716786627,-3279.5387572502732,-888.85662196374574,888.85662196374574,3279.5387572502732,6125.3734443116828,0.0
683204.59901257406,4127374.0504322448,-12500.0,-4090.4193214090583,-1365.8135906256487,-363.49935672642346,1274.7247417336919,387.69255433484977,-290.08937166296892,2518.0900263348385,-2784.7060884748862,-632.43915322997759,632.43915322997759,2784.7060884748862,5009.0858380181871,0.0
688204.59901257406,4127374.0504322448,-12500.0,-3452.3968680615899,-1075.4043118372865,-278.56578257840494,1007.0684979505901,291.36844545530636,-216.08473164173265,2073.336272075403,-2365.966542150863,-456.19850144341433,456.19850144341433,2365.966542150863,4128.2130318203281,0.0
693204.59901257406,4127374.0504322448,-12500.0,-2926.5577835184704,-856.16621849009914,-220.02812071029601,802.30736609909354,221.7686594522894,-162.52299497044049,1722.5508184626708,-2015.4047296855442,-333.42911670461035,333.42911670461035,2015.4047296855442,3429.5693765854357,0.0
698204.59901257406,4127374.0504322448,-12500.0,-2493.2189885235871,-689.0014108008429,-178.38573557960459,644.67869520797535,170.92530343148903,-123.50218357819465,1443.6107997010406,-1723.2211471007918,-246.73947836352181,246.73947836352181,1723.2211471007918,2871.7866450886149,0.0
703204.59901257406,4127374.0504322448,-12500.0,-2135.3067609222262,-560.20500411390094,-147.85719293185275,522.43356930848483,133.34212608835719,-94.832180843199936,1219.6217471033949,-1479.8606784181336,-184.70825956931571,184.70825956931571,1479.8606784181336,2423.1780341678705,0.0
708204.59901257406,4127374.0504322448,-12500.0,-1838.6136011458664,-459.92857225025261,-124.84178551720021,426.87297991949055,105.22513282827254,-73.566771092905441,1038.0979927333285,-1276.8416621903352,-139.75258890478915,139.75258890478915,1276.8416621903352,2059.6111577485644,0.0
713204.59901257406,4127374.0504322448,-12500.0,-1591.5673095460593,-381.05626038159335,-107.04328784521135,351.56103240986238,83.939994638202791,-57.63712254821273,889.75115101172571,-1106.9696645902136,-106.77645200666905,106.77645200666905,1106.9696645902136,1762.7058877573972,0.0
718204.59901257406,4127374.0504322448,-12500.0,-1384.8476225419251,-318.40769065946114,-92.962311540041043,291.72381676889182,67.641847111843632,-45.585648347416168,767.56700818117054,-964.28887905547219,-82.311542027330574,82.311542027330574,964.28887905547219,1518.4210242638715,0.0
723204.59901257406,4127374.0504322448,-12500.0,-1210.9839843560387,-268.1782804976616,-81.596458805338628,243.80283579664246,55.025657406129916,-36.379061305535316,666.18683620306865,-843.9308579235576,-63.967314725405743,63.967314725405743,843.9308579235576,1315.9751016332968,0.0
523204.59901257406,4132374.0504322448,-12500.0,-1488.3318471746352,30.90145959975338,-53.163203864024844,-299.34452169148864,6.4345871575561358,-44.601712533248616,781.80426517756223,-1081.5235201480209,235.49012845920856,-235.49012845920856,1081.5235201480209,1530.9735001382933,0.0
528204.59901257406,4132374.0504322448,-12500.0,-1720.3697718458927,45.699983482510447,-57.427087390045088,-361.89544779777191,10.097750601900547,-56.45948300311953,907.89006544337599,-1252.2816871753555,282.42840528525426,-282.42840528525426,1252.2816871753555,1779.4562886631873,0.0
533204.59901257406,4132374.0504322448,-12500.0,-2001.0304525602498,66.052496380195379,-62.231216589285353,-441.16331315897673,15.405765604519059,-72.193215935708409,1061.6668028350798,-1459.1341402438018,341.35808718920975,-341.35808718920975,1459.1341402438018,2082.643372836299,0.0
538204.59901257406,4132374.0504322448,-12500.0,-2343.0906133958547,94.201810671785708,-67.78296236502635,-542.61217406580533,23.140982007138511,-93.307690842613368,1250.8931563286631,-1711.6051902718084,416.01849152123918,-416.01849152123918,1711.6051902718084,2455.8322787778661,0.0
543204.59901257406,4132374.0504322448,-12500.0,-2763.3369459557052,133.40957718149161,-74.449528212473297,-673.81607769808829,34.500688261216204,-121.97928081035397,1485.9872654258047,-2022.2012439980699,511.52057692168091,-511.52057692168091,2022.2012439980699,2919.5242809346569,0.0
548204.59901257406,4132374.0504322448,-12500.0,-3284.0118328174312,188.47843615872671,-82.897666097208983,-845.392582454342,51.34505609846034,-161.38728192136335,1781.1108935969744,-2407.4704844163525,634.91888656352751,-634.91888656352751,2407.4704844163525,3501.5118833824113,0.0
553204.59901257406,4132374.0504322448,-12500.0,-3934.8406996634694,266.57449417382003,-94.361598301377811,-1072.3951950945739,76.612050607836309,-216.21419182718373,2155.7717753323905,-2889.4717202022371,796.04516446977686,-796.04516446977686,2889.4717202022371,4239.9344226978583,0.0
558204.59901257406,4132374.0504322448,-12500.0,-4755.9018987867703,378.53791962564043,-111.16513494480073,-1376.4075244006719,115.02445880546259,-293.3893405786493,2637.2360915942595,-3497.8170486163281,1008.7249052105808,-1008.7249052105808,3497.8170486163281,5187.8183822459514,0.0
563204.59901257406,4132374.0504322448,-12500.0,-5801.7616819497125,541.00308323267063,-137.7574489516922,-1788.7228661944357,174.32031474121877,-403.15190390476818,3264.2555239710023,-4272.5376757212634,1292.5558911369026,-1292.5558911369026,4272.5376757212634,6419.9678389075716,0.0
568204.59901257406,4132374.0504322448,-12500.0,-7147.6113498551294,779.86702908438929,-182.81156885604457,-2355.2323255142933,267.43899839027677,-560.43514023236764,4093.0276460472455,-5268.173592410958,1675.4893921821895,-1675.4893921821895,5268.173592410958,8043.7223664186286,0.0
573204.59901257406,4132374.0504322448,-12500.0,-8898.9611206125246,1136.0296400782875,-263.57804568876594,-3144.1523963233899,416.49466409464003,-786.2587725058811,5207.2655961617029,-6559.9037825295563,2197.5323449395141,-2197.5323449395141,6559.9037825295563,10216.587689140926,0.0
578204.59901257406,4132374.0504322448,-12500.0,-11208.734685414443,1674.9772697118178,-415.14955799613796,-4259.0923082699228,660.17638016561432,-1107.8530403574566,6736.7006289841065,-8253.77899959774,2915.9544642874816,-2915.9544642874816,8253.77899959774,13177.568478456365,0.0
583204.59901257406,4132374.0504322448,-12500.0,-14312.584384433736,2502.9133992472393,-710.73015269531481,-5864.6652878967361,1067.9288845139411,-1553.9717264655192,8895.4119365838305,-10507.191348572058,3912.4842878270838,-3912.4842878270838,10507.191348572058,17310.398190144137,0.0
588204.59901257406,4132374.0504322448,-12500.0,-18614.709168339577,3794.305075069753,-1307.2538175034035,-8250.0338845911319,1768.2162716988864,-2139.2908207407136,12073.35495930578,-13578.923662657846,5303.5418973142559,-5303.5418973142559,13578.923662657846,23293.755593752554,0.0
593204.59901257406,4132374.0504322448,-12500.0,-24919.867894644558,5841.6325820573484,-2551.3204713712025,-12027.870808651925,3008.9636150039696,-2846.9162088764883,17084.302854575417,-17968.374794540494,7257.9488020920044,-7257.9488020920044,17968.374794540494,32517.254984763636,0.0
598204.59901257406,4132374.0504322448,-12500.0,-35080.038602969798,9167.1668303139813,-5238.7900364148891,-18845.378869404998,5309.372243867173,-3774.7376151306594,25895.56859659576,-24813.505920705771,10044.873497470391,-10044.873497470391,24813.505920705771,48357.592742729787,0.0
603204.59901257406,4132374.0504322448,-12500.0,-53763.133995679964,14943.729101024583,-11381.503188149236,-34048.757875699492,10014.772577670166,-6582.4951043906258,43978.666490254822,-36969.248742990589,14224.908025910287,-14224.908025910287,36969.248742990589,80445.066745312855,0.0
608204.59901257406,4132374.0504322448,-12500.0,-93640.844695027321,27356.4344402887,-28364.039714858507,-77469.511138230984,23033.06123490155,-23742.57928936755,90225.072490901613,-61616.423668845229,21038.523084061446,-21038.523084061446,61616.423668845229,162558.78336528252,0.0
613204.59901257406,4132374.0504322448,-12500.0,-273631.71891731647,42139.796975391124,-115498.74075942267,-319663.29765384778,93630.228014684923,-165946.0313193067,338353.57756610308,-166077.64024939924,12997.081293594107,-12997.081293594107,166077.64024939924,598125.91105227324,1.0
618204.59901257406,4132374.0504322448,-12500.0,-147578.30928476329,-240292.97850243951,-30943.506688815392,233757.32391045213,-155027.35073817903,121242.44720689756,385268.69968900643,-79397.613537591722,-185241.9644760302,185241.9644760302,79397.613537591722,681002.54394458071,1.0
623204.59901257406,4132374.0504322448,-12500.0,17892.491657107483,-57759.675012509244,15288.252421358742,26273.906153199598,-32581.039011016746,1959.5969826240823,67665.299303772306,12589.365010296608,-40391.659656729258,40391.659656729258,-12589.365010296608,124431.5596649842,0.0
628204.59901257406,4132374.0504322448,-12500.0,-11244.633230198928,-8822.876638394644,42767.395529557092,11672.001945472288,-31008.801035491862,3556.5383325756106,40883.837104984908,-22008.040524173011,18802.260253731831,-18802.260253731831,22008.040524173011,76575.493442740641,0.0
633204.59901257406,4132374.0504322448,-12500.0,2857.4115812424516,7184.666685871045,15264.266728786639,95.391617486307837,-15789.385665651678,2070.2460455570431,18549.857019520648,-3605.5658893842328,13844.742799289794,-13844.742799289794,3605.5658893842328,32666.735939643833,0.0
638204.59901257406,4132374.0504322448,-12500.0,5352.9183906178905,1788.2261418473031,-1787.3637709373343,161.00621814852792,-4342.4172573447931,326.83898839973398,5697.1782630552298,4406.9432670705582,-442.88633959180515,442.88633959180515,-4406.9432670705582,10324.643748162465,0.0
643204.59901257406,4132374.0504322448,-12500.0,1921.180257576601,-3358.1591273868053,-6277.5835197160568,1703.9498895387187,514.58997952612083,-515.97223975179179,5633.3859122924459,3796.8423741395445,-6516.3978314498881,6516.3978314498881,-3796.8423741395445,9824.1663539489637,0.0
648204.59901257406,4132374.0504322448,-12500.0,-1453.4499507394125,-5363.9253957464871,-5966.3554304709223,2540.6659068193335,1998.2445751657792,-860.76691581090176,6509.4074211021252,1362.7551650333448,-7396.1976657091109,7396.1976657091109,-1362.7551650333448,11876.501690949164,0.0
653204.59901257406,4132374.0504322448,-12500.0,-3480.5742077634895,-5486.5705324166511,-4566.1883557516103,2725.4415439276681,2132.740884775114,-914.98001329460772,6216.6523243525207,-593.66491792325587,-6379.7168831824129,6379.7168831824129,593.66491792325587,11695.43891861006,0.0
658204.59901257406,4132374.0504322448,-12500.0,-4370.357947327906,-4843.7955412213323,-3256.4864942822896,2547.5417415659335,1827.3054724356293,-820.7980204346959,5473.5747217017988,-1741.6468561005436,-4987.2662381945702,4987.2662381945702,1741.6468561005436,10476.661691320573,0.0
663204.59901257406,4132374.0504322448,-12500.0,-4549.2403601645938,-4011.7374465983053,-2276.8703620642423,2219.5370677865349,1442.2202512613173,-675.87199627326027,4643.5742872160827,-2269.3070933309668,-3744.1743582134891,3744.1743582134891,2269.3070933309668,8981.4289506492441,0.0
668204.59901257406,4132374.0504322448,-12500.0,-4348.191756116621,-3227.8806932356324,-1596.4123483695648,1861.6306766592347,1099.7550690844603,-531.90957060298479,3873.2022505738082,-2412.2926525456774,-2769.0292265180265,2769.0292265180265,2412.2926525456774,7544.3862686223938,0.0
673204.59901257406,4132374.0504322448,-12500.0,-3974.6123992461394,-2567.0762826515088,-1134.9595902331841,1530.308461132754,828.03786688343087,-409.16525071419727,3209.8166041313411,-2344.5872664948115,-2042.9885760392301,2042.9885760392301,2344.5872664948115,6285.182848769914,0.0
678204.59901257406,4132374.0504322448,-12500.0,-3545.2144103576807,-2036.5951338336131,-822.62669325000161,1245.9690198223291,622.49602486176616,-311.70683635790846,2658.3635466742194,-2175.1991040507246,-1513.7225621144935,1513.7225621144935,2175.1991040507246,5227.5736838187613,0.0
683204.59901257406,4132374.0504322448,-12500.0,-3120.2615290613335,-1620.057567182575,-609.29926499618421,1011.2735383296662,470.05515911309868,-237.01593159799174,2207.5624087445995,-1966.7305517998834,-1130.2656055565476,1130.2656055565476,1966.7305517998834,4356.9431259024941,0.0
688204.59901257406,4132374.0504322448,-12500.0,-2727.681243686045,-1295.8045772753162,-461.42138033110911,821.43811799232503,357.66124995815613,-180.72547597770131,1841.5673830323155,-1752.7847852569025,-851.97058981615407,851.97058981615407,1752.7847852569025,3646.3994271772726,0.0
693204.59901257406,4132374.0504322448,-12500.0,-2377.9070581764772,-1043.7151775787941,-357.079741423786,669.37267698251401,274.66692667103513,-138.56772955629651,1544.8057828690039,-1550.0249937691642,-648.78667150588751,648.78667150588751,1550.0249937691642,3067.8322649230076,0.0
698204.59901257406,4132374.0504322448,-12500.0,-2072.444781884521,-847.16491745622955,-282.04184810784233,547.98362245183284,213.03680014705259,-106.9985254239549,1303.7114137596616,-1365.6693293673475,-499.21114478183023,499.21114478183023,1365.6693293673475,2596.0851848016168,0.0
703204.59901257406,4132374.0504322448,-12500.0,-1808.5943923677132,-693.11246927572688,-227.0225632812392,451.04881478205255,166.91123400236594,-83.275073649953185,1107.1373245873904,-1201.8857906177666,-388.05946286077921,388.05946286077921,1201.8857906177666,2210.0922235716607,0.0
708204.59901257406,4132374.0504322448,-12500.0,-1581.9589351933878,-571.57518903046787,-185.90430295051439,373.43258141105088,132.07836436310299,-65.346019867970995,947.38561996728492,-1058.2827372099091,-304.64128762458108,304.64128762458108,1058.2827372099091,1892.7739265695034,0.0
713204.59901257406,4132374.0504322448,-12500.0,-1387.7280768857956,-474.995534860281,-154.60462482759894,311.02764464698248,105.52333567748484,-51.702238809410005,817.75120546355686,-933.28662339987329,-241.41128101087486,241.41128101087486,933.28662339987329,1630.5079206397629,0.0
718204.59901257406,4132374.0504322448,-12500.0,-1221.2886439888998,-397.67114334773925,-130.35967426231053,260.60227505855892,85.08444927676311,-41.240766200808217,709.88027638413871,-824.87847907400783,-193.01312645700943,193.01312645700943,824.87847907400783,1412.507110741486,0.0
723204.59901257406,4132374.0504322448,-12500.0,-1078.4851521684029,-335.2954809495684,-111.26959715124467,219.63404027275976,69.204064814863784,-33.156251473217594,619.49363721897134,-730.97538775597116,-155.61553441272031,155.61553441272031,730.97538775597116,1230.2496449787343,0.0
523204.59901257406,4137374.0504322448,-12500.0,-1482.0825569297451,138.79048302389995,-70.147612385003313,-298.47904217826255,28.751421577275156,-44.537689612169324,785.0540695700704,-1079.6998222652091,311.02238606654294,-311.02238606654294,1079.6998222652091,1535.5498180723989,0.0
528204.59901257406,4137374.0504322448,-12500.0,-1707.8694665784233,176.93744809320799,-79.748631696018819,-359.92212624368278,38.317464060041125,-56.26138295479133,910.3581648918597,-1245.8926577437085,372.58119936533035,-372.58119936533035,1245.8926577437085,1782.2811954093479,0.0
533204.59901257406,4137374.0504322448,-12500.0,-1979.1666156047445,226.99944922273468,-91.884734154527024,-437.41898265381957,51.445375161656386,-71.76332351608275,1062.725148790144,-1445.7148213432686,449.58291514499547,-449.58291514499547,1445.7148213432686,2082.4852397604304,0.0
538204.59901257406,4137374.0504322448,-12500.0,-2307.2037843114449,293.30758670413911,-107.63594284274853,-536.04715853010214,69.657958288156351,-92.48173622094032,1249.5549438918601,-1687.4209391032348,546.69270753079968,-546.69270753079968,1687.4209391032348,2450.7846555680358,0.0
543204.59901257406,4137374.0504322448,-12500.0,-2706.381699790647,382.00999171415975,-128.6827635828717,-662.75245831096299,95.223983090885795,-120.47909838720267,1480.6979407161705,-1981.543724611633,670.20104870885541,-670.20104870885541,1981.543724611633,2906.6244804006456,0.0
548204.59901257406,4137374.0504322448,-12500.0,-3195.2097077601543,501.93765002884163,-157.6993228795383,-827.11583400389213,131.57256957018356,-158.73718095505387,1769.4062843888839,-2341.5208677160335,828.64534830607113,-828.64534830607113,2341.5208677160335,3476.1239845615055,0.0
553204.59901257406,4137374.0504322448,-12500.0,-3797.4793160451354,665.93100966045108,-199.03888309388071,-1042.4516955113356,183.96502700494713,-211.59129222824924,2133.7091423283532,-2784.4335599219385,1033.6731579513666,-1033.6731579513666,2784.4335599219385,4194.7348367568784,0.0
558204.59901257406,4137374.0504322448,-12500.0,-4543.6688955528462,892.89550525053414,-259.95674219042866,-1327.3720792211043,260.59988632503536,-285.35205440086497,2598.4289168482451,-3331.7917401010782,1301.2224925994251,-1301.2224925994251,3331.7917401010782,5111.0979729826968,0.0
563204.59901257406,4137374.0504322448,-12500.0,-5472.4966397797634,1211.02080938522,-352.84384117539838,-1707.986881466501,374.45463963314455,-389.14154136993238,3198.1939288052522,-4010.1797007681907,1653.0869157275513,-1653.0869157275513,4010.1797007681907,6292.7220878105254,0.0
568204.59901257406,4137374.0504322448,-12500.0,-6632.3748555129951,1662.8851274267697,-499.41625579837722,-2220.9338381565872,546.39432351997129,-535.85449275936139,3982.0678688945732,-4851.3183383913574,2118.8700578085654,-2118.8700578085654,4851.3183383913574,7834.5310762023846,0.0
573204.59901257406,4137374.0504322448,-12500.0,-8082.2559262295426,2313.6685994163199,-738.81259118756975,-2917.4523324930788,810.47816304159221,-742.76854152761973,5021.0037518149384,-5890.6069454616481,2738.1273178413971,-2738.1273178413971,5890.6069454616481,9872.2601984825087,0.0
578204.59901257406,4137374.0504322448,-12500.0,-9891.04213812542,3264.6878148683422,-1143.8051328740755,-3868.8998362224265,1223.1315903392465,-1030.2567696180008,6420.8190010769658,-7162.2911414898299,3561.9632830221594,-3561.9632830221594,7162.2911414898299,12605.08440977166,0.0
583204.59901257406,4137374.0504322448,-12500.0,-12134.538340728514,4676.8092123240331,-1854.7580291747811,-5175.5182945436591,1879.3935982208468,-1414.6557351067681,8347.6741916949031,-8687.6166688423564,4652.1451078859518,-4652.1451078859518,8687.6166688423564,16339.023567786657,0.0
588204.59901257406,4137374.0504322448,-12500.0,-14887.244269081872,6814.9312761113179,-3155.4776719131942,-6987.3206548453618,2943.7390954870157,-1888.2816439733549,11085.761130106546,-10446.720344699794,6072.6601030021866,-6072.6601030021866,10446.720344699794,21584.744510381905,0.0
593204.59901257406,4137374.0504322448,-12500.0,-18182.439626058367,10144.902122685755,-5660.6348032174728,-9572.0976239785541,4719.8218172366451,-2389.1734284372951,15181.883202655539,-12293.677612033123,7855.3107668258708,-7855.3107668258708,12293.677612033123,29307.423740980685,0.0
598204.59901257406,4137374.0504322448,-12500.0,-21701.462017174996,15554.840131249404,-10858.686605016868,-13512.257723153092,7859.5207861343224,-2861.8386926134581,21797.088082677117,-13561.926721718206,9821.0814770016441,-9821.0814770016441,13561.926721718206,41558.898721115474,0.0
603204.59901257406,4137374.0504322448,-12500.0,-22462.385793257727,24489.779633808404,-23013.35700095048,-19750.914544731841,14074.44453300561,-3915.5365361652753,33307.491777515308,-10730.343292896725,10245.672631315525,-10245.672631315525,10730.343292896725,62596.499334279368,0.0
608204.59901257406,4137374.0504322448,-12500.0,-1025.2607681246345,31998.05603516546,-54955.353639433364,-23650.367360692031,26346.10544172419,-7964.6774791034786,52764.521220771363,15245.020028587416,-5172.9773221927135,5172.9773221927135,-15245.020028587416,97027.651978783775,0.0
613204.59901257406,4137374.0504322448,-12500.0,75509.764669396245,-51547.788115832926,-58281.720735529008,21192.751120906119,-2459.0648432064645,4378.5407796834716,86914.879042574015,79365.894395439464,-86079.222113585347,86079.222113585347,-79365.894395439464,150930.85488017849,1.0
618204.59901257406,4137374.0504322448,-12500.0,33128.711005108504,5781.8765644115638,137160.00549463445,-16974.936605551691,-123046.05298758256,47279.112639820763,132317.41128827911,-22270.395698629236,76301.528137619971,-76301.528137619971,22270.395698629236,236508.7496807655,0.0
623204.59901257406,4137374.0504322448,-12500.0,51383.148526712102,14680.410649166393,40795.421725518798,-23906.78270808153,-50492.180473318091,16559.88190182608,60454.41029143714,22964.475568638634,26319.226659103268,-26319.226659103268,-22964.475568638634,104716.70181773456,0.0
628204.59901257406,4137374.0504322448,-12500.0,23560.19031901125,3107.0701135818645,23297.495648562264,-8812.6913603698013,-23039.668485540093,6412.9472738074892,26554.245178858509,9267.6195081633941,11755.610880059217,-11755.610880059217,-9267.6195081633941,46303.603272991837,0.0
633204.59901257406,4137374.0504322448,-12500.0,13337.295140407554,5555.7404651438774,12740.489514801962,-5708.0150808765202,-12208.233511434015,3426.674029615277,15565.888718974071,5097.9943380636287,9432.5416329066793,-9432.5416329066793,-5097.9943380636287,27020.877753545006,0.0
638204.59901257406,4137374.0504322448,-12500.0,10408.201514517661,3862.6596342973075,2313.7270839012449,-3810.9801265060773,-5021.4755977278728,1655.5452660984781,8723.0049698042476,6587.1108998558821,2698.4025407825839,-2698.4025407825839,-6587.1108998558821,15338.126807696633,0.0
643204.59901257406,4137374.0504322448,-12500.0,7262.3750087077897,339.8931020398789,-3034.7907003153905,-1848.5678963685853,-971.78761987709549,574.4198664003942,5525.6053884999856,6349.026775969518,-2608.0057992026177,2608.0057992026177,-6349.026775969518,9763.4363094702239,0.0
648204.59901257406,4137374.0504322448,-12500.0,3968.7817184860351,-2178.5665566408743,-4522.1036493189513,-361.36482089833362,840.62624528398374,-27.35538882374491,4857.608732545079,4621.3337127780605,-4920.2649431957552,4920.2649431957552,-4621.3337127780605,8419.2441345227344,0.0
653204.59901257406,4137374.0504322448,-12500.0,1328.2687835925574,-3323.3949816116587,-4255.7551018931617,530.53557423996779,1425.811178879148,-308.92046402854982,4538.4550020805364,2675.5828586818584,-5257.0655026293807,5257.0655026293807,-2675.5828586818584,8049.7010300930924,0.0
658204.59901257406,4137374.0504322448,-12500.0,-447.33626218500166,-3546.4360909580137,-3461.4685371017317,959.20739341662477,1449.2025867261852,-398.78593202142707,4108.4928179881981,1116.6918348091738,-4701.7028210590224,4701.7028210590224,-1116.6918348091738,7485.0594751800927,0.0
663204.59901257406,4137374.0504322448,-12500.0,-1489.6719056524314,-3302.8238131996804,-2651.1964546272175,1095.8506566928415,1263.40505313314,-390.63432041483958,3606.2485315661083,56.087083203074144,-3883.6095913150239,3883.6095913150239,-56.087083203074144,6704.5328264109057,0.0
668204.59901257406,4137374.0504322448,-12500.0,-2014.1532838074424,-2880.4438409637623,-1983.1767953186393,1073.6792324790956,1030.5290047750098,-342.06947624232311,3103.1362824006815,-588.96943745429257,-3086.5348936749415,3086.5348936749415,588.96943745429257,5854.9321133724397,0.0
673204.59901257406,4137374.0504322448,-12500.0,-2209.3359018508031,-2428.5670554696135,-1475.6759433445832,977.79563225146535,814.77313765630197,-283.34090730463441,2641.154231054285,-939.52896090590673,-2409.3472085131971,2409.3472085131971,939.52896090590673,5038.6824436132483,0.0
678204.59901257406,4137374.0504322448,-12500.0,-2210.951462363973,-2012.9500116548813,-1103.1713465641233,856.38685022879054,635.47239481149006,-228.00872506300192,2237.0324238711105,-1099.053205432097,-1868.2254428190649,1868.2254428190649,1099.053205432097,4304.6658642600041,0.0
683204.59901257406,4137374.0504322448,-12500.0,-2107.6441711811008,-1655.9230584194258,-833.08711734548365,734.10559332547734,493.62905915942656,-180.86009003913566,1892.9888143169994,-1142.0988353019065,-1448.3523238734479,1448.3523238734479,1142.0988353019065,3668.130569349612,0.0
688204.59901257406,4137374.0504322448,-12500.0,-1953.903034056555,-1359.6112602540725,-637.37421027220591,622.08952824468179,383.98948131446747,-142.6116447069553,1604.3751908686484,-1118.1150882718514,-1126.8555143630749,1126.8555143630749,1118.1150882718514,3127.037825866581,0.0
693204.59901257406,4137374.0504322448,-12500.0,-1781.6815769297809,-1117.9600623391534,-494.70552506548296,524.28614808580858,300.06662156199263,-112.35788871565364,1364.0082698655863,-1058.3201651411059,-881.75662117987338,881.75662117987338,1058.3201651411059,2671.8572669344831,0.0
698204.59901257406,4137374.0504322448,-12500.0,-1608.8394256408624,-922.48143973350614,-389.6948628302589,441.09563433911524,235.9760590586302,-88.724363757645648,1164.3441547572834,-981.73343874446778,-694.75205736752901,694.75205736752901,981.73343874446778,2290.7399352736356,0.0
703204.59901257406,4137374.0504322448,-12500.0,-1444.7266099781225,-764.76331894459861,-311.4922375317629,371.34257792838633,186.93094941846863,-70.355337412073354,998.43894348404297,-899.56708730637342,-551.52312658594201,551.52312658594201,899.56708730637342,1971.987840551373,0.0
708204.59901257406,4137374.0504322448,-12500.0,-1293.7036828851742,-637.41489877681693,-252.50746377948747,313.28993401534427,149.22636532097525,-56.086097130524436,860.28977562355306,-818.17637309395025,-441.20401064703026,441.20401064703026,818.17637309395025,1705.0908000448014,0.0
713204.59901257406,4137374.0504322448,-12500.0,-1157.2907104807796,-534.29777051943142,-207.43016199444054,265.12851599085309,120.06336562736992,-44.977027042537351,744.87921967425814,-740.95570462602984,-355.66815161094826,355.66815161094826,740.95570462602984,1481.0405985364373,0.0
718204.59901257406,4137374.0504322448,-12500.0,-1035.4537678983936,-450.45968396202466,-172.52685325839661,225.1920393977347,97.350839333989782,-36.294202480653013,648.10655077139825,-669.52902767587739,-288.87251088749485,288.87251088749485,669.52902767587739,1292.3113859917173,0.0
723204.59901257406,4137374.0504322448,-12500.0,-927.36212972314615,-381.96634695256608,-145.15283291228724,192.03394031743161,79.532567232643871,-29.473891585826358,566.95733251153251,-604.48572515083879,-236.32671731424287,236.32671731424287,604.48572515083879,1132.7049068052856,0.0
523204.59901257406,4142374.0504322448,-12500.0,-1437.8049421486739,238.46635758872677,-99.234296679898137,-290.63564221817904,49.608955749327308,-43.541120621102799,775.93983694733879,-1045.1195745666932,367.05329342504405,-367.05329342504405,1045.1195745666932,1516.8425559545331,0.0
528204.59901257406,4142374.0504322448,-12500.0,-1647.3254160183044,296.65934774861597,-117.39231026680416,-348.75033824896394,64.407292788143465,-54.776321053865267,897.10979975137298,-1198.0192708795953,437.16929276236795,-437.16929276236795,1198.0192708795953,1755.4942165170748,0.0
533204.59901257406,4142374.0504322448,-12500.0,-1896.0454952382199,371.64495653232166,-141.09208894267914,-421.41236322035985,84.342493740406439,-69.534209243358376,1043.5942265598526,-1379.2680569335573,523.91046776421877,-523.91046776421877,1379.2680569335573,2044.2672923726693,0.0
538204.59901257406,4142374.0504322448,-12500.0,-2192.4500922822554,469.08587546107219,-172.64581444848449,-512.93968016537849,111.48141013611026,-89.105837002565352,1221.9856033428237,-1594.7870710035847,631.86841493985435,-631.86841493985435,1594.7870710035847,2396.2581223558127,0.0
543204.59901257406,4142374.0504322448,-12500.0,-2546.8446075173779,596.82068224101158,-215.54243106166243,-629.08847742278419,148.84061021641332,-115.31286101765933,1440.9067930548024,-1851.6142041369649,767.00424598858569,-767.00424598858569,1851.6142041369649,2828.6009825930169,0.0
548204.59901257406,4142374.0504322448,-12500.0,-2971.5437258653637,765.78426653531073,-275.14159266284281,-777.54761697389301,200.87448398981348,-150.73745191992757,1711.714815267361,-2157.881925957854,937.02371202117888,-937.02371202117888,2157.881925957854,3363.8629041936965,0.0
553204.59901257406,4142374.0504322448,-12500.0,-3480.8298421756708,991.33370733625236,-359.83037865607196,-968.5724821132419,274.23596868123639,-199.04282546386736,2049.4631867240105,-2522.5012956295986,1151.7786289560322,-1151.7786289560322,2522.5012956295986,4031.941191607882,0.0
558204.59901257406,4142374.0504322448,-12500.0,-4090.3537909590336,1295.1422157937845,-482.98620220039135,-1215.7440998155621,378.9667078065911,-265.39614181266342,2474.2155819643485,-2954.2079611070872,1423.5785072666981,-1423.5785072666981,2954.2079611070872,4872.6278545836731,0.0
563204.59901257406,4142374.0504322448,-12500.0,-4815.3099605538182,1707.848653205062,-666.37069552011144,-1536.7458791360934,530.35568635744767,-356.95796211454922,3012.8303015901856,-3459.2820309189456,1767.103024245559,-1767.103024245559,3459.2820309189456,5939.02383589282,0.0
568204.59901257406,4142374.0504322448,-12500.0,-5666.0656718064611,2272.6041415272671,-946.11147649349789,-1953.8261125413003,751.80742200030795,-483.25507724070366,3701.3794061237495,-4036.5899960333772,2198.164900956519,-2198.164900956519,4036.5899960333772,7301.9864448923781,0.0
573204.59901257406,4142374.0504322448,-12500.0,-6638.6264853956209,3049.358935031963,-1383.452446807057,-2493.1098612497617,1079.1323005963591,-655.8507084620212,4588.4343030419532,-4667.2714004767849,2729.5496843155283,-2729.5496843155283,4667.2714004767849,9055.7203955627974,0.0
578204.59901257406,4142374.0504322448,-12500.0,-7694.7261323195198,4118.7039014222992,-2084.4645857595228,-3180.921009042429,1566.5397638830211,-885.77389264522822,5739.5995111583779,-5293.7226738450181,3359.7889074865443,-3359.7889074865443,5293.7226738450181,11324.528408544153,0.0
583204.59901257406,4142374.0504322448,-12500.0,-8720.5915026300099,5580.7643367259607,-3236.8734101535501,-4033.4786951153906,2293.7541487918566,-1175.3142175707605,7243.9087973909773,-5776.7032852714683,4044.9220123296882,-4044.9220123296882,5776.7032852714683,14270.661058574669,0.0
588204.59901257406,4142374.0504322448,-12500.0,-9438.362286204223,7533.4554043640046,-5179.6023652983095,-5033.2195203331366,3370.7173544862312,-1498.8836447406632,9223.0337216443058,-5804.8899938441173,4627.7570374744719,-4627.7570374744719,5804.8899938441173,18102.595874369294,0.0
593204.59901257406,4142374.0504322448,-12500.0,-9197.1035259890905,9969.9716635749155,-8528.9634888455912,-6075.2213894603692,4926.5715829673163,-1773.4726174656155,11842.492135357103,-4690.2196519848612,4651.3964587256987,-4651.3964587256987,4690.2196519848612,23072.406773912699,0.0
598204.59901257406,4142374.0504322448,-12500.0,-6437.077520960298,12331.323475702171,-14330.800663753978,-6804.5652546080109,7021.1397344938814,-1858.2083464557361,15296.581239583002,-886.45222598653982,2830.1092370778169,-2830.1092370778169,886.45222598653982,29366.671312163511,0.0
603204.59901257406,4142374.0504322448,-12500.0,2349.3612658335182,11579.448249599947,-23436.117772635189,-5936.9045319855823,9058.9470199951938,-1662.4987961809395,19637.631221886801,8718.2078724393286,-4305.4351515845046,4305.4351515845046,-8718.2078724393286,36492.782187175253,0.0
608204.59901257406,4142374.0504322448,-12500.0,19881.336270647444,-3136.6283870820248,-28566.914031331919,452.17600984344375,6222.1826416743079,-770.70043241598773,25089.959725276094,24530.38113453054,-21764.63255669297,21764.63255669297,-24530.38113453054,43811.641223525017,0.0
613204.59901257406,4142374.0504322448,-12500.0,22829.305247790224,-33550.649774989637,10799.015088458091,11180.803660438509,-17348.089421883909,3879.6138196137986,38757.7371759046,15832.37418163885,-24395.652623582151,24395.652623582151,-15832.37418163885,70218.846704079042,0.0
618204.59901257406,4142374.0504322448,-12500.0,5694.0141903433068,-11431.040119101688,70056.34006177813,838.14187346902327,-45008.470701507744,9303.6079187749983,55440.886620947815,-18515.706274456228,29310.692692751109,-29310.692692751109,18515.706274456228,101953.99499446526,0.0
623204.59901257406,4142374.0504322448,-12500.0,16728.448456119972,14905.216536115458,51456.228100514549,-10524.264839151007,-35671.421797191913,7497.166970514545,44711.744686769947,-6189.6857125813058,38091.46960514284,-38091.46960514284,6189.6857125813058,80174.466237339991,0.0
628204.59901257406,4142374.0504322448,-12500.0,18595.000356304914,13190.602434079437,26836.316491807574,-9638.316998678014,-20642.523061055141,5146.6328560831107,27838.85525770946,3619.9638484924089,22591.968756483853,-22591.968756483853,-3619.9638484924089,49382.373824508417,0.0
633204.59901257406,4142374.0504322448,-12500.0,14859.012170487564,9622.290102856643,13598.528398990042,-7322.8350123913588,-11423.676626059452,3508.8980874389381,17201.206042925398,5609.7261871768678,12913.079572151088,-12913.079572151088,-5609.7261871768678,30761.104917202556,0.0
638204.59901257406,4142374.0504322448,-12500.0,11913.324253395156,6481.0438137193232,4983.7059315636388,-5304.52126610091,-5675.3547787514399,2158.9206647409915,10707.118200583711,6590.0516569156271,6043.957184148624,-6043.957184148624,-6590.0516569156271,19560.886625043979,0.0
643204.59901257406,4142374.0504322448,-12500.0,9227.8582976833204,3248.5291872727212,-182.89485553548948,-3456.1950022098545,-2181.9926631226353,1153.3835599618346,6786.6844948613816,6607.0796833641307,996.8737084650179,-996.8737084650179,-6607.0796833641307,12631.329378560082,0.0
648204.59901257406,4142374.0504322448,-12500.0,6510.6930645220446,621.66932276800048,-2555.2079343260075,-1938.5151780261585,-286.44997057985597,496.00798137462505,4867.573662540537,5611.1110110814989,-1992.2230431300068,1992.2230431300068,-5611.1110110814989,8747.4316431252428,0.0
653204.59901257406,4142374.0504322448,-12500.0,4066.3766038693311,-1054.792775748783,-3209.7196686700918,-852.42820552146964,591.00898737179944,114.80361589671331,3920.003935333054,4162.2876574578895,-3302.2057900597611,3302.2057900597611,-4162.2876574578895,6809.5536097137629,0.0
658204.59901257406,4142374.0504322448,-12500.0,2135.30729997973,-1902.3859710727199,-3040.7965812207335,-162.55787334969449,898.50234644988757,-78.862764995115626,3332.1101005972532,2748.848584285854,-3571.3050067123345,3571.3050067123345,-2748.848584285854,5795.8811179793638,0.0
663204.59901257406,4142374.0504322448,-12500.0,755.96657559225446,-2192.8609206602137,-2577.868391168945,229.04127708197794,924.90372589227559,-159.7600008478008,2881.8374547938947,1599.0413787342279,-3319.9635538122593,3319.9635538122593,-1599.0413787342279,5103.8972311633015,0.0
668204.59901257406,4142374.0504322448,-12500.0,-153.24943454555273,-2166.8502091279133,-2074.5441052340339,422.45909185414826,832.96377150450257,-179.87272520873671,2495.8204852267108,757.17721148758233,-2869.4402219046551,2869.4402219046551,-757.17721148758233,4510.3826110359096,0.0
673204.59901257406,4142374.0504322448,-12500.0,-709.00533964496469,-1987.7248130789114,-1629.5403631623628,495.58025805024891,704.96616356593029,-170.91492241351315,2155.1398455000158,183.42287223587846,-2386.670937932437,2386.670937932437,-183.42287223587846,3963.9800896238085,0.0
678204.59901257406,4142374.0504322448,-12500.0,-1018.7615495901684,-1751.6562888124245,-1268.3172574654534,501.25925600685588,578.13731260278928,-150.39994287089846,1855.9123293296716,-185.26228612401326,-1945.3126227962966,1945.3126227962966,185.26228612401326,3463.299665216754,0.0
683204.59901257406,4142374.0504322448,-12500.0,-1166.2802738886974,-1509.4886785113947,-986.70019059190565,472.45470785151548,466.73022062993857,-127.16913716487966,1596.2840546545431,-408.01488497435798,-1570.0419414016317,1570.0419414016317,408.01488497435798,3014.0035098546396,0.0
688204.59901257406,4142374.0504322448,-12500.0,-1211.4155129194587,-1285.0944129134821,-771.20728365709454,428.49193852349242,374.23926376960395,-105.2349548119809,1373.4428988336117,-531.61351575177787,-1262.6536032011049,1262.6536032011049,531.61351575177787,2618.3683815689446,0.0
693204.59901257406,4142374.0504322448,-12500.0,-1194.760789636367,-1087.5760041730082,-607.43623564900929,380.09328107359011,299.63049199730955,-86.109462011990345,1183.6078539959385,-590.11533370522602,-1015.7554016752833,1015.7554016752833,590.11533370522602,2274.6719429732184,0.0
698204.59901257406,4142374.0504322448,-12500.0,-1142.8983088503014,-918.5323886750698,-482.96542397530271,332.83648670544812,240.3134106044669,-70.101570671379449,1022.5912781853739,-607.17420793899851,-819.34665322911815,819.34665322911815,607.17420793899851,1978.6681483784964,0.0
703204.59901257406,4142374.0504322448,-12500.0,-1072.7713043916974,-776.1013436745144,-387.96562067267888,289.34676202410236,193.45566998046465,-56.997065651194198,886.26951032007094,-598.73850204866847,-663.68010275246581,663.68010275246581,598.73850204866847,1724.9892690281563,0.0
708204.59901257406,4142374.0504322448,-12500.0,-994.90860806655598,-657.08493262088325,-314.97036589271914,250.61830521646533,156.49813363452412,-46.39566452053527,770.85232785354651,-575.33761283401202,-540.3073198187268,540.3073198187268,575.33761283401202,1508.0610140127394,0.0
713204.59901257406,4142374.0504322448,-12500.0,-915.66803290134135,-558.00911509017806,-258.42104494016945,216.78644154296487,127.3075885267542,-37.867998310637759,673.00328343433489,-543.80529106797189,-442.30580274208967,442.30580274208967,543.80529106797189,1322.6142078156306,0.0
718204.59901257406,4142374.0504322448,-12500.0,-838.73807461533693,-475.60632484655986,-214.21496388225941,187.56517139666761,104.1758154737486,-31.021237645702616,589.86222868078164,-508.50078021935155,-364.16730660247595,364.16730660247595,508.50078021935155,1163.9165708084031,0.0
523204.59901257406,4147374.0504322448,-12500.0,-1360.3980251497503,324.19110900233306,-137.54903671585615,-276.64584387583369,67.914188012129472,-41.714579129804022,755.42829171949154,-981.91006299712558,401.41138379456828,-401.41138379456828,981.91006299712558,1476.6415835810228,0.0
528204.59901257406,4147374.0504322448,-12500.0,-1545.7524995451183,397.40789071978344,-166.26629434110112,-329.6190015808225,86.887011074548795,-52.163908235243163,869.55207270849053,-1114.6231571682035,473.67513661671774,-473.67513661671774,1114.6231571682035,1701.7042704259716,0.0
533204.59901257406,4147374.0504322448,-12500.0,-1761.8374805596793,490.22386919725921,-203.95220097016204,-395.01561095899012,112.07279543655524,-65.758139568316082,1006.3471486725023,-1268.5092164060356,561.50879715289807,-561.50879715289807,1268.5092164060356,1971.8382022569888,0.0
538204.59901257406,4147374.0504322448,-12500.0,-2013.775843386273,608.66013700631152,-254.18234061572883,-476.16232073668851,145.81572422444447,-83.585274278158153,1171.2808987839132,-1446.6137225571483,668.53652616822092,-668.53652616822092,1446.6137225571483,2298.0065217613228,0.0
543204.59901257406,4147374.0504322448,-12500.0,-2307.0179553123194,760.75727260636961,-322.21494366759902,-577.30563406307806,191.45330148356265,-107.14322141986263,1371.3071178112305,-1651.8156143420972,799.10159164200354,-799.10159164200354,1651.8156143420972,2694.1858160790844,0.0
548204.59901257406,4147374.0504322448,-12500.0,-2646.8052530600053,957.24663323096502,-415.88708496142817,-703.80711768181152,253.77142901525809,-138.49192834193107,1615.273849217589,-1886.1827568407775,958.21181916575051,-958.21181916575051,1886.1827568407775,3178.2048993199583,0.0
553204.59901257406,4147374.0504322448,-12500.0,-3037.0336293154346,1212.377850639718,-547.03406731059306,-862.29202487494706,339.66975063516497,-180.44400042235395,1914.413567035532,-2149.7209939526474,1151.2187251180583,-1151.2187251180583,2149.7209939526474,3772.7502683130615,0.0
558204.59901257406,4147374.0504322448,-12500.0,-3478.0040548906104,1544.8255363051821,-733.75153635700406,-1060.6163501442259,459.1153428846311,-236.7715028970793,2282.8988581496674,-2438.0251996732995,1382.9065094045093,-1382.9065094045093,2438.0251996732995,4506.4719439132159,0.0
563204.59901257406,4147374.0504322448,-12500.0,-3962.1483371542781,1978.3967240474449,-1004.0107914015317,-1307.3509352927981,626.4542091625143,-312.34605940883034,2738.432104592624,-2737.9660245055375,1655.3344711999255,-1655.3344711999255,2737.9660245055375,5414.9803397228834,0.0
568204.59901257406,4147374.0504322448,-12500.0,-4466.1286219327476,2541.743415439707,-1401.3957391549011,-1610.1441153656201,862.05066764151024,-412.97676293820047,3302.8974107863792,-3019.9102364346018,1963.1073838431892,-1963.1073838431892,3019.9102364346018,6541.1975127628129,0.0
573204.59901257406,4147374.0504322448,-12500.0,-4936.5856946406348,3265.0499215111831,-1993.9902350687157,-1971.6795458451224,1193.8653892617056,-544.37158310239545,4003.3844722065533,-3223.9593213236649,2283.435315239426,-2283.435315239426,3223.9593213236649,7933.855362031275,0.0
578204.59901257406,4147374.0504322448,-12500.0,-5265.158347628495,4168.7193309845852,-2887.2613775505833,-2380.8087906258429,1657.5092092462794,-708.97782832035591,4872.6313928870195,-3236.3022767021403,2555.8299102477313,-2555.8299102477313,3236.3022767021403,9641.6010850472412,0.0
583204.59901257406,4147374.0504322448,-12500.0,-5246.5516699548289,5232.1013509832701,-4239.3594715364734,-2794.6853171962348,2290.4170678959117,-898.45437380902217,5941.4878658063208,-2850.6858556066682,2641.777034505154,-2641.777034505154,2850.6858556066682,11697.627934274953,0.0
588204.59901257406,4147374.0504322448,-12500.0,-4514.1443159219571,6313.8067273812385,-6265.4643497970383,-3105.638157084255,3108.4156450620872,-1079.2143341145515,7223.2570362262122,-1713.2040262743608,2248.3013454876723,-2248.3013454876723,1713.2040262743608,14085.300929013059,0.0
593204.59901257406,4147374.0504322448,-12500.0,-2466.1786213130445,6958.6151853491538,-9168.8810395607106,-3085.2940100593223,4034.49141158257,-1173.2511753857584,8695.6077215441819,724.10549154401519,800.66870163877843,-800.66870163877843,-724.10549154401519,16670.916145661915,0.0
598204.59901257406,4147374.0504322448,-12500.0,1687.7797906784053,5977.4580044336499,-12750.054836748577,-2304.392692742385,4702.4815824006091,-1053.8491523317755,10288.749604483099,5070.347263901047,-2665.6023001080162,2665.6023001080162,-5070.347263901047,19127.07770233028,0.0
603204.59901257406,4147374.0504322448,-12500.0,8109.352194932264,923.1728728344001,-14903.153365083044,-111.79243065695427,3965.1692287129945,-584.39813273736945,12054.880163381544,10927.799512195146,-8946.3187736751206,8946.3187736751206,-10927.799512195146,21327.298640375797,0.0
608204.59901257406,4147374.0504322448,-12500.0,13267.489512010028,-10145.666104362697,-8306.115963950584,3653.2554300978536,-804.84031019131567,373.50070135721171,15208.751162286782,13378.859592658902,-14906.5031365587,14906.5031365587,-13378.859592658902,26538.487610641096,0.0
613204.59901257406,4147374.0504322448,-12500.0,9331.5989312347338,-18777.43721687057,15626.953439017509,5920.3614734281937,-11545.165274800285,1947.8111508083869,22112.865129817765,3091.3237199850396,-7713.4225021160873,7713.4225021160873,-3091.3237199850396,41272.707458429737,0.0
618204.59901257406,4147374.0504322448,-12500.0,2043.3534035978146,-9138.069891383002,39795.85061320816,2071.5235112521686,-21264.451257994191,3496.1582550996422,29067.322423078331,-11187.371105778295,14732.616263696777,-14732.616263696777,11187.371105778295,54703.125425326478,0.0
623204.59901257406,4147374.0504322448,-12500.0,4409.3382040940551,5925.0955160852964,39310.500810608501,-3630.1075988779644,-21273.259152421197,4051.1377861042838,28178.803903374239,-10467.657998881188,26096.080993215372,-26096.080993215372,10467.657998881188,52280.293121983414,0.0
628204.59901257406,4147374.0504322448,-12500.0,8971.7217421142068,11064.310357981291,26586.330361941225,-6042.3210791274569,-15721.322461660122,3771.8614239761127,22009.860913782792,-3221.1494026616456,22311.304792845913,-22311.304792845913,3221.1494026616456,40585.369919875098,1.0
633204.59901257406,4147374.0504322448,-12500.0,10484.533760347342,10270.92652419869,15288.001618285762,-6023.3449337895836,-10092.344183496692,3020.4934009094404,15697.111965087124,1764.8037818556613,15087.087772158786,-15087.087772158786,-1764.8037818556613,29077.87063785192,0.0
638204.59901257406,4147374.0504322448,-12500.0,10087.757311596497,7807.7091785084131,7373.5050367170188,-5031.3850982723088,-5823.757365374805,2120.3343673968207,10778.323834172697,4334.3339221264314,8740.1289900674637,-8740.1289900674637,-4334.3339221264314,20243.401970872943,0.0
643204.59901257406,4147374.0504322448,-12500.0,8776.7350184992174,5045.0859693866496,2307.6518090132604,-3752.0204447108426,-2925.7312589533176,1327.5932941782949,7283.6530672287317,5293.4131582870668,3902.2799286861996,-3902.2799286861996,-5293.4131582870668,13907.587573455239,0.0
648204.59901257406,4147374.0504322448,-12500.0,7010.0764869444738,2605.8448602693738,-529.58915246407025,-2535.3132332378595,-1136.4376579006275,742.76837195308019,5097.841251268057,5139.9550739852775,648.00288569989243,-648.00288569989243,-5139.9550739852775,9612.5696276428534,0.0
653204.59901257406,4147374.0504322448,-12500.0,5158.3313161848318,790.64433430498116,-1829.5409812966611,-1548.9140396322409,-139.85275945091041,359.27959724478563,3808.9257332738907,4356.398298781608,-1231.0683914305164,1231.0683914305164,-4356.398298781608,6888.9427320599789,0.0
658204.59901257406,4147374.0504322448,-12500.0,3493.6980501720791,-378.11101219141779,-2219.8808731663426,-832.00599664061656,348.56095024107509,130.24969357624059,3002.2085795717007,3353.1778114472004,-2113.658823965638,2113.658823965638,-3353.1778114472004,5254.5724161704193,0.0
663204.59901257406,4147374.0504322448,-12500.0,2146.8499381231713,-1028.4833249011101,-2150.4529439254102,-352.69901145706717,541.49022954477164,5.3027255332506851,2468.219132682907,2388.336779039746,-2375.7682956704557,2375.7682956704557,-2388.336779039746,4275.0810691767683,0.0
668204.59901257406,4147374.0504322448,-12500.0,1136.3284951900209,-1322.1115354235628,-1891.7568857977465,-54.504859610507857,578.13560223311117,-55.574442415752777,2085.630110718057,1579.4650894787351,-2301.3111225720045,2301.3111225720045,-1579.4650894787351,3638.175535275429,0.0
673204.59901257406,4147374.0504322448,-12500.0,420.59486557320565,-1395.9980969672627,-1585.4297094275221,117.66144534314024,541.02409672236797,-79.820359690386368,1788.9747378207844,954.49053768865167,-2072.4429804176361,2072.4429804176361,-954.49053768865167,3168.0894369747998,0.0
678204.59901257406,4147374.0504322448,-12500.0,-62.082522010179197,-1347.5663046767381,-1295.92689117084,207.57704602323307,475.27710874307377,-84.584698416068733,1546.007077630617,497.32081580884631,-1793.1195299634292,1793.1195299634292,-497.32081580884631,2783.8549905649343,0.0
683204.59901257406,4147374.0504322448,-12500.0,-371.94882401495829,-1239.2060199284124,-1046.8266964481757,246.48969708154468,403.68326214773867,-79.890259095457509,1341.1547057647631,176.41816706865893,-1516.6223747812587,1516.6223747812587,-176.41816706865893,2452.7349899976589,0.0
688204.59901257406,4147374.0504322448,-12500.0,-559.12235618117268,-1107.9257130857045,-842.26521036021006,255.27573171081275,336.63372177144794,-71.274721855934175,1166.2755923610036,-40.845774438610647,-1266.6982168318559,1266.6982168318559,40.845774438610647,2162.0031925112144,0.0
693204.59901257406,4147374.0504322448,-12500.0,-661.95612908224359,-974.17854353032305,-678.29830882373301,247.26270635282461,278.05279120054166,-61.627115544889271,1016.3468904268204,-182.45655731701089,-1051.2483417816143,1051.2483417816143,182.45655731701089,1906.0169941381118,0.0
698204.59901257406,4147374.0504322448,-12500.0,-708.37549098841191,-848.32213870913745,-548.42333154102312,230.66369429558574,228.70973539879995,-52.345125535523493,887.67783463952537,-270.37227737529128,-870.36812635625802,870.36812635625802,270.37227737529128,1681.2257617464254,0.0
703204.59901257406,4147374.0504322448,-12500.0,-718.07081978379733,-734.87044792662152,-446.02062829751924,210.37835057544942,187.97563149537098,-44.021361795892311,777.23450400190814,-320.98149906274023,-720.75640865831735,720.75640865831735,320.98149906274023,1484.5417088694712,0.0
708204.59901257406,4147374.0504322448,-12500.0,-704.61911005227535,-635.12157366955682,-365.28054114894343,189.22477912426652,154.71077178537962,-36.833440534276626,682.40303303645101,-346.14734350135961,-597.98980329137953,597.98980329137953,346.14734350135961,1312.9529660940721,0.0
713204.59901257406,4147374.0504322448,-12500.0,-677.22380429932844,-548.71362695836785,-301.4380012574286,168.74456828488542,127.68710334922797,-30.75854481760042,600.90846939944959,-354.28810753039079,-497.61450888964737,497.61450888964737,354.28810753039079,1163.5273718753328,0.0
718204.59901257406,4147374.0504322448,-12500.0,-642.02986589773184,-474.51121186482891,-250.71837428578959,149.71299841405394,105.77048023897015,-25.687448873719401,530.77765677990658,-351.29491769833299,-415.61052700799286,415.61052700799286,351.29491769833299,1033.4929064341954,0.0
523204.59901257406,4152374.0504322448,-12500.0,-1256.6942925953208,391.92925390062868,-181.36143841073377,-257.68940967808857,82.870248639048384,-39.206131293963516,725.02044198405531,-896.04651356254567,414.0772065536637,-414.0772065536637,896.04651356254567,1417.7632739170963,0.0
528204.59901257406,4152374.0504322448,-12500.0,-1412.7011542500247,474.22112273627272,-221.18167316316132,-304.24561466706791,104.72736768855175,-48.649471545985023,829.81199081432419,-1004.1014342845613,482.59889617679164,-482.59889617679164,1004.1014342845613,1624.905591182192,0.0
533204.59901257406,4152374.0504322448,-12500.0,-1590.0401718437474,576.68066664800062,-273.1698093726468,-360.76143352410867,133.30932938955999,-60.782943000115239,954.03458541351722,-1125.3685164554561,563.82705542054259,-563.82705542054259,1125.3685164554561,1870.9313305905021,0.0
538204.59901257406,4152374.0504322448,-12500.0,-1790.4816765425517,704.7499413965171,-341.87501672713569,-429.5016102825283,170.96170953391336,-76.465201398992647,1101.87461740254,-1260.0483512583382,659.83477003213284,-659.83477003213284,1260.0483512583382,2164.3692172963779,0.0
543204.59901257406,4152374.0504322448,-12500.0,-2014.8408413749262,865.31125625414643,-433.79098421187922,-513.1474923121026,220.9191508737147,-96.838183117687393,1278.435929939347,-1407.0956377874386,772.59753620011134,-772.59753620011134,1407.0956377874386,2515.6833246472906,0.0
548204.59901257406,4152374.0504322448,-12500.0,-2261.9574149726586,1066.9189139725436,-558.25821465299089,-614.73949030871665,287.64409255794914,-123.40522150135862,1489.8740793791846,-1563.1813100807706,903.50632354940012,-903.50632354940012,1563.1813100807706,2937.5884649273862,0.0
553204.59901257406,4152374.0504322448,-12500.0,-2526.938928046648,1319.8657681748316,-728.78723236284679,-737.44717932859385,377.26678813062296,-158.10457790734958,1743.4847363077774,-1720.9568881437028,1052.393291084544,-1052.393291084544,1720.9568881437028,3445.2597650642961,0.0
558204.59901257406,4152374.0504322448,-12500.0,-2798.1985549070046,1635.7837315593708,-964.96432358087031,-883.98287649719657,498.1085307787294,-203.33601980922452,2047.7283481015286,-1866.1972991744997,1215.6634940184554,-1215.6634940184554,1866.1972991744997,4056.2356009556856,0.0
563204.59901257406,4152374.0504322448,-12500.0,-3052.5775828054525,2026.1233029619407,-1295.0812242260768,-1055.3147569269527,661.17612054129609,-261.83796099084174,2412.4764916210697,-1973.1995031331448,1382.8157520614618,-1382.8157520614618,1973.1995031331448,4789.6098563667028,0.0
568204.59901257406,4152374.0504322448,-12500.0,-3247.5734995935641,2498.1500774967358,-1759.4322000039278,-1248.0658560466873,880.27355010565975,-336.18852894254377,2851.0894278640953,-1997.6269993552123,1530.1393694147919,-1530.1393694147919,1997.6269993552123,5663.7519280308325,0.0
573204.59901257406,4152374.0504322448,-12500.0,-3309.6157030959748,3045.7143807255325,-2413.4603240139918,-1449.5798045148535,1170.7923716927628,-427.47377864684944,3379.8006248027341,-1866.0798223278885,1609.6859086912445,-1609.6859086912445,1866.0798223278885,6691.2051960719973,0.0
578204.59901257406,4152374.0504322448,-12500.0,-3118.2009126129651,3629.5279241903045,-3327.5772658625751,-1629.1906372272288,1544.9256014891155,-532.31194724247973,4003.7468183632004,-1462.9066981846643,1531.067718939323,-1531.067718939323,1462.9066981846643,7868.6513963404359,0.0
583204.59901257406,4152374.0504322448,-12500.0,-2489.7728902143963,4137.7623822476698,-4573.8464711115812,-1724.2941225547538,1998.3228911723381,-637.12938138879554,4714.5610223653975,-619.70502683583527,1134.8933278976219,-1134.8933278976219,619.70502683583527,9159.6606074768843,0.0
588204.59901257406,4152374.0504322448,-12500.0,-1178.5147292014681,4314.5227247951325,-6172.4170336248662,-1622.1924027912307,2478.2829161978166,-709.21425881793266,5486.7077141883292,871.67967332234548,165.91456373886075,-165.91456373886075,-871.67967332234548,10472.270341222016,0.0
593204.59901257406,4152374.0504322448,-12500.0,1052.4572835832646,3655.2132146289373,-7931.2005741938428,-1148.2813777989172,2817.334158691971,-687.85244247216212,6280.8988378255672,3160.8892611017054,-1708.8889181461311,1708.8889181461311,-3160.8892611017054,11659.75796871234,0.0
598204.59901257406,4152374.0504322448,-12500.0,4161.0469675483082,1353.6917954866221,-9055.0784551681882,-99.083342567680731,2619.4866842184047,-487.64583471510434,7111.4359776462143,6012.4513622857767,-4679.2846332219988,4679.2846332219988,-6012.4513622857767,12686.632226742262,0.0
603204.59901257406,4152374.0504322448,-12500.0,7204.5802534511067,-3297.8388442759342,-7501.8623390600887,1579.8378847949436,1153.6057829950564,-30.884519878671568,8292.5100904737155,8098.9973545014236,-8010.4204820697378,8010.4204820697378,-8098.9973545014236,14364.21811852762,0.0
608204.59901257406,4152374.0504322448,-12500.0,7872.7264352390448,-9224.5467881016048,-102.26513161154108,3345.7083931717139,-2410.6747533725074,697.48172077462175,10640.920265467681,6564.6190311979599,-8690.8062165926131,8690.8062165926131,-6564.6190311979599,19082.826145766066,0.0
613204.59901257406,4152374.0504322448,-12500.0,4615.0751221707205,-11646.302493459711,13519.210771969183,3746.7772142222752,-7768.275977513591,1598.9129069479613,14357.747705094702,-236.94606420292916,-2444.7679145447582,2444.7679145447582,236.94606420292916,27300.176234956376,0.0
618204.59901257406,4152374.0504322448,-12500.0,870.6031117661247,-6506.7701343288054,25639.525530103168,1762.5502094078367,-12265.540510439028,2424.7089960914418,17760.750259150795,-7487.5686753711552,9069.8307561188631,-9069.8307561188631,7487.5686753711552,34133.350396514776,0.0
623204.59901257406,4152374.0504322448,-12500.0,1087.762928732921,1891.2475222670716,28006.031803655056,-1299.7163659221787,-13288.472606160463,2882.4917357140553,18389.190228266685,-8787.4009734693063,17064.715518387311,-17064.715518387311,8787.4009734693063,35000.742995118519,0.0
628204.59901257406,4152374.0504322448,-12500.0,3888.6408079538501,7171.360585730451,22550.490400527367,-3472.2906493882442,-11309.322661073937,2851.830352961631,16210.991351929024,-5300.4037777689391,17760.190656975959,-17760.190656975959,5300.4037777689391,30705.803833681388,0.0
633204.59901257406,4152374.0504322448,-12500.0,6253.7501173994997,8456.329611486055,15128.89364351435,-4246.3346411469347,-8258.3229309037033,2431.9631881139085,12913.298712784588,-1156.8671236454365,14234.080856504337,-14234.080856504337,1156.8671236454365,24505.416411622286,0.0
638204.59901257406,4152374.0504322448,-12500.0,7265.2941064824163,7472.1777565129596,8760.3343573634593,-4038.8412148625675,-5396.0295281240506,1838.9584514118699,9689.3850972225227,1812.9749727222625,9707.8825134605977,-9707.8825134605977,-1812.9749727222625,18535.946012246699,0.0
643204.59901257406,4152374.0504322448,-12500.0,7152.1221979075099,5615.7480466452616,4162.147008779064,-3349.3023329985131,-3174.8175815790009,1262.2896935392607,7017.5287341913208,3425.862013778547,5662.0539377804816,-5662.0539377804816,-3425.862013778547,13583.864776179513,0.0
648204.59901257406,4152374.0504322448,-12500.0,6327.5388088175541,3668.2613941002651,1218.020150379813,-2525.6287230631715,-1637.1142003620898,797.69696757471775,5061.85617714419,3964.0320238972831,2587.7469823466004,-2587.7469823466004,-3964.0320238972831,9796.7727678939937,0.0
653204.59901257406,4152374.0504322448,-12500.0,5162.7767810502501,2015.9858357808441,-446.99527315802396,-1763.0797537554483,-665.21918257476068,464.63060824079798,3756.3321389781163,3797.0360089206115,522.50633098633716,-522.50633098633716,-3797.0360089206115,7073.3364024029433,0.0
658204.59901257406,4152374.0504322448,-12500.0,3937.15705565282,789.81137550031394,-1245.7301356068681,-1144.5969137232194,-102.43996913376013,244.78368767014416,2870.1904966398588,3259.5856857980702,-706.30142749608694,706.30142749608694,-3259.5856857980702,5214.5930085479649,0.0
663204.59901257406,4152374.0504322448,-12500.0,2821.8925798633604,-28.613311822119066,-1521.795018377692,-684.3204435108961,191.60260835932951,109.0065238252983,2265.2598643711881,2595.1455117779583,-1334.0215411384188,1334.0215411384188,-2595.1455117779583,3995.111692901301,0.0
668204.59901257406,4152374.0504322448,-12500.0,1894.6500758851569,-521.79056329216394,-1516.6997239576599,-362.7289079039295,322.40224188909889,30.223453750685902,1846.5571414440203,1948.873007061216,-1574.7037381095715,1574.7037381095715,-1948.873007061216,3205.7019943230016,0.0
673204.59901257406,4152374.0504322448,-12500.0,1170.1265264741103,-783.02172326067091,-1380.7515843084323,-149.32767505756644,361.01341969734534,-12.337386237951632,1546.2096189691135,1389.6223159755211,-1589.6000044037744,1589.6000044037744,-1389.6223159755211,2680.6969462663415,0.0
678204.59901257406,4152374.0504322448,-12500.0,629.40242289183755,-891.82816809047165,-1198.6663467504227,-14.416139650510113,351.68632416322089,-33.034093560769968,1319.9709883219004,938.27419667369008,-1486.6866032754608,1486.6866032754608,-938.27419667369008,2308.1212681594557,0.0
683204.59901257406,4152374.0504322448,-12500.0,240.47788348046731,-907.3171242468278,-1013.7357195497221,66.335327139832344,320.30324573468164,-41.14567473843465,1141.2787665867063,590.49565998350829,-1332.2673557223525,1332.2673557223525,-590.49565998350829,2022.3264373827712,0.0
688204.59901257406,4152374.0504322448,-12500.0,-30.100400318550697,-869.88673539174329,-845.39060650536078,111.1056689355122,281.14641661251437,-42.386279826576782,994.86915862253727,331.36436910938153,-1164.0801057579142,1164.0801057579142,-331.36436910938153,1788.6041023280261,0.0
693204.59901257406,4152374.0504322448,-12500.0,-211.90340945591046,-805.54507562564322,-700.34436068545574,132.73216377671403,241.58882091158509,-40.141641614703268,871.94943914395776,143.39811081761536,-1001.8651453008165,1001.8651453008165,-143.39811081761536,1589.5375782485462,0.0
698204.59901257406,4152374.0504322448,-12500.0,-328.92336940901447,-730.22082939981499,-579.07581942005004,139.94344014031262,205.07963897479451,-36.34754935006557,767.21288433761833,10.330340693399307,-854.72067683020578,854.72067683020578,-10.330340693399307,1416.3185624288406,0.0
703204.59901257406,4152374.0504322448,-12500.0,-399.66504478483574,-653.18681054452315,-479.35873870224214,138.51354706689301,172.93950389644132,-32.067603226960358,677.19570309025573,-81.497480057774055,-725.80220009013215,725.80220009013215,81.497480057774055,1264.1263443490964,0.0
708204.59901257406,4152374.0504322448,-12500.0,-437.94705306270168,-579.50308627209029,-398.06822051824497,132.1784472788747,145.3957982676751,-27.855324350833769,599.43127841512842,-142.92496626380645,-615.15697399329906,615.15697399329906,142.92496626380645,1129.9187090668552,0.0
713204.59901257406,4152374.0504322448,-12500.0,-453.86628428338048,-511.65570932107568,-332.03856161361387,123.30626378003606,122.15885979474213,-23.973718587296933,532.02854822890947,-182.26527884461981,-521.35744714736484,521.35744714736484,182.26527884461981,1011.4510070013454,0.0
523204.59901257406,4157374.0504322448,-12500.0,-1134.5453708091645,439.59788295918042,-226.65593807366389,-235.14099229881438,94.026278309392353,-36.190568678267006,686.58065829464113,-794.50542064514775,406.91425235318133,-406.91425235318133,794.50542064514775,1343.7251776722794,0.0
528204.59901257406,4157374.0504322448,-12500.0,-1258.8830649829551,524.92146071085301,-276.70799236609651,-274.58622287526799,117.41253318871988,-44.493335605414508,780.47599759301579,-876.00811714307588,466.9858359604375,-466.9858359604375,876.00811714307588,1529.9818552595896,0.0
533204.59901257406,4157374.0504322448,-12500.0,-1395.387022507502,628.97103902116476,-341.35451896442703,-321.4623455989128,147.49642611917372,-55.001111658188456,890.2830769242322,-963.03545076187049,535.76819937410198,-535.76819937410198,963.03545076187049,1748.3998401544184,0.0
538204.59901257406,4157374.0504322448,-12500.0,-1542.9930041758455,755.91108458884457,-425.61154774806289,-377.04373069650785,186.3930271670134,-68.344655031389109,1018.9075429932822,-1053.44062479478,613.59439373117743,-613.59439373117743,1053.44062479478,2005.0690916854226,0.0
543204.59901257406,4157374.0504322448,-12500.0,-1698.8386628393639,910.54761340390314,-536.38145450155753,-442.61190311517498,236.90074712224165,-85.323228774661487,1169.6653245978623,-1143.1662643106133,699.95895660881035,-699.95895660881035,1143.1662643106133,2307.0476417305049,0.0
548204.59901257406,4157374.0504322448,-12500.0,-1857.0877696528712,1098.095376782295,-683.15837862942692,-519.23402449753848,302.68460632441077,-106.92387174756645,1346.2188687040616,-1225.1216528842808,792.74575375087511,-792.74575375087511,1225.1216528842808,2662.2774544771905,0.0
553204.59901257406,4157374.0504322448,-12500.0,-2007.1206911505028,1323.5309364186974,-878.930863116767,-607.32301926158721,388.44973381468679,-134.30906128881824,1552.4596023905654,-1287.4937189719708,886.91213037740363,-886.91213037740363,1287.4937189719708,3079.2457540183332,0.0
558204.59901257406,4157374.0504322448,-12500.0,-2130.8311879816624,1590.1297873529331,-1141.2250010421681,-705.81527492760119,500.01302623296488,-168.72596547625341,1792.840367590836,-1311.2876162524979,972.29856960029406,-972.29856960029406,1311.2876162524979,3566.1700393905585,0.0
563204.59901257406,4157374.0504322448,-12500.0,-2198.7676697406782,1896.457355696688,-1493.0172831572527,-810.70313079295147,644.05173414301998,-211.24233473123627,2076.2644637488156,-1266.9375883686885,1030.0910289725075,-1030.0910289725075,1266.9375883686885,4129.3367391699085,0.0
568204.59901257406,4157374.0504322448,-12500.0,-2165.0766376864281,2230.5586062756283,-1962.7148436450391,-912.54436729800625,827.0420645775431,-262.1344873067132,2411.0175531972345,-1110.1284145682789,1027.3782295411265,-1027.3782295411265,1110.1284145682789,4770.0564798088553,0.0
573204.59901257406,4157374.0504322448,-12500.0,-1962.0124670260618,2559.3523046405712,-2581.1370873325,-992.51041357292763,1052.3826332076699,-319.63249350671504,2793.4467146291258,-777.92983489092239,909.49705210552975,-909.49705210552975,777.92983489092239,5479.6146024498412,0.0
578204.59901257406,4157374.0504322448,-12500.0,-1497.027108083541,2810.6211959873331,-3370.680794427788,-1016.7881396201109,1313.7936795137391,-377.61640773927724,3216.0094491262539,-188.88344634464767,591.27824929196754,-591.27824929196754,188.88344634464767,6232.139024382941,0.0
583204.59901257406,4157374.0504322448,-12500.0,-660.74494258553409,2845.9910109384364,-4316.4019148293401,-930.39793699928919,1581.8105594023441,-421.9507002264574,3664.4279502025838,743.50246470188915,-46.979570829906038,46.979570829906038,-743.50246470188915,6978.2583665242191,0.0
588204.59901257406,4157374.0504322448,-12500.0,635.61387569439876,2430.8282834225524,-5300.1687846635787,-655.16901784379479,1779.4329286813054,-425.98306727089499,4121.2202627823017,2063.3478594513799,-1140.4882913016618,1140.4882913016618,-2063.3478594513799,7653.284101174575,0.0
593204.59901257406,4157374.0504322448,-12500.0,2361.891808555059,1233.3466161471872,-5974.183252005434,-104.71396782451124,1746.4847469850861,-348.16957443582328,4592.6946740363346,3657.3542528184962,-2753.7332400985006,2753.7332400985006,-3657.3542528184962,8245.6205705666034,0.0
598204.59901257406,4157374.0504322448,-12500.0,4188.2364923182558,-1051.9775709058731,-5585.7807650786708,759.04881362660183,1210.3344822064216,-138.67030873923741,5185.9141954326515,5052.7869790332288,-4654.354768649232,4654.354768649232,-5052.7869790332288,9022.4962442869019,0.0
603204.59901257406,4157374.0504322448,-12500.0,5322.2140436207537,-4294.7633133280351,-2943.3168637692556,1805.487743609154,-170.65841743494616,237.6757137772405,6196.2646042154029,5253.6157133788101,-5940.7948933876187,5940.7948933876187,-5253.6157133788101,10832.674143966246,0.0
608204.59901257406,4157374.0504322448,-12500.0,4786.6304152723524,-7278.6803640157259,2926.5587951869179,2604.8401153890313,-2566.8870636678489,766.2286567473169,7919.9381720760048,3115.5784646925235,-4937.769749699738,4937.769749699738,-3115.5784646925235,14532.898152710111,0.0
613204.59901257406,4157374.0504322448,-12500.0,2565.8302487620435,-7782.7671995465316,11104.565056562371,2534.8287899433467,-5543.9426948144819,1358.6938041906642,10114.830738848259,-1238.1312836052784,-387.04844034214295,387.04844034214295,1238.1312836052784,19438.903187446795,0.0
618204.59901257406,4157374.0504322448,-12500.0,418.79670767398568,-4648.1630797084645,18016.437756000865,1336.2991806473815,-7969.4767775346145,1867.1920232497466,12002.435396017965,-5397.6161674589421,6343.7976762581893,-6343.7976762581893,5397.6161674589421,23387.977797719956,0.0
623204.59901257406,4157374.0504322448,-12500.0,180.00958449911778,353.27397179755332,20317.312276457567,-457.17409855517502,-8833.9094419117355,2145.9346584960545,12702.999288801057,-6743.55890582139,11665.459094530304,-11665.459094530304,6743.55890582139,24594.769624244291,0.0
628204.59901257406,4157374.0504322448,-12500.0,1675.218091059726,4387.5715844058395,18077.290156885349,-1995.6480139966889,-8104.241888980031,2130.9804878436221,11929.394121128551,-5204.5552384855819,13384.29905539868,-13384.29905539868,5204.5552384855819,22989.05469425346,0.0
633204.59901257406,4157374.0504322448,-12500.0,3543.2666707838712,6243.538303288421,13630.979530293893,-2828.4807754719127,-6474.3420407420572,1871.8523633339644,10223.256460065501,-2475.2963642759896,12065.453986695311,-12065.453986695311,2475.2963642759896,19700.605595590074,0.0
638204.59901257406,4157374.0504322448,-12500.0,4842.5318296990445,6286.9098427630661,9018.8234371017352,-2986.3487173837057,-4654.323298234709,1486.3637232999386,8217.9497649431032,33.559865922701647,9299.1856533285827,-9299.1856533285827,-33.559865922701647,15907.241459042551,0.0
643204.59901257406,4157374.0504322448,-12500.0,5341.3957642158102,5313.2886349245036,5221.5121769478346,-2704.4557300268721,-3057.1875126387185,1087.5672541580184,6323.7592874337643,1757.9960610242629,6308.6302707652721,-6308.6302707652721,-1757.9960610242629,12339.93525304934,0.0
648204.59901257406,4157374.0504322448,-12500.0,5176.8450153313279,3967.9511114478109,2488.3544926426307,-2218.0590830705255,-1831.6700115382955,743.72363612030756,4757.5394183280168,2664.0639288312927,3726.535211763699,-3726.535211763699,-2664.0639288312927,9328.4753893371089,0.0
653204.59901257406,4157374.0504322448,-12500.0,4589.7102070611545,2646.9730055416667,718.75600869569655,-1691.5194708779611,-974.94796408066395,478.98076465388903,3601.6371059733956,2931.9483021454353,1773.4708990758588,-1773.4708990758588,-2931.9483021454353,6958.7801227196342,0.0
658204.59901257406,4157374.0504322448,-12500.0,3804.5248356736042,1542.4612850358187,-312.26672448540654,-1215.6885029003793,-419.82530686196725,290.44990908848564,2760.1211396439166,2787.8335072200853,440.02680789231886,-440.02680789231886,-2787.8335072200853,5189.4120341826247,0.0
663204.59901257406,4157374.0504322448,-12500.0,2985.7540872854001,710.87523307914489,-837.37743841641111,-827.49010370128394,-85.127835676702418,163.83800858723768,2150.1631039133072,2426.9143464953622,-386.03912472636091,386.03912472636091,-2426.9143464953622,3922.1141424086786,0.0
668204.59901257406,4157374.0504322448,-12500.0,2232.3968482436885,134.17219985645946,-1046.3812442634235,-531.56681587625815,100.73296230852284,82.816942809560359,1712.9994185245087,1987.5606262783176,-841.7511601666348,841.7511601666348,-1987.5606262783176,3042.2396049081394,0.0
673204.59901257406,4157374.0504322448,-12500.0,1590.8259246552921,-236.34866838731483,-1074.5532085460407,-316.89461417772247,192.25012150114327,33.23969493867277,1399.3250992104813,1553.3899791014921,-1049.4537905559371,1049.4537905559371,-1553.3899791014921,2441.0022425514153,0.0
678204.59901257406,4157374.0504322448,-12500.0,1072.5696592177492,-454.39035998639798,-1009.5918395137443,-167.19626226567149,227.29758720357592,4.3407764280809165,1170.3684404306753,1166.6949310837424,-1103.1226738037524,1103.1226738037524,-1166.6949310837424,2027.4497647997287,0.0
683204.59901257406,4157374.0504322448,-12500.0,669.78251301921671,-566.75836624914007,-904.18023857136041,-66.399427053308543,230.55985088000884,-11.46408824966548,998.17043757032934,843.14149814126608,-1068.4278820148782,1068.4278820148782,-843.14149814126608,1733.6505482601524,0.0
688204.59901257406,4157374.0504322448,-12500.0,366.04158898240269,-609.73222977893124,-787.76854570385422,-0.90672509092969322,217.33399834604555,-19.250852175783891,863.97787799133221,583.41240046503208,-988.20331275551825,988.20331275551825,-583.41240046503208,1514.0008625321188,0.0
693204.59901257406,4157374.0504322448,-12500.0,142.78600481044307,-609.47525832170516,-675.48406143632053,39.869738017126338,196.68498070765068,-22.293803785466636,755.81490933989073,380.98899255486322,-888.82000711266323,888.82000711266323,-380.98899255486322,1340.5004226262906,0.0
698204.59901257406,4157374.0504322448,-12500.0,-17.382770117614488,-583.92667242106245,-574.13489839224576,63.763667987119526,173.73879010933624,-22.645279440585934,666.19742134862668,226.75670753766138,-785.60200067986966,785.60200067986966,-226.75670753766138,1196.9689665997037,0.0
703204.59901257406,4157374.0504322448,-12500.0,-129.34251299577241,-544.91021806331719,-485.96993422394263,76.377633058039692,151.22665786180329,-21.560166471969794,590.42164656650402,111.43993963790064,-686.84049768800901,686.84049768800901,-111.43993963790064,1074.3038974037895,0.0
708204.59901257406,4157374.0504322448,-12500.0,-205.15178138873824,-499.94529614578033,-410.90697588473159,81.623574481078762,130.47265792821457,-19.786967825643735,525.43992978719109,26.715899105962876,-596.53883030862437,596.53883030862437,-26.715899105962876,967.33011530986266,0.0
713204.59901257406,4157374.0504322448,-12500.0,-254.25704406805224,-453.63566034715871,-347.7950807347317,82.184058364038293,112.0033132034482,-17.759359808753544,469.18099870143385,-34.403062083702821,-516.19606184383622,516.19606184383622,34.403062083702821,872.95754186232182,0.0
528204.59901257406,4162374.0504322448,-12500.0,-1094.8526140105203,549.93567026599703,-327.9471241667402,-242.6004084388143,124.91885059936835,-39.960188582807426,724.31608210311094,-739.80720754232846,431.63474167285733,-431.63474167285733,739.80720754232846,1422.1835408427892,0.0
533204.59901257406,4162374.0504322448,-12500.0,-1191.9247076328027,648.64313485524701,-402.13554532362878,-279.85199285123855,154.78920299959685,-48.800716752122867,818.88474740455547,-794.13290498051106,484.41776170129447,-484.41776170129447,794.13290498051106,1611.4331184518746,0.0
538204.59901257406,4162374.0504322448,-12500.0,-1290.0437703205419,765.66046787598225,-497.14649763227493,-322.62314215179896,192.6149400711999,-59.797269148412902,927.60748511255349,-843.65541429138034,540.28284843539268,-540.28284843539268,843.65541429138034,1830.0273004370431,0.0
543204.59901257406,4162374.0504322448,-12500.0,-1383.9867415560095,903.36164085635107,-619.43039946168301,-371.09753399682336,240.56058533868716,-73.452064599852633,1052.2557616042218,-882.53791314938121,596.65613212019116,-596.65613212019116,882.53791314938121,2082.0674888972621,0.0
548204.59901257406,4162374.0504322448,-12500.0,-1465.3462428782541,1063.3841739930847,-777.35779149286861,-424.89879510446588,301.25991654992526,-90.324239479457276,1194.4856794357027,-901.89122019560682,648.7825834935702,-648.7825834935702,901.89122019560682,2371.552579014618,0.0
553204.59901257406,4162374.0504322448,-12500.0,-1521.0984728005544,1245.5334491471654,-981.54226780556451,-482.60212687291664,377.75936085735805,-110.96798478477288,1356.2252789919623,-888.52298197884431,688.43877564802085,-688.43877564802085,888.52298197884431,2701.7819672365986,0.0
558204.59901257406,4162374.0504322448,-12500.0,-1531.7615668402316,1445.8161772580222,-1244.8744739838519,-540.94094285432641,473.2480030732047,-135.7879129547814,1545.1274089368035,-823.41372525918564,702.04687710180292,-702.04687710180292,823.41372525918564,3074.3219425740522,0.0
563204.59901257406,4162374.0504322448,-12500.0,-1469.2993322472796,1653.0691600824425,-1581.7432019446094,-593.57547744348892,590.33716060653762,-164.74132802065185,1764.026692912051,-680.16847264910609,668.08329357808964,-668.08329357808964,680.16847264910609,3487.3495861982246,0.0
568204.59901257406,4162374.0504322448,-12500.0,-1295.3888667938643,1843.4767500459404,-2005.3329458547671,-629.30839550938936,729.45487054747832,-196.7769979545256,2007.7753529122151,-424.2184528020241,553.94206972597203,-553.94206972597203,424.2184528020241,3933.2609376405171,0.0
573204.59901257406,4162374.0504322448,-12500.0,-961.68040673007181,1972.3279404880011,-2520.825214894322,-629.79485363345327,885.62517540004512,-228.86311941937311,2271.648949868013,-14.654286375515795,313.21896495992814,-313.21896495992814,14.654286375515795,4395.8702232477235,0.0
578204.59901257406,4162374.0504322448,-12500.0,-415.61494337199963,1963.273956713304,-3110.6236831456422,-567.32316911455098,1042.5693804652938,-254.47636171145771,2548.2073700023348,587.35291563879821,-113.61958266289093,113.61958266289093,-587.35291563879821,4849.0268092748083,0.0
583204.59901257406,4162374.0504322448,-12500.0,381.65134551084918,1698.628142189564,-3705.8070437076681,-404.52447926013912,1163.0522059864813,-261.63959233210278,2829.7827398515155,1396.4824348007396,-788.04169660476839,788.04169660476839,-1396.4824348007396,5262.7671936478901,0.0
588204.59901257406,4162374.0504322448,-12500.0,1416.1806774483368,1022.6526922371532,-4138.5657511520876,-100.30338479757347,1175.7837941457976,-231.25184761085916,3120.1472163147855,2358.1778340515693,-1737.7923177501755,1737.7923177501755,-2358.1778340515693,5633.2239757790749,0.0
593204.59901257406,4162374.0504322448,-12500.0,2556.9844288676913,-214.46357983308621,-4082.2380542833343,370.68163003370927,964.33712406642678,-137.73157083753475,3463.0009406082409,3277.5960195732041,-2877.7269112103513,2877.7269112103513,-3277.5960195732041,6065.4750192554257,0.0
598204.59901257406,4162374.0504322448,-12500.0,3492.1845893052332,-2029.9701362164562,-3026.9226012132849,978.21680675420271,375.24338631963002,44.702145631569209,3978.5567473609535,3754.3477691823646,-3884.7476339633431,3884.7476339633431,-3754.3477691823646,6896.7289054261228,0.0
603204.59901257406,4162374.0504322448,-12500.0,3761.6470203392951,-4091.3887864462363,-417.40498670900263,1585.1217156604478,-723.20151173883175,327.83832228685912,4835.2861317456673,3235.9175437782351,-4107.2831078801764,4107.2831078801764,-3235.9175437782351,8615.7259222141038,0.0
608204.59901257406,4162374.0504322448,-12500.0,3031.6747387221808,-5569.6235232666477,3899.0970632834155,1934.1048717416561,-2311.2332480916789,691.45988935244088,6077.6141390451794,1359.4712320380188,-2744.0192491750049,2744.0192491750049,-1359.4712320380188,11338.817511261226,0.0
613204.59901257406,4162374.0504322448,-12500.0,1552.3633531305441,-5447.7439905686251,9083.9539043801469,1755.1047028618279,-4084.8079113344538,1074.5908299975538,7469.8851873538924,-1488.1634844655625,504.91770104289566,-504.91770104289566,1488.1634844655625,14452.798973495157,0.0
618204.59901257406,4162374.0504322448,-12500.0,239.01709204824246,-3381.3045066207856,13356.802053068002,984.15899550657491,-5507.1551113062378,1389.6590627900978,8621.4224952264994,-4059.3935796140477,4766.260775562404,-4766.260775562404,4059.3935796140477,16926.252533677507,0.0
623204.59901257406,4162374.0504322448,-12500.0,-49.690092237109489,-217.64276452579912,15158.646016105607,-122.98237448929554,-6123.8286904599845,1558.7621174741928,9175.283215390009,-5129.0070376022568,8349.3382941417785,-8349.3382941417785,5129.0070376022568,17947.424229627184,0.0
628204.59901257406,4162374.0504322448,-12500.0,738.3318799159199,2669.4149983114162,14282.527114007844,-1161.3591107691386,-5857.1962989019084,1551.0331753484004,8915.5355878582905,-4480.518890825877,10033.312175620971,-10033.312175620971,4480.518890825877,17362.089811603895,0.0
633204.59901257406,4162374.0504322448,-12500.0,2005.0514560886697,4417.0839772246345,11680.013130725138,-1847.9124187799762,-4974.2102105608856,1393.7020851962195,8012.0929709912543,-2807.433523461772,9761.0087649933466,-9761.0087649933466,2807.433523461772,15585.183616394272,0.0
638204.59901257406,4162374.0504322448,-12500.0,3132.5720641546386,4942.1586442779653,8517.1019844009079,-2120.6167257338184,-3841.1307660427528,1149.8485647551242,6777.7159141358325,-951.64806508760375,8220.9348743608371,-8220.9348743608371,951.64806508760375,13214.729952470876,0.0
643204.59901257406,4162374.0504322448,-12500.0,3809.4980370182666,4590.4363926665637,5587.9469196395885,-2066.092919622854,-2738.1081586394585,884.21458815631308,5480.4695095245233,562.3631165636898,6185.452115342252,-6185.452115342252,-562.3631165636898,10744.155542125482,0.0
648204.59901257406,4162374.0504322448,-12500.0,3999.3504606983279,3777.4891924094777,3250.9942489621044,-1815.6925666305158,-1812.4002233163114,641.53197741742156,4297.7491697536516,1554.1211990698987,4193.3876299701597,-4193.3876299701597,-1554.1211990698987,8477.9132845739368,0.0
653204.59901257406,4162374.0504322448,-12500.0,3807.004328661933,2824.9244457694695,1571.0665984417778,-1483.5009791141422,-1107.9425506864691,442.91880069933507,3342.884854236454,2053.7168030751991,2520.8000210265745,-2520.8000210265745,-2053.7168030751991,6558.9734820390076,0.0
658204.59901257406,4162374.0504322448,-12500.0,3376.2243105078096,1928.975462928827,464.59235845963281,-1146.2661695924166,-609.85002228209817,292.25101587457982,2608.3889511286816,2179.810631923508,1254.067540032388,-1254.067540032388,-2179.810631923508,5022.8941135280265,0.0
663204.59901257406,4162374.0504322448,-12500.0,2835.4874139839321,1182.5785855782806,-202.95312881810153,-845.67363937668688,-278.78584093765107,184.15739064876934,2045.5341509926554,2065.1154310964184,370.99982264825417,-370.99982264825417,-2065.1154310964184,3844.4630146573768,0.0
668204.59901257406,4162374.0504322448,-12500.0,2277.8717405164143,610.31714235230584,-563.9283214659572,-598.22049990512721,-71.355528697867456,109.91038740900862,1622.1357468843885,1820.9121424367845,-198.18998284954921,198.18998284954921,-1820.9121424367845,2970.0691052413295,0.0
673204.59901257406,4162374.0504322448,-12500.0,1760.144068873579,199.40435284566857,-726.11092066423168,-405.29738153708041,50.276602615255783,60.735470857931119,1307.9569307071192,1526.378974151552,-533.42597836325058,533.42597836325058,-1526.378974151552,2337.5110161209382,0.0
678204.59901257406,4162374.0504322448,-12500.0,1310.2824862369871,-78.587721310141589,-768.0699101523536,-260.79902378524986,115.36028690104438,29.239376941794099,1075.6234876356871,1230.8627590014617,-706.04918001341809,706.04918001341809,-1230.8627590014617,1886.9715379396027,0.0
683204.59901257406,4162374.0504322448,-12500.0,936.8544669793821,-254.97334718149483,-742.8165335924125,-155.94363429953847,144.8514503514225,9.7601826296784537,902.43458482751441,961.01614279476598,-772.20806946973062,772.20806946973062,-961.01614279476598,1566.6909077986215,0.0
688204.59901257406,4162374.0504322448,-12500.0,637.06949644030988,-357.77370676762507,-683.99099064012319,-81.893488764876224,152.97562624508143,-1.7850420897273449,770.94395747993553,728.33103069501283,-772.7056101473637,772.7056101473637,-728.33103069501283,1335.5526111036559,0.0
693204.59901257406,4162374.0504322448,-12500.0,402.54287733338663,-409.55303970058276,-611.78710165986945,-30.934677659017389,148.99377537160339,-8.2221609273673568,668.55401312404649,535.21332960226823,-735.53288786862367,735.53288786862367,-535.21332960226823,1163.448024382541,0.0
698204.59901257406,4162374.0504322448,-12500.0,222.92688494450684,-427.33730890801775,-537.62462447451639,3.164827584338525,138.72200521460266,-11.44973748665592,586.58783500256254,379.22785842261794,-679.01600249057685,679.01600249057685,-379.22785842261794,1029.9167272195734,0.0
703204.59901257406,4162374.0504322448,-12500.0,87.942868297657469,-423.41010120704465,-467.46971172190882,25.20452965293493,125.68690153757558,-12.714612069903053,519.24492944344706,255.77814170970791,-614.64492170796098,614.64492170796098,-255.77814170970791,921.86461562456509,0.0
708204.59901257406,4162374.0504322448,-12500.0,-11.635641254251055,-406.33764491428263,-404.04405989919843,38.764675506984609,111.94257030993741,-12.820282389707787,462.69255420174284,159.65649763557386,-549.29125152946983,549.29125152946983,-159.65649763557386,831.23598912171099,0.0
528204.59901257406,4167374.0504322448,-12500.0,-929.96258778435117,551.76620055484591,-371.0849598164815,-210.05958122158685,127.62873279987744,-35.293474150697492,664.04244474398388,-603.8753288647913,382.19731995589058,-382.19731995589058,603.8753288647913,1306.654758308709,0.0
533204.59901257406,4167374.0504322448,-12500.0,-991.59389394387426,639.9284572316642,-450.88438084437962,-238.31061248559064,155.89699491565972,-42.526759768099019,743.44422508011075,-629.35580709337978,417.68302737698718,-417.68302737698718,629.35580709337978,1466.8804753543006,0.0
538204.59901257406,4167374.0504322448,-12500.0,-1046.7737922315685,740.92202661783574,-551.01572773623184,-269.43180996064143,190.88149204930767,-51.312887542271014,832.78308382568798,-644.23962460405289,450.9424491486501,-450.9424491486501,644.23962460405289,1648.3915739734921,0.0
543204.59901257406,4167374.0504322448,-12500.0,-1089.232828970697,854.8349830653475,-676.7970633868232,-302.85779470200623,234.05279313716059,-61.919299004526565,932.64122396473419,-642.12012617530763,478.04466809587279,-478.04466809587279,642.12012617530763,1852.9745582539022,0.0
548204.59901257406,4167374.0504322448,-12500.0,-1109.9017327333365,980.22385293261163,-834.59038219558272,-337.32574694228487,286.99984745277203,-74.585075700208563,1043.6885409184335,-614.05434414617127,492.79756763589887,-492.79756763589887,614.05434414617127,2081.7376430572531,0.0
553204.59901257406,4167374.0504322448,-12500.0,-1096.0487873251975,1112.8950639802335,-1031.5747322993948,-370.45003548001552,351.22202622051265,-89.440441765082525,1173.2344149753719,-547.90756780031029,485.76349990348359,-485.76349990348359,547.90756780031029,2334.5007678356269,0.0
558204.59901257406,4167374.0504322448,-12500.0,-1030.4425361577671,1243.9966942559918,-1274.9598665009262,-398.10957620018524,427.67817032948523,-106.35640257166894,1320.4763887192707,-427.85078016214101,443.04301403410187,-443.04301403410187,427.85078016214101,2608.9196736563904,0.0
563204.59901257406,4167374.0504322448,-12500.0,-890.91600297581351,1357.1837605297835,-1570.0759271361558,-413.62549724903158,515.90316141003098,-124.68142815717442,1481.1991827077982,-234.45984292848905,345.01566376510925,-345.01566376510925,234.45984292848905,2899.3687404804605,0.0
568204.59901257406,4167374.0504322448,-12500.0,-651.14517587659952,1424.7486358795711,-1916.3691097225108,-406.79248923646026,612.40542434398299,-142.81066342838022,1652.5905353472385,53.666088897005892,165.62773671449261,-165.62773671449261,-53.666088897005892,3195.8786266673756,0.0
573204.59901257406,4167374.0504322448,-12500.0,-284.16450219748378,1403.1139228820959,-2299.7905098381284,-363.04411450980723,707.97199362929643,-157.54022014333714,1830.7020481375928,455.10329871973954,-126.3600376143396,126.3600376143396,-455.10329871973954,3484.145701298663,0.0
578204.59901257406,4167374.0504322448,-12500.0,228.94474333059753,1229.4384660846924,-2679.6528758270106,-263.49013854577578,783.56247118761462,-163.22324243502737,2012.0419648814504,975.03697902082229,-561.29254358966557,561.29254358966557,-975.03697902082229,3749.3766672982633,0.0
583204.59901257406,4167374.0504322448,-12500.0,882.26581004713853,823.9652207593474,-2968.6998015488289,-87.346622829183929,804.99248786604096,-150.93757063872408,2199.0095731018569,1585.9835612542715,-1152.8362454738331,1152.8362454738331,-1585.9835612542715,3990.2753975050041,0.0
588204.59901257406,4167374.0504322448,-12500.0,1619.1891217145774,107.37602507146809,-3009.2662177266443,180.80814957791731,718.19591119227141,-108.26645433523275,2411.7752850097795,2199.3279086974117,-1866.5590914574832,1866.5590914574832,-2199.3279086974117,4253.3904482793469,0.0
593204.59901257406,4167374.0504322448,-12500.0,2305.005012236325,-953.68593094990683,-2560.0897736529082,536.52777697377985,450.16334928832049,-20.830372559086992,2704.4046691927997,2637.0870984577273,-2571.7679202348741,2571.7679202348741,-2637.0870984577273,4686.5046424434759,0.0
598204.59901257406,4167374.0504322448,-12500.0,2724.2273804909923,-2266.7531229705819,-1329.3568685201687,934.86843169448355,-75.024149482960482,123.08680005329543,3164.0423437632762,2634.7791536167883,-2995.9165675751951,2995.9165675751951,-2634.7791536167883,5541.377724081749,0.0
603204.59901257406,4167374.0504322448,-12500.0,2648.5282454100575,-3530.0640941045981,895.84131746272431,1274.9373814967059,-895.62928427596569,324.62280156932871,3858.1517556064118,1928.5496850578841,-2741.7113811507124,2741.7113811507124,-1928.5496850578841,7004.732559943699,0.0
608204.59901257406,4167374.0504322448,-12500.0,1998.3103565814929,-4244.4013734748078,4018.6968555513968,1414.2051733090377,-1953.4499421491219,566.14053418261983,4750.4215774183667,452.99595856579413,-1452.3388799834122,1452.3388799834122,-452.99595856579413,8973.2528373143832,0.0
613204.59901257406,4167374.0504322448,-12500.0,1005.3513563193942,-3934.0970323584361,7448.3880932527727,1232.7185373994719,-3058.3802562535652,809.20303147666641,5676.2963498524923,-1459.4044887858802,882.36931514770345,-882.36931514770345,1459.4044887858802,11039.302521199668,0.0
618204.59901257406,4167374.0504322448,-12500.0,165.9478480856599,-2506.8962425432182,10236.082385255848,721.17256254536642,-3936.6014164484332,1004.2215305280594,6427.6400648985664,-3130.2961083978462,3722.7788975925359,-3722.7788975925359,3130.2961083978462,12671.745406442938,0.0
623204.59901257406,4167374.0504322448,-12500.0,-81.303769949994162,-411.43373530859213,11581.48774065326,13.354715835538046,-4363.2839067227405,1109.5984712015843,6840.9606647939099,-3931.2702485135501,6190.4559676952376,-6190.4559676952376,3931.2702485135501,13460.045206932638,0.0
628204.59901257406,4167374.0504322448,-12500.0,339.54764823766874,1634.6440775640522,11290.805821535199,-683.98286969453579,-4279.0565414148332,1109.2966810486573,6779.1428514146437,-3684.4327026908427,7591.6545407015219,-7591.6545407015219,3684.4327026908427,13283.203864192476,0.0
633204.59901257406,4167374.0504322448,-12500.0,1160.5215158441533,3082.4451367025895,9766.834912096163,-1203.698290938758,-3792.6508771652134,1017.1977717871409,6288.9126946950855,-2679.7939043340948,7758.0193557834309,-7758.0193557834309,2679.7939043340948,12301.476978231243,0.0
638204.59901257406,4167374.0504322448,-12500.0,2019.5083044008252,3754.9102712974159,7648.0331880191807,-1479.1127558449462,-3090.8707522456943,866.63021585170145,5524.7186602700849,-1385.4985337568228,6965.4747645235348,-6965.4747645235348,1385.4985337568228,10817.589673906219,0.0
643204.59901257406,4167374.0504322448,-12500.0,2662.3811521125594,3765.1412995651021,5479.9640044913031,-1531.6993748873342,-2345.8247013473256,694.21614567587903,4647.9381958934182,-181.66839615323079,5651.8169151459497,-5651.8169151459497,181.66839615323079,9134.208839625102,0.0
648204.59901257406,4167374.0504322448,-12500.0,2992.5582277661551,3343.7881372118327,3590.2914670212335,-1426.4996346954583,-1670.6537630094253,528.21911130903163,3783.6439055550954,731.87510708089462,4200.754664457002,-4200.754664457002,-731.87510708089462,7478.2339251671719,0.0
653204.59901257406,4167374.0504322448,-12500.0,3028.5650687868447,2714.982767335498,2109.6371383487581,-1233.9145157316327,-1118.1603784657648,384.81225514029256,3024.1736822545781,1307.0842455964837,2861.4975111996064,-2861.4975111996064,-1307.0842455964837,5986.3441642180187,0.0
658204.59901257406,4167374.0504322448,-12500.0,2844.3617712159971,2043.5222486602934,1040.6932132817738,-1009.9918921767182,-698.2691923363675,269.86972722600945,2412.9590723475644,1584.5705890135976,1755.0864109137276,-1755.0864109137276,-1584.5705890135976,4721.0845367401489,0.0
663204.59901257406,4167374.0504322448,-12500.0,2525.4489815854231,1428.0233370669523,322.42336963735181,-791.34514909461075,-397.28489450623925,182.66524038799628,1922.9566244932837,1640.1515163805975,912.09366834030254,-912.09366834030254,-1640.1515163805975,3694.6832300785204,0.0
668204.59901257406,4167374.0504322448,-12500.0,2145.3460427657869,914.24580919263462,-126.29251815046905,-597.63771798860591,-192.17824644480811,119.22783337600232,1536.9962560367508,1551.7509643181011,311.57371806872914,-311.57371806872914,-1551.7509643181011,2890.1098000637767,0.0
673204.59901257406,4167374.0504322448,-12500.0,1757.209028421785,513.09564782066411,-382.65709621562445,-436.51085946202517,-59.060285115565115,74.605386608925158,1238.8074587294111,1383.7115640280613,-89.734713578055221,89.734713578055221,-1383.7115640280613,2276.2966606006985,0.0
678204.59901257406,4167374.0504322448,-12500.0,1394.161011873193,216.1691352957553,-509.85402707376755,-308.30857517888751,22.789898616517696,44.09797932707977,1011.3912920371798,1182.407439699035,-339.38531789056231,339.38531789056231,-1182.407439699035,1817.7764161404923,0.0
683204.59901257406,4167374.0504322448,-12500.0,1073.4022415346014,6.6659949289530109,-555.05400435421984,-209.63377224884104,69.653803540698974,23.776851327254231,838.84635536575865,977.74104584950862,-480.06137293106565,480.06137293106565,-977.74104584950862,1480.1491144224851,0.0
688204.59901257406,4167374.0504322448,-12500.0,801.10600984589814,-134.04748562728793,-551.26277407056762,-135.6501942479585,93.527343408045425,10.59419106762728,707.52271188777013,786.85716098234514,-546.16895039987196,546.16895039987196,-786.85716098234514,1232.9225275780659,0.0
693204.59901257406,4167374.0504322448,-12500.0,576.66371426611443,-223.0811227268714,-520.42863098461851,-81.390133837571113,102.85072416599425,2.2986976657270315,606.45263606986816,618.0545102537053,-563.59021309159061,563.59021309159061,-618.0545102537053,1050.8466877732287,0.0
698204.59901257406,4167374.0504322448,-12500.0,395.82464245561198,-274.68747923827436,-476.50925728724684,-42.390196171946279,103.35446371125973,-2.7166632904026837,527.28374680175648,474.02861408260242,-550.85003195577997,550.85003195577997,-474.02861408260242,914.29610577139488,0.0
703204.59901257406,4167374.0504322448,-12500.0,252.77687895848533,-300.04486379744446,-427.99131033862631,-14.924288863712526,98.814584466708268,-5.5707537472131836,463.92327474788709,354.23773396650887,-520.69468354571586,520.69468354571586,-354.23773396650887,808.92268303910328,0.0
528204.59901257406,4172374.0504322448,-12500.0,-771.70956195820656,534.28517950563651,-403.6622932724573,-178.42058898320713,126.20847894959603,-30.697842786379464,602.11185128060811,-474.87225012719023,324.35685742881901,-324.35685742881901,474.87225012719023,1188.065334880818,0.0
533204.59901257406,4172374.0504322448,-12500.0,-803.45121978155271,608.63479375492045,-484.98355148811146,-198.70309761130213,151.88194945689864,-36.457006585160556,667.12213269825554,-476.71978466250278,343.13292456657643,-343.13292456657643,476.71978466250278,1320.7577368217621,0.0
538204.59901257406,4172374.0504322448,-12500.0,-823.88254110140838,690.29928158572545,-584.72017451997863,-219.82371859823434,182.8644073443337,-43.265687142994231,738.48796143228878,-464.60030881167347,355.57197776335602,-355.57197776335602,464.60030881167347,1467.8869189264117,0.0
543204.59901257406,4172374.0504322448,-12500.0,-826.75165667063334,777.55877180831681,-706.66854586984164,-240.79245399731815,219.98045830887625,-51.22155256258138,816.19906444709352,-432.49047982477623,357.15816621109525,-357.15816621109525,432.49047982477623,1629.616207308997,0.0
548204.59901257406,4172374.0504322448,-12500.0,-803.71350537298167,866.78646640026648,-854.80457090060827,-259.9372460486868,263.91411144458635,-60.348103828608927,907.32132018339951,-372.61324383169404,341.41476524726863,-341.41476524726863,372.61324383169404,1805.2125007721702,0.0
553204.59901257406,4172374.0504322448,-12500.0,-744.0161086668852,951.36920019647334,-1032.6677230814944,-274.59362289819217,314.93399000776384,-70.516368766340037,1008.9294442803789,-275.32910038007822,299.33816174929916,-299.33816174929916,275.32910038007822,1992.584686788369,0.0
558204.59901257406,4172374.0504322448,-12500.0,-634.48334558236695,1020.2191908844402,-1242.1062572894148,-280.71530633075429,372.40372564102529,-81.31622373824986,1118.1242968519771,-129.42900514106091,218.91245279015354,-218.91245279015354,129.42900514106091,2187.7648254193018,0.0
563204.59901257406,4172374.0504322448,-12500.0,-460.19273869573391,1055.8979545107388,-1480.9437518643185,-272.44912231765323,433.96068643663068,-91.856588196772947,1233.2062244139058,76.727447823012128,85.032908855473593,-85.032908855473593,-76.727447823012128,2384.5327268356032,0.0
568204.59901257406,4172374.0504322448,-12500.0,-206.51644953060182,1032.6281433102479,-1738.951739652292,-241.80893396423338,494.22520448937507,-100.47686821554501,1351.9966170019861,352.50693032531302,-119.4880179956203,119.4880179956203,-352.50693032531302,2574.7337910421534,0.0
573204.59901257406,4172374.0504322448,-12500.0,136.51071698815744,915.0393151291513,-1991.4480942582813,-178.75536194386049,542.94159456644763,-104.37473652784387,1472.8218692234238,699.72395008309718,-410.61909237453852,410.61909237453852,-699.72395008309718,2750.5905164281889,0.0
578204.59901257406,4172374.0504322448,-12500.0,566.45535084629626,659.55039174538592,-2190.2208234507289,-72.257984521634611,562.65269835462868,-99.217001725440525,1597.2132983592223,1103.770555705526,-795.65785413818469,795.65785413818469,-1103.770555705526,2911.6589910780463,0.0
583204.59901257406,4172374.0504322448,-12500.0,1057.1081678069922,221.82957656406296,-2253.0190513276784,86.781987613853971,526.54316121975876,-78.926056321234583,1735.3319468582581,1521.0999500487681,-1259.5353152620444,1259.5353152620444,-1521.0999500487681,3080.4317364960007,0.0
588204.59901257406,4172374.0504322448,-12500.0,1545.9249042533759,-424.97263185448651,-2056.6350924017984,299.82311569382944,398.13272446661176,-36.024063640156918,1913.5173571465764,1866.1999634466242,-1744.35099294264,1744.35099294264,-1866.1999634466242,3327.0032931301757,0.0
593204.59901257406,4172374.0504322448,-12500.0,1928.4844705486398,-1258.1560621885828,-1445.1137528444235,552.15637059700543,135.92434612203053,36.923927885368485,2177.1227375799122,2007.7468114524092,-2127.5018179812,2127.5018179812,-2007.7468114524092,3781.1013289935108,0.0
598204.59901257406,4172374.0504322448,-12500.0,2075.2281338673247,-2165.8799648624631,-270.66575569118015,804.268104460264,-293.22900284314568,144.36034659825413,2574.5024911148134,1791.6119221873014,-2215.7821070059681,2215.7821070059681,-1791.6119221873014,4579.6786974350935,0.0
603204.59901257406,4172374.0504322448,-12500.0,1885.0855391315522,-2926.3395031760092,1521.1430897955054,990.26815553370204,-891.13136766273226,283.66195433900987,3119.9856447842512,1107.4609476305154,-1785.2939668311524,1785.2939668311524,-1107.4609476305154,5755.7634288528188,0.0
608204.59901257406,4172374.0504322448,-12500.0,1366.5035024753663,-3250.1221603929439,3785.2454861692913,1032.9954385818567,-1603.788990667166,441.77659921538719,3764.2386477125524,-12.403389292212637,-687.97205212637323,687.97205212637323,12.403389292212637,7179.8082630556946,0.0
613204.59901257406,4172374.0504322448,-12500.0,689.49591825104108,-2909.1026807431158,6130.1777884738376,878.17488311189936,-2315.2195947949212,595.49078869130778,4400.8408075989337,-1328.7060747152839,1010.8130414797045,-1010.8130414797045,1328.7060747152839,8596.7576501336534,0.0
618204.59901257406,4172374.0504322448,-12500.0,134.56271476963775,-1891.8946292883102,8021.6409380468085,531.04663740799754,-2878.1085896048912,717.21264986246808,4914.2504091354031,-2455.4996828026792,2974.6552304842266,-2974.6552304842266,2455.4996828026792,9715.1650964387245,0.0
623204.59901257406,4172374.0504322448,-12500.0,-59.370710341773432,-453.51486098634274,9019.1946010259762,65.62296917143847,-3173.7920369154026,784.57671283936077,5222.8967434703254,-3048.1104176982763,4714.034373704254,-4714.034373704254,3048.1104176982763,10311.138518881962,0.0
628204.59901257406,4172374.0504322448,-12500.0,169.12350909834024,1007.780543105319,8980.9141479383106,-406.86205882975594,-3162.8422068398768,788.69619635343554,5238.940278586093,-2982.0189553725422,5821.5298328371491,-5821.5298328371491,2982.0189553725422,10301.755545630975,0.0
633204.59901257406,4172374.0504322448,-12500.0,696.62406996298762,2149.9136420387717,8082.6165754596486,-788.14994992921254,-2891.2092375072039,736.20156654420475,4968.7783641748092,-2380.4843930021225,6142.9219144645804,-6142.9219144645804,2380.4843930021225,9750.3503617504866,0.0
638204.59901257406,4172374.0504322448,-12500.0,1317.357821122356,2809.7815820083265,6673.1772969180547,-1026.4386237224317,-2455.2540344580952,644.53470629351364,4490.4355352797893,-1499.9108418687974,5777.322164693137,-5777.322164693137,1499.9108418687974,8813.1252019406747,0.0
643204.59901257406,4172374.0504322448,-12500.0,1853.1076102304282,2999.7302429188444,5103.914026919254,-1118.9767995451455,-1956.9693866182979,534.26963959380691,3898.9852790599875,-591.04965995082648,4960.7461663326394,-4960.7461663326394,591.04965995082648,7670.3990935404972,0.0
648204.59901257406,4172374.0504322448,-12500.0,2205.1737894320672,2834.0290924743476,3629.3902668315714,-1094.6864363394914,-1474.7494750490901,422.86218599450501,3277.9137464160549,178.53389073434209,3943.3243478653649,-3943.3243478653649,-178.53389073434209,6477.5196406404757,0.0
653204.59901257406,4172374.0504322448,-12500.0,2351.5887210108285,2454.0543805498819,2387.1953730811338,-993.73771140264523,-1054.7182774789474,321.82066258136103,2690.6963622372286,735.12266312203678,2918.6989761802952,-2918.6989761802952,-735.12266312203678,5344.2009701690749,0.0
658204.59901257406,4172374.0504322448,-12500.0,2320.0250042963262,1982.4957668036352,1421.5594788433257,-853.49181998439428,-715.28187079267741,236.78302877498766,2191.9268765911479,1074.5301157260546,2005.1325362402467,-2005.1325362402467,-1074.5301157260546,4334.3412479172539,0.0
663204.59901257406,4172374.0504322448,-12500.0,2159.7155955013368,1506.0437918766956,718.54474133234726,-702.15332632184118,-456.33356377414549,169.03557896507184,1780.806014027125,1230.9066363747147,1256.0031412668573,-1256.0031412668573,-1230.9066363747147,3475.5075735437858,0.0
668204.59901257406,4172374.0504322448,-12500.0,1921.8560546016811,1075.6913148967778,236.19617190457694,-557.80288048377724,-267.92056364633424,117.27260364462639,1443.6973074053085,1252.1078542944877,680.15085824568109,-680.15085824568109,-1252.1078542944877,2770.5899378796316,0.0
673204.59901257406,4172374.0504322448,-12500.0,1649.3158113903849,714.68981023914239,-75.215980479639839,-430.09442172578304,-136.45392220576531,79.002080177227583,1173.008526993965,1184.6606024750602,261.26047871464988,-261.26047871464988,-1184.6606024750602,2207.9371347377164,0.0
678204.59901257406,4172374.0504322448,-12500.0,1373.1942562449919,427.97016937897331,-262.03935508046766,-322.73186706050728,-48.383679647033752,51.455230963917444,959.36143477997234,1066.7209861600772,-27.797700123179197,27.797700123179197,-1066.7209861600772,1768.7840026616448,0.0
683204.59901257406,4172374.0504322448,-12500.0,1113.330408996585,210.10669209168125,-362.50999260346106,-235.74628792801343,8.0365316689588706,32.075863735936402,792.69106208202095,926.22788228254046,-216.03926084277271,216.03926084277271,-926.22788228254046,1432.066444288422,0.0
688204.59901257406,4172374.0504322448,-12500.0,880.53989653707038,50.962975690450122,-405.82649413600552,-167.21677825360857,42.185063401409366,18.723986558952724,663.41638652655274,781.79447865812369,-329.70257844377204,329.70257844377204,-781.79447865812369,1177.2293312631462,0.0
693204.59901257406,4172374.0504322448,-12500.0,679.21550164656594,-60.808780573589139,-413.08831657361299,-114.41327860211295,61.148113286952437,9.713908628278368,563.10634085372601,644.6654036827041,-390.40439463321934,390.40439463321934,-644.6654036827041,985.71926105544708,0.0
698204.59901257406,4172374.0504322448,-12500.0,509.61730176189121,-135.87845069837613,-398.89724366199715,-74.47419381175871,70.070017781482321,3.7714881354267931,484.75788998113075,520.79555170532478,-414.90229721100053,414.90229721100053,-520.79555170532478,841.70534386373583,0.0
703204.59901257406,4172374.0504322448,-12500.0,369.62365615389263,-183.40257790968195,-372.99047943117836,-44.759788748485875,72.57150561094069,-0.038494331826940037,422.81843537398868,412.62527963480022,-415.62868093134466,415.62868093134466,-412.62527963480022,732.34501748090827,0.0
533204.59901257406,4177374.0504322448,-12500.0,-633.49269304704285,561.10058656546869,-503.70676550225659,-162.32686543414675,143.96055800672914,-30.792576319175531,592.48857830489328,-341.38894333889584,267.20249082523014,-267.20249082523014,341.38894333889584,1177.9623887262956,0.0
538204.59901257406,4177374.0504322448,-12500.0,-627.68545032424447,622.57345405412309,-598.34568553852898,-175.29355036890257,170.3511979886633,-35.906961580499754,647.88771132675174,-310.05588485333283,262.1509990841721,-262.1509990841721,310.05588485333283,1294.5018946770574,0.0
543204.59901257406,4177374.0504322448,-12500.0,-602.52789596485104,683.52315289069998,-710.68155606873927,-186.51234950585027,200.94311360262225,-41.659656213003537,713.38575474119659,-258.45388097072686,243.61191002159893,-243.61191002159893,258.45388097072686,1419.1677227874964,0.0
548204.59901257406,4177374.0504322448,-12500.0,-551.18267365390113,739.12043886665174,-842.37714469134892,-194.24960600714709,235.73118814133281,-47.945947653197024,785.15169193506165,-180.60203880640915,205.69225311233828,-205.69225311233828,180.60203880640915,1550.2853129452474,0.0
553204.59901257406,4177374.0504322448,-12500.0,-465.59542438506185,781.81986948753786,-993.77142204868937,-196.00372644866127,274.13704056285059,-54.505000042959402,861.32844290206174,-69.854479857423257,140.87862358386315,-140.87862358386315,69.854479857423257,1685.089307677217,0.0
558204.59901257406,4177374.0504322448,-12500.0,-336.98361630914803,800.4190073012046,-1162.5068767791297,-188.31188999346867,314.57419138139659,-60.82302834889245,940.85285623379809,80.350850037350028,40.136654730262244,-40.136654730262244,-80.350850037350028,1819.6145042402402,0.0
563204.59901257406,4177374.0504322448,-12500.0,-157.02350529878811,779.1429858854948,-1341.3307671699454,-166.61952962759847,353.80173470448739,-65.998634989745099,1022.4707475733012,274.94835652956891,-106.39235095851474,106.39235095851474,-274.94835652956891,1949.0190392135185,0.0
568204.59901257406,4177374.0504322448,-12500.0,79.862438772443596,697.16713827709941,-1514.8148595948012,-125.34589209077011,386.0346586949446,-68.572153380324323,1105.3363758566406,514.49076116810238,-307.55978455243462,307.55978455243462,-514.49076116810238,2068.9737424362579,0.0
573204.59901257406,4177374.0504322448,-12500.0,372.71623211948628,529.4083599873203,-1654.9342880500224,-58.379591860105201,401.86111102816545,-66.343027201433827,1190.4285321684545,790.80347624828732,-567.4820394807432,567.4820394807432,-790.80347624828732,2179.3123118022427,0.0
578204.59901257406,4177374.0504322448,-12500.0,708.66600348449322,249.97835582816637,-1716.0636408054843,39.654038246432272,387.21188599331094,-56.242459283567541,1283.2142870001219,1081.0613842384028,-879.10458690084283,879.10458690084283,-1081.0613842384028,2291.6558591616031,1.0
583204.59901257406,4177374.0504322448,-12500.0,1056.8470404523509,-159.86002538158991,-1631.3058136768784,170.98297960090977,322.98835267914734,-34.39483279649636,1397.3892553854771,1341.443392684195,-1214.8084334537864,1214.8084334537864,-1341.443392684195,2441.4924300434236,0.0
588204.59901257406,4177374.0504322448,-12500.0,1364.4572075833423,-697.80590255281743,-1314.3272537543662,331.00882007360644,186.45804348852545,3.4269148598444765,1557.2813832583934,1503.7485740773066,-1515.7228985682784,1515.7228985682784,-1503.7485740773066,2697.4399723097972,0.0
593204.59901257406,4177374.0504322448,-12500.0,1560.3935068321564,-1321.954927720896,-673.27412007366797,504.02981453230092,-44.101982204146211,60.737886079680926,1793.1957065275249,1481.3033576831647,-1685.3176021279417,1685.3176021279417,-1481.3033576831647,3146.2951936923382,0.0
598204.59901257406,4177374.0504322448,-12500.0,1573.0608400355497,-1934.9865514158603,356.95804500016067,660.50695687107975,-380.50774800121229,138.62564880837317,2125.9393523545536,1191.7181450475473,-1597.7923539492622,1597.7923539492622,-1191.7181450475473,3842.8863243853848,0.0
603204.59901257406,4177374.0504322448,-12500.0,1364.1714622604186,-2386.4766348716807,1765.8829976445452,759.48408142818016,-812.794865599123,233.78199885725277,2548.371733030544,598.44527731771166,-1132.8237847774126,1132.8237847774126,-598.44527731771166,4763.5501320324129,0.0
608204.59901257406,4177374.0504322448,-12500.0,966.37609349890511,-2509.9735770874927,3422.0774673316159,759.29448945714216,-1299.7740111902915,337.27438699966029,3018.1807178749532,-243.27562804602761,-236.70584455275676,236.70584455275676,243.27562804602761,5802.4863634638568,0.0
613204.59901257406,4177374.0504322448,-12500.0,496.48231917141794,-2193.9143500813411,5069.2392851525301,635.12990926863131,-1770.5585730523835,435.29653778653238,3467.5493217403236,-1169.7541030418149,1016.7151339507084,-1016.7151339507084,1169.7541030418149,6800.6044724765688,0.0
618204.59901257406,4177374.0504322448,-12500.0,119.1409515064755,-1451.2952041517103,6392.6927003908813,394.78901024329411,-2142.4624008662167,512.44221264783175,3830.5571873241738,-1952.5378176560223,2413.6812574440601,-2413.6812574440601,1952.5378176560223,7589.5668800833701,0.0
623204.59901257406,4177374.0504322448,-12500.0,-28.733398598851803,-434.9008208252763,7136.8115184354365,80.994883254318864,-2349.6773125630671,556.47255039277718,4064.6496389022163,-2392.4990953529787,3666.5540714373228,-3666.5540714373228,2392.4990953529787,8040.1634033320806,0.0
628204.59901257406,4177374.0504322448,-12500.0,96.941523012685337,623.05379028573714,7203.6558902086526,-243.75822284689178,-2366.8321000527485,562.25194242282942,4109.670153847138,-2405.8224934236573,4527.9076776785096,-4527.9076776785096,2405.8224934236573,8097.1352650427043,0.0
633204.59901257406,4177374.0504322448,-12500.0,437.94057397557708,1507.8507397797616,6671.1281578593607,-520.93166810234561,-2213.6756171692537,532.80564923379654,3960.3194446115349,-2044.7514673583187,4879.5969384703403,-4879.5969384703403,2044.7514673583187,7785.007720750883,0.0
638204.59901257406,4177374.0504322448,-12500.0,877.45007314717679,2092.9194848363154,5732.3001723074303,-714.00841353896658,-1940.845612470835,477.25162346167986,3657.2768778039035,-1450.4844601638861,4747.9769340460698,-4747.9769340460698,1450.4844601638861,7186.3507286914491,0.0
643204.59901257406,4177374.0504322448,-12500.0,1297.7927471857181,2353.9424933282057,4608.0214716902574,-813.28625196665803,-1608.2053787969332,407.12959490361339,3256.6634381166086,-782.28251432265029,4256.7322957021661,-4256.7322957021661,782.28251432265029,6408.2452200026473,0.0
648204.59901257406,4177374.0504322448,-12500.0,1618.0228533730758,2340.5326425404915,3481.7584505197633,-829.76623608804516,-1267.5278888517842,333.06826912379154,2813.0113816540907,-165.56180761767405,3561.5966081890811,-3561.5966081890811,165.56180761767405,5553.2990445442656,0.0
653204.59901257406,4177374.0504322448,-12500.0,1803.3161509373003,2135.6996321417591,2472.7539019377646,-785.0206172728432,-954.33584905840905,262.89149849872632,2370.3813664283052,327.27078785139793,2801.415646696506,-2801.415646696506,-327.27078785139793,4702.8666821881061,0.0
658204.59901257406,4177374.0504322448,-12500.0,1855.8266335726869,1823.8379263480904,1638.4831124337632,-702.47220210136197,-687.48625684272315,201.19865930173032,1965.6908217240823,671.7748508396279,2075.4636346995167,-2075.4636346995167,-671.7748508396279,3911.8892185609543,0.0
663204.59901257406,4177374.0504322448,-12500.0,1799.4266379542505,1473.3115984776289,990.78641281582861,-602.16269154013071,-472.84393534409503,149.87313605983363,1627.0788588859598,876.16421091676659,1441.0777809689093,-1441.0777809689093,-876.16421091676659,3211.1548601124846,0.0
668204.59901257406,4177374.0504322448,-12500.0,1666.1376651038493,1131.0725191357953,514.11623152389507,-498.72970130159445,-307.97415909982988,108.93155417404309,1341.066268983745,965.5793147112762,921.80842363092063,-921.80842363092063,-965.5793147112762,2612.8189303098261,0.0
673204.59901257406,4177374.0504322448,-12500.0,1487.0952050248768,824.38057581406474,180.2625884328634,-401.45282087100691,-186.17643865962219,77.331846266739831,1103.2851110249642,970.32847186243475,518.52441338047424,-518.52441338047424,-970.32847186243475,2116.4138487107625,0.0
678204.59901257406,4177374.0504322448,-12500.0,1287.939790128798,565.4719584834055,-41.896233788736204,-315.27731481056816,-99.305860497173981,53.579602026280163,909.35688005514965,918.83595119903168,219.3604321826673,-219.3604321826673,-918.83595119903168,1713.9638866778496,0.0
683204.59901257406,4177374.0504322448,-12500.0,1087.3924227374102,356.60427770848042,-181.00103647323814,-242.08369995384697,-39.443452847336644,36.112644078714027,753.53111898449754,834.37643557001138,7.0019984045898127,-7.0019984045898127,-834.37643557001138,1393.7558929889685,0.0
688204.59901257406,4177374.0504322448,-12500.0,897.6759186570572,194.26496023303264,-260.89687018604809,-181.82470420423286,0.2914087138981829,23.507620003820939,629.61613342268822,734.27347098566725,-136.72454703415957,136.72454703415957,-734.27347098566725,1142.8346625763861,0.0
693204.59901257406,4177374.0504322448,-12500.0,725.75286673873825,72.193337242953561,-300.17314793046427,-133.39084401949378,25.475870095985552,14.565903936900943,531.65231713897572,630.41861408081718,-228.38262777184548,228.38262777184548,-630.41861408081718,948.49771887196266,0.0
698204.59901257406,4177374.0504322448,-12500.0,574.74371747188843,-16.687701690783431,-312.64734704421329,-95.200264330331564,40.419629395022127,8.3285064058518721,454.29461417094944,530.32738872609752,-281.88523065498009,281.88523065498009,-530.32738872609752,799.11403696478101,0.0
533204.59901257406,4182374.0504322448,-12500.0,-484.92476053024183,503.37633972071274,-507.84522363299965,-129.94526330387299,133.34070134172575,-25.660356198285569,521.50903263344208,-225.93707544032023,194.79347540421551,-194.79347540421551,225.93707544032023,1042.1782256357344,0.0
538204.59901257406,4182374.0504322448,-12500.0,-460.76699713924188,545.64075008338591,-593.87181119262698,-136.57758758417614,155.01837316642391,-29.37605468123288,569.33019750997266,-182.46669077960047,176.28581751327181,-176.28581751327181,182.46669077960047,1132.4571218118137,0.0
543204.59901257406,4182374.0504322448,-12500.0,-417.68061752000278,582.8123665286148,-692.71410280534587,-140.57029452981081,179.23309952717551,-33.367591310449718,621.09596122786343,-120.32317706122154,143.45461478741265,-143.45461478741265,120.32317706122154,1226.2557522509408,0.0
548204.59901257406,4182374.0504322448,-12500.0,-350.60718267486038,609.70570107678975,-804.09548553408683,-140.34289198215751,205.51844948298046,-37.467175836468002,675.50150598282289,-35.46244856360952,91.499739529945828,-91.499739529945828,35.46244856360952,1321.6424032132863,0.0
553204.59901257406,4182374.0504322448,-12500.0,-254.19867054636097,618.96715069317588,-925.93532851888631,-133.78519776345777,232.80469645259163,-41.369071013871313,731.8546111191182,75.935904724368029,14.857675206032969,-14.857675206032969,-75.935904724368029,1416.0305570196924,0.0
558204.59901257406,4182374.0504322448,-12500.0,-123.51781916655561,600.63694467238338,-1053.1090134826838,-118.20436346290737,259.08138918772363,-44.563873338580379,789.40264211646536,216.56899822498769,-92.338220238639451,92.338220238639451,-216.56899822498769,1506.4358393644109,0.0
563204.59901257406,4182374.0504322448,-12500.0,44.714774698460424,541.96814896902822,-1175.6897432878407,-90.370821653387665,280.95008510091509,-46.257068841005896,847.69548708969569,386.5130885668658,-235.21282830241341,235.21282830241341,-386.5130885668658,1590.3234091333559,0.0
568204.59901257406,4182374.0504322448,-12500.0,250.16249459098549,427.8851617838917,-1276.6708506909304,-46.763647412526346,293.0924129285155,-45.281064892121528,907.36356178008646,580.97637119984392,-416.18733110011294,416.18733110011294,-580.97637119984392,1667.6153697925838,0.0
573204.59901257406,4182374.0504322448,-12500.0,486.17366289110993,242.68722781515268,-1329.4319200482439,15.842452873292691,287.7553919568673,-40.0263618164634,971.50583731531117,787.32116887809104,-631.76016275854715,631.76016275854715,-787.32116887809104,1744.6467019355507,1.0
578204.59901257406,4182374.0504322448,-12500.0,736.69007309421909,-26.222518374685812,-1295.7417522465164,99.291947129470913,254.4906939496656,-28.441241451803567,1047.6398835778393,981.8181083351418,-867.90990669327664,867.90990669327664,-981.8181083351418,1840.3977538927916,0.0
583204.59901257406,4182374.0504322448,-12500.0,973.83408660223415,-381.91350291799284,-1125.949166299235,202.38111585685559,180.57410895244237,-8.1790511881595922,1149.2947464550143,1127.4254328892659,-1094.6869738340608,1094.6869738340608,-1127.4254328892659,1992.4090736765118,0.0
588204.59901257406,4182374.0504322448,-12500.0,1158.2579572539992,-808.98496888999864,-763.99313651984028,318.77627409807081,52.703127281364289,23.012367438869898,1294.8595136583508,1175.0300858275612,-1261.9490898432971,1261.9490898432971,-1175.0300858275612,2253.4778848070541,0.0
593204.59901257406,4182374.0504322448,-12500.0,1245.0842799489096,-1264.3277144169826,-160.18154952925872,435.18157867827642,-139.47579109581275,66.596578326841666,1501.2316312544276,1071.4051263981976,-1300.1290147768116,1300.1290147768116,-1071.4051263981976,2670.1310891640592,0.0
598204.59901257406,4182374.0504322448,-12500.0,1197.4606415586657,-1672.9088869960158,707.17720190194757,531.05169635131108,-398.03480201662137,122.31026993785818,1773.8891281203037,776.15947792508041,-1131.2143331696195,1131.2143331696195,-776.15947792508041,3253.6768441970894,0.0
603204.59901257406,4182374.0504322448,-12500.0,1005.8607869966427,-1936.153141249792,1805.7542465180586,581.4358918259428,-710.97245192544449,187.26097588588411,2099.6147598038197,285.39573098274582,-693.17213570365425,693.17213570365425,-285.39573098274582,3967.5487851347102,0.0
608204.59901257406,4182374.0504322448,-12500.0,704.61346778432812,-1957.967190471235,3031.3843549241824,563.70155051833899,-1048.9545614486285,255.55929266014866,2446.3990032932056,-348.04956890784905,26.605606231155946,-26.605606231155946,348.04956890784905,4734.4968562533695,0.0
613204.59901257406,4182374.0504322448,-12500.0,372.53636287303442,-1683.2402201237001,4215.3589665720046,466.53598757609302,-1368.1325850036351,318.98732178142592,2770.7705259625527,-1013.5610527616088,964.57713319263735,-964.57713319263735,1013.5610527616088,5453.820059215197,0.0
618204.59901257406,4182374.0504322448,-12500.0,109.61538791269953,-1130.1708874008882,5165.2627622731061,296.92761786370329,-1620.3857402679846,368.81147244928849,3034.7894140199196,-1571.1492755273944,1981.9678687806413,-1981.9678687806413,1571.1492755273944,6024.0896039660711,0.0
623204.59901257406,4182374.0504322448,-12500.0,-2.3485703772913418,-394.15443305719117,5726.2668440982534,80.436418888359441,-1767.6975842670463,398.17453284388489,3215.6255690344929,-1900.8105333117924,2902.4630330939031,-2902.4630330939031,1900.8105333117924,6367.3195264751448,0.0
628204.59901257406,4182374.0504322448,-12500.0,67.209945305879373,383.6913578485931,5831.614778903464,-146.47721445371047,-1793.7594004388563,404.02070028238154,3268.7406633222704,-1946.386596430933,3571.0245895710073,-3571.0245895710073,1946.386596430933,6446.6296065146025,0.0
633204.59901257406,4182374.0504322448,-12500.0,290.37627599561768,1066.3060317995153,5515.5342230734277,-348.2427245351613,-1707.0076024824828,387.67315886328157,3187.2329660401379,-1729.1820161946057,3902.0344335878349,-3902.0344335878349,1729.1820161946057,6270.5518246255151,0.0
638204.59901257406,4182374.0504322448,-12500.0,600.09511615636507,1561.2060823345782,4886.7880103511798,-500.00738247875165,-1534.6075338367323,353.92886608455473,2993.0558762148303,-1327.9895044460127,3893.6399485434149,-3893.6399485434149,1327.9895044460127,5883.7699817097473,0.0
643204.59901257406,4182374.0504322448,-12500.0,920.44465229458569,1835.0723488719857,4083.5150009125273,-591.60387958189824,-1311.8051300718141,309.28765225844438,2719.7272473457961,-842.70415259802121,3609.1301847970917,-3609.1301847970917,842.70415259802121,5350.3845300879739,0.0
648204.59901257406,4182374.0504322448,-12500.0,1190.8607680311313,1904.4544065885382,3233.2212203969029,-625.7985079051806,-1072.0610496558202,260.17895015685838,2402.6174903912402,-362.24963792578887,3143.1275015048986,-3143.1275015048986,362.24963792578887,4737.2828037232211,0.0
653204.59901257406,4182374.0504322448,-12500.0,1376.8125724333527,1815.156397349286,2430.2790691995015,-613.50613786793167,-841.08478854610792,211.77552589660925,2072.6268954955176,52.500271142009979,2590.7740694261392,-2590.7740694261392,-52.500271142009979,4102.4686378227907,0.0
658204.59901257406,4182374.0504322448,-12500.0,1468.7646193231049,1622.0962970667192,1730.6873125964157,-568.76871048343264,-635.03358581080579,167.5320928568768,1753.6174258946403,371.31122123103899,2028.8862064306409,-2028.8862064306409,-371.31122123103899,3489.486725488855,0.0
663204.59901257406,4182374.0504322448,-12500.0,1475.0426582057487,1375.536418157335,1157.6861235314375,-505.08197656572156,-461.53843163698861,129.27372869542955,1471.1567614247313,588.52292808160428,1509.2757183177396,-1509.2757183177396,-588.52292808160428,2926.6702088916363,0.0
668204.59901257406,4182374.0504322448,-12500.0,1413.5448181690965,1114.4128612790505,711.56616049895558,-433.42487395363401,-321.97758220700786,97.565734082311423,1232.8786601899017,714.15936658131341,1060.2780164290982,-1060.2780164290982,-714.15936658131341,2429.2208391124718,0.0
673204.59901257406,4182374.0504322448,-12500.0,1305.0301383913666,864.94211455538573,379.29096801469825,-361.65107455370674,-213.86805953701739,72.14754090543228,1028.8267248694583,765.84837952907355,692.13085809622225,-692.13085809622225,-765.84837952907355,2002.4066825266668,0.0
678204.59901257406,4182374.0504322448,-12500.0,1168.8196910085605,642.19913993991429,141.94362000417041,-294.71008301417703,-132.80883261707601,52.307633424870446,857.34468482757518,763.01861179090758,403.11165976992004,-403.11165976992004,-763.01861179090758,1644.776576980385,0.0
683204.59901257406,4182374.0504322448,-12500.0,1020.6699389102135,452.85028959517194,-20.389476220441409,-235.24140970080251,-73.819667355432941,37.155497426336353,715.61292320308007,723.47033344439194,184.80533082846887,-184.80533082846887,-723.47033344439194,1350.8486739655641,0.0
688204.59901257406,4182374.0504322448,-12500.0,872.18012364557319,297.92952609214882,-125.90273127094974,-184.24290672599545,-32.136282544934161,25.792745456533073,599.96738901557956,661.8042931631029,25.940781481540057,-25.940781481540057,-661.8042931631029,1113.1023421070679,0.0
693204.59901257406,4182374.0504322448,-12500.0,731.09179003094198,175.13680349371486,-189.88692386198389,-141.65930825227133,-3.6028275246260479,17.405443180897006,506.47619293126712,589.06200975161278,-85.158332278586556,85.158332278586556,-589.06200975161278,923.31997651690415,0.0
698204.59901257406,4182374.0504322448,-12500.0,601.9911197222774,80.512457960460978,-224.48634886895422,-106.83477606709137,15.196586292166574,11.302843279296887,431.32509759802048,513.02955201627685,-159.21479910005939,159.21479910005939,-513.02955201627685,773.41300679020446,0.0
538204.59901257406,4187374.0504322448,-12500.0,-322.90811465890891,465.92759871355747,-574.40700226466902,-103.8180665585659,138.29326105677163,-23.72156805783688,498.56576819343877,-81.130235890730646,101.3224928158355,-101.3224928158355,81.130235890730646,984.3701521850204,0.0
543204.59901257406,4187374.0504322448,-12500.0,-270.00345886795185,483.05718674468272,-657.71628903651288,-102.75559043237006,156.68263569815082,-26.353521677727741,538.24322425494358,-15.405297799789263,59.637384606852322,-59.637384606852322,15.405297799789263,1053.3327837719971,0.0
548204.59901257406,4187374.0504322448,-12500.0,-196.62057066377272,487.15420705358986,-747.4485132760866,-97.364539100286422,175.54879891962869,-28.831974514570593,579.0727615556325,68.606208229434685,0.63402969267941955,-0.63402969267941955,-68.606208229434685,1121.0871731270277,0.0
553204.59901257406,4187374.0504322448,-12500.0,-99.722797077331009,471.75000361993733,-839.96158700022136,-86.000085249235312,193.61060853162505,-30.858691850194266,620.58469969034695,172.42494499639832,-79.294092056748553,79.294092056748553,-172.42494499639832,1185.7314442826066,0.0
558204.59901257406,4187374.0504322448,-12500.0,22.699209597435328,428.77310982376798,-928.69543762116791,-66.724990480174498,208.79910764071798,-31.983777418523847,662.52729525651114,295.95719666913203,-183.22712820031632,183.22712820031632,-295.95719666913203,1245.7142196051805,0.0
563204.59901257406,4187374.0504322448,-12500.0,170.56700453457756,348.82111363647817,-1002.9415061786641,-37.437628636898637,217.98359751553087,-31.561947994105783,705.31137703677712,436.27700980293446,-312.63922968939721,312.63922968939721,-436.27700980293446,1300.9850400907274,0.0
568204.59901257406,4187374.0504322448,-12500.0,340.28876575095632,222.04850665525333,-1046.4919064611047,3.839895434532167,216.70372381602115,-28.715906640671314,750.77033965240389,586.05009623923422,-465.70079845719181,465.70079845719181,-586.05009623923422,1355.1527210984948,0.0
573204.59901257406,4187374.0504322448,-12500.0,523.11519877685407,40.024017067120589,-1036.5213280063304,58.443837652076752,199.006928542808,-22.326470593364661,803.2239924634863,731.79868208858147,-634.9025940532174,634.9025940532174,-731.79868208858147,1418.8537784815944,0.0
578204.59901257406,4187374.0504322448,-12500.0,703.7141372432676,-201.12067189268146,-943.4057760515816,126.2751112046123,157.56631879681836,-11.081075278960821,870.47240391675086,852.5415016881326,-804.2110690832468,804.2110690832468,-852.5415016881326,1513.3568633069958,0.0
583204.59901257406,4187374.0504322448,-12500.0,859.81371914436306,-496.21823675049319,-732.59792217943641,204.76897101184218,84.330298810477345,6.3788463368423223,963.6824294644623,919.81023286552352,-946.49538461772738,946.49538461772738,-919.81023286552352,1670.6075837217425,0.0
588204.59901257406,4187374.0504322448,-12500.0,964.14592367987552,-825.96374739688531,-369.92930248859307,287.84343009337977,-28.026887728278073,31.175006827335192,1094.8134883091623,900.46693260051597,-1022.7492883000709,1022.7492883000709,-900.46693260051597,1924.3451951126519,0.0
593204.59901257406,4187374.0504322448,-12500.0,989.87401238684072,-1153.0817160047893,168.70417113604677,365.29506453659837,-183.73015069688878,63.770468026471647,1271.5649633473849,763.6669135563676,-985.35115913335164,985.35115913335164,-763.6669135563676,2293.8795677314538,0.0
598204.59901257406,4187374.0504322448,-12500.0,919.63693460045909,-1422.9159692515132,883.99952399379242,423.32753183533413,-380.89352817519512,103.47827678546759,1492.3146049453974,492.06906507586336,-787.49223785348249,787.49223785348249,-492.06906507586336,2772.2241976889113,0.0
603204.59901257406,4187374.0504322448,-12500.0,755.98351049996984,-1571.739971513638,1740.075833116259,446.82851300403388,-608.82437181656758,148.06951495645319,1743.9254450694757,94.621414708713331,-398.8931722483776,398.8931722483776,-94.621414708713331,3325.4035458347234,0.0
608204.59901257406,4187374.0504322448,-12500.0,528.15746027487478,-1543.6297090132164,2658.5130169015833,423.39533632009255,-847.17581011592461,193.71964918584069,2003.2518965964418,-385.09798275113582,176.2874565296699,-176.2874565296699,385.09798275113582,3898.9773433773812,0.0
613204.59901257406,4187374.0504322448,-12500.0,289.35103362747458,-1311.4580725437081,3526.90023251607,347.98808115891705,-1068.3765984636602,235.48816548450372,2242.0708601624369,-872.13125387524303,887.94793223290719,-887.94793223290719,872.13125387524303,4427.9057487524951,0.0
618204.59901257406,4187374.0504322448,-12500.0,102.15722686572698,-892.35573521893298,4223.7338322231026,226.10800008662548,-1243.5110371934745,268.32038153520341,2439.2001259990357,-1278.0366997332565,1644.0458005444159,-1644.0458005444159,1278.0366997332565,4848.8534307968812,0.0
623204.59901257406,4187374.0504322448,-12500.0,17.21284412442844,-347.94234763842218,4651.8384708982321,73.535992976847794,-1349.8317133727865,288.27297404146395,2581.2189268304178,-1527.8774455241319,2332.6407027442292,-2332.6407027442292,1527.8774455241319,5112.9753854071514,0.0
628204.59901257406,4187374.0504322448,-12500.0,55.576917077321411,232.93995349524889,4765.524339924933,-87.729266696424745,-1376.751285160384,293.48457802674471,2633.4246600963324,-1583.725247440324,2853.7757636906263,-2853.7757636906263,1583.725247440324,5195.3707133027137,0.0
633204.59901257406,4187374.0504322448,-12500.0,203.80544526866697,761.03378566629533,4579.1100291865232,-235.59468693210061,-1327.725488368528,284.49968248026096,2590.5908834242005,-1453.2774172271024,3146.4508002792531,-3146.4508002792531,1453.2774172271024,5097.9737790325171,0.0
638204.59901257406,4187374.0504322448,-12500.0,422.78270730675314,1170.2153757570857,4155.0306123734817,-353.31848403057074,-1217.6323499253263,263.87091868300416,2464.950064380067,-1181.1960043198173,3199.3035045883867,-3199.3035045883867,1181.1960043198173,4845.474705415545,0.0
643204.59901257406,4187374.0504322448,-12500.0,663.79514706549799,1428.8032814098779,3580.0797210296996,-432.29084244366987,-1067.4242899940812,235.29217096018266,2276.8293341352323,-830.14381513000126,3043.687663278416,-3043.687663278416,830.14381513000126,4476.7413984816385,0.0
648204.59901257406,4187374.0504322448,-12500.0,883.45762089975824,1537.7190273738488,2941.4362337278562,-471.83907371026925,-898.56904776127999,202.65264624031022,2049.2015129877377,-461.5569510949374,2736.3252804644926,-2736.3252804644926,461.5569510949374,4035.3151324773748,0.0
653204.59901257406,4187374.0504322448,-12500.0,1052.4134681345754,1520.5064751028344,2310.3087312983034,-477.06543101692671,-729.08114395137204,169.31950082895585,1803.5756830948726,-122.93224494223546,2340.7488628393421,-2340.7488628393421,122.93224494223546,3561.7786580419188,0.0
658204.59901257406,4187374.0504322448,-12500.0,1157.2494863339602,1411.3972767035657,1735.110501490745,-456.08138856410886,-571.69193122728211,137.76921342352307,1557.5627718954961,156.82580332157613,1913.635528859932,-1913.635528859932,-156.82580332157613,3089.1801169341798,0.0
663204.59901257406,4187374.0504322448,-12500.0,1197.8107188913143,1245.5999743086145,1242.0439872801064,-417.63568066878764,-433.77765769347371,109.52821947177915,1324.4574529799002,365.9945715916981,1497.8213482241229,-1497.8213482241229,-365.9945715916981,2641.3556017115252,0.0
668204.59901257406,4187374.0504322448,-12500.0,1182.629653282934,1053.3355782289318,839.69338593609984,-369.5597435782463,-318.30862053695586,85.309043353228603,1123.8354433742372,505.58659168293212,1120.8613670954439,-1120.8613670954439,-505.58659168293212,2233.3021822897467,0.0
673204.59901257406,4187374.0504322448,-12500.0,1124.4510661848669,857.3223701596512,524.7726345460834,-318.02249282879103,-225.15649709138401,65.227441927535537,951.52193897867528,584.31189277672183,796.97526987539368,-796.97526987539368,-584.31189277672183,1872.6669611330228,0.0
678204.59901257406,4187374.0504322448,-12500.0,1036.8301133329062,672.64779541828182,287.3040984661335,-267.37988020946767,-152.33129867614645,49.020596509428131,802.77437931726672,614.33506599981251,530.40431721653022,-530.40431721653022,-614.33506599981251,1561.6092989706876,0.0
683204.59901257406,4187374.0504322448,-12500.0,932.02229944744374,507.92524153778749,114.51420904100611,-220.37055051422178,-96.9510304447453,36.225736934920207,676.5949100248406,608.31569835486016,318.86383512823113,-318.86383512823113,-608.31569835486016,1298.5769983198322,0.0
688204.59901257406,4187374.0504322448,-12500.0,819.9714951820223,366.90707527264681,-6.6259705550929269,-178.45842584123841,-55.90369372940188,26.307164380657692,571.08277898369852,577.67892373600171,156.42099355009597,-156.42099355009597,-577.67892373600171,1079.7711885846004,0.0
693204.59901257406,4187374.0504322448,-12500.0,708.06501979412371,250.056815917948,-87.97657010980204,-142.19501800148871,-26.243039587550694,18.736193804931844,483.83381365054186,531.83088147160231,35.588826172182962,-35.588826172182962,-531.83088147160231,900.23975859997665,0.0
543204.59901257406,4192374.0504322443,-12500.0,-155.36649866105381,389.44436400974786,-610.79040315841735,-72.377883820580308,134.62968134457086,-20.541639805967129,465.14573974029463,60.654644279509469,-7.2353047020489321,7.2353047020489321,-60.654644279509469,901.15648167714824,0.0
548204.59901257406,4192374.0504322443,-12500.0,-82.166166417927613,376.62761495940731,-679.45308440115366,-63.962199903632161,147.33628118050359,-21.860998043537435,495.70155896019594,138.76336670047664,-67.869200150844677,67.869200150844677,-138.76336670047664,948.34085287898233,0.0
553204.59901257406,4192374.0504322443,-12500.0,8.8412509854685055,344.49096761573804,-745.06052643774376,-50.295132116292599,158.1148342160856,-22.620066244898556,526.49465780129958,230.49078852433959,-145.08183945362313,145.08183945362313,-230.49078852433959,992.094121115284,0.0
558204.59901257406,4192374.0504322443,-12500.0,117.67974002378227,286.97902726087955,-800.65058940232416,-30.081471343278324,165.05527324703394,-22.448724868752709,557.79645807007239,333.98534152585916,-239.79784052874658,239.79784052874658,-333.98534152585916,1032.374768186221,0.0
563204.59901257406,4192374.0504322443,-12500.0,242.33464991508706,197.73165645340964,-835.98820356781118,-2.0794584341738922,165.49240416901941,-20.850941837382607,590.73136436665618,444.81365603496147,-351.01679867182622,351.01679867182622,-444.81365603496147,1071.3157319865986,0.0
568204.59901257406,4192374.0504322443,-12500.0,377.84246087780042,71.05886895537428,-836.92106994406834,34.638866902750962,155.90774283294886,-17.196308517777876,627.88118180900619,554.99560665359274,-474.52630676345285,474.52630676345285,-554.99560665359274,1115.1218272082442,0.0
573204.59901257406,4192374.0504322443,-12500.0,515.44798914059004,-96.434813349352979,-785.16226519464487,80.291710284376407,131.95417974180575,-10.735879653133548,673.89799436602834,652.18174838957884,-601.34748419926837,601.34748419926837,-652.18174838957884,1176.2531082186918,0.0
578204.59901257406,4192374.0504322443,-12500.0,642.19747229567508,-303.52280359599365,-659.00575522822828,133.86261496875474,88.714303179035198,-0.66008176811931241,735.6566210355345,719.41103456018971,-716.2139583415784,716.2139583415784,-719.41103456018971,1274.2267885593742,0.0
583204.59901257406,4192374.0504322443,-12500.0,741.52135837787557,-541.54769160435126,-435.62360848947174,192.51928311726613,21.321030062199384,13.782950762560858,821.23508001799723,736.09321792506546,-796.71543514549069,796.71543514549069,-736.09321792506546,1432.130003927673,0.0
588204.59901257406,4192374.0504322443,-12500.0,795.42234892407464,-791.83599569511046,-95.521962606540214,251.15093930298011,-73.966193087846563,33.098960144147419,937.40702168385315,680.91971664287769,-814.0918331484221,814.0918331484221,-680.91971664287769,1668.0489012264875,0.0
593204.59901257406,4192374.0504322443,-12500.0,788.61408221646536,-1024.6363355782769,370.78258347160374,302.3092458739232,-198.26556360390708,57.302736958145118,1086.5153635525839,537.08080975894723,-736.80566460760656,736.80566460760656,-537.08080975894723,1986.3468306734476,0.0
598204.59901257406,4192374.0504322443,-12500.0,714.15679230407693,-1201.2537935791665,954.9420591935899,336.8827679748581,-348.44051111652664,85.669466954999905,1264.3194425570932,299.22402539658589,-537.5496164386218,537.5496164386218,-299.22402539658589,2374.4554635638046,0.0
603204.59901257406,4192374.0504322443,-12500.0,578.88593779142775,-1280.6276389215923,1624.4360044480331,345.70397270140364,-515.91357538912234,116.57645783598457,1459.7069779949286,-19.888487682273009,-202.93472603131272,202.93472603131272,19.888487682273009,2804.8758110605077,0.0
608204.59901257406,4192374.0504322443,-12500.0,405.86367127479252,-1229.9244744462744,2321.432387124034,321.91668305188762,-686.68217933065807,147.54658065967672,1656.188659518298,-386.35379349038726,257.02115893791824,-257.02115893791824,386.35379349038726,3239.5348893373261,0.0
613204.59901257406,4192374.0504322443,-12500.0,231.27946069439869,-1036.1234440052599,2969.91045912244,263.41625242521462,-843.09336642190328,175.5652079607745,1835.1935876748955,-748.90000723550111,804.1519844346974,-804.1519844346974,748.90000723550111,3635.522468145431,0.0
618204.59901257406,4192374.0504322443,-12500.0,95.403209759950215,-713.59808356114161,3490.9566835426849,174.32861781316709,-967.26412227821925,197.63885550071217,1986.4327691015712,-1050.11245180473,1376.1491738472751,-1376.1491738472751,1050.11245180473,3952.053471403301,0.0
623204.59901257406,4192374.0504322443,-12500.0,30.559407328749515,-303.31393634666063,3821.6938418908476,64.675516123007469,-1045.1555653115786,211.43942012652187,2099.2178116215209,-1241.7412952960588,1899.7796069813242,-1899.7796069813242,1241.7412952960588,4157.5563376963964,0.0
628204.59901257406,4192374.0504322443,-12500.0,51.32917610431857,137.05523511714509,3930.5159463617365,-51.862577991026292,-1069.7963878657688,215.80900659286078,2146.8752506318965,-1297.8379617758528,2308.9141329975082,-2308.9141329975082,1297.8379617758528,4234.9628284851524,0.0
633204.59901257406,4192374.0504322443,-12500.0,151.3213703069342,548.17220402916689,3822.60095268535,-161.25497185278851,-1042.4395592335729,210.94540351464249,2126.2587456674605,-1220.1795714012787,2560.1504149764578,-2560.1504149764578,1220.1795714012787,4183.5966343814325,0.0
638204.59901257406,4192374.0504322443,-12500.0,307.31104552244869,882.99352488685531,3534.4446526769689,-252.20698314799867,-971.39564448923147,198.22616373864358,2044.3526758002834,-1034.4767036396872,2640.2095373067114,-2640.2095373067114,1034.4767036396872,4017.3384963576391,0.0
643204.59901257406,4192374.0504322443,-12500.0,487.93055899012393,1114.7745385882906,3121.0903936322306,-317.99707036745116,-869.28228830828277,179.77638283313112,1913.6849644718338,-780.29416551153167,2563.7442026033195,-2563.7442026033195,780.29416551153167,3760.1060127115793,0.0
648204.59901257406,4192374.0504322443,-12500.0,662.72592734011744,1237.84375664344,2641.8372343540082,-356.756820712879,-749.88523400882445,157.96021741028244,1749.2704549863261,-499.61950382827717,2364.4639301701386,-2364.4639301701386,499.61950382827717,3440.3835380519063,0.0
653204.59901257406,4192374.0504322443,-12500.0,808.47007080435935,1263.0302845086571,2149.0557758947712,-370.54875090289698,-625.62515397568507,134.9545748622391,1566.0126071114912,-228.07926863122123,2084.1832501566018,-2084.1832501566018,228.07926863122123,3086.3529498406774,0.0
658204.59901257406,4192374.0504322443,-12500.0,911.72524828887276,1210.8587927297265,1682.0730198524166,-363.8880376236113,-506.09356197270023,112.48757064482228,1376.9030654843409,9.5475230455642759,1763.5426288438434,-1763.5426288438434,-9.5475230455642759,2722.5135735972913,0.0
663204.59901257406,4192374.0504322443,-12500.0,968.31976610392724,1105.1272089148408,1265.7353653379039,-342.28347661066556,-397.61960445915423,91.745479644198085,1192.1071903718444,199.93447828307478,1436.1616119906939,-1436.1616119906939,-199.93447828307478,2367.9615312152218,0.0
668204.59901257406,4192374.0504322443,-12500.0,981.08765862751795,968.25750388939809,912.09651003169108,-311.12954673884553,-303.559602917897,73.404372964309928,1019.2587679275299,339.33947586511505,1126.2429469940948,-1126.2429469940948,-339.33947586511505,2036.0364625578154,0.0
673204.59901257406,4192374.0504322443,-12500.0,957.11830072736348,818.70326113319823,623.5542213897827,-275.04232552114672,-224.95037413195936,57.72946692135951,873.8964367876963,430.72454155871577,848.71090791667052,-848.71090791667052,-430.72454155871577,1734.8600535504929,0.0
678204.59901257406,4192374.0504322443,-12500.0,905.32237947682881,670.05325929434071,396.19445054942275,-237.58198590839078,-161.24674371454316,44.695345351218968,746.64128290008773,480.9052768570134,610.76815690567355,-610.76815690567355,-480.9052768570134,1468.3228965222559,0.0
683204.59901257406,4192374.0504322443,-12500.0,834.66291269589647,531.245848198011,222.64394676756146,-201.24267888471945,-110.97535939079468,34.096781168359122,636.10474073685032,498.26855497321662,413.95525557765291,-413.95525557765291,-498.26855497321662,1237.1825176193445,0.0
688204.59901257406,4192374.0504322443,-12500.0,753.0872248731489,407.35524687275574,94.17582887436447,-167.5923746560035,-72.235527719143363,25.636492277192445,541.54906797890499,491.21358101499493,256.13351469693021,-256.13351469693021,-491.21358101499493,1040.0738610232049,0.0
548204.59901257406,4197374.0504322443,-12500.0,0.13032887190746711,280.57890009441405,-606.01154961963221,-38.603776818522448,121.76117121069811,-16.328986665418995,424.59254547865208,182.24049749869886,-116.56082570367749,116.56082570367749,-182.24049749869886,801.76297384143902,0.0
553204.59901257406,4197374.0504322443,-12500.0,81.839924570588082,238.25714591354935,-648.32567190977136,-24.312278590633227,127.0326617515435,-16.271613147861054,447.91416990666738,260.0663853809989,-187.31198897839781,187.31198897839781,-260.0663853809989,831.63366786083395,0.0
558204.59901257406,4197374.0504322443,-12500.0,175.15209272585497,173.86734559856461,-676.85850617255539,-4.8276602364804813,128.12805856305368,-15.345831952992121,472.24857730393808,343.53906315932443,-269.80613515592302,269.80613515592302,-343.53906315932443,860.18320590883889,0.0
563204.59901257406,4197374.0504322443,-12500.0,277.14934534218702,83.517571303776904,-682.54102305364461,20.487501278421096,122.89738690803929,-13.185174563089669,499.1922082154112,427.75811746155,-361.58248492432722,361.58248492432722,-427.75811746155,891.15911299624258,0.0
568204.59901257406,4197374.0504322443,-12500.0,382.65911359891834,-35.480048912622479,-653.72966493792501,51.90374746348067,108.68509117744618,-9.3516896269439851,531.60731899862481,505.19823614552593,-457.40868711457233,457.40868711457233,-505.19823614552593,932.09142166523088,0.0
573204.59901257406,4197374.0504322443,-12500.0,483.93438036492944,-183.35058214567073,-576.4765435258106,89.048380311700853,82.435707458712471,-3.3595200153884206,573.80686673065713,565.46563074678807,-548.37660419609324,548.37660419609324,-565.46563074678807,995.09948516045233,0.0
578204.59901257406,4197374.0504322443,-12500.0,570.77895026083274,-356.28567176695412,-435.56287834858688,130.58432959178634,40.96970461053737,5.2739448219159923,631.17240815098853,595.6148630149579,-621.24989811499825,621.24989811499825,-595.6148630149579,1095.6455800741239,0.0
583204.59901257406,4197374.0504322443,-12500.0,631.43036667410536,-544.83290010701705,-216.61599096236944,173.91179966103201,-18.515238844004166,16.942552410667822,708.926228411794,581.38619111320008,-658.51087257282165,658.51087257282165,-581.38619111320008,1248.1813960278685,0.0
588204.59901257406,4197374.0504322443,-12500.0,654.45306819923019,-732.79018729847064,90.529312642488037,215.01200736978259,-97.703672654873884,31.832240750381747,810.30351603963209,509.64680563356615,-639.67265795112735,639.67265795112735,-509.64680563356615,1460.42079903177,0.0
593204.59901257406,4197374.0504322443,-12500.0,631.62895974032187,-897.39847762753004,487.47956886348049,248.5915420818512,-196.2592181590995,49.78341294379581,934.92215797217193,372.00323585169286,-544.34457797476887,544.34457797476887,-372.00323585169286,1729.8465236915606,0.0
598204.59901257406,4197374.0504322443,-12500.0,561.32610522532389,-1011.6424837204182,962.86712839641461,268.67209438353564,-310.96787176826365,70.169080433808205,1078.0443354417632,168.95408566533229,-357.0929848217562,357.0929848217562,-168.95408566533229,2043.6753142036532,0.0
603204.59901257406,4197374.0504322443,-12500.0,451.22127682647994,-1049.0159440760688,1489.5036889870009,269.66325211353558,-435.26272734071688,91.839184501100846,1230.8597971531472,-86.76803399149334,-73.282628373785641,73.282628373785641,86.76803399149334,2380.7866448356776,0.0
608204.59901257406,4197374.0504322443,-12500.0,318.90835253818562,-990.09759107222601,2025.0139452131439,247.75011206000016,-559.49399493977182,113.18188161430631,1381.6366438939519,-369.44311963046295,295.93399656063144,-295.93399656063144,369.44311963046295,2714.448640431307,0.0
613204.59901257406,4197374.0504322443,-12500.0,189.29632437751431,-829.03970663088626,2517.1750955818675,202.19439526738665,-672.1486311316811,132.32577865483074,1518.0486559206872,-643.56977740094783,721.85962880482145,-721.85962880482145,643.56977740094783,3015.7594919715789,0.0
618204.59901257406,4197374.0504322443,-12500.0,88.939428609421896,-577.35747198161175,2913.4417411068075,136.03341543177879,-761.87413761381026,147.45614758361012,1637.4530325441394,-870.95608700131231,1161.4960610299236,-1161.4960610299236,870.95608700131231,3257.737518284076,0.0
623204.59901257406,4197374.0504322443,-12500.0,39.03787153944031,-262.97389577438526,3172.033074175406,55.795439937088219,-819.76371818901418,157.16287457272455,1727.4583680834523,-1019.6910489118383,1565.6660497688022,-1565.6660497688022,1019.6910489118383,3419.4108048278972,0.0
628204.59901257406,4197374.0504322443,-12500.0,49.787868774727642,75.648867004254711,3270.7954676797331,-29.776584332912581,-841.1542269638735,160.71138563824786,1769.4346313723577,-1071.7590982617378,1889.5879158823552,-1889.5879158823552,1071.7590982617378,3488.8906513189499,0.0
633204.59901257406,4197374.0504322443,-12500.0,118.28101221122444,398.26354129334402,3210.767154682203,-111.5770873961858,-826.34049321775615,158.1507850559712,1761.5802801003124,-1026.4802579320276,2102.2023658256494,-2102.2023658256494,1026.4802579320276,3464.602305690506,0.0
638204.59901257406,4197374.0504322443,-12500.0,230.48143199560064,671.29330172222126,3013.6336812925624,-181.92924376910702,-780.04861733006146,150.23550797616153,1707.943107173531,-898.86188713549041,2191.1700134923458,-2191.1700134923458,898.86188713549041,3354.4506034881883,0.0
643204.59901257406,4197374.0504322443,-12500.0,366.02198090751443,873.30716308671026,2714.7131619946899,-235.77340878737942,-709.98841291485564,138.20577410370723,1616.367389722202,-714.1308368714673,2162.5241384479186,-2162.5241384479186,714.1308368714673,3173.379042537681,0.0
648204.59901257406,4197374.0504322443,-12500.0,503.69256418946645,996.48226223470522,2354.3917166274832,-271.02957125649635,-625.0630115753994,123.51069144921772,1496.755383592596,-500.91659788596792,2036.1389259178395,-2036.1389259178395,500.91659788596792,2940.1770297889389,0.0
653204.59901257406,4197374.0504322443,-12500.0,625.78997747245614,1044.6863195547562,1970.6892231829374,-288.24304367045414,-533.78107650919389,107.55658235795183,1359.4370777280976,-285.38808449058308,1839.3200303023964,-1839.3200303023964,285.38808449058308,2674.400666224446,0.0
658204.59901257406,4197374.0504322443,-12500.0,720.454105219908,1029.7083004532897,1594.4441188271055,-289.8134608845487,-443.19065788679467,91.531707976390862,1213.9093051297814,-87.611399056613777,1600.714438754344,-1600.714438754344,87.611399056613777,2393.9926433211126,0.0
663204.59901257406,4197374.0504322443,-12500.0,782.05725176019951,967.17658659125232,1247.3275642211449,-279.12430460035904,-358.39867403484345,76.320946574334116,1068.0609867408145,79.728367416074775,1345.8751729988307,-1345.8751729988307,-79.728367416074775,2113.8282705083661,0.0
668204.59901257406,4197374.0504322443,-12500.0,810.25444515686775,873.19360575646726,942.06544883172967,-259.7969716211565,-282.56432088250756,62.496017959203087,927.85549367090425,210.8176812836179,1094.8543912720054,-1094.8543912720054,-210.8176812836179,1845.1265539333749,0.0
673204.59901257406,4197374.0504322443,-12500.0,808.41477007925755,762.1083655884845,683.96228561455848,-235.17195607384659,-217.18628316299305,50.354906036716443,798.21406908163374,305.22032929759092,861.53581361472629,-861.53581361472629,-305.22032929759092,1595.5110213225366,0.0
678204.59901257406,4197374.0504322443,-12500.0,781.9999485154724,645.39616255663066,472.91796263028687,-208.02341877309223,-162.51481745186587,39.984149074372489,690.38131142349027,366.09086696685426,654.13593006136637,-654.13593006136637,-366.09086696685426,1369.4664835790456,0.0
683204.59901257406,4197374.0504322443,-12500.0,737.2207442719091,531.3860129861614,305.38548087817475,-180.46113601483356,-117.96859670215875,31.324432021233147,594.69290225548423,398.54588882077849,476.30351690129589,-476.30351690129589,-398.54588882077849,1168.9748060077734,0.0
553204.59901257406,4202374.0504322443,-12500.0,128.19366457136735,152.07584679979476,-554.74483880347589,-5.9168773057358877,100.50013442730227,-11.450306832251972,382.88189690701961,269.48468546191168,-211.00504863876876,211.00504863876876,-269.48468546191168,700.23156328177106,0.0
558204.59901257406,4202374.0504322443,-12500.0,206.10966247263605,86.206328436250402,-562.19124743599809,11.935755527029768,97.662175786863813,-10.134335097185863,402.83274324988236,334.61834183818206,-280.34520763978111,280.34520763978111,-334.61834183818206,722.66380583359069,0.0
563204.59901257406,4202374.0504322443,-12500.0,287.73442689176426,-0.11078321691395802,-546.39813282377145,34.01424310615387,89.043161522242542,-7.7910886673671227,426.24679780614508,396.26461306475073,-353.54589376354409,353.54589376354409,-396.26461306475073,750.90745077681549,0.0
568204.59901257406,4202374.0504322443,-12500.0,368.30864003406157,-107.56119539374934,-498.19578153331884,60.212288709824676,72.70566845777283,-4.1244659321578654,455.8858243672687,447.87876645621338,-425.23369788997536,425.23369788997536,-447.87876645621338,792.63139733041191,0.0
573204.59901257406,4202374.0504322443,-12500.0,441.44623743703875,-234.57068286030227,-407.34826117048038,89.895742386969673,46.569231516181361,1.1721290293752051,495.33802608693952,481.17944571394145,-487.37003466311859,487.37003466311859,-481.17944571394145,858.14403193600288,0.0
578204.59901257406,4202374.0504322443,-12500.0,499.48422727508841,-376.32234668505373,-263.59211961383971,121.71996897039698,8.6510220890896079,8.3759841498375014,548.42319890147746,486.67913571739763,-529.10705909545629,529.10705909545629,-486.67913571739763,958.25207147572826,0.0
583204.59901257406,4202374.0504322443,-12500.0,534.35462839925992,-523.92450331038197,-58.360280811161424,153.49564911426089,-42.562476321032861,17.67688306847241,618.15494367626593,454.84230381989204,-537.23309842532569,537.23309842532569,-454.84230381989204,1100.7417248271699,0.0
588204.59901257406,4202374.0504322443,-12500.0,539.04532866045497,-664.10032792212337,212.83580382607948,182.1770324220208,-107.62901361724502,29.104311305547164,705.62559296362087,377.9406385614804,-497.4993848741837,497.4993848741837,-377.9406385614804,1287.4432189772433,0.0
593204.59901257406,4202374.0504322443,-12500.0,509.51882576263881,-779.84578720789239,547.6746590591132,204.05470939567195,-185.62116235808179,42.451949906221188,809.27355132831019,252.43988761272789,-396.98966070272712,396.98966070272712,-252.43988761272789,1513.3365906146425,0.0
598204.59901257406,4202374.0504322443,-12500.0,446.66826246609412,-852.4103076889362,934.61700144639303,215.20902052123492,-273.69232462761113,57.2203131865611,924.73541819435002,81.409372673428905,-227.36937406475067,227.36937406475067,-81.409372673428905,1767.2780041646747,0.0
603204.59901257406,4202374.0504322443,-12500.0,357.61703897571465,-864.60844773060705,1351.788447088411,212.20784545318435,-366.92344006984507,72.603617634549508,1045.2222831990443,-123.88235947420851,11.634189627961646,-11.634189627961646,123.88235947420851,2033.371554530614,0.0
608204.59901257406,4202374.0504322443,-12500.0,255.60194013592292,-804.89817492278428,1768.1145192605302,192.92322764544431,-458.62284236093558,87.543768819428976,1162.34359700764,-344.11467243408777,309.63435665703412,-309.63435665703412,344.11467243408777,2292.6783496558037,0.0
613204.59901257406,4202374.0504322443,-12500.0,157.9930670537583,-671.07192089397745,2147.1559958989501,157.23696536535442,-541.14442498925791,100.85790362384874,1267.9975975223697,-554.37602436061059,645.11463812397722,-645.11463812397722,554.37602436061059,2525.3474134027992,0.0
618204.59901257406,4202374.0504322443,-12500.0,82.694826825289027,-472.17376606620462,2453.1370099999508,107.37352132723511,-607.10825625402424,111.42051608984465,1364.7152142739967,-728.69741753836536,987.86719316710071,-987.86719316710071,728.69741753836536,2713.0981263473636,0.0
623204.59901257406,4202374.0504322443,-12500.0,43.949622919495631,-227.65903597684809,2657.6347519318965,47.684387157583501,-650.72145159065815,118.35651924426654,1436.7547695373353,-845.46655269918722,1304.0997748016953,-1304.0997748016953,845.46655269918722,2841.6601972128033,0.0
628204.59901257406,4202374.0504322443,-12500.0,48.973315206164898,36.201779369934101,2744.9026244257643,-16.103014504859647,-668.81437143894664,121.19113013322608,1473.0661530753493,-891.98558088054142,1562.8392625658666,-1562.8392625658666,891.98558088054142,2902.6201520762843,0.0
633204.59901257406,4202374.0504322443,-12500.0,96.583024147656829,291.58466808716582,2714.1936891367541,-77.956391446340433,-661.28653718962403,119.91392823775293,1472.4666652472224,-866.680575633476,1741.6569162588949,-1741.6569162588949,866.680575633476,2894.2278429449007,0.0
638204.59901257406,4202374.0504322443,-12500.0,178.15235242209201,514.34705325632547,2578.5777703747899,-132.60284952963994,-630.86865215541593,114.94411164417532,1437.3183916899318,-778.41154111531125,1830.026348292879,-1830.026348292879,778.41154111531125,2821.0209368508272,0.0
643204.59901257406,4202374.0504322443,-12500.0,280.31364405333426,687.7324946713951,2361.0037975607343,-176.29467329359642,-582.34291200465543,107.01657170131797,1372.6064042608596,-643.44551221158099,1829.6305747005949,-1829.6305747005949,643.44551221158099,2692.4743437821312,0.0
648204.59901257406,4202374.0504322443,-12500.0,388.30502346607335,803.8151501423165,2089.1166343219002,-207.12919354912944,-521.50838979916466,97.02895546596406,1284.9298753161661,-481.35635122899873,1752.0617368333574,-1752.0617368333574,481.35635122899873,2521.107792019066,0.0
653204.59901257406,4202374.0504322443,-12500.0,488.89684075227569,862.83956928642647,1790.3712614323792,-224.94445444924582,-454.19080654058422,85.892922925117418,1181.4764417703518,-311.1688211527669,1615.076582531336,-1615.076582531336,311.1688211527669,2320.5368714877354,0.0
658204.59901257406,4202374.0504322443,-12500.0,572.26004986312603,871.18890872562338,1488.464106331319,-230.92725090245364,-385.50058555722302,74.419957672315448,1069.1583676909001,-148.6183481630361,1438.6685649616743,-1438.6685649616743,148.6183481630361,2103.8351590611023,0.0
663204.59901257406,4202374.0504322443,-12500.0,632.64938886137088,838.85863048984152,1201.4297144477744,-227.10450385052295,-319.41698354767749,63.254620894514289,954.01348731900657,-4.8067039357965768,1241.8725060368579,-1241.8725060368579,4.8067039357965768,1882.4038894613277,0.0
668204.59901257406,4202374.0504322443,-12500.0,668.13981490656454,777.12811347432989,941.21488663833657,-215.85852219956388,-258.67006303489791,52.852343674269981,840.8856837647503,113.93087584064773,1040.7102091174308,-1040.7102091174308,-113.93087584064773,1665.3732197335378,0.0
673204.59901257406,4202374.0504322443,-12500.0,679.8033989015147,696.81214638009601,714.27536052443486,-199.54879150932743,-204.83616908291066,43.490156921493067,733.34330093237782,205.35575599692964,847.26362927826585,-847.26362927826585,-205.35575599692964,1459.4492299547953,0.0
678204.59901257406,4202374.0504322443,-12500.0,670.69200289710068,607.19182355544206,522.70521001566192,-180.26730946178361,-158.55152703802082,35.296598633791639,635.39542027992809,270.27967716625585,669.62078081941138,-669.62078081941138,-270.27967716625585,1269.0735530596801,0.0
558204.59901257406,4207374.0504322443,-12500.0,218.94316364005587,20.062774286275097,-459.20369210136613,22.52569072739589,72.974544300495609,-6.3638743965288311,346.67519531190408,314.57905496539229,-277.3454187482082,277.3454187482082,-314.57905496539229,613.6454817171666,0.0
563204.59901257406,4207374.0504322443,-12500.0,283.15150757945651,-59.343405101865038,-428.68965501064793,41.319919083070559,62.578948553978108,-4.0601353090133019,368.00809629608,357.88123216415511,-333.9462397802547,333.9462397802547,-357.88123216415511,642.02383095792823,0.0
568204.59901257406,4207374.0504322443,-12500.0,343.71122923996467,-153.80242647844642,-368.97280861044806,62.788719983087617,45.733504442842396,-0.72860802535367242,395.79860459999622,389.83765696047715,-385.56360530052257,385.56360530052257,-389.83765696047715,685.67343160759049,0.0
573204.59901257406,4207374.0504322443,-12500.0,395.59531466021605,-260.86382012467288,-272.78511809963521,86.226405153376817,21.062360167491175,3.8189037072618541,432.78055296701569,404.09998810055419,-425.34670949452578,425.34670949452578,-404.09998810055419,752.43014148304746,0.0
578204.59901257406,4207374.0504322443,-12500.0,433.23151708345586,-375.6020736219217,-133.47321752175819,110.42392651830679,-12.621089805934609,9.7343400905865085,481.43078789212325,393.93003025903039,-444.72703471367998,444.72703471367998,-393.93003025903039,848.99659560282464,0.0
583204.59901257406,4207374.0504322443,-12500.0,451.24095453751397,-490.25298837725938,53.692040445319684,133.62322179079388,-56.052385561206705,17.095271082523581,543.24601947755116,353.15687009918713,-433.98325646299895,433.98325646299895,-353.15687009918713,978.75867933224526,0.0
588204.59901257406,4207374.0504322443,-12500.0,445.49657282744067,-594.28974106388921,289.89420144116059,153.56440627456806,-109.20627056690572,25.861486576913624,618.14933558532846,277.50955824447328,-383.38387737786911,383.38387737786911,-277.50955824447328,1140.6465216157831,0.0
593204.59901257406,4207374.0504322443,-12500.0,414.35585120213841,-675.17268341981742,571.10490309586316,167.66515649419699,-170.9939128516254,35.834487592425873,704.21638282181698,166.14648950846882,-284.92084290922071,284.92084290922071,-166.14648950846882,1329.2131427872764,0.0
598204.59901257406,4207374.0504322443,-12500.0,359.76798593977924,-719.90333436038577,886.82427656867469,173.34898040836072,-239.05338614117937,46.63206316533541,797.73550698421752,23.018588278955974,-134.4360561609555,134.4360561609555,-23.018588278955974,1535.335240693576,0.0
603204.59901257406,4207374.0504322443,-12500.0,287.84369182127637,-717.28087327542789,1219.7850521572473,168.49415872085052,-309.73409261111141,57.691272945382813,893.53585003169803,-142.43303724545288,66.319830949223871,-66.319830949223871,142.43303724545288,1747.1191761861605,0.0
608204.59901257406,4207374.0504322443,-12500.0,208.49989185948701,-660.44243594163072,1547.0930034534219,151.91820059693833,-378.35463082475468,68.309837283745736,985.56588826201209,-315.72308368610743,308.35861936778861,-308.35861936778861,315.72308368610743,1950.9969102417201,0.0
613204.59901257406,4207374.0504322443,-12500.0,134.01360975185733,-548.99476373704522,1842.9349242073072,123.76672462069851,-439.74776292978981,77.7264129393687,1069.0785024444356,-479.13262987724852,575.50874482784184,-575.50874482784184,479.13262987724852,2133.0835288605836,0.0
618204.59901257406,4207374.0504322443,-12500.0,76.703459517671149,-389.98753385041891,2082.4585308514224,85.671401843564425,-489.01074534325619,85.227586037563754,1148.5936378547258,-614.64909728527459,846.19305426895698,-846.19305426895698,614.64909728527459,2280.726393292111,0.0
623204.59901257406,4207374.0504322443,-12500.0,46.345697100421894,-197.24372460857751,2245.9189135061001,40.594015845231439,-522.29063383346681,90.25786367323866,1206.5563356400282,-707.32125658103485,1096.7101392162754,-1096.7101392162754,707.32125658103485,2384.0058701405587,0.0
628204.59901257406,4207374.0504322443,-12500.0,48.112200490627458,10.906878773827119,2321.9664622350315,-7.6284167108639975,-537.39873190688945,92.504812046858405,1237.6976081934897,-748.06606970294524,1305.2231248168569,-1305.2231248168569,748.06606970294524,2436.8761207826251,0.0
633204.59901257406,4207374.0504322443,-12500.0,81.665855115727751,214.88157225100849,2309.1796571642085,-54.921200521690345,-534.09299388536419,91.937810072311791,1241.1144274550886,-735.10869531977914,1455.3632105136458,-1455.3632105136458,735.10869531977914,2437.6996520012503,0.0
638204.59901257406,4207374.0504322443,-12500.0,141.62194145132855,397.15681893413176,2215.5277564907888,-97.619127661457085,-513.97253638706127,88.792899860545347,1218.1850507623121,-673.72247052640932,1538.4959089587937,-1538.4959089587937,673.72247052640932,2389.0858287349593,0.0
643204.59901257406,4207374.0504322443,-12500.0,219.10209293594536,544.77393129838038,2056.1133438075199,-132.96179525123407,-480.04797844390333,83.51230725510942,1172.1211944025065,-574.52019261916178,1554.2009286569246,-1554.2009286569246,574.52019261916178,2297.1254859256355,0.0
648204.59901257406,4207374.0504322443,-12500.0,303.79601462396823,650.55127931398727,1849.9978054780966,-159.34384942206154,-436.13504865257829,76.65872457163826,1107.3699735856624,-450.96003211688378,1509.1227525958643,-1509.1227525958643,450.96003211688378,2170.2522989984768,0.0
653204.59901257406,4207374.0504322443,-12500.0,385.91199015628047,712.98955334559639,1616.9957719017043,-176.31368195342222,-386.23517399548228,68.82679965956639,1028.9627325899492,-316.81989809249467,1414.7789717332378,-1414.7789717332378,316.81989809249467,2017.9998545408412,0.0
658204.59901257406,4207374.0504322443,-12500.0,457.58256075837471,735.21281769486882,1375.1121855487731,-184.38111402288078,-334.03107457725304,60.569826291589806,941.92918046614784,-184.21396024152898,1285.048375877047,-1285.048375877047,184.21396024152898,1849.8875081669867,0.0
663204.59901257406,4207374.0504322443,-12500.0,513.56467720265425,723.43495296808021,1138.9400355203406,-184.72478014748239,-282.5608456249866,52.351153970110943,850.85235628962448,-62.41558294929257,1133.9340857286916,-1133.9340857286916,62.41558294929257,1674.5775127853535,0.0
668204.59901257406,4207374.0504322443,-12500.0,551.30203015673146,685.39505032033401,919.01436625141741,-178.88425633889278,-234.07450294253488,44.521308711627078,759.59172520067375,42.52973639668653,973.94222325431315,-973.94222325431315,-42.52973639668653,1499.3528804143946,0.0
673204.59901257406,4207374.0504322443,-12500.0,570.54418140449559,629.05634448778574,721.91509843987194,-168.49577155292124,-190.0372318784818,37.316387494694247,671.16353701760693,127.59157572037071,815.16315699072311,-815.16315699072311,-127.59157572037071,1329.8912707773061,0.0
563204.59901257406,4212374.0504322443,-12500.0,269.63987218789561,-99.68183061924347,-328.88948705252909,44.45809833097492,42.17723828507544,-1.528703251326899,321.23308979206558,317.46325370546026,-307.88664772027334,307.88664772027334,-317.46325370546026,557.26399879340215,0.0
568204.59901257406,4212374.0504322443,-12500.0,314.51884916192313,-181.17968188140492,-263.3892611947656,61.841471427908211,25.809959998886008,1.4049510806557104,347.50971685092895,334.89040742396071,-343.37785131509656,343.37785131509656,-334.89040742396071,602.50878190413334,0.0
573204.59901257406,4212374.0504322443,-12500.0,350.63551326137917,-270.25362200127614,-167.31314705965869,80.199573372426201,3.2726077984503918,5.2389753615238313,381.97646377161971,336.15026059588149,-366.3216919904994,366.3216919904994,-336.15026059588149,668.6636031996959,0.0
578204.59901257406,4212374.0504322443,-12500.0,374.04063453804224,-362.33163832538781,-36.54703657227121,98.508258440006699,-26.106313956848258,10.050766610582473,426.08948803021241,316.58468246605906,-370.1205434330621,370.1205434330621,-316.58468246605906,759.36157768491557,0.0
583204.59901257406,4212374.0504322443,-12500.0,381.24460359918731,-450.91830351380622,131.184195575838,115.39507769883825,-62.608861515495775,15.858895250080344,480.39515316408063,272.34251556793708,-347.74943801765471,347.74943801765471,-272.34251556793708,875.41878780065827,0.0
588204.59901257406,4212374.0504322443,-12500.0,369.95469165412362,-527.83028909067457,335.24435344077739,129.20329071653208,-105.93487533315401,22.597702695897652,544.25203504494198,201.30301446044024,-292.66556914812446,292.66556914812446,-201.30301446044024,1014.5769135288017,0.0
593204.59901257406,4212374.0504322443,-12500.0,339.8486664999599,-583.88194430395049,571.09544721868485,138.13882173165553,-155.03304741725825,30.096117722001708,615.76374087584759,104.03397598598949,-200.03678930608945,200.03678930608945,-104.03397598598949,1171.8182918126417,0.0
598204.59901257406,4212374.0504322443,-12500.0,293.18424890051466,-610.04946843527205,829.67909961205999,140.5007556730053,-208.00790990671027,38.067602891548461,691.89173721849193,-15.458738727904979,-68.116531190282529,68.116531190282529,15.458738727904979,1339.8822020704963,0.0
603204.59901257406,4212374.0504322443,-12500.0,235.00495583635023,-598.9950096506002,1097.4848061597386,134.96934413204713,-262.15659046906183,46.118023021876461,768.70885528946405,-149.48231114963892,100.54518477108296,-100.54518477108296,149.48231114963892,1509.8590693333429,0.0
608204.59901257406,4212374.0504322443,-12500.0,172.74821165854669,-546.66050456089863,1357.5303849416905,120.89624144208614,-314.17075347502737,53.775521987849523,841.80621764717046,-287.15061688340563,298.44416204755817,-298.44416204755817,287.15061688340563,1671.9122683886251,0.0
613204.59901257406,4212374.0504322443,-12500.0,115.20762494604271,-453.51622298959785,1591.2646501718152,98.522123174719553,-360.50008590510623,60.541372467006795,910.39640201815735,-415.69198597663285,513.36242677554878,-513.36242677554878,415.69198597663285,1816.1648885810146,0.0
618204.59901257406,4212374.0504322443,-12500.0,71.016080175507128,-325.05063968470682,1781.1069947894207,69.049970169211718,-397.82238800066608,65.954000798789252,975.18086178066051,-522.38466461486428,729.64922470420174,-729.64922470420174,522.38466461486428,1933.6904054803924,0.0
623204.59901257406,4212374.0504322443,-12500.0,47.015472632776344,-171.25848930054212,1913.0794880559381,34.53434853812162,-423.52218733238652,69.653217349035558,1022.1625518725943,-596.686009757124,930.37165661424353,-930.37165661424353,596.686009757124,2017.4596154534293,0.0
628204.59901257406,4212374.0504322443,-12500.0,46.96031515979184,-5.176326012473341,1978.890746622259,-2.4012354659768227,-436.06509594216902,71.42994275691656,1048.781000927803,-632.00591265674041,1099.8633530654215,-1099.8633530654215,632.00591265674041,2063.0647883741976,0.0
633204.59901257406,4212374.0504322443,-12500.0,70.913899443617083,159.18224137182204,1976.9605835405944,-38.954045665987657,-435.17939566193832,71.250000513407443,1054.2997967475571,-626.66006473869697,1226.045150293178,-1226.045150293178,626.66006473869697,2069.0785342135277,0.0
638204.59901257406,4212374.0504322443,-12500.0,115.46776446359104,308.96511459316247,1912.1893653595534,-72.544265744317627,-421.81121284395374,69.247726374680624,1039.5164661840895,-583.79908403349839,1301.9663769129475,-1301.9663769129475,583.79908403349839,2036.9903729036564,0.0
643204.59901257406,4212374.0504322443,-12500.0,174.65269327204533,434.18607258685341,1794.6406473198924,-101.13820203770071,-397.88343359358026,65.693359115178964,1006.5265813802278,-510.42739515790004,1326.2774261361621,-1326.2774261361621,510.42739515790004,1970.7661051934429,0.0
648204.59901257406,4212374.0504322443,-12500.0,241.22443191714899,528.67604803465497,1637.5684844563316,-123.43419055724172,-365.9341350660485,60.944064170231933,958.36055043390593,-415.86563765284097,1302.6727342683657,-1302.6727342683657,415.86563765284097,1876.1496759217525,0.0
653204.59901257406,4212374.0504322443,-12500.0,307.96124734488876,590.21909012416779,1455.3092705942188,-138.89809640417533,-328.72709248283508,55.390830983623282,898.56654188403547,-310.09439402883652,1238.6052170898542,-1238.6052170898542,310.09439402883652,1759.8646937222684,0.0
658204.59901257406,4212374.0504322443,-12500.0,368.68945330568812,620.02829515751705,1261.4685100185534,-147.67442550409768,-288.91199526958968,49.411644775812945,830.81324983830223,-202.34579223634228,1143.6837381775222,-1143.6837381775222,202.34579223634228,1628.8573280422945,0.0
663204.59901257406,4212374.0504322443,-12500.0,418.89449488039588,621.83034426332767,1067.6545943039685,-150.42045790496749,-248.78160627777169,43.337350339611369,758.56655708270171,-100.15409796751567,1028.1325791167706,-1028.1325791167706,100.15409796751567,1489.6825374309233,0.0
668204.59901257406,4212374.0504322443,-12500.0,455.9149216093673,600.83468027705646,882.81843635349651,-148.11360705432995,-210.1386784513933,37.432336235628732,684.86555469388861,-8.9088682173366465,901.56664482627912,-901.56664482627912,8.9088682173366465,1348.0803481677067,0.0
573204.59901257406,4217374.0504322443,-12500.0,308.75187988802139,-268.54177070039208,-85.716376282878144,73.150724160952223,-8.8486386651444917,5.8763441951792341,339.95379795498792,277.64012724458411,-312.34752082123572,312.34752082123572,-277.64012724458411,600.41322373291712,0.0
578204.59901257406,4217374.0504322443,-12500.0,322.36509025293395,-341.99803881181197,34.501617018577761,86.960017096999408,-34.176373683119515,9.7703562090595266,379.57692831954904,252.94428959693835,-305.62983124019945,305.62983124019945,-252.94428959693835,683.86725615879652,0.0
583204.59901257406,4217374.0504322443,-12500.0,322.81798823727701,-410.18780695481718,183.13796082865107,99.22253457056199,-64.703473156435351,14.352072483746477,426.98205717276386,208.5540729152834,-276.61850277385389,276.61850277385389,-208.5540729152834,786.4046458471629,0.0
588204.59901257406,4217374.0504322443,-12500.0,308.95743574230323,-466.824260280082,358.6391559310976,108.73140125090843,-100.02352873866326,19.55177345545901,481.30882781772095,143.64743465100432,-220.98350368929059,220.98350368929059,-143.64743465100432,905.4603379140857,0.0
593204.59901257406,4217374.0504322443,-12500.0,281.14867773182908,-505.19738376113298,556.56671649071654,114.23919823793851,-139.20320394334939,25.229690173796048,540.85191089626721,59.460563987182894,-135.92325548135491,135.92325548135491,-59.460563987182894,1036.7217074917535,0.0
598204.59901257406,4217374.0504322443,-12500.0,241.59813926304551,-519.02465819810106,769.32777891552882,114.6172715170963,-180.74797471325061,31.173116832013495,603.17097470095655,-40.316309359977474,-21.04692043694174,21.04692043694174,40.316309359977474,1174.4809147985752,0.0
603204.59901257406,4217374.0504322443,-12500.0,194.38568397970712,-503.47815155910058,986.38334016493559,109.04084078761316,-222.65328177470045,37.104671724453446,665.27762741650361,-149.50433970440034,120.91784899336201,-120.91784899336201,149.50433970440034,1312.0319017134377,0.0
608204.59901257406,4217374.0504322443,-12500.0,145.11155119036692,-456.19331596670594,1195.036999558657,97.164801821592121,-262.5560449855073,42.703292515056312,723.92347360918131,-259.88261290784834,283.82015498788036,-283.82015498788036,259.88261290784834,1442.1577536785069,0.0
613204.59901257406,4217374.0504322443,-12500.0,100.15593525578819,-378.00912908232425,1381.7737500083231,79.247026560459489,-297.97853650150245,47.636687734091268,782.16136077193528,-362.12679440592888,458.36707629948023,-458.36707629948023,362.12679440592888,1557.7222798059988,0.0
618204.59901257406,4217374.0504322443,-12500.0,65.671356219973219,-273.20840725523874,1533.9494428453074,56.180664189716261,-326.62829465219954,51.600459735959575,834.50377811087321,-447.10234433503763,633.04389263355245,-633.04389263355245,447.10234433503763,1652.3177508675822,0.0
623204.59901257406,4217374.0504322443,-12500.0,46.530873887344235,-149.1329173981465,1641.4985012646059,29.41584285255254,-346.69661123834339,54.356404001507457,872.89807397799143,-507.2457295959158,795.55054188302267,-795.55054188302267,507.2457295959158,1720.8761958442974,0.0
628204.59901257406,4217374.0504322443,-12500.0,45.494181727173569,-15.21642586886491,1698.2852908473249,0.78002132630439613,-357.09221690786535,55.762361215739816,895.64453325188879,-537.71082772594309,934.46709681111497,-934.46709681111497,537.71082772594309,1760.140258163558,0.0
633204.59901257406,4217374.0504322443,-12500.0,62.799098002115443,118.35693491787526,1702.7985662438668,-27.766176844141743,-357.5597754439097,55.787011740891245,902.13365878019306,-537.00989758429671,1040.7803909859676,-1040.7803909859676,537.00989758429671,1768.9070625197398,0.0
638204.59901257406,4217374.0504322443,-12500.0,96.261583707197744,242.05979463459497,1658.0666951245159,-54.383940249257464,-348.66306660095239,54.507450130618224,892.81832116920782,-507.02224045412095,1108.9429546983638,-1108.9429546983638,507.02224045412095,1748.0102706804014,0.0
643204.59901257406,4217374.0504322443,-12500.0,141.81946432495815,348.19105155369868,1570.8749285260551,-77.569515060418013,-331.64700414861619,52.091246607551902,869.0812429369239,-452.42182241766835,1137.2785417801492,-1137.2785417801492,452.42182241766835,1700.0613497366594,0.0
648204.59901257406,4217374.0504322443,-12500.0,194.34483995735332,431.59893922389421,1450.5228833458775,-96.289012230989769,-308.21880432669701,48.768010453515949,833.01027466533355,-379.71666962946125,1127.7297207409365,-1127.7297207409365,379.71666962946125,1629.0151796398993,0.0
653204.59901257406,4217374.0504322443,-12500.0,248.51008868395118,489.89181019649453,1307.4288158182437,-110.02241128405402,-280.30071467424085,44.797196704091483,787.12783648790867,-296.15672388939822,1085.1019928504247,-1085.1019928504247,296.15672388939822,1539.6510745290332,0.0
658204.59901257406,4217374.0504322443,-12500.0,299.52381667044966,523.20206256517201,1151.8563778131631,-118.7270328607642,-249.80202651002182,40.43811801648166,734.12127729321674,-208.74360590013049,1016.0412018600712,-1016.0412018600712,208.74360590013049,1437.0581227907774,0.0
583204.59901257406,4222374.0504322443,-12500.0,274.2533653786935,-370.51731662999828,216.40455280805136,85.154092956663277,-64.00233803424625,12.790935151058967,381.14079676845142,158.41711556191927,-218.4252547546584,218.4252547546584,-158.41711556191927,708.85513234180667,0.0
588204.59901257406,4222374.0504322443,-12500.0,259.59167095764366,-412.02725910549367,367.03196184562262,91.648959892036586,-92.844737278229005,16.822323657770401,427.34459650917455,100.11143808732987,-164.56359229477505,164.56359229477505,-100.11143808732987,810.50724820553353,0.0
593204.59901257406,4222374.0504322443,-12500.0,234.5706369459615,-437.81532515142402,533.44736935529886,94.886725984986256,-124.2644615577661,21.154122833316244,477.07553111699264,27.60878335845954,-87.613801311603822,87.613801311603822,-27.60878335845954,920.3484983349349,0.0
598204.59901257406,4222374.0504322443,-12500.0,201.18964007280456,-443.49206278231094,709.3880402550476,94.114511349237048,-157.09359930491715,25.629003813404573,528.39145490896442,-55.852301332699,12.085146782392155,-12.085146782392155,55.852301332699,1033.9101678838283,0.0
603204.59901257406,4222374.0504322443,-12500.0,162.71534622489844,-425.87170823891091,886.62927242722139,88.815556266485942,-189.83935841797194,30.05037495695721,579.00804542514015,-145.34294853784724,131.9268401144256,-131.9268401144256,145.34294853784724,1146.1112852269976,0.0
608204.59901257406,4222374.0504322443,-12500.0,123.38852413147337,-383.61657843739744,1055.5992237733788,78.816896602646068,-220.79556930449044,34.196999280163197,626.50229102202729,-234.61649776407847,266.91605013663906,-266.91605013663906,234.61649776407847,1251.5952253087523,0.0
613204.59901257406,4222374.0504322443,-12500.0,87.895829739699224,-317.68060170087659,1206.3247216076597,64.360023430106338,-248.20751008237943,37.843899778223388,676.71176112467595,-316.78165921965251,409.93155063973018,-409.93155063973018,316.78165921965251,1345.1313476918431,0.0
618204.59901257406,4222374.0504322443,-12500.0,60.689994645255602,-231.41965430964788,1329.5732242171393,46.113261208620919,-270.46660581088003,40.786681984646989,719.26442945081294,-385.17980536612293,552.38948832344067,-552.38948832344067,385.17980536612293,1422.0466919719829,0.0
623204.59901257406,4222374.0504322443,-12500.0,45.297786251214134,-130.30482822938387,1417.9833812613128,25.116500579814421,-286.30071753430906,42.86495910124129,750.89975620818882,-434.29874285200611,685.21914341756258,-685.21914341756258,434.29874285200611,1478.6297817053003,0.0
628204.59901257406,4222374.0504322443,-12500.0,43.771957440469791,-21.270541495440757,1466.9592430172429,2.6644614801486943,-294.92309856947043,43.980569015923294,770.36720325117426,-460.52948068066382,799.9739950280499,-799.9739950280499,460.52948068066382,1512.4426296839424,0.0
633204.59901257406,4222374.0504322443,-12500.0,56.41137396318274,88.175333661331507,1475.1474782147127,-19.849607251840279,-296.11089702806686,44.10702237405102,777.16294913411923,-462.60354221778618,889.85506582441769,-889.85506582441769,462.60354221778618,1522.4886986618526,0.0
638204.59901257406,4222374.0504322443,-12500.0,81.801945599855102,190.89459837530592,1444.4206008692026,-41.098832640844222,-290.20103800149519,43.288773366682186,771.53464970574703,-441.63151119110972,950.44739155240359,-950.44739155240359,441.63151119110972,1509.2154066445892,0.0
643204.59901257406,4222374.0504322443,-12500.0,117.1467719121059,280.9291686927636,1379.404437815198,-59.965070461153651,-278.00987177713336,41.631200199416405,754.40387742822566,-400.76431981339567,980.04783888848431,-980.04783888848431,400.76431981339567,1474.3597304937771,0.0
648204.59901257406,4222374.0504322443,-12500.0,158.78616249119352,354.04227462625374,1286.6839479182663,-75.635607732971721,-260.69848431861283,39.283781429633912,727.22417129288181,-344.58493674855526,979.56671350676174,-979.56671350676174,344.58493674855526,1420.6730220991533,0.0
598204.59901257406,4227374.0504322443,-12500.0,169.19572948235137,-380.64638859811339,651.90282023662314,77.778575524917656,-136.70384862587898,21.165355256185656,465.02712608256422,-65.013081117834133,35.112390376745445,-35.112390376745445,65.013081117834133,913.92658623204875,0.0
603204.59901257406,4227374.0504322443,-12500.0,137.69264642585608,-362.41945041791979,797.67930864405525,72.905525954290965,-162.52886674067906,24.497638943452031,506.60025777471492,-138.80741992280988,136.63620251902543,-136.63620251902543,138.80741992280988,1006.150494723658,0.0
608204.59901257406,4227374.0504322443,-12500.0,106.05215127536313,-324.89611948878905,935.69777642640815,64.487833513261052,-186.79644341415718,27.606337725245705,547.03162661284478,-211.60962415407045,249.22075529459602,-249.22075529459602,211.60962415407045,1092.4170797941306,0.0
613204.59901257406,4227374.0504322443,-12500.0,77.757360503619651,-269.01897165645403,1058.5096811871124,52.73815715693717,-208.24667978233083,30.336818304026291,589.13124291609756,-278.26737384435529,367.36666265394325,-367.36666265394325,278.26737384435529,1168.8409768117269,0.0
618204.59901257406,4227374.0504322443,-12500.0,56.076774531616529,-197.43156869784883,1159.2793364745669,38.160789192222765,-225.73340849925683,32.549517359989942,624.02607364202606,-333.85898372724512,484.59630444418156,-484.59630444418156,333.85898372724512,1231.9650484017864,0.0
623204.59901257406,4227374.0504322443,-12500.0,43.600354579075038,-114.2646951854973,1232.5464287290406,21.512346691531057,-238.34786880899773,34.134611667895371,650.29895526868813,-374.30922617384851,594.1277357109667,-594.1277357109667,374.30922617384851,1279.0321927043285,0.0
628204.59901257406,4227374.0504322443,-12500.0,41.872444036514402,-24.688881200860568,1274.8284630782625,3.7244847355694022,-245.51550062395029,35.023349939714024,667.00302555622034,-396.89824661862048,689.62949631490369,-689.62949631490369,396.89824661862048,1308.1956687885913,0.0
633204.59901257406,4227374.0504322443,-12500.0,51.197425007555218,65.687129443988738,1284.9538854650623,-14.198204249620382,-247.04888858305881,35.194181243630474,673.72354875801625,-400.56452733103305,765.91911843859566,-765.91911843859566,400.56452733103305,1318.6371134241267,0.0
603204.59901257406,4017374.0504322448,-17500.0,65.549408809251318,202.10479324984769,1187.7515008493717,57.134803929778741,318.93642907362897,64.269414287569163,663.84886311865534,-367.97897723459641,817.84340181254356,-817.84340181254356,367.97897723459641,1303.1765511587139,0.0
608204.59901257406,4017374.0504322448,-17500.0,39.653430996229531,121.50348938730129,1227.1213008765924,35.45465494413439,328.69780971459261,66.069450155000283,673.45911589306252,-393.98088864960869,779.83541093358667,-779.83541093358667,393.98088864960869,1323.4790198073501,0.0
613204.59901257406,4017374.0504322448,-17500.0,23.264070746402641,33.045445655674683,1238.0553613695688,11.859416499753184,331.6172423128636,66.639473093356457,673.64724234130176,-402.77134355005421,718.04817577459687,-718.04817577459687,402.77134355005421,1326.0901825353958,0.0
618204.59901257406,4017374.0504322448,-17500.0,18.06259683945494,-58.303223316573046,1218.0311625592547,-12.452430652187454,327.10932914916094,65.876715061673337,663.95696428127155,-392.65245381290686,634.75524706862814,-634.75524706862814,392.65245381290686,1310.1526002862115,0.0
623204.59901257406,4017374.0504322448,-17500.0,24.582402672958782,-146.97871892845384,1166.6456049556566,-36.144815463853973,315.07116334410244,63.761049598520053,644.45402454221903,-363.53392239882976,534.0832251697085,-534.0832251697085,363.53392239882976,1275.7883530725355,0.0
628204.59901257406,4017374.0504322448,-17500.0,42.06375830521317,-227.42431059036917,1085.8053451276351,-57.881121266496791,295.92524853649701,60.362441050204417,615.80879176283975,-317.05657133791954,421.65964109048707,-421.65964109048707,317.05657133791954,1224.1583343635127,0.0
633204.59901257406,4017374.0504322448,-17500.0,68.513852745533825,-294.73177705031685,979.60791234663714,-76.469602848541015,270.5948345310477,55.837111223762399,580.33268184170686,-256.45743421005034,304.02466797649947,-304.02466797649947,256.45743421005034,1157.4155451804772,0.0
638204.59901257406,4017374.0504322448,-17500.0,100.97062951842112,-345.20175345650483,853.91909726997596,-90.991560799669799,240.41248034135197,50.412589815531199,543.8421863502399,-186.18865506634233,187.90396784617849,-187.90396784617849,186.18865506634233,1078.5549291923367,0.0
643204.59901257406,4017374.0504322448,-17500.0,135.91979968244385,-376.71899954626264,715.71751171387609,-100.88951353372744,206.97673412890498,44.363904188454981,504.34026186342334,-111.35959884203621,79.473653093035722,-79.473653093035722,111.35959884203621,991.17988715450838,0.0
648204.59901257406,4017374.0504322448,-17500.0,169.77894096878401,-388.88141753700864,572.32781756267525,-106.00148851943982,171.98265443331289,37.985223690431546,462.75845309154084,-37.111405790232702,-16.25165810454623,16.25165810454623,37.111405790232702,899.22072512434863,0.0
653204.59901257406,4017374.0504322448,-17500.0,199.35207420165199,-382.87887770807595,430.67780913877834,-106.53971355621455,137.05520956576291,31.56161137047318,420.83435391079183,31.958924875323113,-95.812987211817102,95.812987211817102,-31.958924875323113,806.64286724511476,0.0
658204.59901257406,4017374.0504322448,-17500.0,222.17406293551781,-361.17085205367385,296.69750489857847,-103.02339565508997,103.6114116165411,25.34526404344377,380.21935873631634,92.229511243057317,-157.44302401393674,157.44302401393674,-92.229511243057317,717.1779877925519,0.0
593204.59901257406,4022374.0504322448,-17500.0,165.21698011011074,389.47727138078284,1156.7921163480669,113.85406959973565,329.58235343260668,70.489999272999839,703.05823005360753,-298.85633811199585,933.83668700391354,-933.83668700391354,298.85633811199585,1380.5661287947253,0.0
598204.59901257406,4022374.0504322448,-17500.0,119.66835895350187,328.83781378443513,1261.0800119874973,96.031953794299653,356.28702426380056,75.596899706950268,735.92256999292454,-362.79973377861091,951.40028341742641,-951.40028341742641,362.79973377861091,1444.9765379066325,0.0
603204.59901257406,4022374.0504322448,-17500.0,78.259734548691483,249.51114910192555,1343.3776607234361,73.441073591583418,377.34434933278152,79.62233186415304,760.01186568175297,-414.80582457504948,941.03161247410321,-941.03161247410321,414.80582457504948,1492.9554132256137,0.0
608204.59901257406,4022374.0504322448,-17500.0,45.019349359980893,154.45918942009945,1396.4758778534526,46.863915636595976,391.01870555932476,82.250920708951256,773.63455771039389,-449.70905708401153,900.39292855446195,-900.39292855446195,449.70905708401153,1521.299633798121,0.0
613204.59901257406,4022374.0504322448,-17500.0,23.471035024205761,48.540434059215329,1414.4769622266647,17.536763933632525,395.89421292436839,83.225443046371268,775.51379397813059,-463.30728060696401,829.47801661781386,-829.47801661781386,463.30728060696401,1527.5919487938936,0.0
618204.59901257406,4022374.0504322448,-17500.0,16.049092617714038,-61.819184063512104,1393.679720994367,-12.93108743598669,391.07899511025352,82.382777710617376,764.95959409786667,-453.06538357424381,730.94132998709836,-730.94132998709836,453.06538357424381,1510.5223615072316,0.0
623204.59901257406,4022374.0504322448,-17500.0,23.623275159848895,-169.26770277580911,1333.2644527592033,-42.709458411478394,376.36295878192027,79.681694635199506,742.01120584100897,-418.64572641880926,610.04781283535203,-610.04781283535203,418.64572641880926,1470.1225579228051,0.0
628204.59901257406,4022374.0504322448,-17500.0,45.257561334161714,-266.39570988860481,1235.6133094985223,-69.951198818049392,352.29259000338993,75.216339961449989,707.65501831675704,-362.12543678892746,474.19883695207409,-474.19883695207409,362.12543678892746,1407.8680590030781,0.0
633204.59901257406,4022374.0504322448,-17500.0,78.281216273378803,-346.67543284694608,1106.1620611557012,-93.01264052188256,320.13940119866385,69.211177728084436,666.11039263892337,-287.82001625918946,332.08815330456827,-332.08815330456827,287.82001625918946,1326.6188395568606,0.0
638204.59901257406,4022374.0504322448,-17500.0,118.67474346839489,-405.28149932476612,952.78613376409112,-110.64812912912477,281.7623548836479,61.997541646384263,622.06894386431804,-201.72719750622571,192.63972277907794,-192.63972277907794,201.72719750622571,1230.4013965572667,0.0
643204.59901257406,4022374.0504322448,-17500.0,161.689921433655,-439.62563364104983,784.83390329021802,-122.14056954916872,239.38851666431938,53.975725553326598,573.97467324711636,-110.70192155310551,63.937792972525841,-63.937792972525841,110.70192155310551,1124.0639920511837,0.0
648204.59901257406,4022374.0504322448,-17500.0,202.56373091890831,-449.51042307556446,612.00162539485405,-127.34567957399277,195.35471429526632,45.569796107978263,523.65795439113015,-21.538768694052216,-47.643226124362705,47.643226124362705,21.538768694052216,1012.8601937020505,0.0
653204.59901257406,4022374.0504322448,-17500.0,237.17059909326184,-436.90338204267414,443.26976493439776,-126.64865579215117,151.85920904130393,37.183624062285041,473.41682335811089,59.849508853406071,-137.96146118550337,137.96146118550337,-59.849508853406071,902.02317317807137,0.0
658204.59901257406,4022374.0504322448,-17500.0,262.4893394996559,-405.42084006587777,286.08004288702409,-120.85182567860269,110.76427659229417,29.165202321897365,425.36908998188761,129.01285153469456,-205.23356189646933,205.23356189646933,-129.01285153469456,796.37980492042493,0.0
663204.59901257406,4022374.0504322448,-17500.0,276.82311513343086,-359.66146806246849,145.85459804238042,-111.02366265874223,73.474227323253146,21.78368229736558,381.24901877899327,183.23554388757105,-249.80859994727081,249.80859994727081,-183.23554388757105,700.0278498255426,0.0
668204.59901257406,4022374.0504322448,-17500.0,279.77862313828069,-304.53516727212252,25.868465250916298,-98.342021797742248,40.893581428821662,15.220324320547672,342.28171783409806,221.51093662027964,-273.7008626131327,273.7008626131327,-221.51093662027964,616.07040296130492,0.0
583204.59901257406,4027374.0504322448,-17500.0,308.84295635417647,527.03746907476693,983.85380550178604,164.11127741904832,303.72763655700516,70.19638175134628,693.12830530864539,-145.54833380332298,923.2234380361308,-923.2234380361308,145.54833380332298,1365.479882014203,0.0
588204.59901257406,4027374.0504322448,-17500.0,259.23893213519631,509.16827057720928,1137.1270247851412,156.7216368370128,345.24128525061121,78.596646238446056,748.99170360688549,-232.36498071461688,1003.0849676391701,-1003.0849676391701,232.36498071461688,1473.4040461663069,0.0
593204.59901257406,4027374.0504322448,-17500.0,204.08413500441387,467.61535586418876,1284.5570156811989,142.85584116934655,384.87970371765169,86.570133033583332,799.57241394577545,-319.43581387108327,1061.6649380816557,-1061.6649380816557,319.43581387108327,1571.5644355089023,0.0
598204.59901257406,4027374.0504322448,-17500.0,147.68631110154539,400.88083521211763,1416.8241112028275,122.21513256152927,420.25773517405474,93.657741173538824,842.24163939320499,-400.32621171606962,1091.8364698635835,-1091.8364698635835,400.32621171606962,1654.9849492725018,0.0
603204.59901257406,4027374.0504322448,-17500.0,95.24403713354701,309.65066182698325,1523.7922747002144,95.062029030396445,448.81057557725859,99.369512467106318,874.37724956557236,-467.8419760664309,1087.6125061678408,-1087.6125061678408,467.8419760664309,1718.6993365724095,0.0
608204.59901257406,4027374.0504322448,-17500.0,52.245438634517257,197.24067672421873,1595.567067406683,62.32179825155341,468.05407880828881,103.23311358583027,893.6113336651689,-514.86430225613685,1045.1932325071175,-1045.1932325071175,514.86430225613685,1758.2202781855228,0.0
613204.59901257406,4027374.0504322448,-17500.0,23.656151166149833,69.686380595276177,1623.7949429899309,25.596528697352849,475.89938878125258,104.85190193911261,898.10247137693182,-535.39334326152061,963.89887323629864,-963.89887323629864,535.39334326152061,1770.0528915804643,0.0
618204.59901257406,4027374.0504322448,-17500.0,13.038424123709323,-64.642725463230505,1602.9991667335983,-12.93474497610212,470.97375923827934,103.96392919783527,886.80396311223785,-525.61738231989921,846.75485560149559,-846.75485560149559,525.61738231989921,1752.1876159149119,0.0
623204.59901257406,4027374.0504322448,-17500.0,21.803409707825608,-195.92672896201637,1531.6585708452196,-50.734014722335246,452.87888694409509,100.48937517878352,859.71081486346441,-484.75789252527227,700.51368735566291,-700.51368735566291,484.75789252527227,1704.4738796865997,0.0
628204.59901257406,4027374.0504322448,-17500.0,48.805590652587178,-314.15833076776704,1412.7507425371257,-85.211955892111234,422.32229887659196,94.555126001932123,818.40491440129358,-415.451971619814,535.01791490860535,-535.01791490860535,415.451971619814,1628.7963394580004,0.0
633204.59901257406,4027374.0504322448,-17500.0,90.420323139904781,-410.54138992350977,1253.575225674276,-114.06834035654465,381.0792632885009,86.488590303251627,769.19994847541204,-323.52531350532354,361.97238800595562,-361.97238800595562,323.52531350532354,1529.002835902812,0.0
638204.59901257406,4027374.0504322448,-17500.0,141.11761967293546,-478.71451270690528,1064.8469213424814,-135.59287850072249,331.78184395883687,76.780216810108328,715.22535457395918,-217.16721646165348,193.36592043122045,-193.36592043122045,217.16721646165348,1410.5821792646095,0.0
643204.59901257406,4027374.0504322448,-17500.0,194.40096338696628,-515.52453866409166,859.24377064936664,-148.86186606783963,277.57662818402122,66.02172428389359,656.20965275625417,-105.68808362656219,39.88650684153189,-39.88650684153189,105.68808362656219,1280.1452144443742,0.0
648204.59901257406,4027374.0504322448,-17500.0,243.87731202032396,-521.19818931974623,649.73089771970047,-153.79339898492805,221.72428158736881,54.832956456613005,594.92989241023145,1.8476644973120315,-90.330044919895386,90.330044919895386,-1.8476644973120315,1144.7987108912034,0.0
653204.59901257406,4027374.0504322448,-17500.0,284.20347395786069,-498.92946323080645,448.01854520379976,-151.06252315824057,167.22390579950948,43.792239716510068,534.44439357913336,97.806386871999038,-192.39016432477194,192.39016432477194,-97.806386871999038,1011.5131794213095,0.0
658204.59901257406,4027374.0504322448,-17500.0,311.71642316598707,-454.04573534458666,263.4343620726379,-141.91147503942616,116.52909192084566,33.38235742439975,477.47545434392538,176.76417230036856,-264.7125561487793,264.7125561487793,-176.76417230036856,886.56006260054153,0.0
663204.59901257406,4027374.0504322448,-17500.0,324.66816655547234,-392.9910421683611,102.34646835678868,-127.90918053987187,71.390736097209,23.959024718209967,426.1400435684514,235.7942501468392,-308.57903622361619,308.57903622361619,-235.7942501468392,775.04633608042559,0.0
668204.59901257406,4027374.0504322448,-17500.0,323.09933464321938,-322.35792419143849,-31.878396943090049,-110.71430690996898,32.827023996930883,15.742418510531373,381.78740986010388,274.31158214341843,-327.36511538383485,327.36511538383485,-274.31158214341843,680.53090347522232,0.0
673204.59901257406,4027374.0504322448,-17500.0,308.46259028190462,-248.13049501247295,-138.5082690027541,-91.882246237305594,1.1943090207212614,8.827624179127211,344.93137165108652,293.6120284891191,-325.66921800907346,325.66921800907346,-293.6120284891191,604.70944427778318,0.0
678204.59901257406,4027374.0504322448,-17500.0,283.13162870334202,-175.21030618360129,-218.84466167001693,-72.735850972550949,-23.679951685280741,3.2071979401472639,315.29336662108233,296.27037923824338,-308.51720763461475,308.51720763461475,-296.27037923824338,547.24047936910119,0.0
573204.59901257406,4032374.0504322448,-17500.0,454.88212074611181,567.88850539839632,706.59826501364876,193.32351799169197,244.9526963134802,62.866682895478078,632.31515935494838,52.326559959546955,776.45940250425201,-776.45940250425201,-52.326559959546955,1255.1227896576133,0.0
578204.59901257406,4032374.0504322448,-17500.0,423.87582964972319,600.37703882490075,874.04236025365662,200.06575043201462,293.7178796055253,73.453522850741237,704.66128684801538,-29.529712250973375,901.45322732999841,-901.45322732999841,29.529712250973375,1394.0736532222286,0.0
583204.59901257406,4032374.0504322448,-17500.0,378.83446154941794,613.99324717681986,1054.565424993418,201.04832033098108,345.62552490327585,84.604496161969863,777.28166786578993,-124.65123145981801,1021.0055831549535,-1021.0055831549535,124.65123145981801,1533.818542047311,0.0
588204.59901257406,4032374.0504322448,-17500.0,321.40658526849819,603.13782684347018,1241.3586623377607,194.82652300240218,398.75607916856751,95.917497705826307,847.53197187961086,-229.08631043647279,1126.5575809644208,-1126.5575809644208,229.08631043647279,1669.375145346097,0.0
593204.59901257406,4032374.0504322448,-17500.0,255.06096475483929,563.05956202436448,1424.9053986527315,180.22076290315835,450.50243290500174,106.85727276741075,912.26296931984621,-336.69577576228619,1208.4115683517116,-1208.4115683517116,336.69577576228619,1794.7923850575501,0.0
598204.59901257406,4032374.0504322448,-17500.0,185.10776778116005,490.83206412052385,1593.276071325412,156.5655244049855,497.65962284816351,116.77476278998533,967.97447980512334,-439.31378674807695,1256.6727303234225,-1256.6727303234225,439.31378674807695,1903.447839799011,0.0
603204.59901257406,4032374.0504322448,-17500.0,118.34762546259255,386.35534511449413,1732.9629068666209,123.95794571384137,536.64872925827615,124.95207170706328,1011.0692786031885,-527.36682716342898,1262.573846238027,-1262.573846238027,527.36682716342898,1988.5286361222068,0.0
608204.59901257406,4032374.0504322448,-17500.0,62.290341133154065,253.15039584750383,1830.302249550484,83.448702561076303,563.8843071821583,130.67448327347319,1038.2032710796873,-590.99165386033803,1220.034581886744,-1220.034581886744,590.99165386033803,2043.6930992299956,0.0
613204.59901257406,4032374.0504322448,-17500.0,23.995788184646326,98.66620308997139,1873.3546497483114,37.107305107942118,576.25041484239784,133.3226409248889,1046.6944238153112,-621.54757076365399,1127.149996676123,-1127.149996676123,621.54757076365399,2063.8375693459766,0.0
618204.59901257406,4032374.0504322448,-17500.0,8.736119542454162,-66.133234611184818,1853.9380637180504,-12.092668979996622,571.60992350129709,132.47040774045496,1034.9455807080533,-613.25524375041357,987.21947409950769,-987.21947409950769,613.25524375041357,2045.8589554869613,0.0
623204.59901257406,4032374.0504322448,-17500.0,18.802149283590055,-227.98288772159546,1769.349932207281,-60.585876898948158,549.23360244984644,127.96721290629263,1002.8818733478766,-564.56121896880609,808.9384662076111,-808.9384662076111,564.56121896880609,1989.2584241917743,0.0
628204.59901257406,4032374.0504322448,-17500.0,52.811664351146121,-373.17831011625941,1623.3044421690197,-104.68645398762845,510.03602633498519,119.98392317126748,953.13200078665261,-478.81687550615311,605.55147542744294,-605.55147542744294,478.81687550615311,1896.4546630579707,0.0
633204.59901257406,4032374.0504322448,-17500.0,105.77817660292192,-489.69584018767085,1425.7329774551056,-141.12381187842627,456.53214340191255,109.00578388658906,893.74165752828537,-363.99330255757974,393.03715975054519,-393.03715975054519,363.99330255757974,1772.6955267101614,0.0
638204.59901257406,4032374.0504322448,-17500.0,169.97898363957432,-569.05376716810895,1191.4254461227451,-167.518037203463,392.50916484258772,95.771588010367509,826.82377430013378,-231.4367477064194,187.7197463905427,-187.7197463905427,231.4367477064194,1625.577520959067,0.0
643204.59901257406,4032374.0504322448,-17500.0,236.4050782125536,-607.44812426143289,937.80481164494722,-182.68113886267651,322.48069377623358,81.170779035418903,753.8077022184525,-93.960227532741754,3.8782152573993756,-3.8782152573993756,93.960227532741754,1464.2468473014899,0.0
648204.59901257406,4032374.0504322448,-17500.0,296.39314934779122,-605.91868979690867,682.38683850397081,-186.68167242929954,251.0540527461182,66.122519534132365,678.6877434952869,36.228710010156263,-148.07700208163055,148.07700208163055,-36.228710010156263,1298.4396903701875,0.0
653204.59901257406,4032374.0504322448,-17500.0,343.01306534417961,-569.60056120841523,440.51939089504469,-180.68099599624597,182.35428129864474,51.463688420657576,605.56049746483961,149.25366081236751,-262.5011367632768,262.5011367632768,-149.25366081236751,1137.5266800478255,0.0
658204.59901257406,4032374.0504322448,-17500.0,371.90952739623322,-506.36392255861875,223.84163445528108,-166.60939970924809,119.61481629205792,37.866669280164828,537.92374700578478,238.60182297031713,-338.43138450234756,338.43138450234756,-238.60182297031713,989.67679829130759,0.0
663204.59901257406,4032374.0504322448,-17500.0,381.50448523140477,-425.25353627188031,39.638830655817173,-146.77956295553977,64.983971055606204,25.797266099426288,478.31299148243988,301.36762021369856,-378.73695549623648,378.73695549623648,-301.36762021369856,861.17295030506421,0.0
668204.59901257406,4032374.0504322448,-17500.0,372.65991301016766,-335.09649626874756,-108.99215508361068,-123.52832172146573,19.533996226026581,15.511389427134809,428.10112620228517,337.8385721107241,-388.8607097883102,388.8607097883102,-337.8385721107241,755.8531026982422,0.0
673204.59901257406,4032374.0504322448,-17500.0,348.01153638991599,-243.50576709418769,-222.41728022619932,-98.946673856677833,-16.582864710087506,7.0808933631089861,387.46441065481883,350.6810591283998,-375.50876982531003,375.50876982531003,-350.6810591283998,674.70553411325,0.0
678204.59901257406,4032374.0504322448,-17500.0,311.20082103027681,-156.34670299749706,-303.47634917509941,-74.720416036455035,-43.901384997854564,0.43581011346865822,355.54123676684975,343.99882122558279,-345.54512673043712,345.54512673043712,-343.99882122558279,615.83037373887453,0.0
683204.59901257406,4032374.0504322448,-17500.0,266.18107409793907,-77.610555530149725,-356.48224272268067,-52.073190759854569,-63.395821613110428,-4.5889127969143626,330.77249216470733,322.47419986481458,-305.21633860382855,305.21633860382855,-322.47419986481458,575.05616330277292,0.0
568204.59901257406,4037374.0504322448,-17500.0,556.17892695654416,571.54457996218946,541.89501810614354,212.96347076905548,213.857938379556,61.114896682593361,612.15785679786097,182.21795913624672,670.47697282184004,-670.47697282184004,-182.21795913624672,1221.2602377715923,0.0
573204.59901257406,4037374.0504322448,-17500.0,544.70568544945854,634.76793983400535,711.84860487949845,229.60370877665645,267.1653082907128,73.545248831393394,694.09618963092464,111.48950929154029,818.24446961626745,-818.24446961626745,-111.48950929154029,1381.9394165025917,0.0
578204.59901257406,4037374.0504322448,-17500.0,515.35680607131201,684.7404492745203,906.12811392313154,241.57696836031459,327.04836750185353,87.309947338574958,782.09765430734706,20.430747872880147,971.99458483731371,-971.99458483731371,-20.430747872880147,1551.052354603615,0.0
583204.59901257406,4037374.0504322448,-17500.0,467.33806799286117,713.99500005633172,1120.7006044852676,246.78317676453491,392.19336559465631,102.10011071675426,872.07706072322026,-89.595526240921799,1123.6324455860981,-1123.6324455860981,89.595526240921799,1724.0746692309874,0.0
588204.59901257406,4037374.0504322448,-17500.0,401.81816259207659,714.66825926006061,1348.0660225702691,243.07492413107261,460.33615051021638,117.40934062814559,960.70763532239209,-214.57980009327832,1262.4820315496218,-1262.4820315496218,214.57980009327832,1894.8960822883137,0.0
593204.59901257406,4037374.0504322448,-17500.0,322.46732404639204,679.53723367983662,1576.8359383780348,228.54624270111341,528.17097739149403,132.51828594565995,1043.9385088555596,-347.40857878627082,1375.7894964677607,-1375.7894964677607,347.40857878627082,2055.8924642397774,0.0
598204.59901257406,4037374.0504322448,-17500.0,235.68829904613793,603.40851893109982,1791.8525121027494,201.90608781671671,591.40621455842427,146.50951576425084,1117.1006680476262,-477.84379148926439,1449.8611071220962,-1449.8611071220962,477.84379148926439,2198.2412068278913,0.0
603204.59901257406,4037374.0504322448,-17500.0,150.32238654113101,484.67909666566089,1975.1196760111882,162.88605349147315,645.03376939122677,158.32552900554685,1175.2330560120868,-593.17641016784444,1471.8791921707398,-1471.8791921707398,593.17641016784444,2312.5500763735763,0.0
608204.59901257406,4037374.0504322448,-17500.0,76.673696538974525,326.71562921413522,2107.6718922951773,112.58979067290288,683.83872200273345,166.87434144149051,1213.5725455607369,-679.68430717251613,1432.2101893225399,-1432.2101893225399,679.68430717251613,2389.7818652741894,0.0
613204.59901257406,4037374.0504322448,-17500.0,24.865368843179404,138.59042556256722,2172.2879052890366,53.667080194259881,703.12009066165979,171.17615308642999,1228.170144804054,-724.81660052511631,1326.7820776967733,-1326.7820776967733,724.81660052511631,2422.4027927970947,0.0
618204.59901257406,4037374.0504322448,-17500.0,2.7939909229602011,-65.268417085938395,2156.6128254130872,-9.7962824320305444,699.50813708345981,170.52789174741167,1216.5666189799206,-719.72617087464357,1158.8897926779523,-1158.8897926779523,719.72617087464357,2405.5777892857855,0.0
623204.59901257406,4037374.0504322448,-17500.0,14.196105107582799,-266.7322590936605,2055.9537190363585,-72.724103056594373,671.69131208579995,164.64911432301113,1178.5741216137565,-661.50657446765194,939.75756030846628,-939.75756030846628,661.50657446765194,2338.1689461474812,0.0
628204.59901257406,4037374.0504322448,-17500.0,57.449647591500792,-446.75023730300279,1874.9044556414085,-129.7818981509763,620.84111135739636,153.76783380285667,1118.3637483066852,-554.40407702183813,687.4286561615944,-687.4286561615944,554.40407702183813,2223.2821739884116,0.0
633204.59901257406,4037374.0504322448,-17500.0,125.59328488713848,-588.62735141023609,1627.1724884940297,-176.23818180356326,550.57782757193695,138.61585309920761,1045.2170267892136,-409.48652544940666,424.04942866086668,-424.04942866086668,409.48652544940666,2068.1850192101319,0.0
638204.59901257406,4037374.0504322448,-17500.0,207.6651136560788,-680.91754304491371,1333.4952504071807,-208.73322936526478,466.44675185634236,120.32718768476086,961.3385350860965,-242.72617811320896,172.17403751605883,-172.17403751605883,242.72617811320896,1883.5661869508442,0.0
643204.59901257406,4037374.0504322448,-17500.0,290.99046108186798,-719.1194697229455,1018.1604624091872,-225.74936792556485,375.02880410367027,100.26282212512265,870.21764188815871,-72.006811265577355,-48.91319666682729,48.91319666682729,72.006811265577355,1682.2815575426773,0.0
648204.59901257406,4037374.0504322448,-17500.0,363.71858095835631,-705.7735526919713,705.08266640752754,-227.67572766038464,282.92007414146968,79.806494585033548,777.53321097991295,86.076147328946305,-225.88936838294001,225.88936838294001,-86.076147328946305,1477.8504120269549,0.0
653204.59901257406,4037374.0504322448,-17500.0,416.87605365025843,-649.10290136518165,414.45123808877378,-216.49317634758197,195.83578026675346,60.181430184321648,688.80464993987175,218.75181106106817,-352.52356524011185,352.52356524011185,-218.75181106106817,1282.9803544332572,0.0
658204.59901257406,4037374.0504322448,-17500.0,445.46405668880675,-560.77190057502503,160.64806346658494,-195.21501275479542,118.02249457392705,42.325124588395333,608.50314670298462,318.4077491597597,-429.23561212348551,429.23561212348551,-318.4077491597597,1108.3008336782921,0.0
663204.59901257406,4037374.0504322448,-17500.0,448.5149533252598,-453.48024429383048,-48.367402906047587,-167.26113134412526,52.041517281872437,26.836603268814592,539.55904842359905,382.64925675686112,-461.5309562094946,461.5309562094946,-382.64925675686112,961.33604287234039,0.0
668204.59901257406,4037374.0504322448,-17500.0,428.35072132181028,-338.9770002747407,-210.4510199526303,-135.91782421394299,-1.1251612993941109,13.988919072188725,483.14143211579631,413.39152403785153,-457.95515047627549,457.95515047627549,-413.39152403785153,845.70048477633554,0.0
673204.59901257406,4037374.0504322448,-17500.0,389.43783964457236,-226.79638737328327,-327.92802686559287,-103.96952868437427,-41.760177786798863,3.7860179097526263,438.73979506432806,415.4622423316053,-428.14391234686622,428.14391234686622,-415.4622423316053,760.69585957783966,0.0
678204.59901257406,4037374.0504322448,-17500.0,337.210472152156,-123.73642287357252,-406.00709768863442,-73.519138108893927,-71.01243905653331,-3.9602908868342177,404.5670442514504,395.15851953161985,-381.32596253555016,381.32596253555016,-395.15851953161985,701.77014599499057,0.0
683204.59901257406,4037374.0504322448,-17500.0,277.10947567007639,-33.919751680262308,-451.32472013658878,-45.964834813464286,-90.513460576373276,-9.5531768785098183,378.1869101522575,359.05270911581403,-325.39849008169284,325.39849008169284,-359.05270911581403,662.07626571765184,0.0
688204.59901257406,4037374.0504322448,-17500.0,213.9406399435268,40.790177046703505,-470.81784315731329,-22.080202837861478,-102.06595788867357,-13.345920036011686,357.14464862605274,313.17220616241093,-266.52216822208698,266.52216822208698,-313.17220616241093,634.52617082897666,0.0
693204.59901257406,4037374.0504322448,-17500.0,151.54476697446046,100.22540285425238,-470.97537545555161,-2.1450316543747276,-107.424865258937,-15.694441003147757,339.39477644206994,262.54842427247183,-209.09712387170057,209.09712387170057,-262.54842427247183,613.31884651292569,0.0
563204.59901257406,4042374.0504322448,-17500.0,637.81679781169942,528.41028072419874,352.95220573661584,220.79212438002583,170.62652476057175,56.23880528914281,584.01953177015253,309.47936896150452,516.72441107538941,-516.72441107538941,-309.47936896150452,1151.0646434281227,0.0
568204.59901257406,4042374.0504322448,-17500.0,654.2452091475991,617.86206412475303,509.73886651709574,247.54232919969974,224.4135980767156,69.868081092796388,667.85436634127348,261.68641382470912,673.51077663161414,-673.51077663161414,-261.68641382470912,1325.9370661752612,0.0
573204.59901257406,4042374.0504322448,-17500.0,652.17620010670498,703.01417384090405,699.74845412334457,271.88739952185944,288.03283741784378,85.676262314359747,761.15293197682229,189.40009276593275,848.52001063634623,-848.52001063634623,-189.40009276593275,1517.7215765827564,0.0
578204.59901257406,4042374.0504322448,-17500.0,627.93379200154607,776.04894745904699,923.11852965248863,291.40535303663341,361.2686074810095,103.56806042233228,866.70830996119355,90.481029942638884,1036.1862488258453,-1036.1862488258453,-90.481029942638884,1723.3485941189947,0.0
583204.59901257406,4042374.0504322448,-17500.0,579.23545236828477,827.30774051337289,1176.6410657687443,303.20675214990388,442.89859652478759,123.22085850733041,978.14954382589167,-34.910211720603684,1227.3700827420871,-1227.3700827420871,34.910211720603684,1937.7469523909463,0.0
588204.59901257406,4042374.0504322448,-17500.0,506.18405618330786,845.94913081706147,1452.5650749642532,304.14890263185828,530.37663800529936,144.01973117339136,1090.2358221795625,-183.2302865777649,1409.0507198360858,-1409.0507198360858,183.2302865777649,2153.5675213515087,0.0
593204.59901257406,4042374.0504322448,-17500.0,412.23274051753975,821.22966081536958,1737.6519262774768,291.21835815769333,619.59920584760334,165.01244650963918,1197.7106917356643,-346.62446510920654,1564.6611842801924,-1564.6611842801924,346.62446510920654,2361.1253257697026,0.0
598204.59901257406,4042374.0504322448,-17500.0,304.82269162402889,744.43387951261491,2012.8996442349028,262.08138235598182,704.86803967432343,184.9079447894988,1294.3443196812771,-512.51579910881162,1675.3702634598394,-1675.3702634598394,512.51579910881162,2548.6961870316186,0.0
603204.59901257406,4042374.0504322448,-17500.0,195.30882628921367,611.25901415480428,2254.4107125601504,215.74170494105965,779.17204620602399,202.14317655625942,1373.2639531217183,-664.14045128259488,1722.4846948615123,-1722.4846948615123,664.14045128259488,2703.2846858104999,0.0
608204.59901257406,4042374.0504322448,-17500.0,97.829876924478924,424.16444853706258,2435.7640583895218,153.16853297262091,834.87576137121971,215.03487271574204,1427.6283239354082,-782.36531539008729,1690.8389190147068,-1690.8389190147068,782.36531539008729,2811.9097655267883,0.0
613204.59901257406,4042374.0504322448,-17500.0,27.013337649801656,193.92754863445259,2531.8993655911436,77.692629105920062,864.80597910155484,222.01269292011872,1451.5550257649345,-848.81160720501543,1572.5895251443906,-1572.5895251443906,848.81160720501543,2863.3246168985247,0.0
618204.59901257406,4042374.0504322448,-17500.0,-5.1659976726336101,-60.421001325453531,2523.9476975605912,-5.043511300956613,863.57727889080525,221.8994826858308,1441.2123066334425,-849.79351091885019,1370.3851734880918,-1370.3851734880918,849.79351091885019,2849.9168326056388,0.0
623204.59901257406,4042374.0504322448,-17500.0,7.4365402313673918,-313.80967204783479,2403.8288738570723,-87.712067981003102,828.84128871393841,214.17340550628089,1396.1876502447001,-780.03534945575962,1098.6976009857635,-1098.6976009857635,780.03534945575962,2769.3784692874497,0.0
628204.59901257406,4042374.0504322448,-17500.0,63.020737008979886,-539.32194180608587,2177.1325668726863,-162.45313000056274,762.07208321773714,199.13338707318579,1322.5747411088125,-644.87058964475705,782.43418001128771,-782.43418001128771,644.87058964475705,2625.695570343828,0.0
633204.59901257406,4042374.0504322448,-17500.0,151.71344033157973,-713.37336665636985,1863.066118340211,-222.29089857240848,668.56895715579742,177.90297727484329,1230.8180690022555,-459.91040759134609,452.7985888610711,-452.7985888610711,459.91040759134609,2429.0928572482467,0.0
638204.59901257406,4042374.0504322448,-17500.0,257.67512508008571,-820.31849453293603,1491.2158628476498,-262.40888470977126,556.60961161175555,152.25902283118666,1124.4938236639398,-248.03606386760623,141.45508874397683,-141.45508874397683,248.03606386760623,2194.8930971334739,0.0
643204.59901257406,4042374.0504322448,-17500.0,362.79709840744118,-855.02703292949093,1095.9600114551815,-280.89888079862874,435.95841422164051,124.32381954485558,1009.7538662260731,-34.587403717782635,-125.26330442504631,125.26330442504631,34.587403717782635,1941.4794789617001,0.0
648204.59901257406,4042374.0504322448,-17500.0,450.72380075827544,-822.75868511215333,710.2947734048314,-278.79644739250159,316.18659354239873,96.212916914941175,894.68429532513221,157.67303267416614,-330.37345916560173,330.37345916560173,-157.67303267416614,1687.8908780970944,1.0
653204.59901257406,4042374.0504322448,-17500.0,509.91563981949815,-736.68092130485718,360.81365168305291,-259.47275783407497,205.25925157198245,69.730589534130786,786.75315709201061,312.31413967394224,-467.5771601345524,467.5771601345524,-312.31413967394224,1451.4925324991978,0.0
658204.59901257406,4042374.0504322448,-17500.0,535.00942655239908,-614.13431938642145,64.957819834642848,-227.65567618603808,108.70085595402732,46.179703413302356,691.60041070385535,420.87131235538158,-540.04580495980565,540.04580495980565,-420.87131235538158,1246.0094903846086,1.0
663204.59901257406,4042374.0504322448,-17500.0,526.47729555874957,-472.91682656060271,-169.3102326094085,-188.41094853715398,29.407178751911864,26.304667155005507,612.3836898489169,482.41205217444451,-557.58381882275523,557.58381882275523,-482.41205217444451,1079.9631676076538,0.0
668204.59901257406,4042374.0504322448,-17500.0,489.13239630948578,-328.49958225816937,-342.01746530885919,-146.33555265188514,-32.033029941630623,10.343892064911635,549.6136624494693,501.71303449692533,-533.32898989651278,533.32898989651278,-501.71303449692533,955.59409729262984,0.0
673204.59901257406,4042374.0504322448,-17500.0,430.20830316105827,-192.52763550289419,-458.78781737310828,-105.07775127681531,-76.734999037423322,-1.8527062347358094,501.53844749480425,486.9198404358637,-480.90170061128816,480.90170061128816,-486.9198404358637,868.83813794456387,0.0
678204.59901257406,4042374.0504322448,-17500.0,357.60279703799415,-72.482436087497234,-528.36362289421538,-67.172084212720605,-106.85227526097312,-10.686296869779182,465.01155407037345,447.3904254843049,-412.45933523123693,412.45933523123693,-447.3904254843049,811.06793020725138,0.0
683204.59901257406,4042374.0504322448,-17500.0,278.60597862292207,27.863421991167236,-560.55596455066086,-34.104752211213857,-124.99696203254484,-16.684349767238281,436.52865821070475,392.10262955756815,-337.70208834421607,337.70208834421607,-392.10262955756815,772.19425918405705,0.0
688204.59901257406,4042374.0504322448,-17500.0,199.18182249110876,107.601966773567,-564.82435250608864,-6.5069587900192358,-133.81403444216221,-20.405017560061285,413.03100633882457,328.71245259731222,-263.63255368339071,263.63255368339071,-328.71245259731222,743.46369968550528,0.0
693204.59901257406,4042374.0504322448,-17500.0,123.71454283413588,167.76897724769424,-549.46342004429505,15.609652519278008,-135.71638525115915,-22.37428818594227,392.27656565110971,263.16558045133525,-194.79260678019537,194.79260678019537,-263.16558045133525,718.74461333705506,0.0
698204.59901257406,4042374.0504322448,-17500.0,55.070656387779245,210.5331786025549,-521.26329323399727,32.631316601072633,-132.75309897225128,-23.051633132431096,372.84889278406251,199.69258486607464,-133.72959585175875,133.72959585175875,-199.69258486607464,694.46137987716099,0.0
558204.59901257406,4047374.0504322448,-17500.0,683.45658901098636,438.96027320157071,159.35725092665106,214.13511827963012,118.83233271086087,48.374278029735414,542.90981502807756,415.42788961873191,329.22556159563567,-329.22556159563567,-415.42788961873191,1050.3079167412677,0.0
563204.59901257406,4047374.0504322448,-17500.0,732.30226157222648,544.66893968579257,288.46378395536323,249.5093957174463,168.48112199708282,62.277934907077466,628.70581217504457,399.57702855720026,478.19194277758106,-478.19194277758106,-399.57702855720026,1229.0068584269161,0.0
568204.59901257406,4047374.0504322448,-17500.0,766.24945894221935,656.60816854718621,455.11224449845139,285.64473388248666,230.31598489083714,79.127020015975859,726.341211778711,359.5993233706501,655.6271991206961,-655.6271991206961,-359.5993233706501,1432.6451801964872,0.0
573204.59901257406,4047374.0504322448,-17500.0,779.26819315192495,768.54637010781653,663.9685751557862,320.33773455247695,305.51325977978826,99.141609972053416,835.88189260132594,289.96887099070346,860.15536804469821,-860.15536804469821,-289.96887099070346,1660.5126476737485,0.0
578204.59901257406,4047374.0504322448,-17500.0,765.49338276174274,871.33984804104773,917.50554873570229,350.5339744379711,394.48590698530961,122.34788354230925,958.90700451060468,186.25020058372303,1086.8183271837081,-1086.8183271837081,-186.25020058372303,1909.8923421574198,0.0
583204.59901257406,4047374.0504322448,-17500.0,720.31317432329024,952.83948905575892,1214.3525112121447,372.34358840169438,496.39528187154241,148.46764825930887,1095.7805589907966,46.464056069796015,1325.8983497496704,-1325.8983497496704,-46.464056069796015,2175.4194315922464,0.0
588204.59901257406,4047374.0504322448,-17500.0,641.82229206102875,998.4256461126929,1547.3902246640978,381.24901984161005,608.60861665350012,176.79928321852921,1237.5985197670898,-127.24138535929285,1562.0396719238847,-1562.0396719238847,127.24138535929285,2448.5172465543628,0.0
593204.59901257406,4047374.0504322448,-17500.0,532.43946223825162,992.46589417166058,1901.9463750305108,372.58028864789583,726.21026878892883,206.11514591937453,1376.8544258921863,-326.9050629596187,1774.136420977773,-1774.136420977773,326.9050629596187,2717.0752808580496,0.0
598204.59901257406,4047374.0504322448,-17500.0,400.27079507934275,920.88507118387008,2254.7131662149823,342.29897682774697,841.74742560575021,234.61590824410905,1505.1898379405295,-537.5859317032191,1936.5547201100321,-1936.5547201100321,537.5859317032191,2965.6037138616762,0.0
603204.59901257406,4047374.0504322448,-17500.0,259.58365793769462,774.72614417577563,2574.2086515773317,288.03996167568533,945.43744629248283,259.99056896185641,1613.0500205166422,-737.44997242678107,2022.1563678114017,-2022.1563678114017,737.44997242678107,3176.0991686126695,0.0
608204.59901257406,4047374.0504322448,-17500.0,129.69884861099644,554.07499552822117,2823.5775360103412,210.22127765035174,1026.046641216406,279.62523836450214,1690.5313200179335,-899.84029214354439,2007.1828159369193,-2007.1828159369193,899.84029214354439,3329.7850061719123,0.0
613204.59901257406,4047374.0504322448,-17500.0,31.882368547927655,271.14540702258927,2966.058553327669,112.8808190835652,1072.5098893198026,290.97128801362663,1728.7644534709873,-997.65426627969418,1877.2904654393087,-1877.2904654393087,997.65426627969418,3409.6807087390939,0.0
618204.59901257406,4047374.0504322448,-17500.0,-15.477813060171298,-48.998174981094955,2972.4819684639938,3.8256842680569254,1076.0943532516694,292.02664231326389,1721.6839422337771,-1009.4827922481318,1633.1188976530784,-1633.1188976530784,1009.4827922481318,3403.650282141266,0.0
623204.59901257406,4047374.0504322448,-17500.0,-2.1649350777635679,-371.26948028110087,2828.9473183221535,-106.21728705073556,1032.5851028626807,281.81605568291445,1668.360628260396,-925.87661881474492,1293.202563268497,-1293.202563268497,925.87661881474492,3307.253412262357,0.0
628204.59901257406,4047374.0504322448,-17500.0,70.060463038967654,-656.96413656211462,2542.0166676668605,-205.44156729309671,943.76281798611444,260.71525422929898,1577.0528485261361,-753.39724870738326,892.39402683639139,-892.39402683639139,753.39724870738326,3125.5584374185701,0.0
633204.59901257406,4047374.0504322448,-17500.0,186.95426210192986,-872.12598823829933,2139.067702480545,-283.34715219420951,817.53255233398431,230.48427275464476,1460.018634979948,-514.44940627613914,475.46879241958248,-475.46879241958248,514.44940627613914,2873.223397772616,0.0
638204.59901257406,4047374.0504322448,-17500.0,325.17649253884343,-995.07396242973198,1663.106918962098,-332.91331192014599,666.5074133733483,193.96740596837844,1323.6384390209514,-242.44219476010011,87.658278771080816,-87.658278771080816,242.44219476010011,2572.650203120555,0.0
643204.59901257406,4047374.0504322448,-17500.0,458.42613509976508,-1020.4009256000089,1163.6109115281049,-351.82122844177303,505.45467054703499,154.54240994176263,1177.8191323775764,26.135151432988494,-234.6776178522345,234.6776178522345,-26.135151432988494,2250.6370238855225,0.0
648204.59901257406,4047374.0504322448,-17500.0,563.95722399253486,-958.26283486806074,686.57026389227474,-342.37839293872224,348.45276568997411,115.49484348630456,1034.151710768366,259.81596420306323,-470.12972122933672,470.12972122933672,-259.81596420306323,1934.3912902280945,0.0
653204.59901257406,4047374.0504322448,-17500.0,627.16463560151726,-829.79676213442804,266.91907157127673,-310.33300102512828,206.63806786779563,79.505073820871431,902.7479679440404,437.7266801593471,-613.57780443418369,613.57780443418369,-437.7266801593471,1647.7625804349209,0.0
658204.59901257406,4047374.0504322448,-17500.0,643.0912530729521,-660.83462755829009,-74.91502582276712,-263.13892020876114,87.055793762321002,48.364621093026805,790.52294939018282,551.36491895031088,-673.35651676790178,673.35651676790178,-551.36491895031088,1408.1139690879943,0.0
663204.59901257406,4047374.0504322448,-17500.0,615.15412152430952,-476.1813422061353,-332.4501829756137,-208.29325485575782,-7.3567127128473357,22.938815856361433,700.38453725040756,603.02039733793288,-666.16903191899212,666.16903191899212,-603.02039733793288,1223.9500516970552,0.0
668204.59901257406,4047374.0504322448,-17500.0,552.28148171585383,-295.83798885731676,-509.96996977967262,-152.1567718811923,-76.99479973741839,3.3117150340556787,631.35160721964667,602.29488913726721,-611.82406801787272,611.82406801787272,-602.29488913726721,1093.8016335932568,0.0
673204.59901257406,4047374.0504322448,-17500.0,465.77409199410346,-133.45960327185995,-618.41217430278175,-99.382285152371381,-124.47094145763485,-10.980289059584056,579.62852544586713,562.28142012907483,-529.18841977048987,529.18841977048987,-562.28142012907483,1007.6745537474903,0.0
678204.59901257406,4047374.0504322448,-17500.0,366.78115306749453,3.4399853984298665,-671.61431372044683,-52.853106318964628,-153.53049408256936,-20.708506844952449,540.25327224453804,496.4544668293529,-433.83321573559829,433.83321573559829,-496.4544668293529,951.40767633310202,0.0
683204.59901257406,4047374.0504322448,-17500.0,264.73647025148097,112.29342664103113,-683.55841022006462,-13.940469193193968,-168.20609580197387,-26.755553441320611,508.59225366290946,416.68279831538285,-337.18659796141441,337.18659796141441,-416.68279831538285,911.64834748824853,0.0
688204.59901257406,4047374.0504322448,-17500.0,166.69172282628455,193.96546453226708,-666.72109776817445,17.105879484513714,-172.26926123746929,-29.980656636484976,481.15519715584702,332.30133118322783,-246.70742382749563,246.70742382749563,-332.30133118322783,878.70552781238985,0.0
693204.59901257406,4047374.0504322448,-17500.0,77.292482070589386,251.34976646103519,-631.33255265008881,40.764223448369336,-168.94460848647145,-31.143036616351431,455.72954151096462,249.95430492448878,-166.58468660361558,166.58468660361558,-249.95430492448878,846.88234224202529,0.0
698204.59901257406,4047374.0504322448,-17500.0,-0.88334274413308211,288.27550781831928,-585.25141753585251,57.913402906929214,-160.81481565582715,-30.86982351788474,431.13738404733999,173.88880089259848,-98.594415670464656,98.594415670464656,-173.88880089259848,813.52105108669616,0.0
703204.59901257406,4047374.0504322448,-17500.0,-66.84592294981428,308.76082006826124,-534.18654298553827,69.593666078117664,-149.84286341879357,-29.653004490347485,406.89605845100402,106.44183890936108,-42.897458418789306,42.897458418789306,-106.44183890936108,777.85638015483005,0.0
553204.59901257406,4052374.0504322448,-17500.0,680.25256028402589,311.93034733148573,-18.100332705107078,192.29420108119987,63.5710937391747,38.092450717575012,493.75202628066813,482.89889998423251,128.70600570583798,-128.70600570583798,-482.89889998423251,930.89669412439002,0.0
558204.59901257406,4052374.0504322448,-17500.0,760.1659899865391,420.25661965461512,73.254880186480094,233.15581024194486,104.81745585443385,51.206102913371652,576.35566393152715,502.46566689782662,253.53080368017007,-253.53080368017007,-502.46566689782662,1101.5309542664186,0.0
563204.59901257406,4052374.0504322448,-17500.0,832.72631640471684,544.40186954020112,200.80704929107876,278.24548265769204,159.11472102238361,67.788079709263101,673.48851194603151,503.16433720172995,412.49920590717068,-412.49920590717068,-503.16433720172995,1303.2296697287572,0.0
568204.59901257406,4052374.0504322448,-17500.0,891.03974643589447,681.3443813735164,372.7868957609025,326.16020003752891,228.97210043659612,88.413853073098196,786.27617816317866,477.37762762906658,608.93848660681851,-608.93848660681851,-477.37762762906658,1538.1637687049886,0.0
573204.59901257406,4052374.0504322448,-17500.0,926.9236444717518,824.95636160985566,597.08344557872658,374.46841931878697,316.65026047151559,113.57019311639995,915.27942360020791,416.89838697562931,843.71411256015995,-843.71411256015995,-416.89838697562931,1806.9871827783275,0.0
578204.59901257406,4052374.0504322448,-17500.0,931.60211999206558,965.11795797936884,879.74351617909463,419.47399051074126,423.65978209724915,143.52899495382727,1060.7639604354097,314.0179363545073,1113.5674640503189,-1113.5674640503189,-314.0179363545073,2107.9792054756708,0.0
583204.59901257406,4052374.0504322448,-17500.0,897.01567935838978,1087.1242160236002,1222.7606104357469,456.09375337169678,550.05387212961921,178.17494358377314,1225.1359359489443,163.28343972659695,1409.1888229519427,-1409.1888229519427,-163.28343972659695,2436.0336604787049,0.0
588204.59901257406,4052374.0504322448,-17500.0,817.82230558102401,1171.8197298363013,1621.2149872561106,477.9802055505404,693.54912717028583,216.79809802043727,1403.76159648302,-36.073775428389922,1713.3947012983126,-1713.3947012983126,36.073775428389922,2781.6252789867171,0.0
593204.59901257406,4052374.0504322448,-17500.0,693.94724764431373,1197.0135243859966,2060.1405275878592,478.04700653325261,848.6050078963741,257.88543795866531,1584.512861893536,-277.31432076407509,2000.084448157364,-2000.084448157364,277.31432076407509,3129.9969690715943,0.0
598204.59901257406,4052374.0504322448,-17500.0,533.16021708198571,1140.6783428599147,2511.9552141283093,449.52652722918367,1005.7244032804118,298.97448389389075,1755.764960724274,-543.67733323199354,2234.9327755137501,-2234.9327755137501,543.67733323199354,3460.9227704320356,0.0
603204.59901257406,4052374.0504322448,-17500.0,352.7116490751261,986.08926145147336,2935.8072174126251,387.57626516117955,1151.3805597958185,336.66320531964669,1904.1759666054847,-807.35921638980813,2378.8578622114528,-2378.8578622114528,807.35921638980813,3749.5184611735262,0.0
608204.59901257406,4052374.0504322448,-17500.0,178.71918533948983,728.22913874498738,3280.4102016780307,291.20146127152276,1269.0134422809497,366.8723026675064,2015.3060332991092,-1031.4266386110198,2394.8240656873973,-2394.8240656873973,1031.4266386110198,3968.4794545825862,0.0
613204.59901257406,4052374.0504322448,-17500.0,42.205991522844997,379.66525950976126,3491.485838013748,164.9497295168955,1341.3854988307305,385.41706288633293,2075.6140350558476,-1175.7086267697455,2257.3521536905159,-2257.3521536905159,1175.7086267697455,4091.882427981915,0.0
618204.59901257406,4052374.0504322448,-17500.0,-28.245544890604332,-26.853083700221209,3523.3794441703499,19.584883487867955,1354.1215995884504,388.83807040575414,2075.3179915162277,-1206.3314410609182,1962.3047196014327,-1962.3047196014327,1206.3314410609182,4100.1126937157187,0.0
623204.59901257406,4052374.0504322448,-17500.0,-15.418770555969592,-441.67046303618258,3352.0470075097983,-128.97618764943729,1299.5924273035848,375.29514982357665,2012.2660893753666,-1106.4161414680316,1533.0108762056038,-1533.0108762056038,1106.4161414680316,3984.8101302499226,0.0
628204.59901257406,4052374.0504322448,-17500.0,79.541397297956777,-808.06344053626879,2984.6322921846509,-262.62672301900261,1179.7651634253598,345.21898068700176,1897.0977868595132,-883.6874143163119,1018.9275917533445,-1018.9275917533445,883.6874143163119,3752.2893863095405,0.0
633204.59901257406,4052374.0504322448,-17500.0,235.70214150747779,-1076.0934920376587,2460.8652073502521,-365.19540721670882,1006.6656591066236,301.4231757990587,1745.3760196301739,-570.90387643891631,485.60276287174753,-485.60276287174753,570.90387643891631,3423.9731045427657,0.0
638204.59901257406,4052374.0504322448,-17500.0,417.92104603480476,-1215.2839675648013,1844.5944929736511,-426.26731387165643,799.96465045223783,248.57016387271409,1568.2296713563319,-217.89275857307064,-1.0980115228490064,1.0980115228490064,217.89275857307064,3033.3764046506817,0.0
643204.59901257406,4052374.0504322448,-17500.0,587.32663156122771,-1220.9470916227267,1208.2945952214261,-443.2246082793738,582.4542915606761,192.15136260939113,1381.1854640112215,121.89618935130673,-390.43745541527733,390.43745541527733,-121.89618935130673,2620.3805933842677,0.0
648204.59901257406,4052374.0504322448,-17500.0,712.12021378489897,-1112.0656676558738,616.65921387324363,-420.85604969012309,375.12215072721222,137.34970446307565,1201.0031276030795,404.71554588173359,-656.0792365627608,656.0792365627608,-404.71554588173359,2224.4516736643827,0.0
653204.59901257406,4052374.0504322448,-17500.0,774.41487120163674,-922.70285851832125,115.13834352674225,-369.00806015898246,193.51762804698751,88.16230077034713,1041.2916167068347,604.74748935120078,-796.77894905625521,796.77894905625521,-604.74748935120078,1878.3364119507548,0.0
658204.59901257406,4052374.0504322448,-17500.0,771.43081941592231,-691.33593167578886,-273.90467385806267,-299.4748786815544,46.277776621151396,46.995210342459593,910.04236518500909,715.43914920672694,-830.2256189035553,830.2256189035553,-715.43914920672694,1602.9883369585186,0.0
663204.59901257406,4052374.0504322448,-17500.0,712.17917031565014,-452.13697493647231,-548.43615179403071,-223.29380713470351,-64.364235077457323,14.715402866778781,808.82025232786532,745.44144941458728,-783.99970518839189,783.99970518839189,-745.44144941458728,1404.1600175474448,0.0
668204.59901257406,4052374.0504322448,-17500.0,612.17562012334508,-230.17269397938605,-720.43177325939405,-149.09310296194553,-140.8845144444935,-9.0004170909014221,733.7550427650549,712.20382026902803,-687.33790659617944,687.33790659617944,-712.20382026902803,1272.4340300259453,0.0
673204.59901257406,4052374.0504322448,-17500.0,488.47738479512367,-40.367999610460927,-809.04646081341707,-82.54132363448872,-188.46743746213758,-25.215110562270802,678.0022330753161,635.93210091400033,-565.6669390157931,565.6669390157931,-635.93210091400033,1188.6158795520082,0.0
678204.59901257406,4052374.0504322448,-17500.0,356.26528387341887,111.06263886355788,-835.16641817307709,-26.585606380732575,-213.29740627700551,-35.322964128458672,634.47728375167458,535.34580870189916,-438.13259894149627,438.13259894149627,-535.34580870189916,1132.2158217511828,0.0
683204.59901257406,4052374.0504322448,-17500.0,227.16626441796683,224.14594537426532,-817.9651614261586,17.917485942218718,-221.38984149670844,-40.752905724507372,597.61878104925802,425.47556587126644,-317.3641070339155,317.3641070339155,-425.47556587126644,1087.5648688052036,0.0
688204.59901257406,4052374.0504322448,-17500.0,108.92232756416573,302.665389521527,-773.25286279534225,51.490749423022706,-217.95224042493155,-42.792000742018296,563.87139133981896,317.05859352229078,-210.47566756983991,210.47566756983991,-317.05859352229078,1045.3201091700503,0.0
693204.59901257406,4052374.0504322448,-17500.0,5.8537237971176799,352.17471442989682,-713.07898854144059,75.422374470022973,-207.14572593385176,-42.5060295880346,531.3676974935903,216.90282053527699,-120.50315413483133,120.50315413483133,-216.90282053527699,1001.1544583280598,0.0
698204.59901257406,4052374.0504322448,-17500.0,-80.348885324270725,378.64193200798553,-646.04435075619313,91.314708136094268,-192.09548930870676,-40.724567976506357,499.36962268001594,128.68287265160984,-47.789447783493173,47.789447783493173,-128.68287265160984,953.8464444596915,0.0
703204.59901257406,4052374.0504322448,-17500.0,-149.80277642424136,387.65122109797329,-577.91897059517601,100.79333020304188,-175.02715689748709,-38.062003479013264,467.7763108963195,53.816884696680624,8.8988189453959521,-8.8988189453959521,-53.816884696680624,903.77503912654765,0.0
553204.59901257406,4057374.0504322448,-17500.0,725.76372063058682,259.66998773260588,-111.79048551064838,198.98510421579027,40.314981506563619,37.632757889338464,518.6465255433427,552.14503884071041,27.019965526239503,-27.019965526239503,-552.14503884071041,961.57210014444979,0.0
558204.59901257406,4057374.0504322448,-17500.0,831.5729206123367,378.49346988994415,-31.93769412227206,248.30068213233767,82.347581315820378,52.56931892439335,608.98599089641232,593.84822717920929,149.57126063527315,-149.57126063527315,-593.84822717920929,1146.6884028208972,0.0
563204.59901257406,4057374.0504322448,-17500.0,934.03975079114628,520.21574563448269,87.464865914943331,304.63798485282371,139.99707247577001,72.012053960689371,717.45063547641666,617.95111009840605,313.14978980831859,-313.14978980831859,-617.95111009840605,1370.8003136747102,0.0
568204.59901257406,4057374.0504322448,-17500.0,1025.0073267712867,683.34647642893481,257.7524474440628,366.89792251379799,217.05230741741417,96.910161877716504,846.20695921552965,614.73821317886393,524.25285269842436,-524.25285269842436,-614.73821317886393,1638.2984797418871,0.0
573204.59901257406,4057374.0504322448,-17500.0,1093.9462195170599,862.7659646005153,490.98419172600228,432.65893469454352,317.35336689527298,128.18228936292175,996.85340887800521,572.78751334924459,787.2722432511946,-787.2722432511946,-572.78751334924459,1952.1168681262384,0.0
578204.59901257406,4057374.0504322448,-17500.0,1128.4690538854391,1048.2034963835126,798.31540216911469,497.71795250101053,444.18576817150813,166.54883073586103,1170.1678188882729,480.01838242391608,1102.2825834532773,-1102.2825834532773,-480.01838242391608,2312.568843357692,0.0
583204.59901257406,4057374.0504322448,-17500.0,1115.7121520857361,1222.8205518121297,1187.2473567560351,555.70624494746562,599.31740562752361,212.27660923972209,1367.1327881537509,325.74868484696958,1462.1425961356983,-1462.1425961356983,-325.74868484696958,2715.8393118769241,0.0
588204.59901257406,4057374.0504322448,-17500.0,1044.8745766874724,1362.4864826641335,1657.6050731331911,597.97574001618295,781.6547485668118,264.83617274092074,1588.9368582555874,103.97912841110394,1849.2471743826345,-1849.2471743826345,-103.97912841110394,3152.2432540248674,0.0
593204.59901257406,4057374.0504322448,-17500.0,910.9678216413198,1436.6488835752052,2196.4900750444403,614.03795241503474,985.63120091986218,322.50724894732838,1823.1649144226724,-182.21030077841078,2232.7802842176247,-2232.7802842176247,182.21030077841078,3604.5453151251172,0.0
598204.59901257406,4057374.0504322448,-17500.0,719.29368096831729,1411.8808540800865,2773.1972991076282,592.87092031542988,1199.677521696696,382.02725710244295,2052.462692061933,-515.92617954861362,2567.9658223725769,-2567.9658223725769,515.92617954861362,4046.8963827285947,0.0
603204.59901257406,4057374.0504322448,-17500.0,489.29164249448075,1258.8891981354498,3336.0983040734463,525.28474773649452,1405.4227262193067,438.44408139737203,2257.9792104329122,-863.12788504026662,2799.2863962857546,-2799.2863962857546,863.12788504026662,4445.1618839832418,0.0
608204.59901257406,4057374.0504322448,-17500.0,255.50120177052079,962.65546256421385,3814.418332509515,407.17281311400677,1578.5228849582659,485.38500889025403,2418.5315621621985,-1173.3169538510333,2869.4173327033777,-2869.4173327033777,1173.3169538510333,4759.5471950646725,0.0
613204.59901257406,4057374.0504322448,-17500.0,63.126029550181862,533.26940251134204,4127.7069735822743,242.83606973557031,1691.9117355833525,515.91098140313738,2513.1887169477577,-1386.8531518086702,2733.9078404412676,-2733.9078404412676,1386.8531518086702,4950.0691082488502,0.0
618204.59901257406,4057374.0504322448,-17500.0,-42.912998213005039,12.6832749682357,4203.6262080323486,46.916707402838981,1721.5609273725131,523.9490049051451,2525.8426547173267,-1449.551609337356,2378.332510197692,-2378.332510197692,1449.551609337356,4984.5389203662035,0.0
623204.59901257406,4057374.0504322448,-17500.0,-33.152376982349033,-528.1448411911191,4000.1865876569623,-156.67373186123169,1653.4871321815037,505.98351489538931,2451.58470162294,-1331.1374832256006,1830.9566454912865,-1830.9566454912865,1331.1374832256006,4847.3170823774526,0.0
628204.59901257406,4057374.0504322448,-17500.0,93.262565614882661,-1004.3543363879833,3523.7668994934515,-339.54034787701352,1489.3733666557787,462.39203398156849,2303.6956104614133,-1039.8224832496812,1162.9344633938995,-1162.9344633938995,1039.8224832496812,4545.8839873743109,0.0
633204.59901257406,4057374.0504322448,-17500.0,304.95251335049522,-1340.7352139023624,2833.1789310198369,-476.13746371518033,1247.9137053140662,397.77168206055376,2103.6589726454731,-624.489737794657,472.38584758506295,-472.38584758506295,624.489737794657,4112.2470238140077,0.0
638204.59901257406,4057374.0504322448,-17500.0,547.7210142496175,-1493.8029950866444,2025.4645653926023,-550.72266794355369,960.58082000159845,319.96146443761495,1870.4478220185042,-161.22482726665538,-142.71798560853404,142.71798560853404,161.22482726665538,3597.8529280719736,0.0
643204.59901257406,4057374.0504322448,-17500.0,763.05769242437998,-1462.0334904317817,1208.8242540759597,-560.8534710857208,663.33777113324265,238.09239686094836,1628.3545868896638,270.254482876525,-610.91978116102041,610.91978116102041,-270.254482876525,3063.4384258831706,0.0
648204.59901257406,4057374.0504322448,-17500.0,906.4752146529388,-1280.4126257198513,474.89664074873525,-516.15991878033151,387.85833514595686,160.46105017787906,1401.7994360694256,609.02786950113307,-901.46428543430022,901.46428543430022,-609.02786950113307,2567.0544201156067,0.0
653204.59901257406,4057374.0504322448,-17500.0,957.53611284182614,-1004.0757048046264,-118.48172633309176,-433.61477739445468,155.65364740768948,93.018037352211451,1208.7617068435743,824.884037881165,-1022.5500260374562,1022.5500260374562,-824.884037881165,2153.1889336215086,0.0
658204.59901257406,4057374.0504322448,-17500.0,919.37386484101478,-690.08582966404867,-550.25286153700324,-331.89323113761901,-23.520370424031295,38.84011173636457,1057.2979531633782,917.53416979272674,-1008.3850152234127,1008.3850152234127,-917.53416979272674,1844.4134024696059,0.0
663204.59901257406,4057374.0504322448,-17500.0,811.10810248335736,-384.51019097157098,-828.40242384508156,-227.04260054408533,-149.7885053769993,-1.5432856600635541,945.41778352141978,907.3950928155881,-903.303553829816,903.303553829816,-907.3950928155881,1637.5425541934162,0.0
668204.59901257406,4057374.0504322448,-17500.0,658.41401753821378,-117.11829683488365,-978.01553883933457,-130.36270220620045,-229.65967786667059,-29.36780125399433,864.28401687346843,824.19415815392767,-749.30154849318274,749.30154849318274,-824.19415815392767,1508.576520528525,0.0
673204.59901257406,4057374.0504322448,-17500.0,486.04813910940697,97.868258570643761,-1030.3876361486664,-48.212524075944309,-272.55660234462454,-46.789781692294625,803.05200174283095,697.84890426315189,-579.30930064613983,579.30930064613983,-697.84890426315189,1426.2007081032514,0.0
678204.59901257406,4057374.0504322448,-17500.0,313.67888508536163,257.9238468846554,-1015.6208558678568,17.059060893671237,-288.25238166193827,-56.21722199246944,752.6473201000274,553.20207732333256,-415.43187050629126,415.43187050629126,-553.20207732333256,1364.5048939684548,0.0
683204.59901257406,4057374.0504322448,-17500.0,154.61022937639657,367.73817553248398,-958.84112862238283,65.816013883638433,-285.39207870867654,-59.889141738270922,707.1725667609345,408.1590829771792,-270.19275698324975,270.19275698324975,-408.1590829771792,1307.663774382336,0.0
688204.59901257406,4057374.0504322448,-17500.0,16.315500172532783,435.47606311978132,-879.07291922093179,99.945425115894125,-270.8878508844889,-59.673308293404396,663.56943740657903,273.99707202072102,-148.97242607732383,148.97242607732383,-273.99707202072102,1248.3915144770265,0.0
693204.59901257406,4057374.0504322448,-17500.0,-98.23355242737864,470.21232034305791,-789.64038915793367,121.97097571598039,-249.86897189982076,-57.014078723460244,620.67918454288372,156.68204698319892,-52.49527323448541,52.49527323448541,-156.68204698319892,1184.6835145003311,0.0
698204.59901257406,4057374.0504322448,-17500.0,-189.11503345628017,480.44806123687454,-699.22296534779116,134.48711320057367,-225.91208144161169,-52.964342310546648,578.38185123464064,58.411681355393071,21.15884435531726,-21.15884435531726,-58.411681355393071,1117.1655362916349,0.0
703204.59901257406,4057374.0504322448,-17500.0,-258.21867327630952,473.42015893836282,-613.03491337617993,139.85080378577356,-201.367488536953,-48.253387547052441,537.01210929601348,-21.019964736249602,75.140787105486041,-75.140787105486041,21.019964736249602,1047.4637738982779,0.0
708204.59901257406,4057374.0504322448,-17500.0,-308.32758521141915,454.90928306095805,-533.87159914717961,140.04964751677772,-177.68023110016557,-43.361755433849183,497.02609022072079,-83.177832823559186,112.94275847342132,-112.94275847342132,83.177832823559186,977.35271130798719,0.0
548204.59901257406,4062374.0504322448,-17500.0,627.42372524014729,84.725119871048804,-249.19197311348708,150.43539513693813,-18.152587867326822,22.909007823183458,465.41568784871436,539.77056687288575,-173.84430778031981,173.84430778031981,-539.77056687288575,833.29589371397617,0.0
553204.59901257406,4062374.0504322448,-17500.0,753.80246888326246,182.13725690496625,-216.86869056069796,198.32519164875748,8.9411662003329795,35.025980850822904,544.00299352010995,614.34416570362112,-98.401856954026016,98.401856954026016,-614.34416570362112,989.39726695106447,0.0
558204.59901257406,4062374.0504322448,-17500.0,889.13304802220193,307.29614872096641,-155.25891563445012,256.34601010814231,49.574519341495538,51.57692511383248,640.96705179158346,683.45634095704054,14.18259225709977,-14.18259225709977,-683.45634095704054,1185.4633893756904,0.0
563204.59901257406,4062374.0504322448,-17500.0,1027.73862115679,463.36794195098298,-52.475660313195647,325.06081474904266,108.29464276237584,73.847491911403708,759.93694277552584,738.66643218441368,174.03053946855221,-174.03053946855221,-738.66643218441368,1429.2203109594586,0.0
568204.59901257406,4062374.0504322448,-17500.0,1160.6931691254663,651.43809632857915,106.19243616067151,404.08471735703597,190.51407164759664,103.31965310812335,904.55785915417346,768.35095813598332,391.71530822842379,-391.71530822842379,-768.35095813598332,1728.2547241297243,0.0
573204.59901257406,4062374.0504322448,-17500.0,1275.29828312627,868.74884071950873,337.82049211003948,491.45728428869319,302.2467671714349,141.57614554007398,1078.0875395568719,757.61221519552464,676.68160924822769,-676.68160924822769,-757.61221519552464,2089.0607758329229,0.0
578204.59901257406,4062374.0504322448,-17500.0,1355.1151578270976,1106.3858668424862,660.36550936814331,582.86378166699785,449.46478302260056,190.0982049882596,1282.885664744264,688.983768088033,1034.5622028626228,-1034.5622028626228,-688.983768088033,2515.563923361668,0.0
583204.59901257406,4062374.0504322448,-17500.0,1381.0753054114907,1346.6539621119834,1089.5925253475955,670.81154199165974,636.89402648153646,249.91216314483947,1520.3107127875651,544.49217165456071,1463.1776677325729,-1463.1776677325729,-544.49217165456071,3007.0042811092976,0.0
588204.59901257406,4062374.0504322448,-17500.0,1334.3146635389226,1560.8195929900228,1633.8612526518748,744.01875449195416,866.09801480769443,321.05524194758516,1792.5253138313292,309.68118953965802,1947.3484302433972,-1947.3484302433972,-309.68118953965802,3555.2051499977397,0.0
593204.59901257406,4062374.0504322448,-17500.0,1201.2327045800857,1708.5165062568606,2286.5994807851712,787.46439155426106,1132.8502419164622,401.87707677288881,2093.7668576242413,-20.07541147821189,2453.3744653376152,-2453.3744653376152,20.07541147821189,4141.4997249276894,0.0
598204.59901257406,4062374.0504322448,-17500.0,980.6470180630173,1740.7571395388982,3017.2903882561595,783.72769922417274,1424.1549943623618,488.29318347336158,2401.0717499831912,-431.49996678949447,2925.2183758566534,-2925.2183758566534,431.49996678949447,4734.0388262936085,0.0
603204.59901257406,4062374.0504322448,-17500.0,691.51131087229521,1608.6509571469164,3763.6115953866565,716.23150984167228,1715.8730232874402,573.25606796329748,2687.228499041857,-885.75997010567357,3285.7978049854937,-3285.7978049854937,885.75997010567357,5286.7734540994652,0.0
608204.59901257406,4062374.0504322448,-17500.0,377.63770032012224,1278.7012415688773,4429.6162523438006,574.52715607546668,1972.5810907265852,646.85844723601895,2920.996881673148,-1315.5805100358718,3447.405147589262,-3447.405147589262,1315.5805100358718,5741.8495920406112,0.0
613204.59901257406,4062374.0504322448,-17500.0,104.30150848919277,752.12889905045552,4896.1571890402138,360.63127110311262,2151.5953014284996,697.51766295484401,3069.6623156248629,-1632.7842100858657,3333.5303623381428,-3333.5303623381428,1632.7842100858657,6037.0957816169976,0.0
618204.59901257406,4062374.0504322448,-17500.0,-57.299094342909491,80.409463419308523,5047.3413668723451,93.824068047473446,2212.1538140131083,714.41296461747936,3106.1393278104028,-1749.8877614957987,2908.6310709259383,-2908.6310709259383,1749.8877614957987,6118.844706548708,0.0
623204.59901257406,4062374.0504322448,-17500.0,-55.885453732998066,-634.39747804165029,4808.8349762255448,-189.62503082874679,2128.1933529668527,690.72159078627749,3019.5622975540346,-1612.0871104488579,2204.0915489693707,-2204.0915489693707,1612.0871104488579,5957.6645321956548,0.0
628204.59901257406,4062374.0504322448,-17500.0,114.61310222968616,-1262.5032598048781,4182.633836240424,-444.11824890573695,1899.7497788758187,626.43008735097749,2826.0613821048196,-1225.8147666599459,1323.6080456392453,-1323.6080456392453,1225.8147666599459,5561.4100170919719,0.0
633204.59901257406,4062374.0504322448,-17500.0,406.14366748114264,-1687.5333494721908,3257.6767985057795,-628.13718410687682,1556.5574399846435,529.21825496746521,2557.4481044866284,-665.64441837018376,417.76472331370798,-417.76472331370798,665.64441837018376,4979.0587325760625,0.0
638204.59901257406,4062374.0504322448,-17500.0,732.85301436836085,-1846.4935216443992,2185.4232657862922,-717.41067498369432,1150.4419333353183,412.63189684694981,2245.9788777622352,-50.875939144814907,-364.21341058280916,364.21341058280916,50.875939144814907,4291.9511531112757,0.0
643204.59901257406,4062374.0504322448,-17500.0,1004.9912714819397,-1746.696873828379,1130.7265238208363,-711.07333850943814,739.52076956968574,292.21688893644722,1930.0566863646409,497.34798092108747,-921.04494621287483,921.04494621287483,-497.34798092108747,3594.9793090031935,0.0
648204.59901257406,4062374.0504322448,-17500.0,1160.8201333069153,-1452.4370538781991,223.75427141912493,-628.27555560624648,372.07863525259705,181.42652676332099,1645.4149261412999,894.71580335873318,-1220.9264081912809,1220.9264081912809,-894.71580335873318,2974.5228511808882,0.0
653204.59901257406,4062374.0504322448,-17500.0,1180.5955705016545,-1053.2168115732895,-465.30743472162555,-498.45207408342492,77.146977701811394,89.01287500826173,1414.7287229722158,1110.0746773021779,-1292.6528675922505,1292.6528675922505,-1110.0746773021779,2488.9607430136252,0.0
658204.59901257406,4062374.0504322448,-17500.0,1080.843550189677,-632.6685276600856,-924.51904592127437,-351.03992959508713,-136.26821628501773,18.510191828094271,1243.2363481920222,1158.1756477094893,-1198.9195703614921,1198.9195703614921,-1158.1756477094893,2155.428101144415,0.0
663204.59901257406,4062374.0504322448,-17500.0,898.15428548273189,-250.48385183126538,-1181.8063106788657,-208.79294868340887,-274.0475860547179,-30.706687903045324,1121.4018072991009,1080.1081729987261,-1008.9578141270177,1008.9578141270177,-1080.1081729987261,1949.7027389120194,0.0
668204.59901257406,4062374.0504322448,-17500.0,673.06990792667682,61.373984851287972,-1283.4062937548415,-85.595783161800114,-350.05380989112035,-61.747531985380029,1032.8960412869815,923.86029172290125,-780.79970182990667,780.79970182990667,-923.86029172290125,1825.1016918980881,0.0
673204.59901257406,4062374.0504322448,-17500.0,439.71178534280659,293.49901417506754,-1277.5128020233694,12.552456687617216,-380.38038298274358,-78.680676280891831,962.57667734183929,731.56832382584309,-554.5399126066435,554.5399126066435,-731.56832382584309,1737.9183411380152,0.0
678204.59901257406,4062374.0504322448,-17500.0,221.71790784360485,450.90661842163706,-1205.2916643147316,85.201028449872894,-379.79871403861881,-85.4972415163368,900.30395287222836,534.13548918232493,-353.12331546095322,353.12331546095322,-534.13548918232493,1660.3637189156182,0.0
683204.59901257406,4062374.0504322448,-17500.0,32.483032947166464,545.72464446210915,-1097.7914690758728,135.06827366587763,-360.18561353165472,-85.578674113818437,840.87615048767861,350.94394157354202,-186.48017508068858,186.48017508068858,-350.94394157354202,1579.6817357936027,0.0
688204.59901257406,4062374.0504322448,-17500.0,-122.59578922470624,592.11383737009737,-976.31676051847035,166.2213336054424,-330.25202202668714,-81.529260938435286,782.41682872846741,192.03621618216758,-56.15186618218786,56.15186618218786,-192.03621618216758,1492.4709349259574,0.0
693204.59901257406,4062374.0504322448,-17500.0,-243.46068244647361,603.37904221139581,-854.28491008875494,182.92252418891132,-295.93206024781904,-75.216777902149317,724.80584560121588,60.92844813247261,40.931194357712755,-40.931194357712755,-60.92844813247261,1399.8170629386636,0.0
698204.59901257406,4062374.0504322448,-17500.0,-333.11651957673064,590.68188781814638,-739.36921326628817,189.01918349176452,-260.99744661179489,-67.902450935782539,668.63452799026072,-42.887854473545495,109.85043624603713,-109.85043624603713,42.887854473545495,1304.3706212236605,0.0
703204.59901257406,4062374.0504322448,-17500.0,-395.98258257999788,562.72814883824219,-635.37218930816346,187.69858443080352,-227.66422256041034,-60.389565395861297,614.64004192776815,-122.07477844729218,156.13083615296338,-156.13083615296338,122.07477844729218,1208.9010366342986,0.0
708204.59901257406,4062374.0504322448,-17500.0,-436.83610041807219,525.95389882334007,-543.65737054397232,181.45381072716563,-197.09523320176132,-53.156323311142138,563.4553863530349,-180.20138148073357,184.91432448274043,-184.91432448274043,180.20138148073357,1115.7081501994753,0.0
713204.59901257406,4062374.0504322448,-17500.0,-460.21082975885162,484.91018417652117,-464.1554298496398,172.1531514534594,-169.77738010562101,-46.461238434835053,515.56442396366162,-220.99159952638638,200.60428445131083,-200.60428445131083,220.99159952638638,1026.4663755199917,0.0
543204.59901257406,4067374.0504322448,-17500.0,474.67692055199154,-81.261122212154021,-331.44854472024838,93.138076105559819,-65.170289507952134,8.4803843257807259,425.66801581798541,468.0002146757804,-327.78561674807338,327.78561674807338,-468.0002146757804,741.57959113716402,0.0
548204.59901257406,4067374.0504322448,-17500.0,604.6585288347087,-16.059686010480917,-338.76181009680818,134.28145690205108,-53.207340334096095,17.030553696893168,490.60215563593465,561.12964972330997,-300.8911400128535,300.8911400128535,-561.12964972330997,862.74545628929968,0.0
553204.59901257406,4067374.0504322448,-17500.0,753.92978240094351,75.749792182383771,-329.31345286906412,186.87538871881469,-31.316597679151176,29.426734246147635,571.76356998064989,660.72892866375014,-246.47059535472846,246.47059535472846,-660.72892866375014,1019.0343769185024,0.0
558204.59901257406,4067374.0504322448,-17500.0,920.80675784977063,200.49063921721921,-293.29975041126363,252.96082416349378,4.8767750634085854,47.074879974557128,673.57282889181988,761.75371026957248,-153.69936806026021,153.69936806026021,-761.75371026957248,1220.3633975764685,0.0
563204.59901257406,4067374.0504322448,-17500.0,1100.726239270818,364.38452332269952,-217.18503085290851,334.28666961647883,61.145620995063602,71.769837756422092,801.15447411765899,855.78749291178633,-9.2719875036657982,9.2719875036657982,-855.78749291178633,1477.9565250630994,0.0
568204.59901257406,4067374.0504322448,-17500.0,1285.0204320757578,572.29291149292158,-83.030694112956908,431.76828950879951,144.81819628242377,105.71395894285583,960.12310335465668,930.01156415410037,202.16875672363744,-202.16875672363744,-930.01156415410037,1803.8076726145027,0.0
573204.59901257406,4067374.0504322448,-17500.0,1459.6638709739186,825.61546791283206,131.70812666917192,544.64655734774897,264.70913483013987,151.45723163508717,1156.1605431567802,966.37856175803631,496.67184397964934,-496.67184397964934,-966.37856175803631,2209.6799873839568,0.0
578204.59901257406,4067374.0504322448,-17500.0,1604.3969739896916,1119.1440226329585,453.311967809858,669.30241797025019,430.59231712828444,211.69138313711755,1394.346781276126,941.50799954516981,888.12054645399883,-888.12054645399883,-941.50799954516981,2705.3797277994549,0.0
583204.59901257406,4067374.0504322448,-17500.0,1692.9667085220215,1436.8958439446576,908.93327564294123,797.78099217708018,651.88589931655315,288.80789349232026,1678.4607146749838,828.15750758634692,1383.26028386809,-1383.26028386809,-828.15750758634692,3296.0129181026118,0.0
588204.59901257406,4067374.0504322448,-17500.0,1695.5898590679947,1747.4871502011367,1520.5710817017271,916.28704201600374,935.16066826909639,384.1238767853232,2011.6033443302074,599.4342147275421,1974.2242717058798,-1974.2242717058798,-599.4342147275421,3978.0019732555388,0.0
593204.59901257406,4067374.0504322448,-17500.0,1584.9488983378451,2000.6150951732604,2294.8295916321608,1004.2738535512963,1280.181128166284,496.72600839348928,2394.4120432888071,236.94362595214807,2629.0040337770865,-2629.0040337770865,-236.94362595214807,4733.9560026586905,0.0
598204.59901257406,4067374.0504322448,-17500.0,1346.5708856314047,2127.6434549772744,3208.4242262503117,1035.2087489518201,1674.6225750297076,622.02403418299127,2805.0390807802219,-256.7210765792147,3282.0966236845989,-3282.0966236845989,256.7210765792147,5527.1258136902579,0.0
603204.59901257406,4067374.0504322448,-17500.0,992.61673545346662,2050.6116196525741,4192.0803890189218,980.44610582296241,2088.60930834587,750.39095758167537,3204.9570121231895,-843.09848819767694,3830.4183296297483,-3830.4183296297483,843.09848819767694,6297.2968678766592,0.0
608204.59901257406,4067374.0504322448,-17500.0,574.35536820580353,1703.5813770135237,5120.0556449316628,817.30493775415653,2471.7619497356222,866.64790131579718,3548.0153437755721,-1436.8161407884725,4142.4340479730754,-4142.4340479730754,1436.8161407884725,6961.286066434187,0.0
613204.59901257406,4067374.0504322448,-17500.0,183.91867317727298,1065.5757569077937,5817.4065741289714,540.69330684099987,2756.8806432483807,951.43233826293954,3782.6606838971652,-1909.3437615586854,4088.2369568077102,-4088.2369568077102,1909.3437615586854,7421.9983623588059,0.0
618204.59901257406,4067374.0504322448,-17500.0,-65.463034051913993,193.94510616546302,6096.8970230900723,174.17793234743132,2873.9026442464674,985.21454222058264,3862.4500760613041,-2118.6328923949136,3590.0995153238641,-3590.0995153238641,2118.6328923949136,7588.5280857997695,0.0
623204.59901257406,4067374.0504322448,-17500.0,-82.975778048614103,-764.5259833917163,5824.7822099768746,-227.01013420695119,2773.2676217410894,954.51715133483606,3763.9592202266472,-1964.2401245097108,2675.3253179249959,-2675.3253179249959,1964.2401245097108,7404.720084435884,0.0
628204.59901257406,4067374.0504322448,-17500.0,150.09647474960383,-1606.6045374660612,4989.5160535931482,-587.78529886151568,2449.6787369176536,857.97590817186949,3505.7015073343782,-1444.5041926369372,1496.5591653201959,-1496.5591653201959,1444.5041926369372,6875.9098595898022,0.0
633204.59901257406,4067374.0504322448,-17500.0,558.48601962088446,-2146.54058069036,3728.8016849510427,-838.45997106536311,1951.6279239257467,708.71864872525248,3137.4854751017238,-675.96556594740593,291.53236696727163,-291.53236696727163,675.96556594740593,6079.1196588338853,0.0
638204.59901257406,4067374.0504322448,-17500.0,1001.9965722594336,-2291.6973637577448,2286.3312468103622,-940.82177828887632,1367.3061703899573,530.8619283777349,2715.0283440134108,148.5947543722142,-706.28088957380839,706.28088957380839,-148.5947543722142,5147.448274229544,0.0
643204.59901257406,4067374.0504322448,-17500.0,1340.3494139932061,-2071.215438017593,918.72951745951013,-899.32352871652756,793.10614403088664,351.53742013845823,2300.1028128289272,841.57835729769556,-1353.2932691300887,1353.2932691300887,-841.57835729769556,4233.4159201357797,0.0
648204.59901257406,4067374.0504322448,-17500.0,1490.0634216485382,-1603.6946326582095,-190.1504000039599,-752.06042172910156,303.02190467818656,192.7646768899381,1944.7209478365826,1288.8341260558825,-1627.3589637906882,1627.3589637906882,-1288.8341260558825,3466.1396567733955,0.0
653204.59901257406,4067374.0504322448,-17500.0,1441.4385067922831,-1034.2753519143494,-963.8125675667734,-550.28195386867321,-65.944040692520204,67.013180865288547,1674.3743137876195,1468.8726556464203,-1599.7456340709145,1599.7456340709145,-1468.8726556464203,2915.3203532278421,0.0
658204.59901257406,4067374.0504322448,-17500.0,1238.6783185610398,-482.43412724919278,-1416.3008570322952,-339.72755256368606,-310.67541542611804,-22.713711518878082,1484.724628482998,1428.4301166138955,-1380.8197626824974,1380.8197626824974,-1428.4301166138955,2573.9240153565524,0.0
663204.59901257406,4067374.0504322448,-17500.0,947.03362534435018,-19.956197245922098,-1612.1210341554506,-151.14781036162069,-449.38817335400864,-79.996111206997981,1352.5693782111423,1243.0045331391652,-1074.644880522515,1074.644880522515,-1243.0045331391652,2377.2495951137066,0.0
668204.59901257406,4067374.0504322448,-17500.0,627.0180923826108,325.87380547868406,-1629.483831413776,0.4353245510717173,-508.61600444765963,-111.56032947776248,1252.1940132178865,985.71286735987383,-756.71027957851197,756.71027957851197,-985.71286735987383,2250.632774862861,0.0
673204.59901257406,4067374.0504322448,-17500.0,322.17177818258494,557.85623741714755,-1538.0941199424592,111.8049829317314,-514.34039918128724,-124.66140886089508,1165.4511190845076,711.92193496340394,-470.97782172476866,470.97782172476866,-711.92193496340394,2143.3083107554867,0.0
678204.59901257406,4067374.0504322448,-17500.0,57.475908537672872,694.05543691803791,-1390.5695049023357,186.66589481028799,-487.74540179779751,-125.62903113958437,1083.0853902875431,456.35612459533252,-236.63071614145392,236.63071614145392,-456.35612459533252,2031.8899376118102,0.0
683204.59901257406,4067374.0504322448,-17500.0,-156.89909109417272,757.21152497171897,-1222.2301099217361,231.72496027379142,-444.20543988018977,-119.34052425639253,1001.9430626055382,236.62402402324,-57.009783909282149,57.009783909282149,-236.62402402324,1910.3679757165103,0.0
688204.59901257406,4067374.0504322448,-17500.0,-320.5289594106294,768.80926210505856,-1054.4645300208847,254.21207514471331,-393.92619299518094,-109.23770127064914,921.96865897703344,58.553675397893571,72.944349948332089,-72.944349948332089,-58.553675397893571,1780.7266792543014,0.0
693204.59901257406,4067374.0504322448,-17500.0,-438.36166839942734,746.56223079842403,-898.79990677386195,260.60939533938688,-343.14964082268034,-97.580755863331021,844.24803096592984,-79.013239619737732,161.69029556987783,-161.69029556987783,79.013239619737732,1647.4573915333544,0.0
698204.59901257406,4067374.0504322448,-17500.0,-517.63604261393266,703.8962948606071,-760.395278731281,256.175613151542,-295.350969530415,-85.754600055113613,770.01373397895031,-180.73196365528341,218.21313223556413,-218.21313223556413,180.73196365528341,1515.0185602558299,0.0
703204.59901257406,4067374.0504322448,-17500.0,-566.00001045385841,650.38486317956847,-640.61155229137159,244.9072673426416,-252.20502365245545,-74.54093464221225,700.25472274124741,-252.53573951759148,250.62376754621977,-250.62376754621977,252.53573951759148,1386.9137198063183,0.0
708204.59901257406,4067374.0504322448,-17500.0,-590.51397454838786,592.51427424576707,-538.73496314400745,229.69865092418718,-214.2868241881167,-64.329052795893645,635.71777883363131,-300.3806471212925,265.64034383225106,-265.64034383225106,300.3806471212925,1265.5302201699822,0.0
713204.59901257406,4067374.0504322448,-17500.0,-597.22355934998177,534.46338960999992,-453.05463215982996,212.56306921066118,-181.54382688670665,-55.266080211573502,577.84165543710935,-329.62894860220234,268.53588285787049,-268.53588285787049,329.62894860220234,1152.2786830147322,0.0
543204.59901257406,4072374.0504322448,-17500.0,402.34571385447595,-189.4351325600629,-395.68590647605134,64.122069089721435,-98.871902296118535,0.36852113076629966,457.14874550166326,444.86943192765472,-438.48242978889169,438.48242978889169,-444.86943192765472,791.81342931294648,0.0
548204.59901257406,4072374.0504322448,-17500.0,544.04941846826807,-139.34641937836184,-424.9187024589047,105.45171251555776,-94.304313984800956,8.0199197069740489,523.00722519435305,555.219022367663,-437.85465510305954,437.85465510305954,-555.219022367663,908.3632106408146,0.0
553204.59901257406,4072374.0504322448,-17500.0,713.24070172219831,-61.330648530215981,-442.7070649471076,160.52998207928513,-80.572601539399741,19.851173603687393,605.48563235421148,679.76918026089152,-412.96096371331646,412.96096371331646,-679.76918026089152,1059.9773599727066,0.0
558204.59901257406,4072374.0504322448,-17500.0,910.68511595984398,53.317174197623828,-439.41713441436502,232.65294705196226,-52.724924626694317,37.64176226398709,709.96862314155942,815.15045562779278,-351.56798731052277,351.56798731052277,-815.15045562779278,1259.17952847829,0.0
563204.59901257406,4072374.0504322448,-17500.0,1134.2913591648073,214.36859550917666,-400.76081665691061,325.22781662640057,-3.8354616690817314,63.783795186281949,843.18344318652044,954.23478312830059,-237.51495916099805,237.51495916099805,-954.23478312830059,1521.2862572029262,0.0
568204.59901257406,4072374.0504322448,-17500.0,1377.3424722666964,431.59523010631671,-306.37971033057534,441.21595290449307,75.464909841380361,101.39121317708558,1013.1338958967146,1084.4385271911012,-50.483154208361839,50.483154208361839,-1084.4385271911012,1864.0137612143117,0.0
573204.59901257406,4072374.0504322448,-17500.0,1626.3118280045485,712.60286698345271,-128.60147251447188,582.13046292647971,197.30552654969978,154.33667262249179,1228.7656147389346,1185.8643051331162,233.32775086484122,-233.32775086484122,-1185.8643051331162,2306.5271189189025,0.0
578204.59901257406,4072374.0504322448,-17500.0,1858.6068082755376,1059.0592997535005,167.94675001006848,746.42430831796594,376.43979437714029,227.1160052472882,1499.2651814323929,1229.8050642818935,638.7719490982463,-638.7719490982463,-1229.8050642818935,2867.6097430737918,0.0
583204.59901257406,4072374.0504322448,-17500.0,2041.0728602636636,1460.8978574059267,624.62791441138984,927.17085708100956,629.14698555326152,324.38197313140739,1833.0257126583897,1178.6750656139861,1186.4137195569019,-1186.4137195569019,-1178.6750656139861,3562.4189237366786,0.0
588204.59901257406,4072374.0504322448,-17500.0,2130.8369727392924,1888.5742433611492,1283.0425868189948,1109.1758074461027,970.42689006016064,449.93491254041902,2237.1410618113241,989.1811621388531,1882.9815293049148,-1882.9815293049148,-989.1811621388531,4397.1881591817728,0.0
593204.59901257406,4072374.0504322448,-17500.0,2080.9033974844492,2284.7309327098801,2172.7436307621401,1266.1872771719056,1408.6182578653079,604.95804440603774,2717.89974380187,621.24556134186082,2706.9112543755937,-2706.9112543755937,-621.24556134186082,5361.4078035240582,0.0
598204.59901257406,4072374.0504322448,-17500.0,1853.2755561605941,2559.0656270724267,3290.3197176555022,1359.7904390594333,1936.8849294434544,785.44213503188769,3262.2002801921058,55.13259327307037,3590.3803971901725,-3590.3803971901725,-55.13259327307037,6417.7876543110115,0.0
603204.59901257406,4072374.0504322448,-17500.0,1440.8641591453534,2593.6922085017263,4570.7028933606398,1342.722406865694,2522.3379406340478,979.19514328966261,3821.5509999388314,-683.15478051521927,4403.9252953915957,-4403.9252953915957,683.15478051521927,7492.0606386974068,0.0
608204.59901257406,4072374.0504322448,-17500.0,893.92809621757408,2268.885243202079,5859.1160215094442,1169.9001601603136,3096.4772292110724,1163.6568958238579,4328.6500337273783,-1494.9604810905989,4956.9485169088675,-4956.9485169088675,1494.9604810905989,8467.6221082220291,0.0
613204.59901257406,4072374.0504322448,-17500.0,336.33637433106225,1515.4320037911716,6904.3537099961222,818.55948065385701,3554.807754290297,1306.6937047388521,4702.1389649249631,-2198.8524404418231,5033.085767609261,-5033.085767609261,2198.8524404418231,9193.3028426513083,0.0
618204.59901257406,4072374.0504322448,-17500.0,-52.970527718525169,382.23972622177348,7403.0576505033541,312.41405164317962,3775.7622021114239,1372.7326518645507,4861.0468007480031,-2564.5419189084396,4472.0175509805731,-4472.0175509805731,2564.5419189084396,9512.8950658849662,0.0
623204.59901257406,4072374.0504322448,-17500.0,-110.50865839720176,-922.39167363785361,7110.2640184515913,-265.08377197826104,3662.9101468889694,1334.6177725389334,4755.5290884481901,-2405.3845157028354,3275.9031844059127,-3275.9031844059127,2405.3845157028354,9317.0262774586681,0.0
628204.59901257406,4072374.0504322448,-17500.0,212.4498126511071,-2072.3332951911611,5978.1756689694848,-787.02268207360612,3195.8473260514543,1186.9921687923538,4403.4455770912791,-1695.0697188670911,1670.2281071007587,-1670.2281071007587,1695.0697188670911,8599.8031229156513,0.0
633204.59901257406,4072374.0504322448,-17500.0,795.20422821515535,-2760.0634461206887,4225.476722507522,-1131.9554577933229,2455.777878310083,952.80099989268922,3886.3774587929393,-620.5238138327004,42.720325047992333,-42.720325047992333,620.5238138327004,7486.0778365161214,0.0
638204.59901257406,4072374.0504322448,-17500.0,1400.6667120144878,-2847.5206693937293,2258.5281375635682,-1238.3867631643461,1598.7197900349527,676.46221693877385,3303.7717980558709,495.64331121995349,-1229.8577496422786,1229.8577496422786,-495.64331121995349,6202.8467328502857,0.0
643204.59901257406,4072374.0504322448,-17500.0,1805.775005003555,-2415.6692601025165,485.76003727013733,-1125.7972921024948,789.16475621722725,406.60173782265133,2757.1782255136463,1357.7331447948791,-1946.6078568582284,1946.6078568582284,-1357.7331447948791,5003.0162182624927,0.0
648204.59901257406,4072374.0504322448,-17500.0,1905.0317622842056,-1684.9100983858586,-839.16619967391398,-870.5417011389319,139.94974800911797,179.35036031610323,2320.2053440038048,1819.8640551536419,-2123.836679052436,2123.836679052436,-1819.8640551536419,4077.0135938381131,0.0
653204.59901257406,4072374.0504322448,-17500.0,1722.1542308766582,-888.28665179733741,-1655.3751342693122,-561.69091070932802,-308.03464087665395,11.179741570708872,2012.6873075155324,1897.374282449777,-1917.1274785956837,1917.1274785956837,-1897.374282449777,3486.3415379989724,0.0
658204.59901257406,4072374.0504322448,-17500.0,1354.7564420941605,-187.77558325798924,-2036.5615054844509,-268.01380972091914,-569.88458720193296,-98.398032139282961,1807.2024807866248,1699.8251323415475,-1512.9020435932043,1512.9020435932043,-1699.8251323415475,3159.139921288609,0.0
663204.59901257406,4072374.0504322448,-17500.0,911.53557057756598,342.92850472935123,-2109.3177280673658,-27.256685824424821,-688.09316388572734,-159.62438536248763,1659.9304394536953,1355.8159107043186,-1058.649125091207,1058.649125091207,-1355.8159107043186,2968.5967193707074,0.0
668204.59901257406,4072374.0504322448,-17500.0,475.79300880750577,695.7545584477225,-1995.8396480495346,148.90315274196092,-709.59891721228962,-185.79673372737255,1536.9000258633275,968.5708171648663,-642.92045211592074,642.92045211592074,-968.5708171648663,2817.9413936767951,0.0
673204.59901257406,4072374.0504322448,-17500.0,96.24611876714269,897.2212468283949,-1789.2602045531601,264.71775174362557,-673.78458288467675,-189.15706677434886,1420.7249997346096,603.29936456835344,-304.75067929998772,304.75067929998772,-603.29936456835344,2661.8904779326604,0.0
678204.59901257406,4072374.0504322448,-17500.0,-207.12833648651119,985.03568806966837,-1550.6339103965238,331.49038382172898,-608.99478864095113,-179.21618699809872,1305.8463294269393,292.33223247833536,-51.580130107192346,51.580130107192346,-292.33223247833536,2489.2677528584231,0.0
683204.59901257406,4072374.0504322448,-17500.0,-433.00857213493185,995.15717541092476,-1315.2569378746466,361.92847605013066,-533.50859493698601,-162.58598153017473,1192.4611976193703,45.705478344746439,125.24228430125336,-125.24228430125336,-45.705478344746439,2303.8999075997872,0.0
688204.59901257406,4072374.0504322448,-17500.0,-589.88653216149237,956.61122945022851,-1100.8091634636858,367.34417896804206,-458.0152627974191,-143.47903501041844,1082.6480069300251,-139.16945222147984,240.31785201541618,-240.31785201541618,139.16945222147984,2113.7349869434943,0.0
693204.59901257406,4072374.0504322448,-17500.0,-690.04226278523959,890.63595163714024,-914.17474648934433,356.68603362438427,-388.09114062997941,-124.36527117214246,978.54194480175215,-270.6980752945318,308.71118975148283,-308.71118975148283,270.6980752945318,1926.1953673749269,0.0
698204.59901257406,4072374.0504322448,-17500.0,-746.07791826529444,811.71933980265885,-756.23056949197723,336.52302318479491,-326.1416941903866,-106.55352848589362,881.72713417209047,-359.0159343488254,343.52759889480905,-343.52759889480905,359.0159343488254,1746.7400203886828,0.0
703204.59901257406,4072374.0504322448,-17500.0,-769.24352532160606,729.17103198429538,-624.8718602109509,311.41943236853041,-272.74788465322803,-90.629754786520664,793.34942990726347,-413.8586566978787,355.19681935053666,-355.19681935053666,413.8586566978787,1578.7903037456465,0.0
708204.59901257406,4072374.0504322448,-17500.0,-768.83723192422383,648.61001814009796,-516.77761433904698,284.40085474978446,-227.52781680115501,-76.757480846605858,714.93587556023954,-443.64213217689428,351.57138636302568,-351.57138636302568,443.64213217689428,1424.1159373348057,0.0
713204.59901257406,4072374.0504322448,-17500.0,-752.17450333116597,573.15922852107633,-428.36576074432111,257.37954833060223,-189.65555058415106,-64.871106930625814,645.74708509702316,-455.21204719812033,338.33825937760946,-338.33825937760946,455.21204719812033,1283.2996902246248,0.0
718204.59901257406,4072374.0504322448,-17500.0,-724.81342501253266,504.32491552491678,-356.26356675546231,231.49549146904187,-158.15601784676045,-54.794129594965362,583.35734354062754,-453.92073132246026,319.49267018932107,-319.49267018932107,453.92073132246026,1156.140417427775,0.0
538204.59901257406,4077374.0504322448,-17500.0,172.9655309208585,-319.24569606279391,-397.09660907789794,-4.0954475395086245,-126.2143471971744,-13.602042532270165,443.98480025692481,286.51142142414761,-505.7532398083452,505.7532398083452,-286.51142142414761,779.1130460323526,0.0
543204.59901257406,4077374.0504322448,-17500.0,288.47127815551397,-310.07110903488876,-448.44445990365568,22.531883139588007,-135.21368958288591,-10.582705469184891,499.59800449664033,388.23182304403434,-545.95611025527433,545.95611025527433,-388.23182304403434,870.00233554769261,0.0
548204.59901257406,4077374.0504322448,-17500.0,434.76178537560759,-282.381878889566,-500.41162960874033,60.854588369153845,-140.23832514622069,-4.7934821830440395,567.04856807366309,511.39159592042643,-576.71283788731239,576.71283788731239,-511.39159592042643,982.86648715207264,0.0
553204.59901257406,4077374.0504322448,-17500.0,616.92555365363592,-227.87947929651537,-548.11901622956213,114.74030320023657,-137.89831540762069,5.2385306102730329,650.54601333860967,657.44235482165413,-589.48434560036048,589.48434560036048,-657.44235482165413,1127.4654044691877,0.0
558204.59901257406,4077374.0504322448,-17500.0,839.21537259618503,-135.79042953458205,-583.18095389421376,188.92665140024249,-122.99353627557312,21.644161156651474,755.98523121109974,825.84261484453657,-571.65194751895217,571.65194751895217,-825.84261484453657,1317.7643562399105,0.0
563204.59901257406,4077374.0504322448,-17500.0,1103.6453862656022,7.2216687916118225,-591.96792800876835,288.90825727563498,-87.768724177122138,47.443726628826447,891.37295030609175,1012.431204052713,-505.24440518286963,505.24440518286963,-1012.431204052713,1572.7133586330253,0.0
568204.59901257406,4077374.0504322448,-17500.0,1407.7951802210048,216.52276169974851,-553.35500649829453,420.50201586662774,-21.012245265304575,86.805057198157229,1067.1290907154957,1207.0918381703334,-365.74361084695852,365.74361084695852,-1207.0918381703334,1916.4815762150367,0.0
573204.59901257406,4077374.0504322448,-17500.0,1741.6715454321632,507.76322249103407,-436.12222799958244,588.84287497476828,92.881373938872457,145.27110368201741,1296.0914004267995,1390.7013714674545,-121.50921387897097,121.50921387897097,-1390.7013714674545,2377.8579144924524,0.0
578204.59901257406,4077374.0504322448,-17500.0,2083.7190706726851,893.05544613437019,-196.59397622548451,796.47163731402134,274.56940626486289,229.83039574615745,1593.0345412787592,1531.6950302280957,265.14272011401783,-265.14272011401783,-1531.6950302280957,2988.5104402127922,0.0
583204.59901257406,4077374.0504322448,-17500.0,2396.6486740193341,1374.004384625651,222.10968385143701,1040.1408390939191,549.48137874004613,348.59192611988578,1973.6051872139628,1583.2889570644284,833.47401481925453,-833.47401481925453,-1583.2889570644284,3779.5117950740409,0.0
588204.59901257406,4077374.0504322448,-17500.0,2624.8405688755629,1930.6815205921923,886.58472031934343,1306.113732594898,945.43511931673606,509.67758988940778,2453.1837209525193,1483.6112537381362,1613.9873906440587,-1613.9873906440587,-1483.6112537381362,4775.0066751409931,0.0
593204.59901257406,4077374.0504322448,-17500.0,2696.810755790711,2506.7629160147612,1861.1400410753081,1564.3260461057607,1486.3866329666409,718.81746732855652,3047.4197734412642,1162.7377763464788,2609.4269817371496,-2609.4269817371496,-1162.7377763464788,5981.5396414672114,0.0
598204.59901257406,4077374.0504322448,-17500.0,2538.2462934798186,2994.1837707946793,3181.6742063453657,1763.1791166129465,2180.2633727680295,975.18438706199811,3759.0073315236323,562.31551028994659,3765.7522341972162,-3765.7522341972162,-562.31551028994659,7371.9289156927825,0.0
603204.59901257406,4077374.0504322448,-17500.0,2101.7655617683909,3226.9975708055435,4811.0852213800808,1829.2198378714852,2999.8517159004787,1265.5509716262425,4538.3878092442192,-326.98769057571099,4937.3779406037493,-4937.3779406037493,326.98769057571099,8864.6064239404786,0.0
608204.59901257406,4077374.0504322448,-17500.0,1414.4688292316114,3003.2780601016157,6580.8581107008813,1678.9545404843388,3859.9428953541528,1558.3108392065083,5292.0863055159334,-1412.4728457661276,5864.1479759487274,-5864.1479759487274,1412.4728457661276,10304.479838645035,0.0
613204.59901257406,4077374.0504322448,-17500.0,626.54108066562367,2158.4776283677102,8146.9044565880395,1250.3642830352117,4603.1553740154841,1801.3239859802402,5893.2757102912183,-2454.4854468540748,6197.2010079635402,-6197.2010079635402,2454.4854468540748,11460.175110969813,0.0
618204.59901257406,4077374.0504322448,-17500.0,13.702199033473315,693.00493419846634,9021.7017492635532,552.42743702255234,5018.1974599692812,1929.6364961519696,6199.2211447968939,-3085.5026955384101,5618.4204047441008,-5618.4204047441008,3085.5026955384101,12060.652462401402,0.0
623204.59901257406,4077374.0504322448,-17500.0,-126.1838104259661,-1109.9607371984412,8748.8181801598312,-292.98634855099181,4912.6708755611471,1887.2791538993679,6103.7646808466807,-2954.4572407741871,4049.1921867445217,-4049.1921867445217,2954.4572407741871,11887.252522584506,0.0
628204.59901257406,4077374.0504322448,-17500.0,327.1773273948715,-2714.3076404887229,7187.3277913463671,-1065.6972882528169,4224.6089266030604,1657.4444632928457,5612.7797608299743,-1967.4558440542417,1818.6582434630384,-1818.6582434630384,1967.4558440542417,10897.565513077292,0.0
633204.59901257406,4077374.0504322448,-17500.0,1175.6789848711883,-3587.9749492726514,4694.0755731021891,-1544.1750434661649,3093.8277441779715,1281.054479945705,4865.0812895519721,-432.75426677189898,-416.16974707684244,416.16974707684244,432.75426677189898,9301.0159929459332,0.0
638204.59901257406,4077374.0504322448,-17500.0,2001.4654787048514,-3523.4148358352732,1976.4398037704943,-1627.151455162737,1809.8693090275606,843.4018441386313,4046.9801376904552,1086.8553184393047,-2024.7644135938287,2024.7644135938287,-1086.8553184393047,7505.055561392287,0.0
643204.59901257406,4077374.0504322448,-17500.0,2445.5041470970605,-2724.4511940324751,-301.60442152141837,-1374.617366341301,662.37562017337086,434.30743413972652,3329.4354859211517,2119.0055740841317,-2738.7208405253577,2738.7208405253577,-2119.0055740841317,5943.0116949894518,0.0
648204.59901257406,4077374.0504322448,-17500.0,2398.0209677938719,-1603.6555195415478,-1812.4438577657477,-941.38122141356075,-181.37017951188173,112.37805399064135,2807.7476935177738,2504.8889353518425,-2685.4444003253284,2685.4444003253284,-2504.8889353518425,4878.6240681715381,0.0
653204.59901257406,4077374.0504322448,-17500.0,1969.9941263043443,-524.55491525341699,-2571.1227066992678,-479.97118837847,-694.77066757646844,-104.69251667879236,2470.9611675964225,2360.0405950434915,-2181.3876575160584,2181.3876575160584,-2360.0405950434915,4297.6018619512388,0.0
658204.59901257406,4077374.0504322448,-17500.0,1354.2702281892309,316.5623785204175,-2772.5626165580584,-86.624200335994487,-938.16493709323834,-228.49238513056443,2246.9548035380394,1907.7827466796418,-1523.846418446529,1523.846418446529,-1907.7827466796418,3995.9600727272382,0.0
663204.59901257406,4077374.0504322448,-17500.0,716.51658037903258,872.8473451548839,-2638.5111387416437,201.72484502339989,-998.04755354365454,-283.01001877110178,2068.9862233793219,1348.6629348266108,-901.55382095303082,901.55382095303082,-1348.6629348266108,3781.2415861544669,0.0
668204.59901257406,4077374.0504322448,-17500.0,156.67047578155427,1180.9813273700754,-2342.4534229909318,386.9405098504642,-951.10959069455703,-292.63151018983416,1902.1046659794345,811.92646855961516,-398.85493498964303,398.85493498964303,-811.92646855961516,3559.74425021243,0.0
673204.59901257406,4077374.0504322448,-17500.0,-284.16648090253915,1305.845810986581,-1995.2680382518388,488.45047104763415,-852.29985143645183,-276.70427840459286,1735.883730570062,360.12600316995184,-32.911637805030466,32.911637805030466,-360.12600316995184,3309.2883456770842,0.0
678204.59901257406,4077374.0504322448,-17500.0,-602.59971984394156,1310.2015830492239,-1657.5164259153237,529.50908126405079,-735.89757992056366,-248.51199594911134,1571.2832493199385,11.228189901285177,211.78447611510467,-211.78447611510467,-11.228189901285177,3037.6669236124558,0.0
683204.59901257406,4077374.0504322448,-17500.0,-813.96461886917132,1243.3478271828253,-1356.8185848047424,530.6426821616659,-620.90257400538837,-216.24736360956194,1412.4506262216762,-240.64774436062805,361.53396876627585,-361.53396876627585,240.64774436062805,2759.6151858163757,0.0
688204.59901257406,4077374.0504322448,-17500.0,-939.93729852327476,1139.7871354272443,-1101.9159958952905,507.58993268102699,-516.4627413340063,-184.4797752222332,1263.2182401609198,-411.25279411113047,442.46130436896453,-442.46130436896453,411.25279411113047,2487.9327250854471,0.0
693204.59901257406,4077374.0504322448,-17500.0,-1001.9402523254946,1021.7861155324762,-891.95678971301902,471.42414261203555,-425.9677161942322,-155.45556814803953,1126.1732982095591,-518.41980477451716,476.27577909119969,-476.27577909119969,518.41980477451716,2231.3093949736053,0.0
698204.59901257406,4077374.0504322448,-17500.0,-1018.319835125893,902.7170464105518,-721.92434142295417,429.45536382917362,-349.73013128867655,-130.0456526124282,1002.9623287624578,-578.41675848876901,479.4319603234195,-479.4319603234195,578.41675848876901,1994.6238411131108,0.0
703204.59901257406,4077374.0504322448,-17500.0,-1003.604520004193,789.97740522554102,-585.53974733235634,386.24412774671742,-286.59867039897233,-108.36844582177811,894.6709591010715,-604.65193021054222,463.70880056667977,-463.70880056667977,604.65193021054222,1779.9219059853374,0.0
708204.59901257406,4077374.0504322448,-17500.0,-968.7366677236439,687.1713219613863,-476.66261431823153,344.46231036872723,-234.85982822011536,-90.169471362596568,799.47849240737958,-607.54456785942318,437.20082257721845,-437.20082257721845,607.54456785942318,1587.3722357282936,0.0
713204.59901257406,4077374.0504322448,-17500.0,-921.66593505365609,595.6127875499526,-389.87301139386074,305.54247381338638,-192.70765434002914,-75.039412970325756,714.88757035533695,-594.88465065473395,405.28658443574125,-405.28658443574125,594.88465065473395,1416.0124633059293,0.0
718204.59901257406,4077374.0504322448,-17500.0,-868.00164469905701,515.30720542344977,-320.63561295986011,270.13520412910555,-158.46514474069022,-62.531762465414616,639.72537140418967,-572.33580306824751,371.42514858564817,-371.42514858564817,572.33580306824751,1264.271209223079,0.0
538204.59901257406,4082374.0504322448,-17500.0,21.259496734693116,-421.23923771616541,-417.47305267998416,-52.649178465382676,-154.22156642617378,-25.07317611648152,495.64723386205969,189.60412878028345,-574.04432997166793,574.04432997166793,-189.60412878028345,886.73642285371295,0.0
543204.59901257406,4082374.0504322448,-17500.0,126.38514629429098,-437.00921425741541,-483.69866259895463,-33.306476824143928,-172.19250340287343,-24.694000853592581,555.94967613020458,290.65549054628741,-640.82866545331433,640.82866545331433,-290.65549054628741,983.90351150796573,0.0
548204.59901257406,4082374.0504322448,-17500.0,266.44948245395665,-438.81801105410989,-556.9538248858546,-2.3298156926796549,-188.73266735862191,-21.997395140157629,627.35329239305076,418.72772554512949,-706.07257426992055,706.07257426992055,-418.72772554512949,1099.2027012857729,0.0
553204.59901257406,4082374.0504322448,-17500.0,449.62195032441252,-418.11958681179397,-634.49765825805684,44.977169634374512,-200.90362333261629,-15.432040092846741,713.5916714081618,578.24453912114723,-762.73883608028223,762.73883608028223,-578.24453912114723,1240.5821178993451,0.0
558204.59901257406,4082374.0504322448,-17500.0,684.46350695793785,-362.94501939261971,-710.410811089086,114.78118906949921,-203.784326514171,-2.6224251212952394,820.24868504125402,772.57693160460724,-799.33704953672179,799.33704953672179,-772.57693160460724,1420.795024222871,0.0
563204.59901257406,4082374.0504322448,-17500.0,978.69132641788826,-257.15299481774986,-773.5410071911748,214.88547402919824,-189.43873255294037,19.997940975299535,955.59432322418627,1002.3810988871498,-797.97179677057716,797.97179677057716,-1002.3810988871498,1659.5568684133902,0.0
568204.59901257406,4082374.0504322448,-17500.0,1336.8907189510523,-80.060884377479752,-804.50822467844034,354.62092308086062,-145.50231225125711,57.657320321955197,1131.5375800408569,1262.8733948371687,-731.99598984335194,731.99598984335194,-1262.8733948371687,1985.6204262041642,0.0
573204.59901257406,4082374.0504322448,-17500.0,1756.7233566546158,192.87516070612878,-771.65180927526285,544.13471950815097,-53.400727517530733,117.7854239598104,1364.465724724181,1539.7230397132253,-563.66369546347141,563.66369546347141,-1539.7230397132253,2437.8994512210611,0.0
578204.59901257406,4082374.0504322448,-17500.0,2223.2669508843537,587.16623482956788,-626.16107684552333,792.54348330332721,113.58054272338482,210.49656263745757,1675.602634859948,1803.4669252933618,-242.78854995210429,242.78854995210429,-1803.4669252933618,3064.7365405803157,0.0
583204.59901257406,4082374.0504322448,-17500.0,2701.5832141739379,1122.3881529532377,-297.49755210894455,1104.187051605946,391.71232826568996,348.71573751864145,2090.5514801480008,2003.0329299832465,291.52215638301914,-291.52215638301914,-2003.0329299832465,3920.6248848058362,0.0
588204.59901257406,4082374.0504322448,-17500.0,3128.825706340398,1798.9640080291829,308.08014412952582,1472.1058747637612,826.24265767130817,547.36041264707399,2638.2925577850915,2060.4678629324835,1102.4263759566118,-1102.4263759566118,-2060.4678629324835,5059.3521553901646,0.0
593204.59901257406,4082374.0504322448,-17500.0,3409.6323447045029,2576.5687895020442,1300.1938115998726,1868.2002720634691,1466.0465099185847,820.60808709809965,3351.8738066704818,1871.712486441668,2234.7485219230916,-2234.7485219230916,-1871.712486441668,6521.1888530956521,0.0
598204.59901257406,4082374.0504322448,-17500.0,3422.7045811303055,3344.614272455512,2778.4152530692008,2231.0355691923542,2349.1165584528912,1175.9824386128175,4261.2430752154214,1322.5186071554836,3675.799983366951,-3675.799983366951,-1322.5186071554836,8310.3711630423259,0.0
603204.59901257406,4082374.0504322448,-17500.0,3051.7940425180636,3893.1857532902486,4774.1438219188049,2456.0857059303498,3473.6536800471486,1604.2863773454417,5335.09591617553,333.17158675363589,5294.5299207891949,-5294.5299207891949,-333.17158675363589,10359.606570296688,0.0
608204.59901257406,4082374.0504322448,-17500.0,2256.0552487465611,3910.8121637107997,7150.2195351712808,2400.4728971519926,4752.7880925914296,2066.2835674509915,6457.0982338309932,-1055.6413240110614,6771.9788244026413,-6771.9788244026413,1055.6413240110614,12484.181223745276,0.0
613204.59901257406,4082374.0504322448,-17500.0,1176.491750167329,3062.5167483371506,9478.7398021823774,1922.8129104797879,5965.7322848760141,2481.6883022630386,7437.1471157655369,-2569.342700443442,7577.7063776651685,-7577.7063776651685,2569.342700443442,14345.498781037646,0.0
618204.59901257406,4082374.0504322448,-17500.0,211.19221902909675,1203.9893093015364,10999.322019943538,974.96574900281519,6750.5725959628089,2733.1955085441418,8023.7941937129854,-3646.8303416320668,7105.0648426130592,-7105.0648426130592,3646.8303416320668,15474.097158609826,0.0
623204.59901257406,4082374.0504322448,-17500.0,-96.857687208230274,-1323.3418341753402,10851.623447934946,-282.66113601453816,6713.7703357482187,2702.3054464296933,7988.3924010020519,-3624.8111514283919,5055.3887539742282,-5055.3887539742282,3624.8111514283919,15419.970745746361,0.0
628204.59901257406,4082374.0504322448,-17500.0,546.66147946249748,-3620.3624259753515,8655.9318097543437,-1459.1033384521188,5677.0699686801345,2338.192322785143,7287.7048571570695,-2229.2589644654026,1885.1800712975846,-1885.1800712975846,2229.2589644654026,14029.869221405002,0.0
633204.59901257406,4082374.0504322448,-17500.0,1810.1174447380804,-4714.981648276982,5010.7403451584814,-2125.8079524649715,3887.790228701308,1714.8157764040475,6165.7093718437854,17.001946738825154,-1240.1210704038176,1240.1210704038176,-17.001946738825154,11668.468915458161,0.0
638204.59901257406,4082374.0504322448,-17500.0,2918.9935739746224,-4296.8113848682096,1214.3784753571451,-2112.03986450723,1917.8629344591479,1005.9995055289694,4994.3723307576138,2080.9929139288956,-3218.3012565822405,3218.3012565822405,-2080.9929139288956,9116.4047997565231,0.0
643204.59901257406,4082374.0504322448,-17500.0,3296.6582417485311,-2867.2411533828181,-1637.097161719475,-1587.962231539,294.77928620580383,384.15366743647041,4067.1944353357203,3207.7824914550101,-3740.4790761369031,3740.4790761369031,-3207.7824914550101,7137.4934129264257,0.0
648204.59901257406,4082374.0504322448,-17500.0,2907.1243565029622,-1198.5693029809406,-3196.9629929339981,-870.8815518980615,-755.35444792832766,-60.041054079721334,3474.2148411064172,3314.8735293059258,-3222.2802381659571,3222.2802381659571,-3314.8735293059258,6020.6981553104879,0.0
653204.59901257406,4082374.0504322448,-17500.0,2062.5856917092888,181.74170657657913,-3701.1010057384624,-210.52334465130494,-1277.5614549384202,-321.21724599464397,3114.5581174614854,2753.4763960553955,-2267.5502516815923,2267.5502516815923,-2753.4763960553955,5503.7848526129474,0.0
658204.59901257406,4082374.0504322448,-17500.0,1104.7260932506365,1096.3774047614374,-3562.9171732118398,279.53658251444358,-1431.227394607841,-439.81363657789882,2850.7516086634992,1928.7655727041895,-1305.2439649628725,1305.2439649628725,-1928.7655727041895,5191.2353134284949,0.0
663204.59901257406,4082374.0504322448,-17500.0,251.160070159253,1586.0351678541065,-3126.3847821050854,586.64088862300707,-1374.0806445041719,-465.70499934178594,2606.2222310486745,1113.8728328716959,-531.30026069186692,531.30026069186692,-1113.8728328716959,4872.7527068478339,0.0
668204.59901257406,4082374.0504322448,-17500.0,-409.00541441409069,1767.5456105582739,-2605.3494827210493,744.8626204403771,-1219.2142642583515,-440.03321247060455,2359.6502406977311,437.34507250615673,12.966092892233036,-12.966092892233036,-437.34507250615673,4500.3673142464531,0.0
673204.59901257406,4082374.0504322448,-17500.0,-867.94199685572721,1756.159248912302,-2108.3698627872195,798.87051578483442,-1034.3679632317765,-390.77143132503056,2114.0988693619083,-67.543577307375926,357.2663297096787,-357.2663297096787,67.543577307375926,4090.8273223331257,0.0
678204.59901257406,4082374.0504322448,-17500.0,-1155.2222319218204,1639.0673390697605,-1679.0375713468754,787.5723251830841,-854.66521065670418,-334.57678057919054,1878.1824090095802,-414.77204298294157,551.46550676670665,-551.46550676670665,414.77204298294157,3672.8057037349745,0.0
683204.59901257406,4082374.0504322448,-17500.0,-1310.9001766684339,1473.8366440757577,-1326.9340648761131,739.61691179010688,-695.3743951136446,-280.23146955930366,1659.0027911379755,-635.17272736476878,642.59102906165356,-642.59102906165356,635.17272736476878,3269.1558900169143,0.0
688204.59901257406,4082374.0504322448,-17500.0,-1372.6006960762832,1295.0318110222165,-1046.3765369431746,674.10383774185402,-560.99175994668281,-231.68061746739298,1460.7766823940958,-761.11889186790916,667.49860037216956,-667.49860037216956,761.11889186790916,2893.8953895278114,0.0
693204.59901257406,4082374.0504322448,-17500.0,-1370.9104345265898,1121.6357425674344,-826.33390384022982,602.85386047566783,-450.78924896114307,-190.17109541242471,1285.4855506215351,-820.37020282974379,652.47743420322138,-652.47743420322138,820.37020282974379,2553.7888403290035,0.0
698204.59901257406,4082374.0504322448,-17500.0,-1328.8112429212326,962.91189040999541,-655.10878070603451,532.67889197987313,-361.88765969666224,-155.58493235293474,1132.9385616638281,-834.53922989608475,615.20611143176109,-615.20611143176109,834.53922989608475,2250.7012009422215,0.0
703204.59901257406,4082374.0504322448,-17500.0,-1262.7139744479862,822.43118795601754,-522.24556329327788,467.16221901483721,-290.82306064850786,-127.2035000964879,1000.1107654975879,-819.52780549841054,567.0609999588105,-567.0609999588105,819.52780549841054,1983.5581210781534,0.0
708204.59901257406,4082374.0504322448,-17500.0,-1183.9043328337975,700.6362974726112,-419.09653143951385,407.91090583525857,-234.27240290169755,-104.11550329542943,883.99517487027663,-786.60410076625203,515.07807210032934,-515.07807210032934,786.60410076625203,1749.7263301357918,0.0
713204.59901257406,4082374.0504322448,-17500.0,-1099.8899872681657,596.38589801735475,-338.7953248613502,355.37874206957537,-189.33651814858226,-85.416791910187428,782.54577776028373,-743.52625831021692,463.41783301650639,-463.41783301650639,743.52625831021692,1545.8869090017142,0.0
718204.59901257406,4082374.0504322448,-17500.0,-1015.4989885007737,507.84905661574976,-276.01372606463588,309.38661172755911,-153.6085005965825,-70.296958696393403,694.03716718042085,-695.50450896286475,414.39318892950769,-414.39318892950769,695.50450896286475,1368.5617608545811,0.0
723204.59901257406,4082374.0504322448,-17500.0,-933.70631756510124,432.99681938763689,-226.66892996255237,269.43789794027879,-125.14522619366868,-58.066694595123693,616.87615560500365,-645.94783177293903,369.15978725711147,-369.15978725711147,645.94783177293903,1214.4009747743617,0.0
533204.59901257406,4087374.0504322448,-17500.0,-226.80476951594639,-471.16393650435197,-353.88352612081889,-113.74617840035819,-154.81573828709708,-34.989691922646387,499.71059739316684,-10.734373363818577,-538.04135355351661,538.04135355351661,10.734373363818577,924.13329064806135,0.0
538204.59901257406,4087374.0504322448,-17500.0,-171.16078863623335,-517.20222562404683,-418.80775563145329,-112.32589050012376,-179.54803283367059,-38.832959564850036,559.31462281526012,55.793578209491784,-620.24310684721127,620.24310684721127,-55.793578209491784,1024.0451611193373,0.0
543204.59901257406,4087374.0504322448,-17500.0,-88.169927285945334,-561.10074131563169,-495.90052604356515,-104.31219643883782,-207.00282562536285,-42.112819878856826,627.89766537766752,146.41106586176386,-711.99551966504907,711.99551966504907,-146.41106586176386,1137.0312785624171,0.0
548204.59901257406,4087374.0504322448,-17500.0,31.116837121648846,-598.03937182815582,-586.24088741479568,-86.098321403149839,-236.28816502931301,-43.972691092499453,707.467339169144,267.69779081594862,-811.50606694086491,811.50606694086491,-267.69779081594862,1266.1359411340336,0.0
553204.59901257406,4087374.0504322448,-17500.0,197.76411090831408,-620.37061142649122,-689.80173178057373,-52.518522604430302,-265.38679239171694,-42.959987308447971,800.93857487890193,427.19698618688437,-914.44706165093487,914.44706165093487,-427.19698618688437,1416.4063154418684,0.0
558204.59901257406,4087374.0504322448,-17500.0,424.86919699110996,-616.40803024058664,-804.23028378818708,3.675609844721456,-290.35535935234333,-36.680012077000285,912.76092979780503,632.84772827698305,-1012.2905575699707,1012.2905575699707,-632.84772827698305,1596.6399489227199,0.0
563204.59901257406,4087374.0504322448,-17500.0,726.87450530204717,-568.94620656127051,-922.76169515445622,92.380781688481122,-304.06338257448783,-21.28132441773986,1049.9524559066051,891.65815817309215,-1089.844239419911,1089.844239419911,-891.65815817309215,1822.3384442351428,0.0
568204.59901257406,4087374.0504322448,-17500.0,1117.7503303160838,-453.7220329398325,-1030.8214984001365,226.5948062531811,-294.28350207591114,9.2770264761192678,1223.6767228458471,1207.0995126847984,-1121.8213508180661,1121.8213508180661,-1207.0995126847984,2120.1118984464956,0.0
573204.59901257406,4087374.0504322448,-17500.0,1607.2782509981448,-238.39727487379665,-1100.8060866963763,422.40914802166236,-240.95139987176586,64.200323835825657,1451.3607424129264,1574.5271462552316,-1068.495906896261,1068.495906896261,-1574.5271462552316,2532.9796843383747,0.0
578204.59901257406,4087374.0504322448,-17500.0,2194.4773693341572,116.67841015414703,-1084.6827119455656,697.86658213400597,-112.55223227690652,157.00899190953083,1759.0159054302326,1973.9010391893635,-871.09162179714451,871.09162179714451,-1973.9010391893635,3124.5611093529938,0.0
583204.59901257406,4087374.0504322448,-17500.0,2857.3292085783364,653.59796753989315,-904.74294539870186,1069.5255495130596,137.976545959053,306.5808570160404,2183.0400974098211,2359.4795505853467,-448.81152201815132,448.81152201815132,-2359.4795505853467,3979.1635922536161,0.0
588204.59901257406,4087374.0504322448,-17500.0,3538.8447996515756,1404.2123006609072,-444.62466363291259,1545.0048450746679,576.43141526953207,537.36169964866485,2771.1427612571729,2647.5238668284896,298.33754276595573,-298.33754276595573,-2647.5238668284896,5195.5740289712658,0.0
593204.59901257406,4087374.0504322448,-17500.0,4131.9356457222075,2364.6471388685795,453.62080607963742,2109.4195809427356,1286.2430060363045,877.2822820210323,3584.9744340096236,2706.167678391801,1473.3063561418458,-1473.3063561418458,-2706.167678391801,6872.99157594387,0.0
598204.59901257406,4087374.0504322448,-17500.0,4470.7558125312198,3452.0835851606239,1974.01369470859,2704.2698464236996,2356.3264929425163,1350.9636331252314,4701.8338708200408,2357.6733472841051,3140.2040767179788,-3140.2040767179788,-2357.6733472841051,9084.2831847141078,0.0
603204.59901257406,4087374.0504322448,-17500.0,4346.342500755256,4443.6232996574345,4269.1934894142132,3200.8519500956049,3846.2120576161178,1965.1228828505821,6146.1806087330433,1414.1463387063852,5240.7177501741789,-5240.7177501741789,-1414.1463387063852,11825.659194432274,0.0
608204.59901257406,4087374.0504322448,-17500.0,3581.3912005886241,4917.5616046473215,7323.4601899514018,3380.9090056938758,5712.8056687857561,2684.0798861440758,7805.3937334888824,-216.55448398678527,7458.2290845635844,-7458.2290845635844,216.55448398678527,14930.283591029023,0.0
613204.59901257406,4087374.0504322448,-17500.0,2207.6789777721533,4277.4186402004052,10707.440577770947,2961.511040588684,7693.1402457309205,3398.5501065125986,9420.3498359613804,-2319.2432490821739,9070.4857011622826,-9070.4857011622826,2319.2432490821739,17952.598551020648,0.0
618204.59901257406,4087374.0504322448,-17500.0,713.91229868007679,2034.1580240426188,13320.659260367856,1732.2955038840819,9197.9373888023292,3905.6015414861226,10559.714128970829,-4124.2076062012111,8990.0938776634139,-8990.0938776634139,4124.2076062012111,20102.294070028853,0.0
623204.59901257406,4087374.0504322448,-17500.0,62.762071742622929,-1544.3165049913744,13550.230526323056,-163.32592098076296,9408.4236387060228,3946.5220423850228,10724.723148004807,-4399.3582512591556,6369.130500768827,-6369.130500768827,4399.3582512591556,20430.452253973977,0.0
628204.59901257406,4087374.0504322448,-17500.0,981.890190271964,-4941.6035818482496,10396.93553068789,-2023.6073861503066,7806.5840905491086,3359.9283634865974,9704.1533619678594,-2391.1221714616686,1738.5516678372185,-1738.5516678372185,2391.1221714616686,18446.689974680932,0.0
633204.59901257406,4087374.0504322448,-17500.0,2912.1909129481592,-6256.9076611881828,4888.217755870055,-2950.0967510648979,4838.2501231511396,2278.1667474395413,7938.4695153216981,992.19376738793358,-2717.4606444433848,2717.4606444433848,-992.19376738793358,14810.179040877803,0.0
638204.59901257406,4087374.0504322448,-17500.0,4324.1646642789065,-5049.1176111018303,-432.3364348043666,-2649.4232531957582,1733.3848163896384,1092.5538557807731,6229.6409000812791,3731.0863870149783,-4970.8034369597835,4970.8034369597835,-3731.0863870149783,11146.722217843288,0.0
643204.59901257406,4087374.0504322448,-17500.0,4333.012830455622,-2565.9164605015676,-3767.2630116299015,-1605.6829359207732,-517.86806727971066,152.20925199965708,5077.8743798403093,4665.9068220845484,-4864.2203608729751,4864.2203608729751,-4665.9068220845484,8804.483061298788,0.0
648204.59901257406,4087374.0504322448,-17500.0,3236.74528034079,-217.37070572966726,-5015.3285442245924,-468.33914063130351,-1702.2812782663043,-425.45907163946396,4443.8105980575674,4093.3754190552872,-3514.1174951834046,3514.1174951834046,-4093.3754190552872,7796.2004734763232,0.0
653204.59901257406,4087374.0504322448,-17500.0,1754.6213769615049,1365.5058864477,-4935.4185630780194,401.8928802934754,-2091.956278666124,-695.09971003906287,4036.6615221802435,2849.1937356791982,-1966.577569153334,1966.577569153334,-2849.1937356791982,7319.5800251409255,0.0
658204.59901257406,4087374.0504322448,-17500.0,398.75597995377979,2179.2497532751572,-4265.9731180009694,931.57466497079997,-2035.4344202116226,-763.01263983978322,3668.86155686964,1560.0069396108397,-721.98337426328305,721.98337426328305,-1560.0069396108397,6853.4611959975064,0.0
663204.59901257406,4087374.0504322448,-17500.0,-624.99771008230562,2447.741475367282,-3452.8442974403556,1183.0372458868401,-1784.3210693062226,-721.61400925273881,3291.2233026333115,510.17365544254648,114.56045407760149,-114.56045407760149,-510.17365544254648,6281.503511125512,0.0
668204.59901257406,4087374.0504322448,-17500.0,-1301.0719287020108,2396.9961944762881,-2700.4026708703104,1248.0336768158745,-1480.879484303236,-632.76011258136066,2912.4046796624352,-237.76621272883327,606.07158865015435,-606.07158865015435,237.76621272883327,5641.6757319689541,0.0
673204.59901257406,4087374.0504322448,-17500.0,-1691.8250967254908,2188.4781928918901,-2076.4837807262497,1204.1205726239068,-1192.5178077039761,-531.76534193588952,2550.8989394353052,-719.64188133640221,853.36057390825465,-853.36057390825465,719.64188133640221,4992.4196161892314,0.0
678204.59901257406,4087374.0504322448,-17500.0,-1875.3038580251148,1920.4834274337879,-1586.2132302530733,1105.1858941163109,-944.70941672516665,-436.08382948321179,2220.027204171924,-999.00257743740315,944.5994025921317,-944.5994025921317,999.00257743740315,4375.5419862024664,0.0
683204.59901257406,4087374.0504322448,-17500.0,-1919.8076653732105,1646.5349733626729,-1211.4467254155734,984.69316952318582,-742.37057856857757,-352.75350233291562,1926.3171160304696,-1136.5262674767505,943.73117699069189,-943.73117699069189,1136.5262674767505,3813.5063142563008,0.0
688204.59901257406,4087374.0504322448,-17500.0,-1877.238738555355,1392.5341529493251,-928.79634714369342,861.66515169843854,-581.67560792421375,-283.38459701326423,1671.1628681899249,-1180.3943914220929,892.95357037915687,-892.95357037915687,1180.3943914220929,3314.8347321818856,0.0
693204.59901257406,4087374.0504322448,-17500.0,-1784.1104095548624,1168.7520027992155,-716.71192459069312,745.91552218619097,-455.94208178417654,-227.09030813032774,1451.9890017904581,-1165.5937271659759,818.47198770681689,-818.47198770681689,1165.5937271659759,2879.6620290072337,0.0
698204.59901257406,4087374.0504322448,-17500.0,-1664.8254385341297,977.24602494236103,-557.57748589837013,641.77971250984899,-358.27971942887768,-182.05184899018175,1264.0087327453855,-1116.2109266988023,735.76986220526089,-735.76986220526089,1116.2109266988023,2503.713956355024,0.0
703204.59901257406,4087374.0504322448,-17500.0,-1535.0381332366007,816.13518474868795,-437.78527503840809,550.5273566011715,-282.61739144818108,-146.28273682123481,1102.7309968283141,-1048.2227873870697,653.52178259260563,-653.52178259260563,1048.2227873870697,2180.7976426395107,0.0
708204.59901257406,4087374.0504322448,-17500.0,-1404.3816953979247,681.92723153908253,-347.12417104941613,471.82491241096523,-223.97349044896822,-117.9589322291267,964.42140866976581,-971.89616434404161,576.2350489783712,-576.2350489783712,971.89616434404161,1904.2110484573836,0.0
713204.59901257406,4087374.0504322448,-17500.0,-1278.4928167140774,570.72616758523782,-278.04706670562774,404.58909755280496,-178.41176923792179,-95.532546963279231,845.82598227630763,-893.62240069645827,505.95205223019281,-505.95205223019281,893.62240069645827,1667.4991727437264,0.0
718204.59901257406,4087374.0504322448,-17500.0,-1160.4209254028933,478.80752390859988,-225.01367320378918,347.45905984297769,-142.88504144126665,-77.743394368652275,744.06930950797619,-817.22292688654716,443.30634894917421,-443.30634894917421,817.22292688654716,1464.7985131781768,0.0
723204.59901257406,4087374.0504322448,-17500.0,-1051.5806692730359,402.85775882793752,-183.96422747560118,299.04505899754378,-115.06006947511916,-63.589127851661743,656.6366278387377,-744.84758411617872,388.16334370318441,-388.16334370318441,744.84758411617872,1290.9575099678714,0.0
528204.59901257406,4092374.0504322448,-17500.0,-433.86301217769733,-468.54630989286511,-277.82395489583467,-157.84237500013319,-142.19936524561811,-40.584380298146037,501.90734987789341,-189.19495565648501,-459.74234636446363,459.74234636446363,189.19495565648501,954.80940544768339,0.0
533204.59901257406,4092374.0504322448,-17500.0,-426.54350642751496,-530.0908109474085,-332.15282064770417,-171.01971710119935,-168.45276259544136,-47.258725499013849,563.51545338013557,-160.63425850544289,-540.54950549518855,540.54950549518855,160.63425850544289,1064.3432858674648,0.0
538204.59901257406,4092374.0504322448,-17500.0,-402.79984505502864,-597.80818077016579,-398.98957041311377,-182.48885376674679,-199.59350542041309,-54.713349683396906,634.14753686092502,-115.26498778591366,-635.96405115121524,635.96405115121524,115.26498778591366,1188.0216882527768,0.0
543204.59901257406,4092374.0504322448,-17500.0,-355.38401438713078,-670.42039571398686,-481.0975457133033,-190.20459715942167,-236.12846587412449,-62.721496579657988,715.250798571573,-46.914174667788814,-747.69066356285157,747.69066356285157,46.914174667788814,1327.5694800597537,0.0
548204.59901257406,4092374.0504322448,-17500.0,-274.4805770791308,-745.07243948183839,-581.48262301473596,-190.93810101884773,-278.20955118395841,-70.742665009233605,808.5782110767866,52.440923983636083,-876.72720657812715,876.72720657812715,-52.440923983636083,1485.0184872457307,0.0
553204.59901257406,4092374.0504322448,-17500.0,-147.05048409624459,-816.33857984722988,-703.00355847478556,-179.70582745839997,-325.20038720335305,-77.681944481318695,916.36622426861175,192.94678276101013,-1022.4590893437344,1022.4590893437344,-192.94678276101013,1663.0802529293237,0.0
558204.59901257406,4092374.0504322448,-17500.0,43.761681579233091,-874.74742360162725,-847.50615864094948,-148.98168056185133,-374.90053031484825,-81.492798895333664,1041.7045059457457,386.90236054983961,-1181.0919303680503,1181.0919303680503,-386.90236054983961,1866.0650495661851,0.0
563204.59901257406,4092374.0504322448,-17500.0,318.87167146277926,-904.70035840971298,-1014.0908327189994,-87.672597970758929,-422.20322634633141,-78.53764040742233,1189.295083000738,648.19082470226908,-1343.0570052294524,1343.0570052294524,-648.19082470226908,2101.9671379487868,0.0
568204.59901257406,4092374.0504322448,-17500.0,702.59450790165965,-881.75867203927157,-1195.8877098349969,20.081415623068267,-456.85374152316268,-62.591651422814643,1366.9509346741779,990.49136452862979,-1488.9282702840546,1488.9282702840546,-990.49136452862979,2386.8186259305717,0.0
573204.59901257406,4092374.0504322448,-17500.0,1220.0979185234264,-769.58757313738454,-1374.4216221430129,196.02497530029061,-459.86144948142532,-23.362050097797415,1588.3587969596258,1423.2618140909044,-1583.4068760486566,1583.4068760486566,-1423.2618140909044,2752.8227845256624,0.0
578204.59901257406,4092374.0504322448,-17500.0,1891.4601551374756,-517.57633093334755,-1510.4398008651892,468.16185519829725,-398.08078902795415,55.558713857973643,1877.6601916381132,1944.079460972504,-1567.3090250723576,1567.3090250723576,-1944.079460972504,3261.0568328724171,0.0
583204.59901257406,4092374.0504322448,-17500.0,2720.4004187429882,-61.548460144836319,-1530.3076914652747,869.0114063298912,-216.70730437947196,199.18840796134384,2275.9255135865956,2525.8049874904227,-1348.6682926339342,1348.6682926339342,-2525.8049874904227,4015.7049666108605,0.0
588204.59901257406,4092374.0504322448,-17500.0,3675.9583204445935,667.81802594374369,-1308.490998751668,1429.2899766574537,169.67187059434869,443.46448612001285,2848.7561106002604,3097.8380956713963,-796.65096874338565,796.65096874338565,-3097.8380956713963,5170.5384248873706,0.0
593204.59901257406,4092374.0504322448,-17500.0,4667.0753802261806,1721.495119488487,-650.32091366954512,2163.2680532114928,884.62821633737792,835.68388103895836,3696.4323892051179,3523.4256168818674,253.48906555907092,-253.48906555907092,-3523.4256168818674,6918.0026597973692,0.0
598204.59901257406,4092374.0504322448,-17500.0,5513.9018248650355,3083.4320723426672,713.57668361621199,3040.9905568673366,2088.6662136500208,1429.6956625157138,4972.151156947567,3580.4728396662322,1969.3444896097353,-1969.3444896097353,-3580.4728396662322,9458.9351571073385,0.0
603204.59901257406,4092374.0504322448,-17500.0,5927.9306179955101,4583.6817924514562,3095.7821686461989,3942.5127432794916,3952.8975967544329,2270.4151569083801,6823.6845726968832,2964.3685905082093,4437.5581137439503,-4437.5581137439503,-2964.3685905082093,12945.141644379626,0.0
608204.59901257406,4092374.0504322448,-17500.0,5539.1557644835893,5761.7090515458276,6723.4018628295244,4593.7535177812479,6572.852741814022,3360.1870784980883,9219.6147319311494,1362.1559025707829,7478.0832538994327,-7478.0832538994327,-1362.1559025707829,17356.196177384143,0.0
613204.59901257406,4092374.0504322448,-17500.0,4082.7838231028868,5726.0083692750986,11381.824048748684,4513.3405115811138,9759.5928449875737,4596.5419194775486,11881.784313694416,-1278.6990645366786,10301.868544697852,-10301.868544697852,1278.6990645366786,22248.847056437746,0.0
618204.59901257406,4092374.0504322448,-17500.0,1912.764544571992,3319.5549045233897,15732.288935228618,3111.7840514523286,12677.613837531157,5673.8506162270687,14132.06127287737,-4154.8171940920784,11176.483231566672,-11176.483231566672,4154.8171940920784,26408.752605935282,0.0
623204.59901257406,4092374.0504322448,-17500.0,573.81066158924762,-1729.3964502513238,16892.787697654247,246.57293198134633,13644.212428163957,6016.7402729050036,14889.370657959818,-5134.7647526712999,8016.3996387374818,-8016.3996387374818,5134.7647526712999,27834.508800313841,0.0
628204.59901257406,4092374.0504322448,-17500.0,1878.6734536615934,-6958.0733589382889,12263.909031026033,-2867.5107153359722,11100.301115614036,5057.4574239094491,13391.327615643106,-2200.4263478723205,1033.3243628765158,-1033.3243628765158,2200.4263478723205,24990.1506084096,0.0
633204.59901257406,4092374.0504322448,-17500.0,4915.6689980868323,-8338.4915990364279,3622.1397561362419,-4124.6564371427976,5835.6684306317275,3006.8545319819614,10444.866221652537,3059.7986040028268,-5413.5260268976126,5413.5260268976126,-3059.7986040028268,19095.613631099593,0.0
638204.59901257406,4092374.0504322448,-17500.0,6416.0152971866464,-5388.9424921445525,-3661.5377651479348,-3030.297330213868,817.95257832806783,913.70022624607554,7935.3425011093277,6388.1966809520982,-7394.1618132617532,7394.1618132617532,-6388.1966809520982,13894.604107767509,0.0
643204.59901257406,4092374.0504322448,-17500.0,5287.7723253672511,-1285.8542311903516,-6882.8503174284451,-1029.0238619677109,-2098.683807814296,-469.57586689156824,6613.1191814813674,6318.8700911184651,-5747.3758678411423,5747.3758678411423,-6318.8700911184651,11513.077619026395,0.0
648204.59901257406,4092374.0504322448,-17500.0,2908.1667608816456,1646.9032442171033,-7073.7794162727287,617.84511933528256,-3121.7219177364527,-1117.8532382468711,5926.7448607224778,4398.0296732226689,-3129.7743936462052,3129.7743936462052,-4398.0296732226689,10685.414518607506,0.0
653204.59901257406,4092374.0504322448,-17500.0,627.95669398302073,3077.2665531894936,-5981.4212619947157,1575.7831654563101,-3103.3785437759107,-1291.0951497516101,5345.8188914680595,2236.3606583649762,-1006.1391624140704,1006.1391624140704,-2236.3606583649762,9971.6477686085764,0.0
658204.59901257406,4092374.0504322448,-17500.0,-1028.8438232897404,3475.1947934484333,-4643.0050086960327,1975.7988903566918,-2673.5904476303963,-1221.7788443401307,4736.9651249741946,532.66093732573381,331.12463535586005,-331.12463535586005,-532.66093732573381,9043.7063585500327,0.0
663204.59901257406,4092374.0504322448,-17500.0,-2043.4498991955338,3326.8357196540569,-3465.2227158913465,2029.3528142759483,-2154.7041532325684,-1054.9446060497453,4124.1611175898606,-600.47395004100997,1038.4226863300266,-1038.4226863300266,600.47395004100997,7993.1587515091678,0.0
668204.59901257406,4092374.0504322448,-17500.0,-2564.7919671923664,2947.3587534649323,-2544.2838793929354,1901.0997861496833,-1679.2701804770129,-867.47883163302549,3547.6898992836618,-1265.239110504474,1337.2675102211301,-1337.2675102211301,1265.239110504474,6943.316274496814,0.0
673204.59901257406,4092374.0504322448,-17500.0,-2754.7723813527223,2506.5795120319262,-1860.8559654007272,1694.9409907746669,-1287.3854507102333,-694.38799131418398,3031.5465467737617,-1600.875116914488,1400.1959060471381,-1400.1959060471381,1600.875116914488,5970.0787513345831,0.0
678204.59901257406,4092374.0504322448,-17500.0,-2741.0625605247419,2084.6338481452726,-1365.5016266525161,1469.1348217181467,-980.24948156807056,-547.99834644191344,2584.0031205030991,-1724.4678051665489,1339.5648338130711,-1339.5648338130711,1724.4678051665489,5106.8423145342358,0.0
683204.59901257406,4092374.0504322448,-17500.0,-2612.2972621387594,1713.1940869746193,-1009.6575606368665,1253.0437790052504,-745.56566291567492,-429.72380151994582,2203.3185808727121,-1720.2140747270707,1222.2586605041645,-1222.2586605041645,1720.2140747270707,4360.8788784828575,0.0
688204.59901257406,4092374.0504322448,-17500.0,-2425.773202422929,1399.9765089913656,-754.22653907582242,1059.3750371875319,-568.40627908237798,-336.49960382543742,1882.489086844879,-1644.1326956364062,1085.6621089398398,-1085.6621089398398,1644.1326956364062,3725.9495816127928,0.0
693204.59901257406,4092374.0504322448,-17500.0,-2216.663387805972,1141.9662433507879,-570.12823739286193,891.91763251374766,-435.27542406509212,-263.96015528776343,1612.9364839997918,-1531.7130880223679,949.39300557543697,-949.39300557543697,1531.7130880223679,3190.0061727176194,0.0
698204.59901257406,4092374.0504322448,-17500.0,-2005.5251855398431,932.11052295408604,-436.51110847570783,750.05765812391076,-335.22553598697198,-207.83670370685465,1386.598940364446,-1404.5798178456612,822.8614109422648,-822.8614109422648,1404.5798178456612,2739.3920037186808,0.0
703204.59901257406,4092374.0504322448,-17500.0,-1803.6576061747219,762.49952392081229,-338.6760030659961,631.26690442063602,-259.82092305264274,-164.46653477544581,1196.4458147100679,-1275.3920040949461,709.84032017156994,-709.84032017156994,1275.3920040949461,2360.9245486416366,0.0
708204.59901257406,4092374.0504322448,-17500.0,-1616.6797224967336,625.74278844211858,-266.32714547977275,532.40125634774188,-202.72923236424757,-130.89580511616191,1036.4560674745278,-1151.1789501181947,611.12507403812003,-611.12507403812003,1151.1789501181947,2042.7889317760648,0.0
713204.59901257406,4092374.0504322448,-17500.0,-1446.8312924123611,515.46243729997377,-212.2564095099616,450.33438172826129,-159.25899297121674,-104.81927425234605,901.53493443367211,-1035.5182509304843,526.03802306444823,-526.03802306444823,1035.5182509304843,1774.8112822590203,0.0
718204.59901257406,4092374.0504322448,-17500.0,-1294.414518883221,426.37617805594488,-171.40104348677767,382.23432728292875,-125.95382234794967,-84.469386604150827,787.41949908357128,-929.92263229759237,453.25722157832388,-453.25722157832388,929.92263229759237,1548.4295513846751,0.0
723204.59901257406,4092374.0504322448,-17500.0,-1158.6792978776039,354.20816941636667,-140.18587681453832,325.65652714972686,-100.27005331092812,-68.503078949904065,690.57400618682971,-834.70713615964428,391.25796974493437,-391.25796974493437,834.70713615964428,1356.5341071751368,0.0
528204.59901257406,4097374.0504322448,-17500.0,-622.02176674612224,-491.97575456160115,-244.42244516221203,-208.45688540316965,-145.91774048257022,-50.768589740708173,560.16204737582666,-337.29255890049376,-429.24448821345243,429.24448821345243,337.29255890049376,1083.3124374885888,0.0
533204.59901257406,4097374.0504322448,-17500.0,-649.79268059013191,-566.66124954436214,-294.80224115889519,-234.07398197086405,-175.45263872459984,-60.603229045622541,633.29830004957398,-334.89090542316563,-512.64349557663252,512.64349557663252,334.89090542316563,1218.2132355239642,0.0
538204.59901257406,4097374.0504322448,-17500.0,-667.83566721024658,-652.81761774523238,-358.17936688210551,-261.33542282179815,-211.57798118872884,-72.308475945141026,717.8704179975399,-320.0335314068692,-614.06910774309188,614.06910774309188,320.0335314068692,1372.5260563023112,0.0
543204.59901257406,4097374.0504322448,-17500.0,-669.74237611719582,-751.15099973417375,-438.17802901531314,-289.07702548860999,-255.61614748585617,-86.051369961939798,815.69636951706275,-286.71972836843338,-737.15692218857089,737.15692218857089,286.71972836843338,1548.7266087121957,0.0
548204.59901257406,4097374.0504322448,-17500.0,-646.21908596497906,-861.44444165244056,-539.29055629582433,-315.10216907869443,-308.90546355620535,-101.81789364264225,928.79650418284211,-226.60223417798062,-885.76028389633461,885.76028389633461,226.60223417798062,1749.2826572325589,0.0
553204.59901257406,4097374.0504322448,-17500.0,-584.00756413813747,-981.67907619054233,-666.85811308160669,-335.54619090691301,-372.51090819176295,-119.19855727948131,1059.3825004744042,-128.26762856607428,-1063.4127735060626,1063.4127735060626,128.26762856607428,1976.5043896845245,0.0
558204.59901257406,4097374.0504322448,-17500.0,-464.57218209606276,-1106.5764848712229,-826.74579226068749,-343.91165507288821,-446.61440091886328,-136.99848133697219,1209.8726910968494,23.506899696949404,-1272.194990211339,1272.194990211339,-23.506899696949404,2232.4574581717584,0.0
563204.59901257406,4097374.0504322448,-17500.0,-262.69726143887544,-1225.2782417627905,-1024.3443735790845,-329.65507313478736,-529.31569609882445,-152.54982796059406,1383.0351461317491,248.26795395692943,-1510.5491917701622,1510.5491917701622,-248.26795395692943,2519.2449830264541,0.0
568204.59901257406,4097374.0504322448,-17500.0,54.582669238543623,-1317.844112290215,-1262.2083049757148,-276.22807195801369,-614.38723122513215,-160.53788255373891,1582.5282307722318,569.60210862740871,-1769.3314488046376,1769.3314488046376,-569.60210862740871,2840.4940919480555,0.0
573204.59901257406,4097374.0504322448,-17500.0,527.77340295734439,-1350.3847724595121,-1535.125433840602,-158.60635169882025,-687.25545489723572,-151.07242220182704,1814.4892546565666,1012.9358597281955,-2025.1247755224424,2025.1247755224424,-1012.9358597281955,3206.0939175949898,0.0
578204.59901257406,4097374.0504322448,-17500.0,1201.6285198932997,-1269.2299898075964,-1820.73381869026,59.284928967316972,-718.15891250899517,-106.68149643991671,2091.5814161632825,1599.4861298365488,-2229.7827581832717,2229.7827581832717,-1599.4861298365488,3644.5572247265095,0.0
583204.59901257406,4097374.0504322448,-17500.0,2115.910497556662,-996.059282076876,-2063.2709934761615,426.01904022094192,-651.23081053593125,2.0278860085294848,2442.1242192491404,2333.5889274180959,-2295.9218146337721,2295.9218146337721,-2333.5889274180959,4230.0049881648474,0.0
588204.59901257406,4097374.0504322448,-17500.0,3286.7254529927536,-428.93371110057302,-2148.6714466761186,1000.2790169262825,-388.63942881368064,221.88789908500712,2928.1319060862111,3180.6291585572935,-2080.7375398013455,2080.7375398013455,-3180.6291585572935,5126.880990214685,0.0
593204.59901257406,4097374.0504322448,-17500.0,4676.2485772533373,541.64367741672697,-1872.9160921520299,1839.9154120691962,229.25351414874882,622.64532206741194,3677.258291474509,4035.3240538658802,-1376.1442391880692,1376.1442391880692,-4035.3240538658802,6630.9285403030644,0.0
598204.59901257406,4097374.0504322448,-17500.0,6152.1022347459248,1989.4097346246206,-913.40034051339137,2975.8567203185644,1442.5487539284284,1299.3150957955277,4940.8157792184629,4685.5467197866174,79.31472463361024,-79.31472463361024,-4685.5467197866174,9157.8793008072371,0.0
603204.59901257406,4097374.0504322448,-17500.0,7436.2223176661309,3866.9606145341627,1178.3563234351529,4361.5133928232781,3576.5435495867418,2366.6444012729685,7095.2243944097245,4778.9121676304794,2544.7073878407355,-2544.7073878407355,-4778.9121676304794,13169.673857036458,0.0
608204.59901257406,4097374.0504322448,-17500.0,8032.9565491283347,5835.2766663267139,4925.3545693654623,5772.7690858361111,6997.2090782205923,3939.4502930579433,10356.899802720907,3800.5337576964521,6123.4734481164505,-6123.4734481164505,-3800.5337576964521,19044.730245226947,0.0
613204.59901257406,4097374.0504322448,-17500.0,7216.1072817648801,6894.232313733216,10629.021984742181,6598.4274987248264,11882.193684536493,6069.8226694627574,14621.357199836648,1192.4129364256278,10304.385403191607,-10304.385403191607,-1192.4129364256278,26714.092928916602,0.0
618204.59901257406,4097374.0504322448,-17500.0,4609.8721376921749,4971.2818626478884,17233.377702007656,5585.2238690493614,17445.791767055292,8502.2826765233203,19052.680521579736,-2803.0750914125838,12901.389615499969,-12901.389615499969,2803.0750914125838,34729.813484293409,0.0
623204.59901257406,4097374.0504322448,-17500.0,2033.8174481427395,-1862.2913932065489,20263.508747604013,1412.5775564085272,20541.620543010649,10041.980677058789,21468.871140094663,-5184.3296528554574,9567.6587255812956,-9567.6587255812956,5184.3296528554574,39150.108773707529,0.0
628204.59901257406,4097374.0504322448,-17500.0,3824.39927449576,-10209.088869436322,13322.920089832107,-4256.2243056950583,16403.520234322474,8475.5164096576264,19357.675238891388,-866.89592062369661,-1280.4219538834921,1280.4219538834921,866.89592062369661,35240.960631745955,0.0
633204.59901257406,4097374.0504322448,-17500.0,8718.74424712781,-10867.128743660327,-583.52872172251887,-5755.7447941307737,6209.5641773196439,3883.0833927878907,14143.947108785949,7479.9379432227688,-10408.560997555429,10408.560997555429,-7479.9379432227688,25184.887902261053,0.0
638204.59901257406,4097374.0504322448,-17500.0,9123.7232852229827,-4207.0748938300412,-9413.2799584706918,-2474.1954711114208,-1833.8926340006883,-95.115772617759973,10633.693016998339,10229.522914246892,-10119.94572908495,10119.94572908495,-10229.522914246892,18419.302024414803,0.0
643204.59901257406,4097374.0504322448,-17500.0,5191.3823051058935,1768.5818072205166,-10675.581481427316,1043.727366499671,-4814.1077087127542,-1886.3405278261407,9229.1652947618823,7285.3913635262197,-5425.1507506112011,5425.1507506112011,-7285.3913635262197,16484.276532144497,0.0
648204.59901257406,4097374.0504322448,-17500.0,989.88132648984231,4497.6770123299038,-8703.2397004792929,2923.8325303787728,-4930.3593637643271,-2303.254688421428,8206.9849168394212,3308.5672744237936,-1460.2485351094681,1460.2485351094681,-3308.5672744237936,15236.127788640159,0.0
653204.59901257406,4097374.0504322448,-17500.0,-1853.2354255678572,5064.9374757075921,-6327.0669090112751,3526.4288183987887,-4109.9351814687407,-2149.4535062279683,7119.522807521399,367.31762098065894,786.90941879776835,-786.90941879776835,-367.31762098065894,13554.344714450159,0.0
658204.59901257406,4097374.0504322448,-17500.0,-3388.0723746580607,4668.9004081167932,-4410.911493015572,3459.0997824895785,-3169.4126200361056,-1809.9766162708675,6044.7040617710536,-1378.6185574433953,1795.4821849552859,-1795.4821849552859,1378.6185574433953,11686.670193233169,0.0
663204.59901257406,4097374.0504322448,-17500.0,-4034.062481060133,3962.9172380697905,-3038.8042619738771,3105.6667138888224,-2363.5717314638227,-1447.9328118161948,5069.5710259781399,-2261.5879333612115,2107.4013770495417,-2107.4013770495417,2261.5879333612115,9895.1396700517798,0.0
668204.59901257406,4097374.0504322448,-17500.0,-4152.5388813663976,3234.2566734079946,-2098.0782798616133,2665.9612890796511,-1738.4548816402939,-1127.0067105064095,4228.7712226998956,-2608.5477107499883,2073.5988601028957,-2073.5988601028957,2608.5477107499883,8302.3364323538572,0.0
673204.59901257406,4097374.0504322448,-17500.0,-3986.1283447244523,2589.5093303100057,-1462.294453768289,2234.1868028931858,-1273.9963993429558,-865.20888923084965,3524.0639895095956,-2649.3551358164996,1889.3840887209869,-1889.3840887209869,2649.3551358164996,6942.1784525225648,0.0
678204.59901257406,4097374.0504322448,-17500.0,-3683.0783329777141,2055.5939999300917,-1032.9951489815055,1849.0226990356498,-935.48477771565217,-660.68404020060552,2942.2074967237045,-2528.5890308534017,1655.5161552841321,-1655.5161552841321,2528.5890308534017,5805.7438853882049,0.0
683204.59901257406,4097374.0504322448,-17500.0,-3328.9349785245417,1627.5609595446881,-741.37590113363615,1521.5812120549269,-690.51479732706082,-504.50369107067121,2465.0386536216283,-2332.1046946965052,1420.5295271192786,-1420.5295271192786,2332.1046946965052,4866.9719027274896,0.0
688204.59901257406,4097374.0504322448,-17500.0,-2970.4733731041993,1289.886322782198,-541.32736775387548,1250.3212994832745,-513.29494359961734,-386.53995056669294,2074.4579766822394,-2108.6967234062899,1205.503136885141,-1205.503136885141,2108.6967234062899,4095.4189072998183,0.0
693204.59901257406,4097374.0504322448,-17500.0,-2631.4881952030428,1025.4083103709465,-402.43816008820249,1028.6892864700344,-384.62182957152964,-297.77318460028903,1754.4611413497901,-1884.801028508562,1017.6747058443294,-1017.6747058443294,1884.801028508562,3462.0392389461626,0.0
698204.59901257406,4097374.0504322448,-17500.0,-2322.6014380622164,818.68219900405222,-304.72020961399733,848.81991564151053,-290.6396984963817,-230.92501172990865,1491.6226120504041,-1673.7663082319259,857.66663490260271,-857.66663490260271,1673.7663082319259,2941.3979682130553,0.0
703204.59901257406,4097374.0504322448,-17500.0,-2047.1520410047956,656.92124458867579,-234.99643246151618,703.18462155527516,-221.49502163599661,-180.40166608604082,1274.9556352160992,-1481.4869350428587,723.21837556437617,-723.21837556437617,1481.4869350428587,2512.1793894455059,0.0
708204.59901257406,4097374.0504322448,-17500.0,-1804.6438986689509,529.96378661967753,-184.52197648492327,585.21463561348048,-170.21715157749571,-142.01182513631528,1095.5841439399262,-1309.743599422824,611.05400430924226,-611.05400430924226,1309.743599422824,2156.9443141840993,0.0
713204.59901257406,4097374.0504322448,-17500.0,-1592.7229216373009,429.90479047205309,-147.44230912609046,489.44113285385163,-131.87415962726121,-112.65473146297637,946.3889949080193,-1158.1512244873777,517.77409728801513,-517.77409728801513,1158.1512244873777,1861.6145337167966,0.0
718204.59901257406,4097374.0504322448,-17500.0,-1408.274228034302,350.65943397528349,-119.79814854480982,411.42443188850507,-102.96417304327004,-90.048028137247442,821.67743927294305,-1025.2686707429725,440.24391470938292,-440.24391470938292,1025.2686707429725,1614.8960225820565,0.0
723204.59901257406,4097374.0504322448,-17500.0,-1248.0211776469923,287.56734142689157,-98.883689832073259,347.61198291961938,-80.98758026095129,-72.513026623294493,716.90407890270819,-909.22538286634222,375.73500004167369,-375.73500004167369,909.22538286634222,1407.7571024487484,0.0
528204.59901257406,4102374.0504322448,-17500.0,-819.11033200646921,-491.31720492304908,-202.03684045451902,-260.9509493744369,-143.05218927800266,-61.247565847147335,620.08759803948089,-496.8997723814698,-373.03636516418032,373.03636516418032,496.8997723814698,1215.4564620527397,0.0
533204.59901257406,4102374.0504322448,-17500.0,-887.50228684235924,-573.93983178844826,-244.74639253230234,-300.4412014058999,-174.06714474048297,-74.521581062600973,706.1868265646666,-526.39826833767665,-451.89042180616559,451.89042180616559,526.39826833767665,1378.9264946766439,0.0
538204.59901257406,4102374.0504322448,-17500.0,-955.52374843432506,-672.34872629272797,-299.42664029325562,-345.76320217573641,-212.88569382906385,-90.950984769238673,806.93280611017872,-550.34390408569675,-550.12429386864028,550.12429386864028,550.34390408569675,1568.9110076911397,0.0
543204.59901257406,4102374.0504322448,-17500.0,-1018.8247580341301,-789.24317201252359,-369.96354603693169,-397.10156327797984,-261.55183206867508,-111.22602101712799,924.93834383408966,-564.00775586928762,-672.77803047290263,672.77803047290263,564.00775586928762,1789.6541884720102,0.0
548204.59901257406,4102374.0504322448,-17500.0,-1070.3764642528874,-927.26183644623256,-461.53815902606397,-454.01806895382396,-322.52666074669844,-136.07424939436615,1063.1353958830327,-560.25460838508366,-826.00403372170194,826.00403372170194,560.25460838508366,2045.64826766791,0.0
553204.59901257406,4102374.0504322448,-17500.0,-1099.1504075177452,-1088.4199242424315,-580.96269417541134,-514.88682913007017,-398.60776803696268,-166.1281477145653,1224.6753185262671,-528.50059331210275,-1017.0203424511056,1017.0203424511056,528.50059331210275,2341.2671708626226,0.0
558204.59901257406,4102374.0504322448,-17500.0,-1088.2697677368769,-1273.0091152636166,-736.95291730139581,-575.94478821264522,-492.61630637709226,-201.63157784283379,1412.7054188715213,-453.34545764033589,-1253.6848955664718,1253.6848955664718,453.34545764033589,2680.0869703417511,0.0
563204.59901257406,4102374.0504322448,-17500.0,-1012.5570782850702,-1477.5749566623033,-940.08961596846746,-629.7431680732135,-606.58668570898817,-241.84185969507396,1629.9597172619619,-312.93753098777381,-1543.2566637449527,1543.2566637449527,312.93753098777381,3063.7650950930561,0.0
568204.59901257406,4102374.0504322448,-17500.0,-835.58085355874948,-1691.3967197391271,-1201.89687380026,-662.71790313181145,-739.95124985586369,-283.87815451810741,1878.1281709454793,-77.385142612430059,-1889.5468400841555,1889.5468400841555,77.385142612430059,3490.4581413333485,0.0
573204.59901257406,4102374.0504322448,-17500.0,-506.78367289852736,-1890.7398479020032,-1531.8205675000811,-651.58771933197659,-885.78754126437866,-320.60772506174703,2157.1312285041345,291.88850881687176,-2287.1001400972063,2287.1001400972063,-291.88850881687176,3953.2833473368964,0.0
578204.59901257406,4102374.0504322448,-17500.0,39.70534027941973,-2030.3195764705852,-1929.7467229935055,-558.48440088554912,-1023.5247031653374,-336.95191518534324,2465.0197584205862,839.82567195161516,-2710.373159161149,2710.373159161149,-839.82567195161516,4441.161941268083,0.0
583204.59901257406,4102374.0504322448,-17500.0,881.16995549094838,-2032.6783669557867,-2370.0527776900922,-325.44643750812139,-1105.627610173621,-303.80348787199409,2801.0707631066243,1608.6455621216091,-3095.6691672055294,3095.6691672055294,-1608.6455621216091,4949.9824387179606,0.0
588204.59901257406,4102374.0504322448,-17500.0,2091.8854572770601,-1780.0646613890831,-2772.0591874030765,129.36333568629453,-1035.1552254166902,-168.76953297571498,3179.9428557446358,2616.6144755180362,-3315.7279865928735,3315.7279865928735,-2616.6144755180362,5526.6221143044249,0.0
593204.59901257406,4102374.0504322448,-17500.0,3713.58055310178,-1121.290354216836,-2955.1186836523998,908.51086388359352,-632.16971025917064,156.42395063161624,3679.0239259811042,3821.6767262130343,-3155.1931212645522,3155.1931212645522,-3821.6767262130343,6391.4218181360229,0.0
598204.59901257406,4102374.0504322448,-17500.0,5716.7431259204695,86.903832615781624,-2592.0526678363508,2118.6554788293179,408.15485380802636,810.81709993888524,4577.2997690876782,5080.5007815761182,-2311.2031442397792,2311.2031442397792,-5080.5007815761182,8144.3471980231916,0.0
603204.59901257406,4102374.0504322448,-17500.0,7971.2763789972068,1900.0703217071439,-1196.4602859766005,3841.0936043363786,2558.2305811530268,2002.9062348762848,6582.6094519263625,6128.8637830930047,-445.17133761072728,445.17133761072728,-6128.8637830930047,11818.579651053873,0.0
608204.59901257406,4102374.0504322448,-17500.0,10166.486132619537,4190.9411120800605,1859.896326612336,6084.6512601879822,6509.1711078035751,4057.7742741430839,10465.844925258261,6536.0365895670129,2744.4984497344449,-2744.4984497344449,-6536.0365895670129,18612.954138040051,0.0
613204.59901257406,4102374.0504322448,-17500.0,11394.050675393883,6300.2759883956505,7350.9533442116499,8514.5161982706286,13175.736550771582,7530.1507445615298,16695.089764247798,5423.6331608324235,7313.4397711991624,-7313.4397711991624,-5423.6331608324235,29547.008766274655,0.0
618204.59901257406,4102374.0504322448,-17500.0,9882.4619452785519,5641.5251493626956,15230.731365709978,9334.7573603999172,22772.489680431787,13008.723077700477,24861.967541542952,1705.382742971713,11458.539154790475,-11458.539154790475,-1705.382742971713,43980.788639452716,0.0
623204.59901257406,4102374.0504322448,-17500.0,6043.1728361747519,-2653.1425329732765,20129.592870723831,4239.2464208245965,30769.328189155462,18883.759517569419,31430.905943483591,-2121.6484601942939,8213.0197309789819,-8213.0197309789819,2121.6484601942939,55657.127094506977,0.0
628204.59901257406,4102374.0504322448,-17500.0,8427.5612255612286,-15622.624916136707,9227.3355556867555,-6907.2321826900588,23877.0016722334,16578.903876713226,29098.894441115372,4333.3426505127973,-8644.8409438723975,8644.8409438723975,-4333.3426505127973,51441.493126097448,0.0
633204.59901257406,4102374.0504322448,-17500.0,15879.296537418762,-12236.324938643069,-11629.162753457504,-7186.0184269502106,2788.0943140140216,3646.025286093477,19903.900834240507,16588.906837154951,-18863.636188021141,18863.636188021141,-16588.906837154951,34601.585947410829,0.0
638204.59901257406,4102374.0504322448,-17500.0,10639.782572753134,816.18671403965664,-17362.674507935772,1663.2375075911123,-7906.4405204578761,-3748.7147830188314,15941.817670303084,13630.377108445102,-10822.47918577089,10822.47918577089,-13630.377108445102,28037.227813023623,0.0
643204.59901257406,4102374.0504322448,-17500.0,1692.2244130423694,6803.5129074683127,-13309.223929006606,6196.9650317950391,-8436.5883671893735,-4738.0262720544188,13804.561288118981,5196.9657499160867,-2321.3191948996928,2321.3191948996928,-5196.9657499160867,25249.298268422604,0.0
648204.59901257406,4102374.0504322448,-17500.0,-3674.5330408091704,7521.3486866170788,-8679.4666452726815,6908.2738542465422,-6516.9270940621909,-4062.8068198643796,11453.240023499831,-375.87885883503657,1720.0011136562312,-1720.0011136562312,375.87885883503657,21530.272868889948,0.0
653204.59901257406,4102374.0504322448,-17500.0,-5957.7097664485564,6500.8968075076154,-5454.3073983360664,6244.1101979991208,-4656.4975333305265,-3212.5522600491427,9279.5317887084566,-3065.3850235016143,3086.681205179927,-3086.681205179927,3065.3850235016143,17754.098319069792,0.0
658204.59901257406,4102374.0504322448,-17500.0,-6572.0238990499538,5183.7323311304363,-3429.7954465999001,5252.6592447898402,-3256.0510810068467,-2459.8449042555121,7470.8231543284937,-4096.720023665559,3272.2935747989286,-3272.2935747989286,4096.720023665559,14458.64260185001,0.0
663204.59901257406,4102374.0504322448,-17500.0,-6389.8168143043667,4005.5086881847592,-2186.6762940810768,4283.8242684725892,-2267.9866321220011,-1849.2886941115328,6020.7617178162327,-4288.5330579151596,3001.0234916466511,-3001.0234916466511,4288.5330579151596,11739.47821886034,0.0
668204.59901257406,4102374.0504322448,-17500.0,-5864.6041108425998,3058.2071408404427,-1421.31199369299,3443.5604032365841,-1585.3316054048396,-1376.9072947555997,4872.2557652875985,-4084.6981067548872,2590.165937004745,-2590.165937004745,4084.6981067548872,9545.3740661500578,0.0
673204.59901257406,4102374.0504322448,-17500.0,-5224.0881707542576,2328.3189135788539,-944.59945944968638,2751.7579612182476,-1116.2692867004412,-1022.1530295435912,3965.3435985965871,-3715.7240495845035,2171.9905898130619,-2171.9905898130619,3715.7240495845035,7791.4082450698525,0.0
678204.59901257406,4102374.0504322448,-17500.0,-4579.2604292307933,1776.0711767884682,-643.08890611711433,2197.0308722804607,-793.36554901520765,-760.24826096504819,3248.4454081037256,-3298.5239158195764,1796.4403314628962,-1796.4403314628962,3298.5239158195764,6393.6234153248251,0.0
683204.59901257406,4102374.0504322448,-17500.0,-3980.5488561233315,1360.9976261567531,-449.09263374464263,1758.1543779014173,-569.73955925643838,-568.39190255332255,2679.8176660777403,-2889.8913792903172,1477.4046284608908,-1477.4046284608908,2889.8913792903172,5279.0329400294231,0.0
688204.59901257406,4102374.0504322448,-17500.0,-3447.1509479156812,1049.184238828929,-321.986212577174,1412.959928168259,-413.5620983562896,-428.04156254779969,2226.59308919161,-2514.9954498350944,1213.7482039281938,-1213.7482039281938,2514.9954498350944,4387.6295109065522,0.0
693204.59901257406,4102374.0504322448,-17500.0,-2982.6106513200002,814.24515602721556,-237.12475026169599,1141.7558171537405,-303.42393909304559,-325.07447730065036,1863.2554706690837,-2182.6747353681499,998.83481233156078,-998.83481233156078,2182.6747353681499,3671.5073297771823,0.0
698204.59901257406,4102374.0504322448,-17500.0,-2583.112000254313,636.34304885946358,-179.36280034893895,928.28186590920222,-224.94443278492903,-249.11135964905861,1570.1316372732852,-1893.6574482197702,824.72688561112773,-824.72688561112773,1893.6574482197702,3093.0464145731212,0.0
703204.59901257406,4102374.0504322448,-17500.0,-2241.8303147665729,500.8024766691932,-139.26201292934778,759.61208313673728,-168.43068257946027,-192.66469271860504,1332.0886480275474,-1644.9374991406826,683.91308451253383,-683.91308451253383,1644.9374991406826,2622.9582774607443,0.0
708204.59901257406,4102374.0504322448,-17500.0,-1951.144571388626,396.83869845498657,-110.85586545436783,625.6792752197282,-127.30761384598809,-150.37760238856973,1137.4791741411711,-1432.0583791669476,569.90742386235684,-569.90742386235684,1432.0583791669476,2238.5221224019306,0.0
713204.59901257406,4102374.0504322448,-17500.0,-1703.6993595437093,316.53529014468876,-90.317840509795417,518.72477789711741,-97.078383161115795,-118.42471519369316,977.3158361573594,-1250.2641976602254,477.3533823364437,-477.3533823364437,1250.2641976602254,1922.1148256432525,0.0
718204.59901257406,4102374.0504322448,-17500.0,-1492.8608401813392,254.06940902499869,-75.158683026766127,432.79639591942043,-74.639219385872707,-94.068602972223488,844.63795732661106,-1095.0452471940141,401.93040747862568,-401.93040747862568,1095.0452471940141,1660.0401655248679,0.0
723204.59901257406,4102374.0504322448,-17500.0,-1312.8583567179812,205.14025654766903,-63.73601964631613,363.33066677456372,-57.82689733096111,-75.341155254642075,734.02849077527424,-962.36260639778379,340.1962522923443,-340.1962522923443,962.36260639778379,1441.6143738952571,0.0
523204.59901257406,4107374.0504322448,-17500.0,-914.58880685951419,-394.32990085843488,-129.54442868695455,-267.72861147160853,-108.94009581521027,-58.279356538436019,594.61780391397224,-599.35711058350796,-239.48959910645047,239.48959910645047,599.35711058350796,1180.8672678257408,0.0
528204.59901257406,4107374.0504322448,-17500.0,-1015.451698312866,-463.16873505767381,-154.73685034840071,-312.86794713465628,-132.81834202343487,-71.553959155924233,679.05199030300003,-659.78042223686668,-292.25466041327047,292.25466041327047,659.78042223686668,1345.177764018835,0.0
533204.59901257406,4107374.0504322448,-17500.0,-1127.3846720678087,-546.73440210144599,-187.01747003358363,-366.85283530415774,-163.03385671887341,-88.360731457918547,778.74810150378607,-724.8126828017123,-358.96141395484801,358.96141395484801,724.8126828017123,1538.5174132553552,0.0
538204.59901257406,4107374.0504322448,-17500.0,-1250.301645695291,-648.51413347781693,-228.8711258545741,-431.4199263570718,-201.4952454912206,-109.72512722474008,896.85424092354515,-793.27789539280502,-443.80199425489667,443.80199425489667,793.27789539280502,1766.6628539625112,0.0
543204.59901257406,4107374.0504322448,-17500.0,-1383.0470328180838,-772.7563820040308,-283.77367823636553,-508.49574347923146,-250.70818049227819,-136.95997347145612,1037.1443597677371,-862.81769239038113,-552.30554877239047,552.30554877239047,862.81769239038113,2036.4354598725308,0.0
548204.59901257406,4107374.0504322448,-17500.0,-1522.6099795051521,-924.50618985504445,-356.60576638712314,-600.05603048720923,-313.92981719882425,-171.71222966953783,1204.0658687013738,-929.16991736967918,-691.72594998016245,691.72594998016245,929.16991736967918,2355.7017388694317,0.0
553204.59901257406,4107374.0504322448,-17500.0,-1662.8730953318484,-1109.4827663106134,-454.22118229296996,-707.80326542734485,-395.31017557651251,-215.97311473887856,1402.707040661835,-985.06442162851999,-871.46574336168101,871.46574336168101,985.06442162851999,2733.1636229515152,0.0
558204.59901257406,4107374.0504322448,-17500.0,-1792.6604792211788,-1333.6053661953504,-586.18746820066383,-832.50926126811567,-499.93635096941085,-271.98711798092683,1638.5891171224655,-1018.5720721860063,-1103.4295403463852,1103.4295403463852,1018.5720721860063,3177.7204286376273,0.0
563204.59901257406,4107374.0504322448,-17500.0,-1892.7791541447687,-1601.7970932064075,-765.64385815967103,-972.76574010598893,-633.57851958963624,-341.92600486334004,1917.1092199098962,-1010.7292152498904,-1402.0299791894431,1402.0299791894431,1010.7292152498904,3697.0129432946715,0.0
568204.59901257406,4107374.0504322448,-17500.0,-1931.7330139770202,-1915.3928332887297,-1010.0084566291505,-1122.7301066788261,-801.68788357760207,-427.0654745605076,2242.327433373619,-932.34457367612299,-1783.209934964844,1783.209934964844,932.34457367612299,4294.4824746252598,0.0
573204.59901257406,4107374.0504322448,-17500.0,-1859.9883283783636,-2267.0163465860201,-1340.7119667963741,-1268.2654578982076,-1006.6935154405232,-525.97673060530315,2614.5980212960339,-740.26622737453454,-2261.1328364857459,2261.1328364857459,740.26622737453454,4963.9088285482239,0.0
578204.59901257406,4107374.0504322448,-17500.0,-1603.4748381423562,-2631.261525454292,-1779.8162999566841,-1380.7452897049529,-1241.6659787130529,-630.87925383156642,3026.3236737477259,-374.46604277257802,-2839.8989635977396,2839.8989635977396,374.46604277257802,5680.1175100593546,0.0
583204.59901257406,4107374.0504322448,-17500.0,-1059.2304003489389,-2949.6080546787944,-2338.5843312973939,-1408.0817069934917,-1476.6853576179176,-720.77381262037841,3455.2107773217558,240.12827388878054,-3495.7935533728123,3495.7935533728123,-240.12827388878054,6385.5108921661631,0.0
588204.59901257406,4107374.0504322448,-17500.0,-100.78369643233295,-3111.2526035114606,-2988.3176156368177,-1264.1739481718196,-1631.7294907426053,-749.3301486385468,3856.4008137357482,1178.3244413551902,-4144.7405972163451,4144.7405972163451,-1178.3244413551902,6979.0739895388251,0.0
593204.59901257406,4107374.0504322448,-17500.0,1393.4839645603336,-2944.8971917310873,-3600.6173220326987,-822.93216665413684,-1528.4092332156274,-625.07177803227705,4166.4177749075652,2472.9770956035354,-4597.607325631473,4597.607325631473,-2472.9770956035354,7347.908405147532,0.0
598204.59901257406,4107374.0504322448,-17500.0,3486.8444530930697,-2268.8207051325899,-3863.9549455422184,68.728962522900062,-820.75220116050036,-182.18836121707875,4395.9110990606914,4051.3854590762562,-4544.6403446921904,4544.6403446921904,-4051.3854590762562,7615.9992844386625,0.0
603204.59901257406,4107374.0504322448,-17500.0,6186.2406307166793,-1062.0370965140864,-3279.7231779845401,1557.918316495595,1063.1473351622551,860.38028377592082,5203.3473688354579,5748.9459016884366,-3690.1388519184502,3690.1388519184502,-5748.9459016884366,9033.869689282692,0.0
608204.59901257406,4107374.0504322448,-17500.0,9673.0400775066046,392.05022108816564,-1448.8466045523307,3856.4350306015644,4946.7765849083517,3015.4667609482349,8407.4058417030901,7587.1697619780025,-2065.3887614359032,2065.3887614359032,-7587.1697619780025,14576.146580490997,0.0
613204.59901257406,4107374.0504322448,-17500.0,14064.434326711924,1815.4437225697932,1762.7365673746626,7487.4380992407123,12248.042695021622,7618.5544853639094,15697.63873910246,9629.1682594928607,164.15184721663536,-164.15184721663536,-9629.1682594928607,27234.210366127139,0.0
618204.59901257406,4107374.0504322448,-17500.0,16716.032776848166,1321.294747323245,6779.8021097579813,11349.241764091808,25148.702279044308,17823.523577791071,28282.355846962062,9931.4420741875019,2159.2520952126015,-2159.2520952126015,-9931.4420741875019,48989.636700541036,0.0
623204.59901257406,4107374.0504322448,-17500.0,15225.159448471446,-8877.7250006395952,7370.9126542201548,6960.9902889950417,38116.489128794958,33716.03062917589,41988.549441316063,9437.5445231350695,-5405.282712519187,5405.282712519187,-9437.5445231350695,72727.173511063898,0.0
628204.59901257406,4107374.0504322448,-17500.0,20638.52598175831,-23532.409735827314,-12852.883226364533,-12209.478134967199,23242.993045270199,29449.497439982395,41727.611598118259,21400.015179074537,-29333.722904565504,29333.722904565504,-21400.015179074537,72274.800099542263,0.0
633204.59901257406,4107374.0504322448,-17500.0,25441.573933309901,-6149.7812957925016,-29537.493837199549,-1182.6691268523521,-12216.513015003833,-8079.8175037848287,30898.502761501801,29193.424761677219,-25613.207379812244,25613.207379812244,-29193.424761677219,53561.103841292665,0.0
638204.59901257406,4107374.0504322448,-17500.0,4497.1132741409592,9455.2183165214756,-20883.405189870569,14920.845480626405,-15757.612414038174,-13569.001042052465,26363.826622533823,9608.3111327926381,-4913.7579615377781,4913.7579615377781,-9608.3111327926381,46829.832935803846,0.0
643204.59901257406,4107374.0504322448,-17500.0,-7563.8497704436068,10578.842395885918,-11559.538857742675,15159.495443713769,-10479.894237126055,-9120.9890608909664,20219.308928089242,-2512.8870308130304,3170.7299522308581,-3170.7299522308581,2512.8870308130304,36970.522648198144,0.0
648204.59901257406,4107374.0504322448,-17500.0,-10887.756413470832,8345.280927995831,-6264.5626255937414,12008.35877867594,-6563.2205697975305,-6066.2098711633016,15058.781269887373,-6571.5031316243849,4900.4566611719392,-4900.4566611719392,6571.5031316243849,28161.872515063853,0.0
653204.59901257406,4107374.0504322448,-17500.0,-10896.406641229978,6119.8886055522062,-3464.0357229660171,9144.1868579946968,-4166.2879313007779,-4235.8135595392887,11340.68901970574,-7346.3760401743475,4699.3598635230319,-4699.3598635230319,7346.3760401743475,21572.69279070542,0.0
658204.59901257406,4107374.0504322448,-17500.0,-9863.6294488659132,4414.3900679324006,-1968.5450793579125,6952.5678399455646,-2696.6596851668851,-3025.1174576735575,8696.0616761347519,-6954.7479886419278,4011.5893106091548,-4011.5893106091548,6954.7479886419278,16745.089203062034,0.0
663204.59901257406,4107374.0504322448,-17500.0,-8585.8924840495401,3182.210126352531,-1151.8135773129998,5310.4535957226708,-1775.9224198483187,-2175.0973319964792,6776.513615826555,-6191.0997781098804,3280.5842878090889,-3280.5842878090889,6191.0997781098804,13158.620901279843,0.0
668204.59901257406,4107374.0504322448,-17500.0,-7342.90105054184,2305.3303357272061,-695.29229828483415,4079.0275980128172,-1188.0263593723887,-1569.3100989679735,5352.3992340050763,-5359.6616593177478,2636.3501153378515,-2636.3501153378515,5359.6616593177478,10451.686134579391,0.0
673204.59901257406,4107374.0504322448,-17500.0,-6230.1434847571845,1682.2684273239809,-434.38151650921117,3153.2108666040863,-806.57204870806959,-1137.7720774970007,4277.3945815917514,-4578.2949407656952,2105.8172894488689,-2105.8172894488689,4578.2949407656952,8383.2513807873911,0.0
678204.59901257406,4107374.0504322448,-17500.0,-5271.5751246683067,1237.8313098078866,-282.03278102502645,2455.1392022438713,-555.38164622003364,-830.78959609561036,3454.8329716129929,-3888.0687032585633,1681.7613105894266,-1681.7613105894266,3888.0687032585633,6787.0297153186702,0.0
683204.59901257406,4107374.0504322448,-17500.0,-4462.0711206519709,918.72854111948357,-191.15778533992545,1926.7042573881668,-387.59346155721022,-612.05448602966135,2818.2102934000795,-3296.8755425340519,1347.2841038209403,-1347.2841038209403,3296.8755425340519,5544.3378122255954,0.0
688204.59901257406,4107374.0504322448,-17500.0,-3785.4115285217822,687.78583556547369,-135.74655141108846,1524.573596372996,-273.942239613195,-455.44298562659651,2320.4074502150206,-2798.5960963038647,1084.7119870740539,-1084.7119870740539,2798.5960963038647,4568.6683450382388,0.0
693204.59901257406,4107374.0504322448,-17500.0,-3222.4016026527679,519.19355097742539,-101.1539381072833,1216.597404967479,-195.91139763869768,-342.49725085330408,1927.3906086315715,-2381.9837440845417,878.57401852905389,-878.57401852905389,2381.9837440845417,3796.221637549681,0.0
698204.59901257406,4107374.0504322448,-17500.0,-2754.482116958025,395.01482637720909,-78.986561465999671,979.0275168288448,-141.63515347083757,-260.32453189037568,1614.244990865936,-2034.7737975294576,716.271883521988,-716.271883521988,2034.7737975294576,3179.5860294158715,0.0
703204.59901257406,4107374.0504322448,-17500.0,-2365.1659727754673,302.73170388378742,-64.355144349651894,794.35557092683439,-103.41181079224981,-199.96100976849701,1362.5390249341278,-1745.4750398005099,587.8977228511618,-587.8977228511618,1745.4750398005099,2683.307614869078,0.0
708204.59901257406,4107374.0504322448,-17500.0,-2040.4291151287846,233.55303731032697,-54.368339901405122,649.66369306932302,-76.177458188993768,-155.17110709957311,1158.5112089711024,-1504.0321201431793,485.79330582309819,-485.79330582309819,1504.0321201431793,2280.7097579923206,0.0
713204.59901257406,4107374.0504322448,-17500.0,-1768.6272376487575,181.25891227814307,-47.29220217918219,535.3932885201084,-56.559608993442716,-121.59952656045715,991.79883419312023,-1301.9563562135079,404.08667983493245,-404.08667983493245,1301.9563562135079,1951.5909791932893,0.0
718204.59901257406,4107374.0504322448,-17500.0,-1540.2214880034483,141.41262824821695,-42.073330612089492,444.43895516323482,-42.283761814686954,-96.184761272755765,854.53351509365359,-1132.2221557341591,338.28692063451837,-338.28692063451837,1132.2221557341591,1680.5485136433147,0.0
723204.59901257406,4107374.0504322448,-17500.0,-1347.4532293498403,110.82246311360765,-38.063776911684783,371.48852680235495,-31.797027372364671,-76.757914561337074,740.6918249233654,-989.07757672125695,284.95660790728812,-284.95660790728812,989.07757672125695,1455.7546026763266,0.0
523204.59901257406,4112374.0504322448,-17500.0,-1065.3066480422497,-344.14263331456209,-91.594059302451186,-305.72204358520383,-93.949235373385662,-65.4580185300144,641.19581991732548,-727.19632022086626,-153.75364430522137,153.75364430522137,727.19632022086626,1279.2294659266845,0.0
528204.59901257406,4112374.0504322448,-17500.0,-1199.8940505633861,-406.32206926474663,-107.70014922264755,-361.4109552754723,-114.98924473450502,-81.160002942672875,735.25604519888554,-816.0648577559665,-190.64722476524696,190.64722476524696,816.0648577559665,1466.0808198411594,0.0
533204.59901257406,4112374.0504322448,-17500.0,-1354.7869932758206,-482.72187972077205,-128.36894655574218,-429.46771232005932,-141.85281443050738,-101.36081765283296,847.95523664518078,-917.24074102711768,-238.1661903480059,238.1661903480059,917.24074102711768,1688.4043861550197,0.0
538204.59901257406,4112374.0504322448,-17500.0,-1532.8275340178773,-577.15237962087815,-155.32926581285295,-512.99240712126084,-176.42484139994158,-127.52677915910571,983.20729968271894,-1031.9355787155987,-299.86223751840885,299.86223751840885,1031.9355787155987,1954.1616477601367,0.0
543204.59901257406,4112374.0504322448,-17500.0,-1736.7995926834192,-694.51975777532004,-191.09219463882971,-615.86557765589293,-221.26244025304857,-161.63539907074806,1146.0817808205204,-1160.9680323888097,-380.61027107303465,380.61027107303465,1160.9680323888097,2273.1973437105135,0.0
548204.59901257406,4112374.0504322448,-17500.0,-1968.9872714882331,-841.10627359700391,-239.34657527218712,-742.88221160254307,-279.83414758175951,-206.34468248653661,1342.9405026578147,-1304.2828671339453,-487.12555059462954,487.12555059462954,1304.2828671339453,2657.5835192155268,0.0
553204.59901257406,4112374.0504322448,-17500.0,-2230.3485218008123,-1024.8568179846397,-305.56444369591696,-899.831859354637,-356.82068865702962,-265.19453753912506,1581.5904264107266,-1460.1152126643906,-628.66606004134337,628.66606004134337,1460.1152126643906,3121.8866824811425,0.0
558204.59901257406,4112374.0504322448,-17500.0,-2519.0336841261951,-1255.5751574037915,-397.92207273975919,-1093.4221808040245,-458.45216382783599,-342.81221960588101,1871.3807810366957,-1623.5726900397815,-817.94604545157404,817.94604545157404,1623.5726900397815,3683.1649429399035,0.0
563204.59901257406,4112374.0504322448,-17500.0,-2827.8134659826287,-1544.7977696274133,-528.67138753054508,-1330.8426576773034,-592.78252630658176,-445.03773236114029,2223.0606412200609,-1784.2873318715222,-1072.2216598204539,1072.2216598204539,1784.2873318715222,4360.2906895139686,0.0
568204.59901257406,4112374.0504322448,-17500.0,-3139.7496818038485,-1904.8208391515593,-716.08661604730833,-1618.5830170660658,-769.61308367839865,-578.7677366563604,2648.0504932055865,-1922.645174063819,-1414.308231699858,1414.308231699858,1922.645174063819,5171.7682624098316,0.0
573204.59901257406,4112374.0504322448,-17500.0,-3421.1791771719882,-2345.7573824855785,-986.9183581866148,-1959.815181647595,-999.32948180076005,-751.08223596549431,3156.4216678369844,-2004.0197679808766,-1872.7453444357843,1872.7453444357843,2004.0197679808766,6130.3889773904621,0.0
578204.59901257406,4112374.0504322448,-17500.0,-3611.0280967807093,-2868.344782659643,-1378.4944914546018,-2349.1850315268171,-1288.8841326995691,-966.7940441029906,3752.1293714574895,-1970.7550309185449,-2478.9663018105753,2478.9663018105753,1970.7550309185449,7231.5089626962099,0.0
583204.59901257406,4112374.0504322448,-17500.0,-3606.5357970838045,-3448.2626069221919,-1936.9703340909239,-2763.294460969254,-1630.8103869577242,-1222.8209396897582,4422.4815352916894,-1733.4691676323368,-3256.1113364403732,3256.1113364403732,1733.4691676323368,8428.9583439855032,0.0
588204.59901257406,4112374.0504322448,-17500.0,-3250.8020175986703,-4005.9235269335136,-2700.5324296094559,-3145.2097965782318,-1976.0022498172,-1496.4613335365041,5115.9321189331622,-1169.9196622035729,-4187.503213561753,4187.503213561753,1169.9196622035729,9588.9627232590374,0.0
593204.59901257406,4112374.0504322448,-17500.0,-2345.4468314813798,-4362.566265599181,-3637.7526245646882,-3386.0334908546911,-2171.1293547738428,-1722.0583559544616,5699.6075982740686,-158.57585794379065,-5144.938964353104,5144.938964353104,158.57585794379065,10416.203996024853,0.0
598204.59901257406,4112374.0504322448,-17500.0,-748.37438806745752,-4238.2871183715179,-4488.1565296195695,-3332.8964744522978,-1834.010219791701,-1747.7920284431243,5905.2824671469798,1295.4271884331774,-5781.752303853601,5781.752303853601,-1295.4271884331774,10418.820092656841,0.0
603204.59901257406,4112374.0504322448,-17500.0,1429.0975411125853,-3543.0655456149316,-4549.5057641993999,-2928.5364397591165,-205.80389571456212,-1284.5706766346807,5464.0980184920836,2866.2375399729417,-5613.6509287861618,5613.6509287861618,-2866.2375399729417,9507.8772631534794,0.0
608204.59901257406,4112374.0504322448,-17500.0,4190.9514537470886,-3319.1954763301328,-3162.5951317229787,-2491.5524998555234,3633.9443110276202,50.718020486520686,6588.7197541141904,4416.7800137592358,-5102.6229311967445,5102.6229311967445,-4416.7800137592358,11491.828053716901,0.0
613204.59901257406,4112374.0504322448,-17500.0,10049.779176400823,-5555.0184595513738,-2351.6888239387695,-1630.8521450151609,9957.3682255714266,3118.1236715815253,12911.088031488422,8638.1228275025551,-7378.5624016683632,7378.5624016683632,-8638.1228275025551,22668.983766855825,0.0
618204.59901257406,4112374.0504322448,-17500.0,20247.335116911487,-9349.8825095502307,-6129.5898243380416,2400.0092642302416,21329.017076331787,14256.005875002997,25279.464830626763,17727.10839878771,-14177.752134196711,14177.752134196711,-17727.10839878771,47094.875562940375,0.0
623204.59901257406,4112374.0504322448,-17500.0,29240.161783434327,-23420.537990900651,-19656.971081403277,-4132.3478724413299,31204.318074918625,34279.453672916854,48073.088218456833,30024.674586695532,-34457.553508296376,34457.553508296376,-30024.674586695532,85326.74308762794,0.0
628204.59901257406,4112374.0504322448,-17500.0,46246.304611785257,-24949.200583409718,-46693.793365392718,-13377.90001922909,-4175.3122300604018,6314.2325545684789,54667.260524048368,51793.289571544949,-53614.736495243917,53614.736495243917,-51793.289571544949,94750.903183258939,0.0
633204.59901257406,4112374.0504322448,-17500.0,22465.338165398018,2812.4766967810847,-32484.432304499052,24806.26149123233,-20820.341106258638,-38924.051222520648,46815.807717654636,27286.34951272481,-19636.359761353488,19636.359761353488,-27286.34951272481,81148.279478554003,0.0
638204.59901257406,4112374.0504322448,-17500.0,-10038.611494378867,8573.6007668850089,-14808.186426058135,32251.872713431869,-13013.101499839842,-24308.485083126452,35991.726075575498,-3083.8166720447334,146.15617656637664,-146.15617656637664,3083.8166720447334,63304.100252322089,0.0
643204.59901257406,4112374.0504322448,-17500.0,-17863.092409040466,6968.1460290890291,-6747.8914762942813,23146.21975856978,-7263.3363508252223,-12491.086696363744,24779.892365456522,-11441.314563778507,4658.2301895237415,-4658.2301895237415,11441.314563778507,44764.617988584403,0.0
648204.59901257406,4112374.0504322448,-17500.0,-17008.688950166121,4886.3867184147948,-3170.9158514753208,15757.353228622747,-4159.1594346006395,-7344.2017890735688,17256.014327409979,-11853.099923591142,4868.3100503637452,-4868.3100503637452,11853.099923591142,31930.549406095579,0.0
653204.59901257406,4112374.0504322448,-17500.0,-14496.556379773947,3327.423973170075,-1515.6051452903471,11033.686285403794,-2464.6107256409823,-4817.473314908375,12464.389282730384,-10436.507163587114,4147.9878472106357,-4147.9878472106357,10436.507163587114,23520.435939448718,0.0
658204.59901257406,4112374.0504322448,-17500.0,-12024.148221989917,2258.3365117100748,-728.62797843767487,7965.070138101134,-1500.8146091052888,-3320.5306201906405,9304.6033654444382,-8795.1322469807747,3337.1932307236798,-3337.1932307236798,8795.1322469807747,17816.129206572299,0.0
663204.59901257406,4112374.0504322448,-17500.0,-9911.6341783816624,1538.2659901617569,-349.98001567887309,5877.2237357836611,-933.73521067954516,-2333.5683018972713,7120.4047908325847,-7308.9101167585741,2633.7105697980319,-2633.7105697980319,7308.9101167585741,13774.364422512415,0.0
668204.59901257406,4112374.0504322448,-17500.0,-8171.5257076234584,1053.5367006794504,-167.8807614298955,4405.9397841720647,-591.26668626332889,-1656.6791909880906,5551.9675874768473,-6049.483995697251,2067.8246139564044,-2067.8246139564044,6049.483995697251,10815.477933456801,0.0
673204.59901257406,4112374.0504322448,-17500.0,-6755.3134725688906,725.5590319704479,-81.580733642006138,3345.6978561685692,-379.98713912987483,-1186.6736227613299,4394.6104293724402,-5008.8617318758834,1625.5778102795493,-1625.5778102795493,5008.8617318758834,8601.0700037369024,0.0
678204.59901257406,4112374.0504322448,-17500.0,-5607.6489322800317,502.00787806610037,-42.138699015588145,2570.0521324104384,-247.20901590812761,-858.39700690311247,3523.5372097733043,-4158.6181704857572,1283.7608301993887,-1283.7608301993887,4158.6181704857572,6917.5981617692996,0.0
683204.59901257406,4112374.0504322448,-17500.0,-4678.2947395953488,348.38067405528949,-25.451936685783632,1995.8534964172154,-162.37650870407398,-627.69223673907391,2857.7228488774472,-3467.1284924650386,1020.2589883655451,-1020.2589883655451,3467.1284924650386,5621.6553872729955,0.0
688204.59901257406,4112374.0504322448,-17500.0,-3924.6125967629137,241.92584386500894,-19.560817456785117,1566.2626451612289,-107.36885222685682,-464.27556548941408,2342.1305843097757,-2905.2024394304399,816.74146952591582,-816.74146952591582,2905.2024394304399,4613.0544178503324,0.0
693204.59901257406,4112374.0504322448,-17500.0,-3311.5404573961596,167.57024407561801,-18.529955607458291,1241.5900391175696,-71.227927164497572,-347.42756470295092,1938.214050783507,-2447.8088622947284,658.84529123989739,-658.84529123989739,2447.8088622947284,3820.0949739536309,0.0
698204.59901257406,4112374.0504322448,-17500.0,-2810.7921779974636,115.2577329579217,-19.443799477183326,993.76901772286669,-47.208385973705411,-263.0050527200907,1618.4037642351616,-2074.2886442353793,535.60998867162903,-535.60998867162903,2074.2886442353793,3190.6665537055469,0.0
703204.59901257406,4112374.0504322448,-17500.0,-2399.8097822074747,78.221779902988956,-20.908554681135318,802.76388596694881,-31.088388774943144,-201.34262586606755,1362.6670157327321,-1767.951192569546,438.77141018481996,-438.77141018481996,1767.951192569546,2686.4544747832579,0.0
708204.59901257406,4112374.0504322448,-17500.0,-2060.7210129551354,51.867733789286078,-22.295913907500179,654.15098451455208,-20.184177746190979,-155.80599707057306,1156.2590786250523,-1515.472860273183,362.12611846274103,-362.12611846274103,1515.472860273183,2279.0096626344716,0.0
713204.59901257406,4112374.0504322448,-17500.0,-1779.4069904536661,33.046204198311713,-23.358011200771504,537.45980449971228,-12.764707412194173,-121.81043429460546,988.20425642972987,-1306.2822348795276,301.01713754558347,-301.01713754558347,1306.2822348795276,1947.0150776328355,0.0
718204.59901257406,4112374.0504322448,-17500.0,-1544.7192626758235,19.578282232698236,-24.030844218278155,445.02558271681698,-7.6982205871694207,-96.161115848249807,850.24885452856483,-1132.0118715848121,251.93893326994169,-251.93893326994169,1132.0118715848121,1674.3593988304704,0.0
723204.59901257406,4112374.0504322448,-17500.0,-1347.8386422171936,9.9422378803438924,-24.333909833742137,371.18839446522225,-4.2352957853053548,-76.610853566687624,736.12435582865987,-986.03483526659613,212.24011889093447,-212.24011889093447,986.03483526659613,1448.7586766237971,0.0
523204.59901257406,4117374.0504322448,-17500.0,-1196.4241597082594,-272.86642975072965,-58.791301685286939,-338.72077120211975,-73.623250527202003,-71.69042645212788,687.48061901573249,-840.51651549855683,-57.252415293340903,57.252415293340903,840.51651549855683,1365.1099354774876,0.0
528204.59901257406,4117374.0504322448,-17500.0,-1360.8903338541395,-322.2809722266914,-66.597159484686841,-403.70377898885567,-90.014545265007882,-89.525206618401754,790.98631459089631,-955.21216318397387,-74.466522661687577,74.466522661687577,955.21216318397387,1571.9026863720044,0.0
533204.59901257406,4117374.0504322448,-17500.0,-1554.1739430789964,-383.30695488348812,-76.444460876891554,-484.2470419334831,-110.99299749608475,-112.72705846515191,915.36570126563731,-1089.5445988618053,-97.431556986810563,97.431556986810563,1089.5445988618053,1820.0553781793694,0.0
538204.59901257406,4117374.0504322448,-17500.0,-1782.0066489769183,-459.24984165435353,-89.184499622548003,-584.7442552134346,-138.09019857977526,-143.17181363541019,1065.8984445747064,-1247.1908713742982,-128.33616158867346,128.33616158867346,1247.1908713742982,2119.6429016462525,0.0
543204.59901257406,4117374.0504322448,-17500.0,-2051.1834924168979,-554.48912342649021,-106.12098619222945,-710.97075671377399,-173.4185579343671,-183.46488273049087,1249.3574944831075,-1432.3746283758969,-170.30809393851064,170.30809393851064,1432.3746283758969,2483.5149127034106,0.0
548204.59901257406,4117374.0504322448,-17500.0,-2369.5953809596726,-674.84717672188231,-129.28656341400864,-870.52925273951291,-219.90590782342426,-237.23873580248031,1474.3628987215275,-1649.7677705901847,-227.85860504250138,227.85860504250138,1649.7677705901847,2928.0687434078818,0.0
553204.59901257406,4117374.0504322448,-17500.0,-2746.0794045175639,-828.07042731350316,-161.90597014604623,-1073.4165359931671,-281.61840478687907,-309.56287021762563,1751.8981452785788,-1904.1860631777513,-307.55073144724429,307.55073144724429,1904.1860631777513,3474.173529809922,0.0
558204.59901257406,4117374.0504322448,-17500.0,-3189.8847965543537,-1024.4273994511993,-209.18147771639934,-1332.7109877692842,-364.18710214836483,-407.48934779637227,2096.0205533405901,-2199.8836047528275,-419.00403579625595,419.00403579625595,2199.8836047528275,4148.1837371172269,0.0
563204.59901257406,4117374.0504322448,-17500.0,-3709.3752349106289,-1277.3764689629675,-279.63891737833512,-1665.3375403670484,-475.32409228480651,-540.73321575410819,2524.6688870839662,-2539.0899687789242,-576.39336136622728,576.39336136622728,2539.0899687789242,4982.8400658230721,0.0
568204.59901257406,4117374.0504322448,-17500.0,-4309.2533849155407,-1604.1116426437914,-387.44860834181611,-2092.7662938503918,-625.32003529266979,-722.41773264977928,3060.4167229475652,-2919.1391393349177,-800.63687612976037,800.63687612976037,2919.1391393349177,6017.5313639332771,0.0
573204.59901257406,4117374.0504322448,-17500.0,-4984.9748719766822,-2025.4063122767259,-556.41869083886979,-2641.2966267246165,-827.15477725448284,-969.66305502296643,3730.8069830254221,-3327.0184936640235,-1122.4179400091514,1122.4179400091514,3327.0184936640235,7296.6784051219183,0.0
578204.59901257406,4117374.0504322448,-17500.0,-5711.8195252718397,-2563.1380951235124,-826.70510021861605,-3341.1273097241428,-1095.1638563915571,-1303.5208567063687,4567.215177029896,-3729.2469657611623,-1585.746777309279,1585.746777309279,3729.2469657611623,8863.3500484749038,0.0
583204.59901257406,4117374.0504322448,-17500.0,-6423.9340427435418,-3231.030959166314,-1265.1911984142225,-4222.3073531522468,-1439.3212237371113,-1747.3475090231739,5599.2394134030164,-4053.6593379211195,-2249.7934768109985,2249.7934768109985,4053.6593379211195,10741.277396594942,0.0
588204.59901257406,4117374.0504322448,-17500.0,-6976.1379811697871,-4006.4064275052961,-1977.1346335343746,-5302.5672865711431,-1846.5652558708832,-2321.8978556407537,6835.8785122852487,-4159.5562296540265,-3179.0677436269689,3179.0677436269689,4159.5562296540265,12888.769151979372,0.0
593204.59901257406,4117374.0504322448,-17500.0,-7088.3741467337959,-4752.5023035597906,-3097.2861832853982,-6554.66560118086,-2221.8786558683228,-3031.2882508135358,8209.2600627067241,-3805.8791026560807,-4385.4327727108712,4385.4327727108712,3805.8791026560807,15088.291306941226,0.0
598204.59901257406,4117374.0504322448,-17500.0,-6346.2831261808897,-5046.3008868234838,-4658.1393016626907,-7842.8949763780856,-2201.4987838962529,-3812.6605683637445,9434.4422550717882,-2709.6193741802454,-5616.6311690056864,5616.6311690056864,2709.6193741802454,16746.946199296923,0.0
603204.59901257406,4117374.0504322448,-17500.0,-4622.846827580559,-4070.2421779350657,-6032.2799912279779,-8984.7381556293039,-634.51259169686978,-4380.8228033284086,9921.7766370277968,-1053.1063725949716,-5888.4499712392053,5888.4499712392053,1053.1063725949716,17189.275324490511,0.0
608204.59901257406,4117374.0504322448,-17500.0,-3217.8595039274792,-2076.6544855497518,-5046.4960203448818,-10960.57483474428,5026.4456418535065,-4259.7527701157223,12131.717366017323,-507.01146741931439,-3971.2698978507779,3971.2698978507779,507.01146741931439,21252.288348957085,0.0
613204.59901257406,4117374.0504322448,-17500.0,-689.75419976951548,-5634.5415059097386,-2320.5736916193428,-18313.703509148309,15202.6294026673,-5646.8594933486665,24304.849267028847,718.10416674491717,-5687.7075262709568,5687.7075262709568,-718.10416674491717,42590.228058131768,0.0
618204.59901257406,4117374.0504322448,-17500.0,22982.176243261332,-18550.193552500976,-16414.01804884697,-22829.204529208662,20291.557414067694,-10992.59563167032,39792.589495743829,23934.943263065496,-27737.860855065079,27737.860855065079,-23934.943263065496,72103.794785854509,0.0
623204.59901257406,4117374.0504322448,-17500.0,54797.463220748723,-29753.060572736798,-53970.649196991697,-12502.902210669072,14969.390748203263,6030.1191790552648,65055.168530349372,60927.722976786616,-62918.175458987993,62918.175458987993,-60927.722976786616,112700.37122511283,0.0
628204.59901257406,4117374.0504322448,-17500.0,51442.794833087159,-16194.539921043332,-53953.009406009813,11682.967567006597,-20633.537659731832,-21629.444679066575,60761.447944913656,57380.010288606005,-51547.549140225383,51547.549140225383,-57380.010288606005,105923.62097255244,0.0
633204.59901257406,4117374.0504322448,-17500.0,9610.6758312818529,-1977.4937998578694,-27561.885709856873,33843.48182797552,-10336.064199391552,-33634.333553352742,41804.256854155145,16530.004573342412,-18614.224875146421,18614.224875146421,-16530.004573342412,73571.599797871764,0.0
638204.59901257406,4117374.0504322448,-17500.0,-13868.570340692473,-1981.7689206724183,-12390.100906699759,32091.024639559499,-2796.9768967680725,-21156.657232400055,32507.58578982082,-5889.5082085771382,-6298.1693125214251,6298.1693125214251,5889.5082085771382,56487.435300325247,0.0
643204.59901257406,4117374.0504322448,-17500.0,-19069.498000468397,-1464.9639051809065,-5272.5292306006759,22841.413605203907,-1182.7479886537326,-11623.017743270719,23273.163432262001,-12162.843171541295,-1046.6055984461573,1046.6055984461573,12162.843171541295,41459.535965806121,0.0
648204.59901257406,4117374.0504322448,-17500.0,-17498.85974644895,-949.79260982406379,-2231.8028828877937,15590.760739484784,-548.86690799250061,-7034.4381273635454,16525.416102475785,-12070.735379272983,818.48108304588823,-818.48108304588823,12070.735379272983,30259.738418482932,0.0
653204.59901257406,4117374.0504322448,-17500.0,-14668.140603244452,-687.92714963676792,-928.61452620983175,10901.713935003585,-204.66333340632735,-4660.0230048919111,12044.881435792642,-10444.210022000731,1301.6593880229111,-1301.6593880229111,10444.210022000731,22572.498635531549,0.0
658204.59901257406,4117374.0504322448,-17500.0,-12031.538984186374,-555.65469594078502,-364.72550432806611,7846.324206104433,-28.235172980230143,-3222.4165755071535,9030.9089794113534,-8701.3476928261989,1297.5488295967189,-1297.5488295967189,8701.3476928261989,17221.029152226674,0.0
663204.59901257406,4117374.0504322448,-17500.0,-9838.0839752299598,-472.76764353894112,-123.95939568591969,5772.6905909059215,52.173578340917324,-2267.507142863969,6926.731513029109,-7172.3063323871429,1144.1956165895681,-1144.1956165895681,7172.3063323871429,13371.121396098735,0.0
668204.59901257406,4117374.0504322448,-17500.0,-8063.5818945178335,-408.90249630746524,-26.540659596904455,4317.3932836758213,82.618518004786154,-1610.9331390899574,5407.8748005186917,-5902.2449087635305,962.89779058186559,-962.89779058186559,5902.2449087635305,10526.739246400479,0.0
673204.59901257406,4117374.0504322448,-17500.0,-6637.9951114712549,-354.66963963185157,7.5484944862171961,3272.7104051353363,88.992669830725688,-1154.531734498747,4283.8809744961527,-4867.2527989861119,794.76835515659445,-794.76835515659445,4867.2527989861119,8385.9439763966348,0.0
678204.59901257406,4117374.0504322448,-17500.0,-5493.5797344154735,-307.45194264985173,14.517604059256346,2510.8284398246119,84.685478867191676,-835.54371268799264,3436.5202494957648,-4029.8094921273118,651.27948076617258,-651.27948076617258,4029.8094921273118,6752.5842016840734,0.0
683204.59901257406,4117374.0504322448,-17500.0,-4573.224631643222,-266.39197860449343,10.793605123568607,1948.1646975587259,76.277279528329615,-611.25182277072315,2788.205483844778,-3353.424673825396,533.10651119487443,-533.10651119487443,3353.424673825396,5492.2747490601096,0.0
688204.59901257406,4117374.0504322448,-17500.0,-3830.6129939300799,-230.93110231609339,3.7166977175230218,1527.9539414988794,66.864804582982217,-452.30704260197098,2285.8808888625549,-2806.4777770572305,437.3278570406128,-437.3278570406128,2806.4777770572305,4509.8588047448411,0.0
693204.59901257406,4117374.0504322448,-17500.0,-3228.809154602412,-200.49059932941523,-3.5753152889884068,1210.7896453408473,57.819839211465563,-338.61106488067122,1892.2315218627418,-2362.8478805456148,360.19450425496461,-360.19450425496461,2362.8478805456148,3736.6384857603771,0.0
698204.59901257406,4117374.0504322448,-17500.0,-2738.6362247625225,-174.45953177383421,-9.8784927772342783,968.93353975066611,49.679471287434609,-256.4351986517662,1580.4912769438065,-2001.4835267939434,298.15162648328942,-298.15162648328942,2001.4835267939434,3122.3908466425132,0.0
703204.59901257406,4117374.0504322448,-17500.0,-2337.1704550871805,-152.23699669214349,-14.858484766541988,782.65511184245679,42.588142235107682,-196.39225082128402,1331.1737088664695,-1705.6483622614614,248.15919666469654,-248.15919666469654,1705.6483622614614,2630.0429633616745,0.0
708204.59901257406,4117374.0504322448,-17500.0,-2006.4473288312195,-133.26688525951832,-18.550830892160096,637.79026136833136,36.515000192402333,-152.03618241685265,1129.9206315967995,-1462.133129843691,207.73569252245329,-207.73569252245329,1462.133129843691,2231.9957972841871,0.0
713204.59901257406,4117374.0504322448,-17500.0,-1732.3884992114349,-117.05435489193108,-21.128754006750221,524.07882703732491,31.358948537205588,-118.9106802302156,966.03802947036934,-1260.5417164836808,174.90185059645614,-174.90185059645614,1260.5417164836808,1907.5303704799069,0.0
718204.59901257406,4117374.0504322448,-17500.0,-1503.9437834845712,-103.17074629626079,-22.798311747223011,434.02219850161271,26.998693107508466,-93.909294354493611,831.48231102198395,-1092.6936953383504,148.09687962419565,-148.09687962419565,1092.6936953383504,1640.9656223562124,0.0
723204.59901257406,4117374.0504322448,-17500.0,-1312.4141227596776,-91.250928170138593,-23.754224739026256,362.0908324570114,23.315342362349988,-74.846437360875356,720.14597030033656,-952.14039734167488,126.09589864875522,-126.09589864875522,952.14039734167488,1420.3360818984572,0.0
523204.59901257406,4122374.0504322448,-17500.0,-1300.0753289725885,-183.9873660318882,-35.074932522938823,-364.84706535203054,-48.849218241966575,-76.63908345502935,725.32526577605722,-931.91734667406513,43.747972936764597,-43.747972936764597,931.91734667406513,1434.3736781215218,0.0
528204.59901257406,4122374.0504322448,-17500.0,-1487.8236709421751,-215.4104166764601,-36.78420555221205,-437.1078368219263,-59.051121816420206,-96.153920053640633,837.35977110226077,-1067.2472870326087,48.078922627470547,-48.078922627470547,1067.2472870326087,1657.0299711120513,0.0
533204.59901257406,4122374.0504322448,-17500.0,-1711.0440040607907,-253.95038942627821,-38.613374471081165,-527.43204763684332,-71.966033250304449,-121.72046094377357,972.64907936064913,-1228.1210044602044,52.400641382732715,-52.400641382732715,1228.1210044602044,1925.7475397820779,0.0
538204.59901257406,4122374.0504322448,-17500.0,-1977.7834054994767,-301.60743883363472,-40.698295646731665,-641.2433725253627,-88.46449269776214,-155.540936851113,1137.2463731634687,-1420.2662556869552,56.342310540225526,-56.342310540225526,1420.2662556869552,2252.3289755508908,0.0
543204.59901257406,4122374.0504322448,-17500.0,-2298.1012255870996,-361.04545563434459,-43.323810863485278,-785.84188565492525,-109.73727418607773,-200.72506072885511,1339.0789078522846,-1650.7914294987181,59.245265725868308,-59.245265725868308,1650.7914294987181,2652.1165583454772,0.0
548204.59901257406,4122374.0504322448,-17500.0,-2684.5465998855657,-435.84088149199948,-47.060477886775949,-971.1214531859124,-137.42181343704516,-261.69578099585067,1588.5975526089796,-1928.4717992975463,59.964890277223276,-59.964890277223276,1928.4717992975463,3145.1646126576047,0.0
553204.59901257406,4122374.0504322448,-17500.0,-3152.6867884187359,-530.8311356986386,-53.023987249234651,-1210.5762590514148,-173.77524222944876,-344.77931087765262,1899.6658612864296,-2264.0240301431945,56.532333667829789,-56.532333667829789,2264.0240301431945,3757.8066410313213,0.0
558204.59901257406,4122374.0504322448,-17500.0,-3721.6158544607588,-652.60387785057935,-63.372511305591253,-1522.712893360318,-221.90262548600387,-459.05292686494789,2290.7928278015984,-2670.2748891076526,45.567026969056997,-45.567026969056997,2670.2748891076526,4524.7291144693136,0.0
563204.59901257406,4122374.0504322448,-17500.0,-4414.2681614174126,-810.1827781068107,-82.273369335221858,-1933.031731252421,-286.03588987082094,-617.53712838328636,2786.8666478558976,-3162.0124043928026,21.237216234780362,-21.237216234780362,3162.0124043928026,5491.6663562695012,0.0
568204.59901257406,4122374.0504322448,-17500.0,-5257.1307232150793,-1015.9809440358272,-117.81593289209673,-2476.8183963960173,-371.81939868113409,-838.81813632509329,3421.6152966715194,-3755.0538805982878,-26.621808104411002,26.621808104411002,3755.0538805982878,6718.7969415100606,0.0
573204.59901257406,4122374.0504322448,-17500.0,-6278.401165932466,-1287.1012885311773,-185.87957990177213,-3203.134749246618,-486.46715803387667,-1149.1773629543193,4241.1163571696125,-4463.4818704639283,-116.01587776460656,116.01587776460656,4463.4818704639283,8284.7997013752156,0.0
578204.59901257406,4122374.0504322448,-17500.0,-7502.1588559218535,-1646.9585919946592,-318.15628337796556,-4180.6687298685683,-638.46173261563501,-1585.3967400789609,5308.745783137565,-5292.515791620086,-279.53530419338767,279.53530419338767,5292.515791620086,10291.074952910734,0.0
583204.59901257406,4122374.0504322448,-17500.0,-8931.771478761515,-2126.4366477716112,-579.22441362571487,-5506.3299673076772,-836.05998917671241,-2199.1603754329694,6711.4990730864502,-6220.4350600587604,-577.55243019704767,577.55243019704767,6220.4350600587604,12863.896770661699,0.0
588204.59901257406,4122374.0504322448,-17500.0,-10502.324248200644,-2759.4527124943556,-1103.4734800928261,-7315.2529364123766,-1082.5295767502057,-3066.9360819126059,8563.563300049409,-7151.4195173437129,-1123.1173050868165,1123.1173050868165,7151.4195173437129,16144.268779006534,0.0
593204.59901257406,4122374.0504322448,-17500.0,-11944.514513920041,-3546.0399629486842,-2172.5866897045521,-9772.205102235961,-1357.4828275060952,-4314.7240413291156,10981.741938661455,-7792.0239942253975,-2118.0366551907719,2118.0366551907719,7792.0239942253975,20220.92898615641,0.0
598204.59901257406,4122374.0504322448,-17500.0,-12438.440935084918,-4263.8514933215802,-4345.3409837184772,-12933.795365248006,-1512.4652522716594,-6144.234659557872,13922.732273992722,-7367.1079770434208,-3831.3768623825913,3831.3768623825913,7367.1079770434208,24848.114389203754,0.0
603204.59901257406,4122374.0504322448,-17500.0,-10118.800993565164,-3762.3995506000042,-8423.5181183677651,-16137.365306013149,-645.1566624907739,-8574.7059814611439,16591.30404530379,-4322.2730401991421,-6097.2176965292538,6097.2176965292538,4322.2730401991421,28768.03512847775,0.0
608204.59901257406,4122374.0504322448,-17500.0,-3546.3871759336466,931.7997963714663,-13873.558526474515,-17312.345927144546,5719.6320092369024,-9574.7834668821215,18778.052346881763,1988.9620100272723,-6476.0898243238144,6476.0898243238144,-1988.9620100272723,32873.013803524824,0.0
613204.59901257406,4122374.0504322448,-17500.0,3115.7940198891347,5515.9719235183493,-17181.845681029852,-21106.073128699143,27555.236238757458,-4492.6117173313414,36133.156063194627,7653.1145968838937,-5754.1972446895106,5754.1972446895106,-7653.1145968838937,63411.349748954999,0.0
618204.59901257406,4122374.0504322448,-17500.0,36091.96946473547,-14786.562268353049,-37700.370399777748,-31916.44698714331,39905.767660726582,-15611.017973159862,65185.95578188722,40476.036815312298,-38812.083434688902,38812.083434688902,-40476.036815312298,113104.11498008315,0.0
623204.59901257406,4122374.0504322448,-17500.0,62091.233353578951,-30033.683001900543,-66219.014498387114,10500.786904438561,-7931.4807170073645,6486.920791724111,72141.04721463735,70454.451166053463,-71201.835802149624,71201.835802149624,-70454.451166053463,125085.35978589048,1.0
628204.59901257406,4122374.0504322448,-17500.0,30321.435162863483,-10541.812697960462,-38664.416777591941,12475.196999795347,-24539.961080826379,5588.1621070612273,45282.130839019534,36212.980709594143,-35033.545336644202,35033.545336644202,-36212.980709594143,79192.46672472106,0.0
633204.59901257406,4122374.0504322448,-17500.0,7811.8597407580937,-4504.0840287552219,-21144.639975039379,17631.882896280156,-7445.3548950803315,-10647.741485714758,22961.488577429525,13240.310441026482,-16734.540067035392,16734.540067035392,-13240.310441026482,42479.647436425927,0.0
638204.59901257406,4122374.0504322448,-17500.0,-5939.3924263270328,-6205.0247717267202,-12550.986367693335,18757.183462247918,729.23806837440043,-10809.153525189713,19977.837523978887,342.10937660560194,-11040.559544515021,11040.559544515021,-342.10937660560194,34753.83461823994,0.0
643204.59901257406,4122374.0504322448,-17500.0,-11648.284686925655,-6165.6498366791257,-6730.6216994425367,15585.178955232916,2198.0189001992758,-7717.0620725684075,16862.617507175313,-5830.7334536746112,-6816.4532180288388,6816.4532180288388,5830.7334536746112,29623.275928538747,0.0
648204.59901257406,4122374.0504322448,-17500.0,-12466.476313207359,-4996.5395934118615,-3438.1284754360345,11828.589142313795,2005.2629734726777,-5370.6355124206693,13210.845029161279,-7635.7922629546592,-3901.8445615298119,3901.8445615298119,7635.7922629546592,23968.819916630804,0.0
653204.59901257406,4122374.0504322448,-17500.0,-11399.767661146854,-3819.2263919444595,-1761.521246370233,8828.5453388996284,1587.4606891620822,-3821.2970816537554,10206.673731990142,-7507.5233791979736,-2193.2021914000611,2193.2021914000611,7507.5233791979736,19037.726933765127,0.0
658204.59901257406,4122374.0504322448,-17500.0,-9861.9505641108663,-2894.9179510589465,-925.22375934526713,6620.7795938818663,1208.8550649466229,-2750.2275249828845,7931.833980980271,-6728.8194285516811,-1234.6395871581763,1234.6395871581763,6728.8194285516811,15096.886218123069,0.0
663204.59901257406,4122374.0504322448,-17500.0,-8350.5224352565656,-2207.2553777432454,-504.17977848499879,5007.2662581166232,907.77695979521479,-1985.5110480065682,6227.0046371291473,-5810.9356466961663,-693.88372396202158,693.88372396202158,5810.9356466961663,12018.429796010505,0.0
668204.59901257406,4122374.0504322448,-17500.0,-7013.1353253296211,-1699.310116632206,-288.66216556567167,3819.5209331755323,679.50190975393878,-1436.6002128618927,4939.9543323118551,-4937.884122225516,-383.82473088781398,383.82473088781398,4937.884122225516,9624.5195245862833,0.0
673204.59901257406,4122374.0504322448,-17500.0,-5877.5414580316683,-1322.341917143091,-176.42498361373154,2938.5436584317849,510.24329453219502,-1043.9732898357192,3958.5823945368898,-4168.4277281900195,-203.65126905564784,203.65126905564784,4168.4277281900195,7761.5269613284145,0.0
678204.59901257406,4122374.0504322448,-17500.0,-4931.3251215456285,-1040.33543996244,-116.94082240548816,2280.6666986313789,385.87114979671128,-763.84180621970825,3203.0861584919426,-3513.2864743566261,-98.252609416589394,98.252609416589394,3513.2864743566261,6307.15879057232,0.0
683204.59901257406,4122374.0504322448,-17500.0,-4149.8307801767623,-827.42497427479248,-84.775700487605135,1786.053930605829,294.55447442524593,-563.75829823368827,2616.1718585266713,-2964.9001406933003,-36.69130690002703,36.69130690002703,2964.9001406933003,5166.3483909111364,0.0
688204.59901257406,4122374.0504322448,-17500.0,-3506.5749695194186,-665.10504926249155,-66.905082099468615,1411.4789581698662,227.21584977025935,-420.20766780883838,2156.1952881899401,-2509.5979451682465,-1.168855481477749,1.168855481477749,2509.5979451682465,4266.1107863220186,0.0
693204.59901257406,4122374.0504322448,-17500.0,-2977.1764733990608,-540.10701825974752,-56.565003227075422,1125.5852568239113,177.18838749423441,-316.49577185281265,1792.5772177181398,-2132.7354116651195,18.758123311808731,-18.758123311808731,2132.7354116651195,3550.8504669341364,0.0
698204.59901257406,4122374.0504322448,-17500.0,-2540.6376172883129,-442.87543005919491,-50.206273225376947,905.57563923570513,139.67936704108348,-240.92001959000973,1502.6689510538799,-1820.785569098304,29.311675342784838,-29.311675342784838,1820.785569098304,2978.3903626566857,0.0
703204.59901257406,4122374.0504322448,-17500.0,-2179.4936562325756,-366.48814544588254,-45.955341393409718,734.83248297111345,111.27290926275262,-185.3211522350536,1269.5669784383258,-1562.0530112110723,34.242866510100043,-34.242866510100043,1562.0530112110723,2516.7614647125338,0.0
708204.59901257406,4122374.0504322448,-17500.0,-1879.495289431336,-305.89509288963575,-42.821915722964697,601.19565497747976,89.536871565791643,-144.01017874089729,1080.5718098543414,-1346.7670029407582,35.832925010168879,-35.832925010168879,1346.7670029407582,2141.6892823674693,0.0
713204.59901257406,4122374.0504322448,-17500.0,-1629.1403210974581,-257.38278360664219,-40.285148130466261,495.72168550278576,72.733294437890208,-113.00598447158913,926.0888730041404,-1166.9179910406413,35.477206826906695,-35.477206826906695,1166.9179910406413,1834.6755190994636,0.0
718204.59901257406,4122374.0504322448,-17500.0,-1419.1931436430682,-218.197509654296,-38.074482452109827,411.79280710736941,59.612389073622872,-89.505544909312263,798.82834638303473,-1016.0070109503656,34.031233893395211,-34.031233893395211,1016.0070109503656,1581.5539285013867,0.0
723204.59901257406,4122374.0504322448,-17500.0,-1242.250896534699,-186.27901696233013,-36.052640743577165,344.4783804847051,49.268108264687363,-71.520260442752047,693.21441589906169,-888.78635773559586,32.01876064886676,-32.01876064886676,888.78635773559586,1371.4112888276275,0.0
523204.59901257406,4127374.0504322448,-17500.0,-1370.1076505922667,-82.780131275312556,-23.506153767860624,-382.62680064239072,-20.939491571521486,-80.037758095979086,752.51730123672849,-995.41620797818405,142.32435794812028,-142.32435794812028,995.41620797818405,1483.7414577899697,0.0
528204.59901257406,4127374.0504322448,-17500.0,-1572.3565285806635,-92.621253639471689,-22.454174759568883,-459.54337290323116,-23.883815587259257,-100.65353550270841,870.3357274707754,-1144.0666264566992,167.77141115281097,-167.77141115281097,1144.0666264566992,1717.0028560470719,0.0
533204.59901257406,4127374.0504322448,-17500.0,-1813.9425997577237,-103.78953858285948,-20.699223028149479,-556.04298100288293,-27.225739854132229,-127.75234095226685,1013.001336674907,-1321.8436596332117,198.91613283018864,-198.91613283018864,1321.8436596332117,1999.3253365631476,0.0
538204.59901257406,4127374.0504322448,-17500.0,-2104.1876771982411,-116.41736088036612,-18.080258045023818,-678.14968182131281,-30.958744131054349,-163.73573375058697,1187.1109727607602,-1535.6619918610186,237.25091242384553,-237.25091242384553,1535.6619918610186,2343.5874260330152,0.0
543204.59901257406,4127374.0504322448,-17500.0,-2454.9323990947987,-130.60303989796543,-14.458820472042511,-834.0446654604782,-35.013053624103264,-212.01893675794116,1401.3676537619244,-1794.2879349968407,284.68997887129262,-284.68997887129262,1794.2879349968407,2766.684253638376,0.0
548204.59901257406,4127374.0504322448,-17500.0,-2881.2538913321118,-146.36866360917989,-9.7936057607021052,-1034.9370847657046,-39.193598691086585,-277.50032904441014,1667.3628955585677,-2108.846585961991,343.6772250534159,-343.6772250534159,2108.846585961991,3290.9582065229597,0.0
553204.59901257406,4127374.0504322448,-17500.0,-3402.3687955240644,-163.59059606141906,-4.3035015963029668,-1296.3208680445048,-43.064273759569353,-367.25706633504291,2000.6919043804494,-2493.4379472446399,417.29611347475429,-417.29611347475429,2493.4379472446399,3946.1925628981098,0.0
558204.59901257406,4127374.0504322448,-17500.0,-4042.7469138986912,-181.89173123795064,1.1869676779146985,-1639.8074485678103,-45.731488170563757,-491.57026467863795,2422.5726715437436,-2965.8498193084665,509.34170345160419,-509.34170345160419,2965.8498193084665,4772.4172679187313,0.0
563204.59901257406,4127374.0504322448,-17500.0,-4833.4323942402207,-200.49039367715639,4.5232330492536432,-2095.8370393443502,-45.438047844113115,-665.41770132293652,2962.2524849684273,-3548.2993456362037,624.24796083823026,-624.24796083823026,3548.2993456362037,5823.9052810533467,0.0
568204.59901257406,4127374.0504322448,-17500.0,-5813.5222258340618,-218.04342128543897,0.69946505798992864,-2707.8044858049898,-38.804404392072037,-910.61790817576093,3660.7207395904074,-4268.0223849540043,766.59756540582202,-766.59756540582202,4268.0223849540043,7175.0145319009625,0.0
573204.59901257406,4127374.0504322448,-17500.0,-7031.5703961345507,-232.66490129785768,-21.370710503070637,-3538.6507307098445,-19.432468168533322,-1258.9045027006782,4576.7258771600655,-5157.2184984448068,939.52008317003947,-939.52008317003947,5157.2184984448068,8929.093415988089,0.0
578204.59901257406,4127374.0504322448,-17500.0,-8546.0637048533263,-242.76925815161931,-85.844288933864817,-4682.2769906721105,24.544171607751284,-1756.6573019128791,5797.1787128128763,-6250.9790243921161,1140.1697408187933,-1140.1697408187933,6250.9790243921161,11233.043017650532,0.0
583204.59901257406,4127374.0504322448,-17500.0,-10421.288230713732,-250.76123479153256,-245.53386495926406,-6285.3056868816693,114.22102423491994,-2474.1755142443926,7456.2295297322817,-7578.6961534414759,1347.3583069697734,-1347.3583069697734,7578.6961534414759,14303.065971010539,0.0
588204.59901257406,4127374.0504322448,-17500.0,-12702.359593765337,-275.10554381898561,-618.18528611637248,-8591.0243050320169,283.4818966894606,-3531.575742584932,9770.4964289342133,-9132.4785641264971,1487.5086925658225,-1487.5086925658225,9132.4785641264971,18471.448928392248,0.0
593204.59901257406,4127374.0504322448,-17500.0,-15300.143468890197,-382.88486601449603,-1476.1042376470768,-12019.370876801946,573.07829893475946,-5185.6301757904794,13094.187358664887,-10749.551783336416,1339.7210179050999,-1339.7210179050999,10749.551783336416,24257.058740680863,0.0
598204.59901257406,4127374.0504322448,-17500.0,-17516.13282268215,-750.46374563009215,-3483.6202828392247,-17219.132335050141,986.24308635781813,-8099.1470752548776,17939.516856670765,-11677.232992522284,277.14242731595368,-277.14242731595368,11677.232992522284,32365.880600601435,0.0
603204.59901257406,4127374.0504322448,-17500.0,-16342.690787474672,-1611.0237054820559,-8343.4349901908481,-24429.576035316972,1418.8633146595016,-13855.093403169001,24589.095870154957,-9106.3605824044753,-3329.1297155348016,3329.1297155348016,9106.3605824044753,43064.086818496522,0.0
608204.59901257406,4127374.0504322448,-17500.0,-2693.4112344419264,-2028.1961944331742,-20020.375096302239,-28760.156079714379,2746.5610374404287,-23216.126943887215,30699.372969150281,4922.9873432445747,-12428.589999570129,12428.589999570129,-4922.9873432445747,53686.315281561489,0.0
613204.59901257406,4127374.0504322448,-17500.0,26901.005656303449,-1152.5974448627894,-40980.696844972452,-14440.047372133684,15186.801862272287,-15572.620277199541,40117.499431879885,33732.259122162824,-28289.941866016547,28289.941866016547,-33732.259122162824,69643.37437252875,0.0
618204.59901257406,4127374.0504322448,-17500.0,55447.833504831004,-23950.564526958398,-60271.308868825028,-4478.7600662400773,10218.115481733161,877.57300701709141,63590.324548207704,63073.316177897526,-61932.832906247269,61932.832906247269,-63073.316177897526,110219.35242618091,1.0
623204.59901257406,4127374.0504322448,-17500.0,35172.599566410478,-23638.18909364285,-26999.69454058808,27333.250248879263,-40251.43891044426,2027.7254997227321,62139.563382338223,36889.487484401812,-39715.200425723822,39715.200425723822,-36889.487484401812,108080.6672549623,1.0
628204.59901257406,4127374.0504322448,-17500.0,9059.6156725439996,-531.32252649426664,-6339.4835260372629,10814.382910291954,-36881.63929429945,12464.519744057043,39660.609000935809,8856.3365792321601,-5450.1150293312758,5450.1150293312758,-8856.3365792321601,68801.334133866825,0.0
633204.59901257406,4127374.0504322448,-17500.0,6669.8588878820383,1234.4144051919293,-8798.8317045593012,4728.8093818631614,-13149.753675681961,2048.9374600249894,15434.789892363151,7784.656536600467,-5036.2471550958562,5036.2471550958562,-7784.656536600467,27920.56618591696,0.0
638204.59901257406,4127374.0504322448,-17500.0,1596.2842371886848,-3345.0050822687126,-9221.676026283596,6731.9316826564755,-1457.7917804132182,-2950.1717885033886,8715.5957732950428,4548.7025632753448,-8107.123142493363,8107.123142493363,-4548.7025632753448,16260.827352759454,0.0
643204.59901257406,4127374.0504322448,-17500.0,-3156.6464406418527,-5584.0683865690262,-7043.2033608761631,7484.4095031420175,2104.467457165294,-3690.3475601280184,9774.412538640443,487.71152716657934,-7901.2916180806387,7901.2916180806387,-487.71152716657934,16976.362027963947,0.0
648204.59901257406,4127374.0504322448,-17500.0,-5690.7965162413211,-5681.9336671119108,-4687.9825752549814,6870.4063616911617,2662.9322930623716,-3260.948197017151,9028.9473222517336,-2166.2978405721515,-6246.5661961304559,6246.5661961304559,2166.2978405721515,16254.454755378743,0.0
653204.59901257406,4127374.0504322448,-17500.0,-6520.919260320622,-4930.168932034353,-2979.4737376919447,5808.5374366070409,2351.4458511852304,-2635.768954430042,7691.5707293633395,-3413.3259668722771,-4552.7834330403393,4552.7834330403393,3413.3259668722771,14303.918779807464,0.0
658204.59901257406,4127374.0504322448,-17500.0,-6435.1436956251691,-4018.5800789143354,-1886.4170114530823,4738.1797165848893,1871.9589643699696,-2048.3747229256405,6360.4757357598328,-3790.4232611422185,-3225.3139144810339,3225.3139144810339,3790.4232611422185,12095.087147618571,0.0
663204.59901257406,4127374.0504322448,-17500.0,-5937.5460140023697,-3194.4052556770707,-1213.3050178401043,3801.5808184807365,1431.8098885178306,-1556.7739570777856,5206.3057259671432,-3715.5341101916797,-2270.0846200390156,2270.0846200390156,3715.5341101916797,10046.529624689927,0.0
668204.59901257406,4127374.0504322448,-17500.0,-5293.9598930937509,-2517.8508818717728,-800.48755530857864,3027.9031069794651,1078.6809470972219,-1169.0150438287337,4253.6386056930487,-3433.6628805502623,-1602.4630531989878,1602.4630531989878,3433.6628805502623,8287.6478392571462,0.0
673204.59901257406,4127374.0504322448,-17500.0,-4634.6939930137842,-1984.0461879207594,-544.60574517069711,2407.0010102569745,810.15405184585984,-873.85043016094755,3482.9802852609914,-3076.0797236047501,-1139.4299629678326,1139.4299629678326,3076.0797236047501,6830.0741066041774,0.0
678204.59901257406,4127374.0504322448,-17500.0,-4019.1112404386918,-1569.7831530075293,-383.15490737096889,1916.3312799953649,610.57152628884091,-653.70837629647247,2864.5178681617149,-2709.4379111922999,-817.75728841544787,817.75728841544787,2709.4379111922999,5642.4891643102528,0.0
683204.59901257406,4127374.0504322448,-17500.0,-3470.2395779161707,-1250.0124649387758,-279.04041194232411,1531.4923994798567,463.40669314695111,-491.14995203205302,2369.1477437987924,-2365.1894378006746,-592.89742238021904,592.89742238021904,2365.1894378006746,4681.8902670546049,0.0
688204.59901257406,4127374.0504322448,-17500.0,-2992.9863015359233,-1003.0196780316354,-210.24349603980914,1230.3925279275609,354.87891132511248,-371.46124007628453,1971.7952353164162,-2056.0854829324553,-434.36258999218524,434.36258999218524,2056.0854829324553,3906.2233720311833,0.0
693204.59901257406,4127374.0504322448,-17500.0,-2583.7323749534817,-811.46225783285513,-163.58090378756685,994.57886066726041,274.46616656448958,-283.18119904178434,1651.9777487467247,-1785.269775537329,-321.49532319571995,321.49532319571995,1785.269775537329,3278.8650309498908,0.0
698204.59901257406,4127374.0504322448,-17500.0,-2235.3526391610594,-661.99895464099302,-131.05760737854476,809.29512694010111,214.44766830906494,-217.75724376503578,1393.4093152393384,-1551.2374643883491,-240.31210000359386,240.31210000359386,1551.2374643883491,2769.6028336681338,0.0
703204.59901257406,4127374.0504322448,-17500.0,-1939.7574375102358,-544.54602879704407,-107.75176442475181,663.02539496823624,169.25836430308189,-168.95036501085204,1183.3120752152058,-1350.4800461559357,-181.31078864680126,181.31078864680126,1350.4800461559357,2354.1916253114109,0.0
708204.59901257406,4127374.0504322448,-17500.0,-1689.1151264748735,-451.53786235854602,-90.583611238362536,546.90338394776484,134.9127981046077,-132.25896266442746,1011.681378723643,-1178.8597170090716,-137.99144937451831,137.99144937451831,1178.8597170090716,2013.4532833630556,0.0
713204.59901257406,4127374.0504322448,-17500.0,-1476.3699397847561,-377.3055672741192,-77.592828955251093,454.14654337384917,108.55625421586829,-104.44683745577382,870.60781796954302,-1032.2836534246285,-105.87086254323765,105.87086254323765,1032.2836534246285,1732.3148888063208,0.0
718204.59901257406,4127374.0504322448,-17500.0,-1295.4068430837192,-317.59243537003221,-67.509546638502727,379.57744414893369,88.135858536230231,-83.185611336663356,753.82091697813655,-907.00833281612381,-81.828273513714123,81.828273513714123,907.00833281612381,1498.9545270529702,0.0
723204.59901257406,4127374.0504322448,-17500.0,-1141.039870640004,-269.18808117987328,-59.496195229616895,319.24007174337163,72.166071936473173,-66.793740594026431,656.42693940670938,-799.74679959893103,-63.670359025100993,63.670359025100993,799.74679959893103,1304.089922949305,0.0
523204.59901257406,4132374.0504322448,-17500.0,-1402.8241715001129,24.23805242393664,-25.799389697152701,-391.15994817683156,8.4957419495568693,-81.721292485044259,767.9337756484191,-1027.1963924881031,231.71580867683679,-231.71580867683679,1027.1963924881031,1511.0645123717406,0.0
528204.59901257406,4132374.0504322448,-17500.0,-1609.5378510690191,37.401626057577964,-25.931575370155826,-469.75370885207809,13.261411108922582,-102.78266176399133,888.34181700183046,-1180.5525414336537,275.57493825975479,-275.57493825975479,1180.5525414336537,1748.9262260355886,0.0
533204.59901257406,4132374.0504322448,-17500.0,-1856.1436782486828,55.462088589076224,-25.90192047149009,-568.29697209905908,20.108655728317228,-130.46376251246295,1034.129779593809,-1363.7527343552142,329.88361957926998,-329.88361957926998,1363.7527343552142,2036.8284587950257,0.0
538204.59901257406,4132374.0504322448,-17500.0,-2151.9364065547156,80.318013782187904,-25.809473930443474,-692.88888578690489,29.992294499394021,-167.21246936294528,1212.0203709940138,-1583.7641895615802,397.60423877646247,-397.60423877646247,1583.7641895615802,2387.9083757857229,0.0
543204.59901257406,4132374.0504322448,-17500.0,-2508.6391999784196,114.67602009770161,-25.912048999244959,-851.78988195035754,44.350948897784562,-216.50626250027594,1430.8764385525133,-1849.3542391986421,482.64745956560637,-482.64745956560637,1849.3542391986421,2819.4073188332468,0.0
548204.59901257406,4132374.0504322448,-17500.0,-2941.0461078570979,162.42782173039859,-26.778403486095385,-1056.2790671948528,65.380146583549234,-283.32586928477343,1702.4961959721356,-2171.5423152295921,590.1914877458189,-590.1914877458189,2171.5423152295921,3354.1427141122717,0.0
553204.59901257406,4132374.0504322448,-17500.0,-3467.7978414710042,229.21672616787347,-29.576180186698853,-1321.8814159019678,96.476776734172617,-374.85385268314513,2042.7513113431221,-2564.1193659522723,727.09779129378899,-727.09779129378899,2564.1193659522723,4022.5737223384012,0.0
558204.59901257406,4132374.0504322448,-17500.0,-4112.2791964264743,323.28845649223899,-36.619615255497216,-1670.1377945648273,142.97227461583694,-501.49668208864693,2473.2461635748314,-3044.1917938328565,902.42743529812014,-902.42743529812014,3044.1917938328565,4865.7354313694923,0.0
563204.59901257406,4132374.0504322448,-17500.0,-4903.5944681343153,456.76924358989561,-52.418558276985976,-2131.1967099144367,213.36151225301461,-678.35767550325227,3023.8081468682685,-3632.6475937850701,1128.0293458056058,-1128.0293458056058,3632.6475937850701,5939.4990360956135,0.0
568204.59901257406,4132374.0504322448,-17500.0,-5877.5101201171974,647.5608519887935,-85.710497823490599,-2747.7198004191255,321.39155541757077,-927.31600271858008,3736.379997023359,-4354.3156589537602,1419.0633455256648,-1419.0633455256648,4354.3156589537602,7320.9703808246677,0.0
573204.59901257406,4132374.0504322448,-17500.0,-7077.1617489268201,922.07507661860723,-153.44433940049024,-3581.1340419038547,489.66557416590717,-1279.9401397504732,4671.4945109964156,-5237.3596719277157,1794.05853153829,-1794.05853153829,5237.3596719277157,9118.7095859624751,0.0
578204.59901257406,4132374.0504322448,-17500.0,-8553.0188063836849,1318.9299167508539,-288.68778474761433,-4722.7411762056572,755.95127437197846,-1781.901634440979,5919.959533198622,-6310.8782086279816,2273.4149505450196,-2273.4149505450196,6310.8782086279816,11490.622668593516,0.0
583204.59901257406,4132374.0504322448,-17500.0,-10360.053707695595,1893.156202373731,-556.5308223934768,-6316.327701829603,1184.4012219181377,-2502.0162291158267,7625.8639056526772,-7597.7892671342588,2873.3688459037685,-2873.3688459037685,7597.7892671342588,14678.892690407201,0.0
588204.59901257406,4132374.0504322448,-17500.0,-12541.567778499428,2718.2673867344524,-1086.5057639469173,-8609.4345456640494,1885.9311844548122,-3560.5752691532757,10034.64008693693,-9092.1441864185963,3586.8173354532014,-3586.8173354532014,9092.1441864185963,19084.105368249642,0.0
593204.59901257406,4132374.0504322448,-17500.0,-15046.790592699788,3875.6368632541371,-2140.0976979048942,-12069.309221373651,3056.5558650223406,-5237.9400603471704,13592.027775241775,-10674.799017815356,4323.5944660035293,-4323.5944660035293,10674.799017815356,25422.242398604776,0.0
598204.59901257406,4132374.0504322448,-17500.0,-17341.127150178247,5389.6525626574194,-4258.8126068671245,-17581.442354591691,5054.0596470330747,-8378.1396035143734,19117.901513269473,-11771.116129592747,4712.526643121937,-4712.526643121937,11771.116129592747,35004.606040174498,0.0
603204.59901257406,4132374.0504322448,-17500.0,-16729.41354501967,6915.4486217325421,-8634.1250442557593,-26282.818993831617,8552.8704739241457,-15626.131529609504,27949.201233853546,-9965.7619757585435,3373.3014175418407,-3373.3014175418407,9965.7619757585435,49930.995710498908,0.0
608204.59901257406,4132374.0504322448,-17500.0,-2446.0147663313096,6070.4615597968341,-18192.698932043299,-34840.594749317956,14488.847994392943,-32813.980879878654,40900.831241855522,3850.6713358286356,-4980.124250252371,4980.124250252371,-3850.6713358286356,71231.379627679271,0.0
613204.59901257406,4132374.0504322448,-17500.0,39820.657330650487,-7814.00523874802,-38302.831051404573,-9776.7842729007916,17468.23441117242,-38708.261880559046,49140.433132154052,42877.606894437668,-34190.188214527217,34190.188214527217,-42877.606894437668,86720.630117121327,0.0
618204.59901257406,4132374.0504322448,-17500.0,41726.172514229911,-28750.499111169192,-40119.858404106257,9884.8270406987176,-5651.5229972397428,18887.217445517297,51806.72628912326,46545.491454517083,-52224.012380344175,52224.012380344175,-46545.491454517083,90663.305553471568,0.0
623204.59901257406,4132374.0504322448,-17500.0,22404.386067835978,-23433.578882790156,-6280.2865823473749,10063.767956466843,-21570.379617977032,10171.018042460977,36260.976876847628,20478.35333998398,-25848.469354483415,25848.469354483415,-20478.35333998398,62997.107440571686,0.0
628204.59901257406,4132374.0504322448,-17500.0,7015.3477506390855,-6783.2851626008714,7202.7918873266917,4810.550131770211,-22404.434236743618,7987.6880940119363,23771.014272272536,3277.8430386557966,-2500.8762787290507,2500.8762787290507,-3277.8430386557966,41402.142365577063,0.0
633204.59901257406,4132374.0504322448,-17500.0,6221.9454611176943,744.90973690600595,1412.1986370727827,-387.74407728619809,-12182.303921554334,4469.7604034644792,12314.671705686444,4051.2668096741036,381.38887125988117,-381.38887125988117,-4051.2668096741036,21566.583988653976,0.0
638204.59901257406,4132374.0504322448,-17500.0,5392.8289715291039,-586.26586286277563,-4055.6475868144357,92.562309152387684,-3506.6985439554142,909.96036122511555,5674.0052741529107,5388.1705482099378,-3618.0680062793663,3618.0680062793663,-5388.1705482099378,10245.055960601849,0.0
643204.59901257406,4132374.0504322448,-17500.0,2600.4637773417357,-3005.3781042783285,-5447.0055014976469,1682.8853487267718,629.58223500032182,-821.86449799383183,5342.1353791726287,3989.7407275758787,-5878.2188402349575,5878.2188402349575,-3989.7407275758787,9258.2576261382492,0.0
648204.59901257406,4132374.0504322448,-17500.0,-101.06495641311969,-4173.3385404680548,-4800.8887789343853,2611.6742103314386,2011.4509696757518,-1401.0391275126949,5687.6706137765395,1872.8319884347252,-6010.2840857504525,6010.2840857504525,-1872.8319884347252,10125.1776529252,0.0
653204.59901257406,4132374.0504322448,-17500.0,-1913.15767886912,-4293.4349745767968,-3670.7071670579367,2874.7209533234045,2186.0208176879892,-1454.4963305225965,5397.9582534817009,165.70883192056272,-5178.2022110788221,5178.2022110788221,-165.70883192056272,9926.4467369357153,0.0
658204.59901257406,4132374.0504322448,-17500.0,-2886.3079739994978,-3896.5262033356112,-2654.2183112267885,2753.2294787723285,1929.5814510916364,-1296.7440214415394,4804.6941909969919,-925.49910379739231,-4133.1476171895429,4133.1476171895429,925.49910379739231,9037.2052420263972,0.0
663204.59901257406,4132374.0504322448,-17500.0,-3277.0999814092465,-3328.5495698294944,-1883.9004358803836,2458.5624993521155,1571.153294218635,-1076.0425139179242,4141.0270692995255,-1517.9796307671677,-3184.0603580800107,3184.0603580800107,1517.9796307671677,7905.4430687577196,0.0
668204.59901257406,4132374.0504322448,-17500.0,-3315.4817709946014,-2758.2639027615892,-1336.9658589589642,2112.3431954618668,1233.8394135387978,-859.35527722899542,3512.2082890285428,-1775.5947043426052,-2415.6030024978368,2415.6030024978368,1775.5947043426052,6772.3494380420289,0.0
673204.59901257406,4132374.0504322448,-17500.0,-3161.5132283164676,-2252.6077703473047,-958.08429730025182,1775.929989884281,953.91944109132487,-672.45643644437519,2957.381445510804,-1829.6917704162868,-1824.2194688818429,1824.2194688818429,1829.6917704162868,5742.8596717423579,0.0
678204.59901257406,4132374.0504322448,-17500.0,-2915.5407155912885,-1829.2476199779449,-697.06680785167191,1475.7491855454873,733.98775192562732,-521.146226507591,2484.9385782142199,-1769.7574360596091,-1379.5850497750384,1379.5850497750384,1769.7574360596091,4850.8773795302332,0.0
683204.59901257406,4132374.0504322448,-17500.0,-2636.4805276883335,-1484.7975522973338,-516.42784670340382,1219.6690782323399,565.50740194794673,-402.68771343647825,2090.0243940419523,-1652.119497872163,-1048.4135818627162,1048.4135818627162,1652.119497872163,4096.9184056582926,0.0
688204.59901257406,4132374.0504322448,-17500.0,-2356.9064863433618,-1208.4387857913553,-390.12982365027028,1006.5980089946228,437.80315817779473,-311.5507355713147,1762.9389535399887,-1510.4168056763765,-802.17904355119401,802.17904355119401,1510.4168056763765,3467.6561246306896,0.0
693204.59901257406,4132374.0504322448,-17500.0,-2093.4630408354292,-987.97881575190695,-300.6236726492354,831.72149553444672,341.24663579337869,-241.98748671544479,1493.028289695829,-1363.7942122357942,-618.603675068239,618.603675068239,1363.7942122357942,2945.466452670647,0.0
698204.59901257406,4132374.0504322448,-17500.0,-1853.5446697755901,-812.26094660890737,-236.20693756310078,689.17092973648244,268.07904766258724,-189.00151271513198,1270.3617710400088,-1222.5262815190122,-481.01628226528703,481.01628226528703,1222.5262815190122,2512.7931036342065,0.0
703204.59901257406,4132374.0504322448,-17500.0,-1639.3834476295037,-671.90863604105618,-189.08039612225789,573.263220938681,212.35869843442731,-148.57847278513486,1086.3322533218582,-1091.6264785121271,-377.19344912550565,377.19344912550565,1091.6264785121271,2153.9089738004018,0.0
708204.59901257406,4132374.0504322448,-17500.0,-1450.4752408361758,-559.36317529878431,-154.01918834511642,478.99339323719056,169.6456636551583,-117.61966632595474,933.75707618087119,-973.08040181213983,-298.25077379927092,298.25077379927092,973.08040181213983,1855.4293447609612,0.0
713204.59901257406,4132374.0504322448,-17500.0,-1284.9873160764007,-468.66236369319915,-127.49308282037525,402.1630258063679,136.6590916288427,-93.783148847692971,806.77626959366376,-867.19727645996954,-237.74446664196961,237.74446664196961,867.19727645996954,1606.2733164767963,0.0
718204.59901257406,4132374.0504322448,-17500.0,-1140.5466120952044,-395.15364533138882,-107.09150452294612,339.34273198466269,110.98313070751308,-75.317160858491164,700.70316558939248,-773.40739321473211,-190.99200873493186,190.99200873493186,773.40739321473211,1397.4003976833926,0.0
723204.59901257406,4132374.0504322448,-17500.0,-1014.669158749399,-335.22306996484298,-91.148858656309798,287.77321824501377,90.837286137761538,-60.916753723847073,611.97118606001175,-690.72628594411481,-154.57598180531289,154.57598180531289,690.72628594411481,1221.4915965565253,0.0
523204.59901257406,4137374.0504322448,-17500.0,-1397.4050763437895,130.06364591863633,-42.062148051882858,-390.21929765104733,37.723988935443167,-81.643130360139523,771.1558558854166,-1026.0651463341824,306.14130754210419,-306.14130754210419,1026.0651463341824,1515.4892139950723,0.0
528204.59901257406,4137374.0504322448,-17500.0,-1598.4309181021254,165.30173222557912,-47.2818968670231,-467.45822053567264,49.982715223730651,-102.47950189942911,890.839595731136,-1175.2547354692242,363.83578958356179,-363.83578958356179,1175.2547354692242,1751.716506171093,0.0
533204.59901257406,4137374.0504322448,-17500.0,-1836.6026798759995,211.14712459866419,-54.198658293483632,-563.84959137125088,66.660175230091411,-129.7723797188564,1035.3270449730555,-1352.0879237379886,435.04781326313343,-435.04781326313343,1352.0879237379886,2036.8681167816478,0.0
538204.59901257406,4137374.0504322448,-17500.0,-2119.9135626864872,271.24308091436734,-63.694503858330613,-685.04357136665556,89.568090799672362,-165.86128052378459,1211.0218163620632,-1562.4462326121497,523.48149622754124,-523.48149622754124,1562.4462326121497,2383.492696505783,0.0
543204.59901257406,4137374.0504322448,-17500.0,-2458.1219023582835,350.64330420588243,-77.184947902319252,-838.58296167517597,121.3599852985832,-214.04074854311173,1426.2899719116474,-1813.4436240236155,633.9521500123642,-633.9521500123642,1813.4436240236155,2807.9256271079835,0.0
548204.59901257406,4137374.0504322448,-17500.0,-2863.022477751952,456.41160316274829,-96.971724889997716,-1034.5851021862304,165.96880606865653,-278.97919937722179,1692.1486548356654,-2113.5548481194742,772.71045608676877,-772.71045608676877,2113.5548481194742,3331.5750277625343,0.0
553204.59901257406,4137374.0504322448,-17500.0,-3348.6224245328331,598.4910845386288,-126.84905880019112,-1286.6670998563857,229.29500258405852,-367.31928113736825,2023.2266843081702,-2472.6092871492701,947.82387864093153,-947.82387864093153,2472.6092871492701,3982.6811317757642,0.0
558204.59901257406,4137374.0504322448,-17500.0,-3931.054175032345,790.96180137958061,-173.16207344598052,-1613.1865568597245,320.29980953323206,-488.52131089103386,2439.1214611724745,-2901.4691962474244,1169.5715151673064,-1169.5715151673064,2901.4691962474244,4798.7361594106014,0.0
563204.59901257406,4137374.0504322448,-17500.0,-4627.9040908639745,1053.8461918806493,-246.68260164264976,-2038.8825904784753,452.7588190832401,-656.00570909105204,2966.3556877034503,-3411.0449417128248,1450.7223756653157,-1450.7223756653157,3411.0449417128248,5829.8529686419897,0.0
568204.59901257406,4137374.0504322448,-17500.0,-5456.3485219217291,1415.6635381664337,-365.9904993048865,-2597.0272537273313,648.10385741196399,-888.60878495880047,3641.2953472445879,-4009.9828279900175,1806.3727536562044,-1806.3727536562044,4009.9828279900175,7143.5731778600157,0.0
573204.59901257406,4137374.0504322448,-17500.0,-6428.9416528499505,1916.9420479901237,-563.67664615486194,-3332.3132334896341,940.08577632525544,-1212.2825982630434,4514.7519675180656,-4699.7465272065219,2252.5829085891323,-2252.5829085891323,4699.7465272065219,8832.1003272558555,0.0
578204.59901257406,4137374.0504322448,-17500.0,-7544.6544641312148,2614.7778018860527,-897.94215817866655,-4305.152359028004,1382.5813882667003,-1662.011097701926,5659.846985162967,-5464.4618829955025,2802.0498522808784,-2802.0498522808784,5464.4618829955025,11024.193061086411,0.0
583204.59901257406,4137374.0504322448,-17500.0,-8769.1484484861812,3587.9745001574806,-1474.7875587066878,-5599.4211848464765,2063.2190797393223,-2285.1460586529743,7186.6827956453999,-6249.3031894315236,3452.5539424277822,-3452.5539424277822,6249.3031894315236,13907.019418636621,0.0
588204.59901257406,4137374.0504322448,-17500.0,-9985.1988624782316,4939.7141635422295,-2491.7422233058128,-7337.8180841744934,3129.0514872173894,-3154.1977774950674,9270.7914970854345,-6909.4222504047093,4156.5082884489357,-4156.5082884489357,6909.4222504047093,17768.865979136739,0.0
593204.59901257406,4137374.0504322448,-17500.0,-10844.452585448213,6781.1604978858613,-4327.5584403712555,-9700.6116564069362,4839.8453315058468,-4422.587983392129,12202.476249463292,-7069.1571371379614,4733.5187288571378,-4733.5187288571378,7069.1571371379614,23073.577172988975,0.0
598204.59901257406,4137374.0504322448,-17500.0,-10280.657004024166,9100.8444601524861,-7731.4912745150004,-12836.934013296568,7675.5655189166109,-6509.8117944307496,16426.269519995527,-5689.1469828183999,4581.1232433864425,-4581.1232433864425,5689.1469828183999,30507.124782352708,0.0
603204.59901257406,4137374.0504322448,-17500.0,-5081.1012214642324,10978.541218014245,-14150.365831447498,-15900.204781961333,12366.142707724306,-10331.175381121659,22315.496635950643,158.8511825308168,1632.8015543902411,-1632.8015543902411,-158.8511825308168,40509.253535791897,0.0
608204.59901257406,4137374.0504322448,-17500.0,11503.083664200256,6755.995466034743,-24949.005558233541,-12186.210142757007,17544.699885185848,-14618.173933046446,28746.550394086204,16355.450756928341,-10484.20305106627,10484.20305106627,-16355.450756928341,50643.771126667169,0.0
613204.59901257406,4137374.0504322448,-17500.0,28535.011987502803,-16227.60882706029,-27765.836705097816,11226.62240355575,2292.1345804615771,4037.0324683535473,34518.202076427544,31671.0065924351,-33159.291996390522,33159.291996390522,-31671.0065924351,59787.608960041842,0.0
618204.59901257406,4137374.0504322448,-17500.0,16212.876295904169,-17052.368176004213,-4972.9765116868575,1966.0407857269342,-35326.293697351364,41527.96992177004,45649.526559044767,14970.931855680717,-19021.318899121659,19021.318899121659,-14970.931855680717,79080.990012500901,0.0
623204.59901257406,4137374.0504322448,-17500.0,18290.841537741711,-5866.9433553651816,4321.0192977190054,-10162.113795048737,-28745.251608725448,25302.487104070231,32606.509450714104,12487.791278574179,-5211.9991522919117,5211.9991522919117,-12487.791278574179,56870.095504050689,0.0
628204.59901257406,4137374.0504322448,-17500.0,13221.970792645543,-1273.8071362029791,7131.0964652697039,-7017.7786056770392,-18365.348352535693,11683.055548918941,19826.078655997284,7442.2911424763115,851.04897010364039,-851.04897010364039,-7442.2911424763115,34562.510538368231,0.0
633204.59901257406,4137374.0504322448,-17500.0,9667.3886270606126,1888.5229072560116,3933.6665749301765,-5295.4108641406383,-10693.216754085495,6012.0688263648617,12419.598086984068,5650.7116300104053,2153.0242916038451,-2153.0242916038451,-5650.7116300104053,21520.610639362432,0.0
638204.59901257406,4137374.0504322448,-17500.0,7945.3631949920791,1535.4673333579267,-693.63808431680081,-3637.8980108946748,-4636.9130407809462,2801.6421481033303,7476.5712191292787,5969.0272428488024,-449.44652140234439,449.44652140234439,-5969.0272428488024,12958.872244889306,0.0
643204.59901257406,4137374.0504322448,-17500.0,5830.88628007035,-361.19701819203686,-3288.6973296473748,-1785.6998905418384,-924.3859824210017,924.64917894139023,4977.0144765342175,5434.7856409864726,-3078.5185143185622,3078.5185143185622,-5434.7856409864726,8661.1869130545219,0.0
648204.59901257406,4137374.0504322448,-17500.0,3484.5010350119469,-1940.9088474892715,-3929.1038822455025,-319.86913023447448,854.29515057154742,-55.369167044263591,4280.9486217097947,4045.7610197336026,-4319.2198160854959,4319.2198160854959,-4045.7610197336026,7419.3537883874924,0.0
653204.59901257406,4137374.0504322448,-17500.0,1472.3407436528962,-2746.787378559342,-3580.9585990703463,595.5775235750117,1486.6339613420637,-493.26909644603688,3998.16845824969,2508.8521124129875,-4441.2479172438016,4441.2479172438016,-2508.8521124129875,7056.5957409708126,0.0
658204.59901257406,4137374.0504322448,-17500.0,15.263384575221222,-2946.4453807920295,-2920.6788251718463,1061.9004185060301,1557.3489088688852,-633.60074007817173,3659.8171400514375,1228.0646858874318,-3994.0159735700163,3994.0159735700163,-1228.0646858874318,6621.1237153207967,0.0
663204.59901257406,4137374.0504322448,-17500.0,-919.16529716121329,-2799.8784608125693,-2262.9052413069035,1232.0584363781193,1397.7827494804196,-626.3511385017697,3259.8946672624179,306.05028251352246,-3356.4670425318845,3356.4670425318845,-306.05028251352246,6018.1471610753497,0.0
668204.59901257406,4137374.0504322448,-17500.0,-1452.2972249610834,-2498.3725500062187,-1714.1545707237558,1231.2730431507714,1171.0800111362598,-556.57331309143785,2847.9133242821013,-295.64881597051158,-2721.4335190268594,2721.4335190268594,295.64881597051158,5337.9231706362143,0.0
673204.59901257406,4137374.0504322448,-17500.0,-1708.9247262156093,-2153.4935407192079,-1289.4973562012112,1143.8251495787622,948.36530935808162,-468.62013494762203,2458.853186180032,-655.13623564178602,-2166.2162787138268,2166.2162787138268,655.13623564178602,4661.5296409302764,0.0
678204.59901257406,4137374.0504322448,-17500.0,-1788.4510264889661,-1821.2477174308206,-972.05761662112161,1020.5600594482122,755.44270240530216,-383.25860767204671,2109.7417646255099,-846.95135142649656,-1709.9467161536788,1709.9467161536788,846.95135142649656,4035.0233435103951,0.0
683204.59901257406,4137374.0504322448,-17500.0,-1761.5224880628789,-1525.2302215563823,-738.21205277835054,889.61960490883041,597.71350545387656,-308.64203285496529,1805.7818063481875,-929.26774095754411,-1346.7562568900596,1346.7562568900596,929.26774095754411,3477.9754523888269,0.0
688204.59901257406,4137374.0504322448,-17500.0,-1675.1558356978048,-1272.0562140472107,-566.56546190375207,765.17617560596364,472.42813159521768,-246.73591732899891,1545.761953704683,-943.43015945687773,-1062.3012143703111,1062.3012143703111,943.43015945687773,2994.3702679567127,0.0
693204.59901257406,4137374.0504322448,-17500.0,-1559.2496244911392,-1060.3065677974982,-440.21107848173489,653.38112537154109,374.30403029926043,-196.79261264017677,1325.5176164609024,-917.28666018584261,-841.1170896000732,841.1170896000732,917.28666018584261,2580.2472211918689,0.0
698204.59901257406,4137374.0504322448,-17500.0,-1432.0982108547205,-885.30562284878181,-346.5650112464557,556.05792557977088,297.89183686505424,-157.09658741675401,1139.8817355706894,-868.93184761383577,-669.44595303991991,669.44595303991991,868.93184761383577,2228.2443542351025,0.0
703204.59901257406,4137374.0504322448,-17500.0,-1304.4423139515904,-741.49821846510542,-276.52271441264395,472.85923891969583,238.43245075616935,-125.77181938500455,983.68124736149048,-809.78932174267698,-536.00415434406045,536.00415434406045,809.78932174267698,1930.0520302032246,0.0
708204.59901257406,4137374.0504322448,-17500.0,-1182.2489625286742,-623.53775723667536,-223.57977427913289,402.47008168832878,192.05918882202261,-101.1134038932278,852.19253053886416,-746.87125686768695,-431.90702151080524,431.90702151080524,746.87125686768695,1677.6334702058832,0.0
713204.59901257406,4137374.0504322448,-17500.0,-1068.5394743716158,-526.7130097236236,-183.10703514473576,343.24680406052562,155.74179765134264,-81.691501805335207,741.30358514189072,-684.33643184742391,-350.30659927269812,350.30659927269812,684.33643184742391,1463.7533022455127,0.0
718204.59901257406,4137374.0504322448,-17500.0,-964.56258638435622,-447.05531530472183,-151.80516753216347,293.53722396694189,127.14928464716654,-66.355573570000274,647.53022438882056,-624.53030676756066,-285.98108011429849,285.98108011429849,624.53030676756066,1282.144507684824,0.0
723204.59901257406,4137374.0504322448,-17500.0,-870.53405211513416,-381.30390015315771,-127.31179140658612,251.8263914240068,104.50476385180995,-54.200468247670599,567.96671021225791,-568.66532128450103,-234.96683425322598,234.96683425322598,568.66532128450103,1127.4989495961581,0.0
523204.59901257406,4142374.0504322448,-17500.0,-1355.9265477617867,228.03583572780377,-70.802754803285339,-380.2589111422792,65.083599175292491,-79.877506341079254,762.46070574799319,-993.53033584329694,361.45993965921332,-361.45993965921332,993.53033584329694,1497.4853940888754,0.0
528204.59901257406,4142374.0504322448,-17500.0,-1542.1242787870722,282.26620774019091,-84.332791683173213,-453.36154143649287,83.995909418692548,-99.864700203950221,878.26999921538345,-1130.4870003591043,427.24203136923165,-427.24203136923165,1130.4870003591043,1726.1383525920373,0.0
533204.59901257406,4142374.0504322448,-17500.0,-1759.9492749172534,351.47595012478541,-102.39013973108773,-543.80401507754289,109.24842198578442,-125.87618250796586,1017.2901833822676,-1290.4103625383659,507.54775020572129,-507.54775020572129,1290.4103625383659,2000.6760058043194,0.0
538204.59901257406,4142374.0504322448,-17500.0,-2015.1242443304461,440.39976666899867,-126.96473795648731,-656.35961804483327,143.27963566848783,-160.01087458283541,1185.2171810714544,-1477.2210629302765,605.9625613824735,-605.9625613824735,1477.2210629302765,2332.3183448394002,0.0
543204.59901257406,4142374.0504322448,-17500.0,-2314.097903708659,555.42624518787693,-161.06604308849808,-797.22239099593298,189.58511153890163,-205.17566027026751,1389.3593885449957,-1695.1616265575317,726.93627137980866,-726.93627137980866,1695.1616265575317,2735.422370899842,0.0
548204.59901257406,4142374.0504322448,-17500.0,-2663.7918657980804,705.199713122616,-209.3072570468604,-974.4073569693943,253.22098817097097,-265.40617336680299,1639.1330039300631,-1948.4604331654336,875.89413382688247,-875.89413382688247,1948.4604331654336,3228.4112905572811,0.0
553204.59901257406,4142374.0504322448,-17500.0,-3070.96245660874,901.42032762586894,-278.85746429471345,-1198.2082443202537,341.5613653831756,-346.29875846135621,1946.7087279324476,-2240.6034828220145,1059.2371864326899,-1059.2371864326899,2240.6034828220145,3834.9540743720372,0.0
558204.59901257406,4142374.0504322448,-17500.0,-3540.8405703190056,1159.8664437708346,-381.01071983778814,-1481.6501401320688,465.43584938419747,-455.56204491091893,2327.8491111274775,-2572.8835949521967,1284.0566281346864,-1284.0566281346864,2572.8835949521967,4585.4265436048854,0.0
563204.59901257406,4142374.0504322448,-17500.0,-4074.4430896834087,1501.5988080264485,-533.80102551537175,-1840.7732189978822,640.82473123772672,-603.64813635771566,2802.9753892474628,-2941.632255180893,1557.1909351530635,-1557.1909351530635,2941.632255180893,5518.6434299904404,0.0
568204.59901257406,4142374.0504322448,-17500.0,-4663.4822031904032,1954.1240810155459,-766.40099158373823,-2294.3894230317737,891.34141743866223,-804.30314391655929,3398.5004623476893,-3333.0765048597673,1882.8601148025214,-1882.8601148025214,3333.0765048597673,6683.7796634967626,0.0
573204.59901257406,4142374.0504322448,-17500.0,-5280.9251656653196,2551.8124926039268,-1126.569558216924,-2862.584218703234,1251.743922698121,-1074.6254186803831,4148.4446523073093,-3713.9033327536731,2257.2886909774584,-2257.2886909774584,3713.9033327536731,8142.2452614679751,0.0
578204.59901257406,4142374.0504322448,-17500.0,-5863.5234316169526,3333.6337572189136,-1693.2796239359081,-3562.5549929874314,1772.5886125767749,-1433.8327798026494,5096.3269645392093,-4013.9474598777779,2656.9805523355844,-2656.9805523355844,4013.9474598777779,9969.0094874014339,0.0
583204.59901257406,4142374.0504322448,-17500.0,-6278.6607993476964,4332.9023245228836,-2597.8607349661957,-4398.8281972017039,2525.5340194142618,-1899.7148260087456,6297.1218401780898,-4093.8208436048249,3013.2990617311675,-3013.2990617311675,4093.8208436048249,12252.003704190476,0.0
588204.59901257406,4142374.0504322448,-17500.0,-6257.9644067983882,5543.5502412013584,-4057.4374517277738,-5339.6540364185939,3606.3716093158746,-2482.7988141399933,7817.4385785846152,-3682.0486352987691,3156.0368436761455,-3156.0368436761455,3682.0486352987691,15084.20208546074,0.0
593204.59901257406,4142374.0504322448,-17500.0,-5258.7501323349552,6813.4047387122155,-6415.2974132787149,-6248.6983784966405,5120.6497448097489,-3180.3404176345339,9722.8256504952569,-2250.9222155372217,2683.1800717818523,-2683.1800717818523,2250.9222155372217,18523.781357036733,0.0
598204.59901257406,4142374.0504322448,-17500.0,-2215.3677796020825,7503.9542142590981,-10106.960126931817,-6653.7303587110691,7066.4841122646976,-3946.5629911999977,12007.663244205294,1182.1685391849626,668.28635029991142,-668.28635029991142,-1182.1685391849626,22431.280446924353,0.0
603204.59901257406,4142374.0504322448,-17500.0,4443.6746033893023,5541.997551647175,-15021.525593987501,-5068.051802241087,8666.6704221018754,-4370.659783425227,14403.315713603539,7901.623191584973,-4734.6792114030013,4734.6792114030013,-7901.623191584973,26068.063072935922,0.0
608204.59901257406,4142374.0504322448,-17500.0,13702.34836232242,-3395.7906326895627,-17135.55912776804,1418.3686876507859,5715.9199780574409,-2014.0906428398573,16786.433809632243,16143.281519972843,-14550.879400260405,14550.879400260405,-16143.281519972843,29188.450046340204,0.0
613204.59901257406,4142374.0504322448,-17500.0,13929.379330468866,-16195.723719244026,-4192.526692993064,9416.6723174271865,-10783.282623499395,8505.3740350645439,23190.73131880194,12957.215251476213,-17530.121949772518,17530.121949772518,-12957.215251476213,40758.963462287946,0.0
618204.59901257406,4142374.0504322448,-17500.0,5792.2204085085787,-10409.221897201205,16192.247563223169,2512.6695511861999,-29526.475878957983,19443.733322303997,31450.366066191309,-367.85814261365169,-146.5807351226517,146.5807351226517,367.85814261365169,55785.148780619595,0.0
623204.59901257406,4142374.0504322448,-17500.0,8320.0050957934454,1657.8107716386887,17671.21721503705,-7309.2374909799846,-27370.333418079768,16725.870362283902,28350.964244286839,45.253028274826647,9903.5396249766618,-9903.5396249766618,-45.253028274826647,49954.219359706047,0.0
628204.59901257406,4142374.0504322448,-17500.0,10436.837820837907,4941.5951473465875,11870.618656093056,-8449.3944889123832,-18000.037499532442,10364.141397514586,20222.054591762353,3301.7866137273331,8922.9657555718259,-8922.9657555718259,-3301.7866137273331,35519.067871136649,0.0
633204.59901257406,4142374.0504322448,-17500.0,9759.7156671392568,4997.4186878523205,6414.6325166278129,-6946.6629905771497,-10670.419468470931,6146.4746270060514,13563.362850509497,4637.353538363348,6012.2610406659769,-6012.2610406659769,-4637.353538363348,23946.252650765062,0.0
638204.59901257406,4142374.0504322448,-17500.0,8569.3578902969857,3782.516578535256,1872.5938291939165,-5192.8262865736397,-5544.4408398210626,3506.1182741835396,8897.1129663393003,5386.7650279862983,2684.045620959022,-2684.045620959022,-5386.7650279862983,15893.924166593355,0.0
643204.59901257406,4142374.0504322448,-17500.0,7037.3055511749635,1921.0289522199575,-1113.3944871047281,-3465.69352233475,-2214.5788077520911,1808.3604224673236,5885.8204367665849,5410.8089803947933,-230.74435758202071,230.74435758202071,-5410.8089803947933,10628.896667934232,0.0
648204.59901257406,4142374.0504322448,-17500.0,5233.3215155035277,192.08553627058504,-2525.7779042077823,-1987.4294910531278,-309.48115947033165,765.20674461395197,4276.9384015350879,4693.5513436684778,-2111.8715057783065,2111.8715057783065,-4693.5513436684778,7599.1302761862626,0.0
653204.59901257406,4142374.0504322448,-17500.0,3466.2864087490325,-1007.3280571314987,-2872.4460938794632,-889.28561139901956,623.68652531759744,173.36451361803356,3491.5509610777194,3602.5504388995482,-2977.8317067410585,2977.8317067410585,-3602.5504388995482,6060.8154639118766,0.0
658204.59901257406,4142374.0504322448,-17500.0,1975.836883697754,-1661.9404625406501,-2674.6657362307346,-163.98332396491892,981.78907971056594,-128.81255577164649,3017.6207707498033,2488.9353656123644,-3148.0021943962679,3148.0021943962679,-2488.9353656123644,5246.6737495826028,0.0
663204.59901257406,4142374.0504322448,-17500.0,845.95686647891398,-1913.4339582038047,-2273.4621554610358,266.36222521249812,1038.9644494758118,-259.08811711610099,2650.4018201449821,1540.7302421271443,-2940.5734798307849,2940.5734798307849,-1540.7302421271443,4683.9809491916512,0.0
668204.59901257406,4142374.0504322448,-17500.0,55.46501184801253,-1916.2007340190071,-1844.8811213562835,491.22812790265755,958.79605159590517,-295.30504494133822,2327.3681279708421,813.8372448058027,-2574.1967721258306,2574.1967721258306,-813.8372448058027,4191.0656310086506,0.0
673204.59901257406,4142374.0504322448,-17500.0,-460.45238983312163,-1787.0181603852907,-1462.6002917279252,585.10090147824337,829.21213214454258,-284.81749050848651,2034.6797889243041,294.52697958398653,-2172.9519887522792,2172.9519887522792,-294.52697958398653,3725.7575568802326,0.0
678204.59901257406,4142374.0504322448,-17500.0,-772.88022087666184,-1600.7900097512145,-1147.8799836953006,601.49609224115113,693.12537572064923,-254.40255611806629,1771.5011392550146,-56.522508320101224,-1797.0503671913698,1797.0503671913698,56.522508320101224,3289.0910423070513,0.0
683204.59901257406,4142374.0504322448,-17500.0,-943.00831136307329,-1400.595528967224,-898.99322625662262,575.63514071531688,568.99147556158971,-218.14824692343487,1538.456743328526,-281.59764527385323,-1469.9984852748573,1469.9984852748573,281.59764527385323,2888.9062833645212,0.0
688204.59901257406,4142374.0504322448,-17500.0,-1017.9103057048617,-1208.8070260411471,-706.1026939043802,529.30921286854573,462.94215713899217,-182.84826964218382,1334.8933891550414,-416.94680553267591,-1196.5082249603452,1196.5082249603452,416.94680553267591,2530.0727699715108,0.0
693204.59901257406,4142374.0504322448,-17500.0,-1031.551607092169,-1035.4972689806691,-557.93285526171928,475.31171150590666,375.39388734707188,-151.34731961988837,1158.8411297799096,-490.61129555488378,-972.78983179405964,972.78983179405964,490.61129555488378,2213.4774038235678,0.0
698204.59901257406,4142374.0504322448,-17500.0,-1007.4517757441524,-883.93357543689649,-444.35172612307247,420.74853434058997,304.43435985475895,-124.47929149527347,1007.5578277233866,-523.0842681314225,-791.95524636051368,791.95524636051368,523.0842681314225,1937.17958571555,0.0
703204.59901257406,4142374.0504322448,-17500.0,-961.42507832664046,-753.88987460286637,-357.09595121290346,369.28027950971847,247.45623738918351,-102.13232895473976,878.02883263317585,-528.8251305945671,-646.6248469042323,646.6248469042323,528.8251305945671,1697.6923919535673,0.0
708204.59901257406,4142374.0504322448,-17500.0,-903.84906925704388,-643.52969334528689,-289.73666595245021,322.55465175354402,201.88303703853671,-83.806372066673077,767.29133391703772,-517.79467779861795,-530.04380527916999,530.04380527916999,517.79467779861795,1490.9030378298714,0.0
713204.59901257406,4142374.0504322448,-17500.0,-841.37707789037484,-550.42946576470581,-237.3939473433617,281.08961482277863,165.44964604273383,-68.890700063496155,672.61431423490694,-496.73287602397767,-436.46122649073635,436.46122649073635,496.73287602397767,1312.6441811417785,0.0
718204.59901257406,4142374.0504322448,-17500.0,-778.15979768992133,-472.10007550598118,-196.4085133065887,244.80053377502756,136.27330317626112,-56.791722667366557,591.57436624561035,-470.12879650094482,-361.16430866784577,361.16430866784577,470.12879650094482,1158.998809209691,0.0
523204.59901257406,4147374.0504322448,-17500.0,-1282.9808101004157,312.58268977856739,-109.20055576572003,-362.3322639734144,89.159770182816658,-76.606094231773341,742.75902667918001,-933.48815250219809,395.55301612663828,-395.55301612663828,933.48815250219809,1458.734875154152,0.0
528204.59901257406,4147374.0504322448,-17500.0,-1447.1354083665753,381.1040775471713,-133.0974774804734,-429.02004045152796,113.39857121075255,-95.218621893461403,851.94925425145072,-1051.8299757050931,463.34955622730564,-463.34955622730564,1051.8299757050931,1674.6277172799196,0.0
533204.59901257406,4147374.0504322448,-17500.0,-1635.5372364589991,467.1084870278865,-164.77454672722754,-510.48955274247925,145.2925674670978,-119.21407083509071,981.94301008152809,-1186.7998688393741,544.64664647714221,-544.64664647714221,1186.7998688393741,1931.8195700843196,0.0
538204.59901257406,4147374.0504322448,-17500.0,-1851.1552404085658,575.58511006633785,-207.36230335241572,-610.37209292792909,187.59518019012205,-150.35893895514081,1137.4539301440836,-1339.9243570678268,642.1467576558581,-642.1467576558581,1339.9243570678268,2239.6738866206738,0.0
543204.59901257406,4147374.0504322448,-17500.0,-2096.561073865581,713.00405227419003,-265.43360703303341,-733.15463947345938,244.15362650638232,-191.03824245182003,1324.3605447250829,-1512.0677434843869,758.85952984097378,-758.85952984097378,1512.0677434843869,2609.845657769959,0.0
548204.59901257406,4147374.0504322448,-17500.0,-2373.1927886929143,887.69383580725491,-345.73490455387628,-884.27514934457179,320.36585722071379,-244.4597958475614,1549.9780296298834,-1702.6726748663214,897.87313012099514,-897.87313012099514,1702.6726748663214,3056.7801102252442,0.0
553204.59901257406,4147374.0504322448,-17500.0,-2680.0318681511581,1110.2165391074507,-458.31034678907685,-1070.1005141588785,423.81869452737027,-314.89456659774612,1823.3644185959427,-1908.4356944403007,1061.8081763601331,-1061.8081763601331,1908.4356944403007,3598.2216454340978,0.0
558204.59901257406,4147374.0504322448,-17500.0,-3011.2913984418037,1393.5927178468864,-618.22826130843555,-1297.6200431883076,565.15012964165112,-407.91294409519753,2155.6355017558731,-2121.0390511123355,1251.6535247200361,-1251.6535247200361,2121.0390511123355,4255.6105167202759,0.0
563204.59901257406,4147374.0504322448,-17500.0,-3352.4664872665812,1753.0243211222239,-848.21280176837445,-1573.528198963701,759.14255815180491,-530.50098956959607,2560.2211094238714,-2323.330674136359,1464.4281928111623,-1464.4281928111623,2323.330674136359,5054.1078692978872,0.0
568204.59901257406,4147374.0504322448,-17500.0,-3673.7301475965137,2204.3134136913386,-1182.5664987955035,-1902.0797788140976,1025.9182934215337,-690.77822555486887,3052.8698600596067,-2483.0096004220159,1688.6482535620783,-1688.6482535620783,2483.0096004220159,6021.7204739674071,0.0
573204.59901257406,4147374.0504322448,-17500.0,-3919.1526086259646,2759.221244735555,-1672.7336338786513,-2280.5961372283168,1391.7324815209574,-896.72760962978725,3650.9150454541345,-2542.4386313481637,1895.7553312472228,-1895.7553312472228,2542.4386313481637,7186.5038769313887,0.0
578204.59901257406,4147374.0504322448,-17500.0,-3989.6822863418365,3413.9676337498095,-2394.2503312866829,-2690.6448451324159,1887.8789263749766,-1152.8267847174361,4370.8974749754507,-2402.8505552362471,2024.2840006581596,-2024.2840006581596,2402.8505552362471,8569.9263079609427,0.0
583204.59901257406,4147374.0504322448,-17500.0,-3717.7872636831116,4122.6714784117212,-3452.2089689080035,-3081.4139598959746,2543.7488588810897,-1452.7685119402154,5223.2480715682432,-1901.7209059003014,1951.4997319217862,-1951.4997319217862,1901.7209059003014,10172.800649934685,0.0
588204.59901257406,4147374.0504322448,-17500.0,-2835.0092023742,4738.2742616445721,-4972.7109644745642,-3338.8974465329798,3363.5836666790829,-1765.6696946492712,6201.9214866985094,-787.07551395004793,1445.8163132675081,-1445.8163132675081,787.07551395004793,11947.330556059373,0.0
593204.59901257406,4147374.0504322448,-17500.0,-954.67090494108902,4887.6460200156107,-7034.4495789993562,-3229.361984052252,4258.2603716543235,-2010.808713196443,7266.5335393246423,1282.042117045984,102.77922377239736,-102.77922377239736,-1282.042117045984,13748.090164583456,0.0
598204.59901257406,4147374.0504322448,-17500.0,2310.5466110850807,3752.6462644905318,-9391.8929512506693,-2311.2947795439677,4854.3231501231821,-2001.2542570976225,8331.8453197496856,4572.8652068005786,-2655.114106085698,2655.114106085698,-4572.8652068005786,15298.58822711229,0.0
603204.59901257406,4147374.0504322448,-17500.0,6677.8359368736783,-20.900262152174701,-10647.242151194039,52.891152445742577,4035.0654102132858,-1293.1189119947007,9412.7770268940039,8512.5682050954038,-7077.4329759036964,7077.4329759036964,-8512.5682050954038,16566.592837582208,0.0
608204.59901257406,4147374.0504322448,-17500.0,9558.0105292842763,-6871.9792086214484,-7016.4483361117254,3822.2489946896312,-517.98119383985033,1004.4185682942075,11383.110207159869,9951.8576278989367,-10970.122133737596,10970.122133737596,-9951.8576278989367,19809.377436505056,0.0
613204.59901257406,4147374.0504322448,-17500.0,6951.1946131635659,-11748.325451917586,4852.6847912202838,5883.8011523529176,-10059.093771443542,5323.2269133039026,15882.876449232233,4414.2220924879484,-7772.1598439918371,7772.1598439918371,-4414.2220924879484,28724.912869815831,0.0
618204.59901257406,4147374.0504322448,-17500.0,2411.3237018816067,-7209.5330936183736,17330.437043852369,2322.3683333562567,-18709.706789486816,9069.617764962888,20414.90588612546,-3495.7776181183985,3592.5300495808019,-3592.5300495808019,3495.7776181183985,37280.673943837515,0.0
623204.59901257406,4147374.0504322448,-17500.0,2947.6458455459833,1247.93249565002,19456.309663678541,-3168.1761455847027,-19448.816819194944,9304.9553943013452,20407.82800444173,-4483.9415325071805,11448.062418051742,-11448.062418051742,4483.9415325071805,37115.416385106917,0.0
628204.59901257406,4147374.0504322448,-17500.0,5640.8810277219854,5550.1411434457232,14575.031197965873,-5779.0372761517947,-14984.097751491174,7349.4583246579887,16834.228755407359,-1192.7409884384197,11703.263469106558,-11703.263469106558,1192.7409884384197,30555.640419216721,0.0
633204.59901257406,4147374.0504322448,-17500.0,7099.5961082927852,6159.4060195901948,8824.8985823936891,-5942.9460153477658,-9950.2515359112422,5182.6827619414435,12590.363983530136,1772.5976807292759,8723.5010332109887,-8723.5010332109887,-1772.5976807292759,22951.071155697118,0.0
638204.59901257406,4147374.0504322448,-17500.0,7297.8116614699238,5114.8251381229411,4163.170805689384,-5072.9842947692177,-5915.6442944672262,3406.0195487064721,8979.3597891212994,3572.3999753847111,5239.3869597721459,-5239.3869597721459,-3572.3999753847111,16536.233198236525,0.0
643204.59901257406,4147374.0504322448,-17500.0,6687.6431932376227,3463.7901042742774,936.47796122462182,-3869.8082081249377,-3058.200204960659,2079.3834196110483,6279.8475815566235,4340.4776745199806,2208.2158851986742,-2208.2158851986742,-4340.4776745199806,11695.581820510582,0.0
648204.59901257406,4147374.0504322448,-17500.0,5585.1122256280341,1810.7092841683818,-949.24853774725796,-2678.2162523315028,-1223.583232647097,1158.4017190133786,4492.1959087899177,4293.8092413704708,8.2901016829246146,-8.2901016829246146,-4293.8092413704708,8319.4898912007193,0.0
653204.59901257406,4147374.0504322448,-17500.0,4287.1825988512664,486.17063637170224,-1823.9905097812807,-1675.8313387290864,-160.01564256716625,563.58622458512548,3415.8020746528359,3736.4375435379206,-1330.0021036017072,1330.0021036017072,-3736.4375435379206,6137.3607846136083,0.0
658204.59901257406,4147374.0504322448,-17500.0,3033.1730276340295,-416.93453552146258,-2064.8372565922309,-920.89203749139074,386.07753547262553,206.06430658713901,2748.850943172818,2964.5386820365934,-1983.0667503429227,1983.0667503429227,-2964.5386820365934,4804.4167688950329,0.0
663204.59901257406,4147374.0504322448,-17500.0,1960.4794544442045,-947.24157642056514,-1970.6380197568001,-398.14659767053814,617.49997562892327,7.296988137629695,2302.29526631726,2183.9518129845769,-2179.7999204134571,2179.7999204134571,-2183.9518129845769,3987.6932217472936,0.0
668204.59901257406,4147374.0504322448,-17500.0,1115.8989243554727,-1202.6522321817554,-1733.488316308614,-61.231603250852345,674.18971457408713,-92.453608684629444,1974.6382312457672,1501.6394676200482,-2113.7888963095643,2113.7888963095643,-1501.6394676200482,3442.3857450368455,0.0
673204.59901257406,4147374.0504322448,-17500.0,490.26656302228059,-1278.2837235785109,-1459.6757664066442,140.68827157124522,643.27466103913173,-134.20411285606147,1713.9817226762914,954.17331024024065,-1919.1486497310536,1919.1486497310536,-954.17331024024065,3029.4176305890473,0.0
678204.59901257406,4147374.0504322448,-17500.0,49.200555210557972,-1247.6102050253894,-1200.1965749632159,250.90028182664867,574.84386087758548,-144.09530418523926,1495.6209544275689,539.19454420222166,-1677.5887905067034,1677.5887905067034,-539.19454420222166,2684.5178532878022,0.0
683204.59901257406,4147374.0504322448,-17500.0,-247.72151623526611,-1160.8609620866898,-974.93738540244908,301.99163968627846,495.65930330614077,-137.8446101650872,1308.0302705236359,237.57294006009079,-1433.8202559468752,1433.8202559468752,-237.57294006009079,2382.0675663546735,0.0
688204.59901257406,4147374.0504322448,-17500.0,-437.56318130114875,-1049.656025315611,-788.10602171709002,316.74996017936922,418.84269985143038,-124.43569639094035,1145.3815550401778,25.901722821424869,-1209.4419262205606,1209.4419262205606,-25.901722821424869,2112.6538407101375,0.0
693204.59901257406,4147374.0504322448,-17500.0,-550.65638709655502,-932.56927703272947,-636.94829739964621,310.33652601889713,350.00292980481942,-108.74498044719746,1004.1104483553052,-117.6396547018187,-1012.8212367922158,1012.8212367922158,117.6396547018187,1872.5261452731218,0.0
698204.59901257406,4147374.0504322448,-17500.0,-610.28154682924821,-819.71862353479412,-516.24505215045394,292.46639982718978,290.84705451699466,-93.252637651603507,881.52186111954529,-211.17191212062255,-845.33445665510237,845.33445665510237,211.17191212062255,1659.4408235146061,0.0
703204.59901257406,4147374.0504322448,-17500.0,-633.60215755038689,-716.03934234964515,-420.43351624047335,269.16443530103231,241.20124892135482,-79.094644715618671,775.29334006296313,-268.83165541780966,-705.01892505459853,705.01892505459853,268.83165541780966,1471.3040015017154,0.0
708204.59901257406,4147374.0504322448,-17500.0,-632.93228127517841,-623.44035729820632,-344.48762709427763,244.04223964463915,200.09174849185814,-66.683360236624907,683.3291583948976,-301.23884153538552,-588.5830324375836,588.5830324375836,301.23884153538552,1305.8791252845101,0.0
713204.59901257406,4147374.0504322448,-17500.0,-616.93384149651627,-542.15519915540119,-284.19445743516701,219.17485195288884,166.29574579317648,-56.062047986500588,603.73345504222698,-316.17956721969767,-492.44578263893254,492.44578263893254,316.17956721969767,1160.8363294008752,0.0
718204.59901257406,4147374.0504322448,-17500.0,-591.60278882694934,-471.55445914066075,-236.1587140467328,195.68034835882369,138.60319722042314,-47.101077577603988,534.80984991287107,-319.26736213886613,-413.22808198808082,413.22808198808082,319.26736213886613,1033.8657822587741,0.0
523204.59901257406,4152374.0504322448,-17500.0,-1184.986561534213,379.753827677022,-153.57154464840079,-337.93894491618818,108.91375554187302,-72.092127916781507,713.4731934290362,-851.59990539647288,408.37601291668534,-408.37601291668534,851.59990539647288,1401.9017958510951,0.0
528204.59901257406,4152374.0504322448,-17500.0,-1322.3583266258422,456.98096779981267,-188.4866992712102,-396.59868026049844,136.85607901907835,-88.938544741791858,813.88020906857366,-947.17342192835054,472.598187835913,-472.598187835913,947.17342192835054,1600.9386758420121,0.0
533204.59901257406,4152374.0504322448,-17500.0,-1475.8119166809702,552.17258570125239,-234.25323627701911,-467.06878890739227,173.08133737350153,-110.39368559888844,932.13787783509815,-1052.3592627337684,547.65934658304911,-547.65934658304911,1052.3592627337684,1835.6478277249228,0.0
538204.59901257406,4152374.0504322448,-17500.0,-1645.6009598782316,669.76817002725863,-294.88782618954639,-551.75895000106175,220.33508334408,-137.84797012487383,1071.845970137671,-1166.3405350311275,634.88646934169606,-634.88646934169606,1166.3405350311275,2113.2742250667798,0.0
543204.59901257406,4152374.0504322448,-17500.0,-1830.6495251843087,815.17810148812555,-376.06257888480263,-653.38989390485619,282.32912502432578,-173.11180744254958,1237.3113918077684,-1286.8389234141091,735.23628211775804,-735.23628211775804,1286.8389234141091,2442.4684274673032,0.0
548204.59901257406,4152374.0504322448,-17500.0,-2027.5304157092132,994.80227946032562,-485.82218711445626,-774.83682184990346,364.06552772769129,-218.50959888171886,1433.6341777017815,-1409.1213595629822,848.7420495792428,-848.7420495792428,1409.1213595629822,2833.3867458238951,0.0
553204.59901257406,4152374.0504322448,-17500.0,-2228.8293607671762,1215.8084423166113,-635.59480866752631,-918.744293974019,472.22526030431663,-276.94904155517696,1666.7806377185875,-1524.4360956975652,973.50431635606935,-973.50431635606935,1524.4360956975652,3297.6148623152458,0.0
558204.59901257406,4152374.0504322448,-17500.0,-2420.5805405784117,1485.3793087896427,-841.57233639479205,-1086.7127787275363,615.56927535124464,-351.89715195656322,1943.6496914461668,-1617.5978886514376,1103.9001463481045,-1103.9001463481045,1617.5978886514376,3847.7156197290115,0.0
563204.59901257406,4152374.0504322448,-17500.0,-2578.362844636607,1808.8585551230613,-1126.4704614600371,-1277.7132440985729,805.18550836350232,-447.11458636404262,2272.02224013867,-1663.3712011696828,1227.4838270735861,-1227.4838270735861,1663.3712011696828,4496.0426873271381,0.0
568204.59901257406,4152374.0504322448,-17500.0,-2661.61855272716,2185.7193730966169,-1521.4417150202819,-1485.16887895573,1054.1551864399548,-565.85090285588524,2659.6879322122668,-1621.3199402321195,1319.7768295139688,-1319.7768295139688,1621.3199402321195,5252.2106140207152,0.0
573204.59901257406,4152374.0504322448,-17500.0,-2606.0188754122469,2601.3916136343569,-2067.2126649673564,-1691.8561326476158,1375.6415015805273,-708.95088421016487,3111.858310316808,-1429.1525415238477,1335.8733223657989,-1335.8733223657989,1429.1525415238477,6118.2548333791492,0.0
578204.59901257406,4152374.0504322448,-17500.0,-2314.8552378416939,3011.5735910604926,-2811.6389235045258,-1861.53071234409,1777.2129696701074,-870.95902971180192,3627.4845795168858,-995.96379928316435,1197.903919250303,-1197.903919250303,995.96379928316435,7080.1842102443043,0.0
583204.59901257406,4152374.0504322448,-17500.0,-1654.0228680654959,3313.9619482493372,-3796.1520098715023,-1926.3853552324711,2246.8557509674456,-1032.9422832592998,4194.8083120735355,-200.87658653507879,779.28109374459382,-779.28109374459382,200.87658653507879,8095.0533329919108,0.0
588204.59901257406,4152374.0504322448,-17500.0,-464.96101140314028,3302.6385396997766,-5012.5350571489153,-1771.3968410745661,2721.8477215449639,-1150.7014225370785,4787.0939202360951,1086.4473734545504,-105.32221581037703,105.32221581037703,-1086.4473734545504,9077.080128129699,0.0
593204.59901257406,4152374.0504322448,-17500.0,1366.3852000014497,2613.5944776482447,-6289.7836305779228,-1224.6500981938759,3025.7477275902957,-1137.7765319210939,5368.8476082826473,2921.1373511040656,-1668.732794465408,1668.732794465408,-2921.1373511040656,9908.2209273985154,0.0
598204.59901257406,4152374.0504322448,-17500.0,3706.500783010933,734.48359665212638,-7051.4032799650677,-90.359253289880044,2761.342839977639,-845.05746076102594,5952.2603986926715,5050.8638870141021,-3974.3234023220261,3974.3234023220261,-5050.8638870141021,10583.094586934556,0.0
603204.59901257406,4152374.0504322448,-17500.0,5787.3998091557751,-2660.6089721475228,-5989.8857676427269,1668.7646085242804,1216.7136965565171,-52.973631680649419,6783.3653309885412,6494.5427289701884,-6423.4798415765918,6423.4798415765918,-6494.5427289701884,11750.008277451705,0.0
608204.59901257406,4152374.0504322448,-17500.0,6071.0613396284434,-6663.6901018989247,-1320.4308255924338,3472.5230814492656,-2375.0162468649683,1437.1336232364788,8485.0622239279492,5445.3395337096836,-7040.4285612906906,7040.4285612906906,-5445.3395337096836,15105.212861592023,0.0
613204.59901257406,4152374.0504322448,-17500.0,3754.3318539714892,-8278.2117355687133,6948.334248085941,3857.2030821523431,-7645.4591627187674,3444.5107575969341,11273.275982347956,1077.8925572036426,-3309.2154508691183,3309.2154508691183,-1077.8925572036426,20901.357913373857,0.0
618204.59901257406,4152374.0504322448,-17500.0,1090.0294113197449,-5175.6489712637176,14508.653417716538,1855.0780926193236,-12068.471019500923,5107.0217530673017,13833.098866989194,-3678.9024537660302,3843.9665628893094,-3843.9665628893094,3678.9024537660302,25882.873431754044,0.0
623204.59901257406,4152374.0504322448,-17500.0,912.19472603433826,257.44283530978919,16723.468379962211,-1235.5140492198175,-13196.67161562531,5608.5231121502111,14428.656216636462,-4984.9481997448283,9451.8414467071852,-9451.8414467071852,4984.9481997448283,26926.41235140344,0.0
628204.59901257406,4152374.0504322448,-17500.0,2651.1112646560373,4161.6022873700113,14123.592305033237,-3469.8323730986313,-11402.628545606207,5053.7516136446757,13010.566278061013,-3134.7560713980888,10825.294318361886,-10825.294318361886,3134.7560713980888,24247.929399269226,0.0
633204.59901257406,4152374.0504322448,-17500.0,4411.6139653627952,5554.1856205130935,9792.7244229481475,-4320.1129354133391,-8480.9276467706022,4019.0492237623475,10640.295131727522,-487.13918851452308,9218.9602931288355,-9218.9602931288355,487.13918851452308,19888.146051459422,0.0
638204.59901257406,4152374.0504322448,-17500.0,5375.264767737337,5242.7706071282319,5712.8268279600816,-4185.7545481691131,-5657.5694746194022,2929.3995761417441,8193.9280778010452,1622.9124803774553,6522.8699771598804,-6522.8699771598804,-1622.9124803774553,15426.200678811263,0.0
643204.59901257406,4152374.0504322448,-17500.0,5526.5032967282341,4114.466521990802,2586.9924799984296,-3545.2014097564202,-3402.9914657043123,1986.5740436128206,6093.0110234418889,2876.9857092401112,3842.2977034721093,-3842.2977034721093,-2876.9857092401112,11575.797111416463,0.0
648204.59901257406,4152374.0504322448,-17500.0,5082.2308221226021,2765.0504624318401,505.31613336961891,-2734.0121899434425,-1794.7115711439574,1258.1190145678077,4495.1023930926967,3357.6047108008047,1668.1377224222483,-1668.1377224222483,-3357.6047108008047,8549.4616611706697,0.0
653204.59901257406,4152374.0504322448,-17500.0,4296.3128981623968,1536.6557559101709,-700.90597083765783,-1951.8542997750435,-746.07344501347052,739.81025309787628,3392.4831193251857,3281.7732544033993,137.5537787690505,-137.5537787690505,-3281.7732544033993,6327.029356554739,0.0
658204.59901257406,4152374.0504322448,-17500.0,3388.7799268262693,577.85299160271973,-1281.9712216883554,-1294.8493367955323,-118.54433587657567,394.7996201559065,2644.8544313083712,2884.3221633017956,-807.0930035193785,807.0930035193785,-2884.3221633017956,4782.2068488813038,0.0
663204.59901257406,4152374.0504322448,-17500.0,2511.9717164955264,-89.62028692190674,-1470.420061883799,-790.08033239445115,221.79074783353107,178.22335773294805,2129.7351470549779,2354.2053471400068,-1303.7185692051269,1303.7185692051269,-2354.2053471400068,3749.1699070134287,0.0
668204.59901257406,4152374.0504322448,-17500.0,1748.4763059726727,-507.85618562208771,-1440.7327023051987,-426.78671445907275,381.07436575592692,49.920527361515987,1766.0286232001149,1814.4274494069173,-1497.2736166270665,1497.2736166270665,-1814.4274494069173,3065.1172690084732,0.0
673204.59901257406,4152374.0504322448,-17500.0,1128.0643017776645,-738.77395086902607,-1306.9408915281422,-178.82870376821151,434.06405541336846,-21.115115166184044,1498.6952760928411,1330.2509037002301,-1506.0316348712859,1506.0316348712859,-1330.2509037002301,2598.1032611085898,0.0
678204.59901257406,4152374.0504322448,-17500.0,648.46319548662916,-840.91625153442146,-1136.0270377448824,-17.697928106070503,429.26978720567257,-56.744114967723689,1292.4573195884182,927.19484960979389,-1413.9611907751332,1413.9611907751332,-927.19484960979389,2257.9780583947927,0.0
683204.59901257406,4152374.0504322448,-17500.0,291.88094537060039,-860.77662633030138,-963.54130080146751,81.523599172303534,396.23106069076482,-71.448022847208051,1126.1960592467428,607.7944011290956,-1275.2509129491812,1275.2509129491812,-607.7944011290956,1991.4081297651396,0.0
688204.59901257406,4152374.0504322448,-17500.0,35.513558051058332,-831.814388751519,-806.06591835237668,138.36074205653591,351.94765513730391,-74.386002781109568,987.72996497926488,363.46917083457066,-1122.2243070697248,1122.2243070697248,-363.46917083457066,1769.9216893444518,0.0
693204.59901257406,4152374.0504322448,-17500.0,-142.84917822973361,-776.5580225725929,-669.63674279958354,167.14620089279407,305.62855719268475,-71.137081700516774,869.98483718003888,181.65961288875383,-972.65517561787692,972.65517561787692,-181.65961288875383,1579.1111085842472,0.0
698204.59901257406,4152374.0504322448,-17500.0,-262.3965173801036,-709.40177071673122,-554.89650536622503,177.95716476129081,261.87145265690464,-64.984201752219491,768.63716787162468,49.573562938421219,-835.28622033267334,835.28622033267334,-49.573562938421219,1411.6514487615418,0.0
703204.59901257406,4152374.0504322448,-17500.0,-338.64147019759048,-639.09985798131163,-460.02838783835369,177.6631786381773,222.66162176589768,-57.788422413621689,680.81457391670097,-44.145268993546097,-713.57298317967934,713.57298317967934,44.145268993546097,1263.5181826840876,0.0
708204.59901257406,4152374.0504322448,-17500.0,-383.61885807623946,-570.68023088106816,-382.32366599753306,170.83495065319821,188.57367504050455,-50.554981511296255,604.42652255011467,-108.88396552812893,-608.0593491213524,608.0593491213524,108.88396552812893,1132.149925276972,0.0
713204.59901257406,4152374.0504322448,-17500.0,-406.41350909285376,-506.80004315144424,-318.9614347678588,160.44912260970622,159.46849449933234,-43.78716985189731,537.83275594845645,-152.08001233465686,-517.81164081294401,517.81164081294401,152.08001233465686,1015.6251857406755,0.0
523204.59901257406,4157374.0504322448,-17500.0,-1069.3381957188722,427.46564476807777,-199.92220760045535,-308.83219365364579,123.74780064669946,-66.647416263200668,676.37641090236457,-754.49758865650301,401.70553504146665,-401.70553504146665,754.49758865650301,1330.3272992689008,0.0
528204.59901257406,4157374.0504322448,-17500.0,-1177.7973862242604,507.70304174607054,-245.13177541316912,-358.57256520035423,153.68291571793989,-81.485230220287065,766.5086998119682,-825.52789625116668,457.87113121087384,-457.87113121087384,825.52789625116668,1509.6814708610098,0.0
533204.59901257406,4157374.0504322448,-17500.0,-1294.4048175800056,604.56532466241754,-303.568384579515,-417.06917413681202,191.86975668532449,-100.10363901169276,871.28308481085355,-899.41651345241451,521.1893627470796,-521.1893627470796,899.41651345241451,1718.5851204928299,0.0
538204.59901257406,4157374.0504322448,-17500.0,-1417.1582733573996,721.34539655966842,-379.68419095652172,-485.59432012704713,240.77422549704858,-123.51878443635425,993.19573196819249,-973.44662736141515,591.46291853195237,-591.46291853195237,973.44662736141515,1962.1615414758994,0.0
543204.59901257406,4157374.0504322448,-17500.0,-1542.1595515700169,861.62922410191129,-479.52564582863971,-565.29347906346754,303.58891800426954,-152.98713039972736,1135.0705984142392,-1042.9896665735525,667.52614345550296,-667.52614345550296,1042.9896665735525,2246.150645663452,0.0
548204.59901257406,4157374.0504322448,-17500.0,-1662.5606128773229,1028.9510066403204,-611.27247536289985,-656.87285024038511,384.38544362128903,-190.01269531193424,1300.0860615031127,-1100.5196716990374,746.4967127852517,-746.4967127852517,1100.5196716990374,2576.7139565923153,0.0
553204.59901257406,4157374.0504322448,-17500.0,-1767.0341733998396,1226.0386970085508,-785.88247315446085,-760.02899431157482,488.21701415350719,-236.29310787898069,1491.9511578295617,-1134.2091789153646,822.56410701233551,-822.56410701233551,1134.2091789153646,2959.9746797045555,0.0
558204.59901257406,4157374.0504322448,-17500.0,-1837.640561623025,1453.313760610461,-1017.7475592730331,-872.45403969406118,621.05002093698056,-293.53054879950611,1715.1662053483076,-1126.0175035799941,885.0790853008366,-885.0790853008366,1126.0175035799941,3401.1020967656746,0.0
563204.59901257406,4157374.0504322448,-17500.0,-1847.041541251273,1706.0812078524873,-1325.0703554316899,-988.17129318934565,789.26239756690802,-362.96971591114755,1973.7779780249218,-1049.2886206307946,915.64952472674111,-915.64952472674111,1049.2886206307946,3902.6494263681902,0.0
568204.59901257406,4157374.0504322448,-17500.0,-1755.3095150692366,1969.5255229368727,-1729.2210115449352,-1094.8882688127705,998.17864798016956,-444.42365821641658,2268.7833231522004,-866.22152708690305,883.99298879798243,-883.99298879798243,866.22152708690305,4461.7730163375354,0.0
573204.59901257406,4157374.0504322448,-17500.0,-1507.3699756289457,2210.2765969790562,-2251.3677031747034,-1170.0812420005261,1248.6251672858068,-534.4101832528745,2597.1522751244502,-526.45585248817588,742.68639261112412,-742.68639261112412,526.45585248817588,5066.0138096868504,0.0
578204.59901257406,4157374.0504322448,-17500.0,-1033.9393110909148,2363.2957005361673,-2902.7395423230901,-1175.8937341993294,1529.7049586933863,-622.89842663047682,2950.6172135130341,29.988905859974977,422.32367719746082,-422.32367719746082,-29.988905859974977,5687.9866316418429,0.0
583204.59901257406,4157374.0504322448,-17500.0,-262.54278936064281,2314.37315157481,-3661.4349984622563,-1054.2194675756662,1804.9830055860416,-688.23963966785539,3314.7929982088763,858.1552495815946,-167.64000686415704,167.64000686415704,-858.1552495815946,6282.0207427630821,0.0
588204.59901257406,4157374.0504322448,-17500.0,848.58611412961534,1885.044199540507,-4424.1544522421009,-726.72019656117482,1988.8749992170819,-690.55924344855612,3673.9920467799679,1968.0813264277767,-1118.3285273058782,1118.3285273058782,-1968.0813264277767,6794.6052328326741,0.0
593204.59901257406,4157374.0504322448,-17500.0,2235.3779011059755,845.63057055619367,-4921.6006058152598,-111.78027007128225,1913.5798339680721,-565.97389847348256,4034.2917127185083,3239.8819158380343,-2451.3676697246315,2451.3676697246315,-3239.8819158380343,7224.1829744574761,0.0
598204.59901257406,4157374.0504322448,-17500.0,3607.7123367876384,-979.20120731401448,-4616.5822954965652,818.5241539611377,1304.0996500537308,-228.55604200879489,4483.2841684060204,4292.4716974913472,-3957.9824653908795,3957.9824653908795,-4292.4716974913472,7797.0413564322544,0.0
603204.59901257406,4157374.0504322448,-17500.0,4370.8924176417968,-3422.1315797028647,-2721.2321732039845,1919.2215441718479,-173.82730045253678,404.83466231959824,5253.2964145759188,4408.7554350933733,-4965.9314128856531,4965.9314128856531,-4408.7554350933733,9174.6337823251706,0.0
608204.59901257406,4157374.0504322448,-17500.0,3871.0729850406442,-5580.3406696552411,1337.3996249508994,2744.5549897570108,-2671.9427517035347,1344.9382959738152,6583.9593270535697,2842.4871976939398,-4327.2840112825215,4327.2840112825215,-2842.4871976939398,11993.191545456806,0.0
613204.59901257406,4157374.0504322448,-17500.0,2171.1693123227569,-5958.0792345975087,6896.1812905147808,2663.0136414252061,-5735.9471258578787,2427.6076027277313,8335.0653054339964,-254.38241131582174,-1231.2698300859806,1231.2698300859806,254.38241131582174,15737.03093183087,0.0
618204.59901257406,4157374.0504322448,-17500.0,513.34467011040647,-3808.435453099286,11681.277808569024,1421.2591834432221,-8232.4225134308726,3309.5097308888226,9873.7457790004773,-3258.74277019178,3439.9126100273675,-3439.9126100273675,3258.74277019178,18820.326811963143,0.0
623204.59901257406,4157374.0504322448,-17500.0,187.67575982211031,-264.82286620597762,13543.481281860832,-435.07464376237829,-9160.8371421263728,3689.1037611969796,10463.686793996929,-4405.9055742632227,7366.0315053653449,-7366.0315053653449,4405.9055742632227,19910.153753237722,0.0
628204.59901257406,4157374.0504322448,-17500.0,1171.7562621219663,2781.2031264190064,12367.147024896794,-2046.971511504169,-8479.8180640624996,3531.1204288888457,9930.4937038861099,-3524.2495612215416,8976.4994103164936,-8976.4994103164936,3524.2495612215416,18867.614120517304,0.0
633204.59901257406,4157374.0504322448,-17500.0,2570.3380781611781,4381.3601709544355,9526.7356699927022,-2955.1223051435777,-6864.5007953434606,3016.3841340552385,8645.6350781272322,-1662.1521260524601,8431.5403784501432,-8431.5403784501432,1662.1521260524601,16451.105090428195,0.0
638204.59901257406,4157374.0504322448,-17500.0,3665.1376459367498,4646.4125428794523,6375.2198932674446,-3177.2037861978106,-5015.9618463227716,2362.6839829352898,7077.708038409688,186.17821806758684,6695.6903967039198,-6695.6903967039198,-186.17821806758684,13531.505011117688,0.0
643204.59901257406,4157374.0504322448,-17500.0,4200.8880579340448,4072.8440310173655,3660.7640179278878,-2934.4130174669731,-3354.720693520695,1726.1832176357289,5557.3698348942462,1541.2573879111219,4626.6317336307966,-4626.6317336307966,-1541.2573879111219,10697.580007546188,0.0
648204.59901257406,4157374.0504322448,-17500.0,4213.2536348264948,3126.5724345657613,1640.9311926021655,-2456.0671380261042,-2047.6164178587283,1188.0738723742452,4267.8520973950781,2305.8161335286522,2735.0263246151135,-2735.0263246151135,-2305.8161335286522,8245.4944943581886,0.0
653204.59901257406,4157374.0504322448,-17500.0,3852.717503755166,2127.4687952265926,301.14848523307552,-1911.0076329966366,-1109.9402735183505,773.50365521493336,3281.6378654110663,2570.4603981550927,1243.5731803297776,-1243.5731803297776,-2570.4603981550927,6276.0881995814198,0.0
658204.59901257406,4157374.0504322448,-17500.0,3286.0171732827253,1251.4286466070103,-490.99469671555903,-1400.1161685664388,-486.20170774892608,475.14160752857276,2558.6261874002639,2488.8494269063485,191.27406722624391,-191.27406722624391,-2488.8494269063485,4778.964622830289,0.0
663204.59901257406,4157374.0504322448,-17500.0,2649.4146171028569,566.91690941564309,-894.01489740461273,-970.43074675266553,-99.82313115636039,271.67196351915453,2030.742121244386,2209.4506729248469,-478.32264676590444,478.32264676590444,-2209.4506729248469,3688.2889225434405,0.0
668204.59901257406,4157374.0504322448,-17500.0,2034.0269507678868,76.87562777169795,-1046.7055846148687,-633.97400619444215,121.14096737427371,139.15467148771469,1646.5254042818215,1845.9752401611904,-855.56870666814848,855.56870666814848,-1845.9752401611904,2917.427520630577,0.0
673204.59901257406,4157374.0504322448,-17500.0,1489.5571140709251,-247.25717188551906,-1052.8122099830289,-383.89510675159778,234.00409679717373,56.528128065186593,1365.257307658816,1472.279558416715,-1029.5676735191744,1029.5676735191744,-1472.279558416715,2379.8599450777724,0.0
678204.59901257406,4157374.0504322448,-17500.0,1035.433523260308,-443.56752606749632,-982.14307544404369,-205.5528994119405,280.14205866156288,7.3990710807618871,1155.3780791826498,1129.2173449151728,-1073.0629001140269,1073.0629001140269,-1129.2173449151728,2001.4452443513212,0.0
683204.59901257406,4157374.0504322448,-17500.0,672.38253481342156,-548.15054096523318,-877.96726760685885,-82.905253460393268,287.45852728290635,-20.06466092741314,994.10531982071507,834.75496782966582,-1039.2769667787368,1039.2769667787368,-834.75496782966582,1726.1101819435146,0.0
688204.59901257406,4157374.0504322448,-17500.0,391.41551641392903,-590.54903866950895,-765.14420215584778,-1.5596739999309799,273.81323710346646,-33.975100888981309,866.04579434817674,592.97611481869046,-964.29219305474464,964.29219305474464,-592.97611481869046,1515.8399561583392,0.0
693204.59901257406,4157374.0504322448,-17500.0,179.72144953438428,-592.97894619965712,-656.76306190388857,50.169261080993614,250.1351291157556,-39.688851057376468,761.25366630571762,400.60194388461201,-871.11507615221967,871.11507615221967,-400.60194388461201,1347.0113601675905,0.0
698204.59901257406,4157374.0504322448,-17500.0,24.041120840394782,-571.22077377876803,-558.85570733634006,81.218632238607256,222.81865357799504,-40.640388637591812,673.41738538254037,251.13698572551874,-773.58062438868433,773.58062438868433,-251.13698572551874,1205.7624709099025,0.0
703204.59901257406,4157374.0504322448,-17500.0,-87.670253770306616,-536.01204609649392,-473.47159421183522,98.160862214295989,195.41043358661031,-38.976837864423942,598.49750518548501,137.24088056315139,-679.45949796009222,679.45949796009222,-137.24088056315139,1084.1535067154296,0.0
708204.59901257406,4157374.0504322448,-17500.0,-165.6076324799561,-494.39275561109622,-400.56441288711341,105.69823002961219,169.72918611971787,-36.00782907926078,533.82389435666062,51.938736395735418,-592.69405745473512,592.69405745473512,-51.938736395735418,977.58072710553495,0.0
713204.59901257406,4157374.0504322448,-17500.0,-218.03396692315945,-450.81050149719312,-339.09495739740231,107.12671983698468,146.58056514145838,-32.510323221942507,477.54411939126607,-10.859408456368413,-514.91293898546508,514.91293898546508,10.859408456368413,883.23879849718787,0.0
528204.59901257406,4162374.0504322448,-17500.0,-1023.3464437397765,533.56236577426284,-298.13632299843977,-317.43308760665951,163.81954836341333,-73.329340667345036,712.46714659886493,-695.85933631830949,423.75189485581768,-423.75189485581768,695.85933631830949,1405.8337100961342,0.0
533204.59901257406,4162374.0504322448,-17500.0,-1104.3712347569201,625.58682828405369,-366.37832012288476,-363.93869908610077,201.80994588237422,-89.028562558804168,802.96335271489045,-739.83441862911593,471.947649916969,-471.947649916969,739.83441862911593,1587.403892537985,0.0
538204.59901257406,4162374.0504322448,-17500.0,-1183.0734615438339,733.37409645316529,-453.57655279003802,-416.67251379763337,249.47864635404872,-108.37460050262841,906.43669955246787,-776.95095639817441,521.69660935853904,-521.69660935853904,776.95095639817441,1795.6150247485054,0.0
543204.59901257406,4162374.0504322448,-17500.0,-1253.8411793345479,858.39947455103663,-565.39071381812607,-475.55112584786133,309.27091022170174,-132.14312014300009,1024.5623396650685,-801.2811596676986,570.0891440345099,-570.0891440345099,801.2811596676986,2033.685843434685,0.0
548204.59901257406,4162374.0504322448,-17500.0,-1308.1316340066039,1001.1647926587078,-709.02565627054321,-539.70828191766191,384.06404409214417,-161.15779345455937,1159.5307496273267,-804.13943218305769,612.09697027364871,-612.09697027364871,804.13943218305769,2304.4916064223385,0.0
553204.59901257406,4162374.0504322448,-17500.0,-1333.3485367852161,1160.1357319073177,-893.39088204490531,-606.90648083074109,477.02854435559919,-196.16798511111472,1314.5896884260674,-773.11728817992775,639.45409497880109,-639.45409497880109,773.11728817992775,2609.9522853295784,0.0
558204.59901257406,4162374.0504322448,-17500.0,-1311.5274927515757,1329.9462445585739,-1128.9382819886362,-672.62691076888314,591.214795904472,-237.59012108626544,1491.6883554203823,-691.0275248589279,639.10269148320378,-639.10269148320378,691.0275248589279,2950.041974150904,0.0
563204.59901257406,4162374.0504322448,-17500.0,-1218.0763928562326,1498.4979996309501,-1426.716894150595,-728.730822335732,728.60287049376745,-285.01112466850287,1689.9410473346434,-535.0656964229853,591.20603631548477,-591.20603631548477,535.0656964229853,3321.3006317418985,0.0
568204.59901257406,4162374.0504322448,-17500.0,-1021.2384800122512,1642.536961228876,-1795.7317303577956,-761.64065300773734,888.16271303874782,-336.30243908362883,1906.7039998644625,-276.95581675821427,467.01588360701749,-467.01588360701749,276.95581675821427,3714.8387569394681,0.0
573204.59901257406,4162374.0504322448,-17500.0,-683.75418097144473,1721.5037347428986,-2236.9427262397539,-750.20777522309061,1062.2154709811814,-386.15644745959412,2136.9989481827697,114.28689253171081,227.6054080663389,-227.6054080663389,-114.28689253171081,4114.2739363737801,0.0
578204.59901257406,4162374.0504322448,-17500.0,-169.56334251705971,1670.4139239794683,-2731.1631849318355,-664.01744885015751,1230.1506465186519,-423.89831970669979,2373.3960225820879,663.89829872254802,-173.92985370609165,173.92985370609165,-663.89829872254802,4495.3746211621283,0.0
583204.59901257406,4162374.0504322448,-17500.0,539.85561571272706,1395.2716089633129,-3217.2226967917782,-464.14531499431308,1348.7103778996493,-430.70463299718125,2608.8571129878505,1372.3232495884745,-781.22273856331788,781.22273856331788,-1372.3232495884745,4832.6860067931093,0.0
588204.59901257406,4162374.0504322448,-17500.0,1414.2850637463596,780.6485167980893,-3558.1953939113123,-110.58773209454299,1339.6174397602927,-377.14054853819385,2846.8304875860358,2180.2373515419677,-1604.5709080437625,1604.5709080437625,-2180.2373515419677,5125.9719753662885,0.0
593204.59901257406,4162374.0504322448,-17500.0,2329.1723965912042,-270.92163164969128,-3503.3503399480028,416.87900192916254,1080.414756341874,-223.48690036426643,3123.9566408076917,2919.0078292597177,-2560.757333958732,2560.757333958732,-2919.0078292597177,5467.1194980399332,0.0
598204.59901257406,4162374.0504322448,-17500.0,3029.083299843513,-1742.2203346604613,-2682.5407120563455,1078.6682759784374,415.47312424135805,72.535078029478768,3537.2044873523587,3274.2377998905163,-3386.8141088331517,3386.8141088331517,-3274.2377998905163,6131.1955610949635,0.0
603204.59901257406,4162374.0504322448,-17500.0,3170.0909825717386,-3352.5067415792519,-717.9613338917527,1725.6163069833956,-782.53137458800325,535.16639465943854,4220.8150835298457,2842.9440422738476,-3590.8986813116421,3590.8986813116421,-2842.9440422738476,7503.5510981288589,0.0
608204.59901257406,4162374.0504322448,-17500.0,2531.2743834595981,-4478.1111612009117,2463.5372527592212,2089.1367077146188,-2482.3311896120554,1137.4501856117015,5217.7669530399289,1388.4568579135926,-2598.5743222425176,2598.5743222425176,-1388.4568579135926,9674.3340976555064,0.0
613204.59901257406,4162374.0504322448,-17500.0,1329.6092472872147,-4393.094069603173,6252.9946725980317,1892.7836979030367,-4364.1977653501217,1775.1863536457615,6364.8360492266584,-781.27702556367012,-207.77888814669262,207.77888814669262,781.27702556367012,12166.712722511656,0.0
618204.59901257406,4162374.0504322448,-17500.0,252.40549787724737,-2859.3495445889835,9418.5474640114953,1074.2498647173841,-5876.9185562922021,2288.3403346734221,7345.0599015001908,-2763.2109538882301,2968.3501949415727,-2968.3501949415727,2763.2109538882301,14181.174647291025,0.0
623204.59901257406,4162374.0504322448,-17500.0,-53.740666470423847,-469.08099079800866,10871.188369734384,-102.06634198033758,-6555.9580517339809,2541.9791831069533,7817.0324906963115,-3666.9870892076415,5741.0109410279765,-5741.0109410279765,3666.9870892076415,15078.690337680726,0.0
628204.59901257406,4162374.0504322448,-17500.0,488.81974266220544,1794.3046159561109,10410.863817979676,-1219.38474095231,-6317.0592917095973,2501.3431769285185,7638.696530794824,-3290.3951765942238,7200.6217097902718,-7200.6217097902718,3290.3951765942238,14709.312080361318,0.0
633204.59901257406,4162374.0504322448,-17500.0,1468.1446276529589,3263.0982501877056,8640.5355341579125,-1981.8319692400125,-5423.9654588033891,2231.126558089175,6936.1136120175242,-2087.6557453841597,7219.7427431532087,-7219.7427431532087,2087.6557453841597,13361.793906924144,0.0
638204.59901257406,4162374.0504322448,-17500.0,2412.3366987239265,3811.3868255087368,6366.7507462743561,-2314.8000689177825,-4245.7535576105902,1838.5018501251418,5945.7268209414669,-668.52591524201807,6227.2819144081914,-6227.2819144081914,668.52591524201807,11487.821115131548,0.0
643204.59901257406,4162374.0504322448,-17500.0,3046.2475211782908,3649.8905520942244,4184.1616425666671,-2295.8503336258341,-3072.6034308635062,1420.1790406930616,4882.5862123520046,547.13412249926432,4769.8979739552105,-4769.8979739552105,-547.13412249926432,9481.0251796555967,0.0
648204.59901257406,4162374.0504322448,-17500.0,3300.7374759148533,3077.1358148656395,2393.9920165672779,-2054.0972811770107,-2065.8625524813069,1039.3121754754332,3896.6684905148286,1383.2898020873017,3266.1674936936824,-3266.1674936936824,-1383.2898020873017,7599.5592137257772,0.0
653204.59901257406,4162374.0504322448,-17500.0,3230.4010715997415,2346.2826062091358,1078.9157443701761,-1707.9777623765622,-1282.4979900718433,725.50493018271197,3076.3971286300398,1832.3516208237183,1955.6946115600995,-1955.6946115600995,-1832.3516208237183,5976.2228954925567,0.0
658204.59901257406,4162374.0504322448,-17500.0,2937.4696980891272,1625.4877704521843,198.90424367258817,-1342.0260271684349,-716.27410206401316,484.56072396181395,2434.6899261561057,1969.9041211703952,933.63167138972676,-933.63167138972676,-1969.9041211703952,4654.882406724013,0.0
663204.59901257406,4162374.0504322448,-17500.0,2524.5815654129319,1003.9346786012561,-336.51656379320286,-1005.838722018766,-331.62680785203082,309.15085956050723,1940.046555513451,1895.0627645635345,203.71679287488894,-203.71679287488894,-1895.0627645635345,3625.48882350649,0.0
668204.59901257406,4162374.0504322448,-17500.0,2072.7247823553284,513.79729857708253,-624.72923251817815,-722.04297847583348,-85.274897913808658,186.76060691162269,1563.4979036407565,1697.8093865085614,-276.17840023679946,276.17840023679946,-1697.8093865085614,2850.1989406833941,0.0
673204.59901257406,4162374.0504322448,-17500.0,1635.8164306897927,153.16854750549319,-749.15557859661942,-495.87820595022833,62.555929014106482,104.39523169590656,1279.6601958410404,1446.1541942504671,-563.15510464232079,563.15510464232079,-1446.1541942504671,2280.5159086899207,0.0
678204.59901257406,4162374.0504322448,-17500.0,1244.0096716632918,-96.247786337556178,-772.85565393981472,-323.12061009931682,143.81879135276648,50.793791442192322,1065.9500659087105,1185.0206676459354,-712.11038413877657,712.11038413877657,-1185.0206676459354,1867.6234559008481,0.0
683204.59901257406,4162374.0504322448,-17500.0,910.08666090581482,-257.85041496982564,-739.61883963891933,-195.49398026976641,182.14749938676169,17.110143020369733,903.56160309389747,940.43537868538749,-768.37846757193063,768.37846757193063,-940.43537868538749,1568.2583842190979,0.0
688204.59901257406,4162374.0504322448,-17500.0,635.76550556227369,-354.08708776254235,-677.90601403189009,-103.85463444720288,194.04434757596908,-3.1854554049051398,777.92206361808519,725.02812290252928,-766.13514315282532,766.13514315282532,-725.02812290252928,1347.6162254148353,0.0
693204.59901257406,4162374.0504322448,-17500.0,416.63210223518331,-403.87576316209385,-605.15037981322928,-39.793031673249736,190.53642208935801,-14.71063912153334,678.40207781568347,542.91337081608265,-729.5536035771778,729.5536035771778,-542.91337081608265,1179.986135940371,0.0
698204.59901257406,4162374.0504322448,-17500.0,245.49499262515499,-421.99440634387111,-531.37804345896006,3.7381597466270309,178.72526501937111,-20.630360440199937,597.58826873051237,393.33531221233,-674.89389104550798,674.89389104550798,-393.33531221233,1047.7197746840641,0.0
703204.59901257406,4162374.0504322448,-17500.0,114.42709283870209,-419.41527786784894,-461.89675980815019,32.323484455009613,163.02768780409852,-23.062357997640873,530.44845677809644,273.10541446702013,-612.6101457117461,612.6101457117461,-273.10541446702013,939.36686766022103,0.0
708204.59901257406,4162374.0504322448,-17500.0,15.875434784860282,-403.98495441316237,-399.14624661416769,50.228362542090075,146.0881677272302,-23.395756343142281,473.59767863500178,178.09769090407593,-549.11202092570215,549.11202092570215,-178.09769090407593,847.75720601401758,0.0
528204.59901257406,4167374.0504322448,-17500.0,-867.8139363037767,536.85191193084552,-343.62226124851685,-275.44594882868375,167.72751770517789,-64.906259920967017,654.34254242591157,-566.14818640026465,375.67294683705751,-375.67294683705751,566.14818640026465,1294.2947994913236,0.0
533204.59901257406,4167374.0504322448,-17500.0,-916.8749478394891,619.11218655999539,-417.97212094370803,-310.7018059332878,203.7615413723347,-77.781315986605776,730.61884209819868,-583.73496018188382,407.47776874066494,-407.47776874066494,583.73496018188382,1448.5920064801601,0.0
538204.59901257406,4167374.0504322448,-17500.0,-957.39128943185699,712.16937362945282,-510.97946377245125,-349.02142990359596,247.96580166064152,-93.279399242187026,816.24233578226585,-589.58617681797182,436.03512433424811,-436.03512433424811,589.58617681797182,1622.247746974833,0.0
543204.59901257406,4167374.0504322448,-17500.0,-983.13087807817965,815.53023023721209,-627.30844860382103,-389.49271832842135,301.9689192988651,-111.79590845514929,912.70419123709348,-577.49729926898863,457.32362642276439,-457.32362642276439,577.49729926898863,1816.5163890480635,1.0
548204.59901257406,4167374.0504322448,-17500.0,-985.4013481171462,927.11064444481678,-772.409375896401,-430.30445181448306,367.44013896353368,-133.64601481968924,1022.7954366873245,-539.05995550792716,465.21307384486624,-465.21307384486624,539.05995550792716,2031.8859839543022,0.0
553204.59901257406,4167374.0504322448,-17500.0,-952.44655136009658,1042.128366596784,-952.22581446920447,-468.25268493705778,445.79693753193862,-158.92023905498232,1146.8562294556248,-463.22852322012062,450.64788811613261,-450.64788811613261,463.22852322012062,2267.5074318074917,0.0
558204.59901257406,4167374.0504322448,-17500.0,-868.99084985363697,1151.4485752201676,-1172.3810238901187,-498.06187123571647,537.62139124076555,-187.22781482897597,1283.4524572404991,-336.12801675743628,400.71036588873426,-400.71036588873426,336.12801675743628,2520.4156933531413,0.0
563204.59901257406,4167374.0504322448,-17500.0,-716.30886858815791,1239.2559335817459,-1436.3757681665218,-511.52598012156756,641.58333789697451,-217.266458536823,1430.7390108680875,-141.52939849698777,297.78684876367635,-297.78684876367635,141.52939849698777,2784.6029192748069,0.0
568204.59901257406,4167374.0504322448,-17500.0,-473.54939257103581,1280.0954976644794,-1742.040120084959,-496.58646826305386,752.58487358028503,-246.1469975078864,1585.7997058074991,137.21195477609405,119.41390372230643,-119.41390372230643,-137.21195477609405,3050.265265719594,0.0
573204.59901257406,4167374.0504322448,-17500.0,-121.54637281999233,1235.8153223534414,-2075.1432961862556,-436.71157872880724,858.78986166345953,-268.42071650665457,1744.7461862612611,512.43441426870254,-159.95530916208156,159.95530916208156,-512.43441426870254,3304.1805893803225,0.0
578204.59901257406,4167374.0504322448,-17500.0,349.12198771505558,1054.0855397991613,-2398.937882252269,-311.41624608949445,937.32787744524569,-274.85965225436098,1904.3495263126053,982.82241351029791,-562.95606269891175,562.95606269891175,-982.82241351029791,3533.6138854835167,0.0
583204.59901257406,4167374.0504322448,-17500.0,924.10754329627923,672.33713712148085,-2639.2551290927086,-99.501939862858137,949.08282791381487,-251.31020954252361,2066.7840689035015,1517.7339809901969,-1095.5287701000566,1095.5287701000566,-1517.7339809901969,3738.8245361911368,0.0
588204.59901257406,4167374.0504322448,-17500.0,1545.7400618359393,34.035322432193624,-2668.2733598173381,212.65811215123657,834.64033701928008,-178.46662564761064,2249.3139740358561,2036.0350015944703,-1721.6549661604029,1721.6549661604029,-2036.0350015944703,3961.5636812155763,0.0
593204.59901257406,4167374.0504322448,-17500.0,2095.3486006011331,-874.10840118758358,-2298.7572400575714,615.7695562814398,516.6898582438389,-34.140617870561506,2496.595731924986,2388.1927311249347,-2327.571241760641,2327.571241760641,-2388.1927311249347,4326.2348083798352,0.0
598204.59901257406,4167374.0504322448,-17500.0,2398.1639553441191,-1962.4948948241374,-1314.5504448704519,1056.9928489234701,-81.889936745855479,199.96549575053515,2879.082961136266,2365.464521887819,-2692.1033518577547,2692.1033518577547,-2365.464521887819,5037.9578977733481,0.0
603204.59901257406,4167374.0504322448,-17500.0,2282.5591738548164,-2982.9578719516139,430.12280802688741,1425.8735926615448,-995.61250164678449,526.15063675845283,3451.8567020082041,1772.6434684441983,-2507.6006346118793,2507.6006346118793,-1772.6434684441983,6247.4033530602019,0.0
608204.59901257406,4167374.0504322448,-17500.0,1703.5379069680321,-3548.8126461448364,2846.2111218096229,1571.2865019909304,-2157.0431171611522,916.88070910628642,4190.1770758926614,576.08926936952594,-1508.2769871255091,1508.2769871255091,-576.08926936952594,7872.1640078398532,0.0
613204.59901257406,4167374.0504322448,-17500.0,856.6836009730132,-3304.1729833876693,5488.3134675025531,1368.6259997314428,-3362.8729965805501,1309.6955477981403,4971.5329728929519,-957.97014212000113,308.00300674387449,-308.00300674387449,957.97014212000113,9584.2508548632231,0.0
618204.59901257406,4167374.0504322448,-17500.0,134.08851437734643,-2182.9835455473094,7659.2963462220687,809.85845469010792,-4325.2908297025497,1622.7696180467606,5626.6116610119616,-2310.7598687869772,2538.9381270724011,-2538.9381270724011,2310.7598687869772,10955.846637993987,0.0
623204.59901257406,4167374.0504322448,-17500.0,-115.98411300671734,-519.28650877234861,8765.9808979164354,35.88768744201478,-4808.0558907344921,1789.0044592581376,5985.2018435061664,-2999.3011427620431,4528.4756837679388,-4528.4756837679388,2999.3011427620431,11651.750324687122,0.0
628204.59901257406,4167374.0504322448,-17500.0,183.25561569717701,1144.602765075701,8642.2696513360988,-735.51040533409582,-4745.2018207115252,1785.8902698569907,5949.9009766834088,-2868.2441761847504,5738.1889300969697,-5738.1889300969697,2868.2441761847504,11561.606348284131,0.0
633204.59901257406,4167374.0504322448,-17500.0,839.82702213452865,2373.694800562977,7556.3385596468643,-1324.947402983338,-4244.7298802735204,1639.096684835569,5559.0645869039354,-2115.1863576350133,6002.6928478808632,-6002.6928478808632,2115.1863576350133,10798.378974006788,0.0
638204.59901257406,4167374.0504322448,-17500.0,1570.3774893897994,3001.5931867717509,5968.6049532661355,-1655.1146579022368,-3498.6753861487559,1402.1134066991158,4931.4956580192802,-1091.051257511695,5493.673096248669,-5493.673096248669,1091.051257511695,9595.9297765852662,0.0
643204.59901257406,4167374.0504322448,-17500.0,2157.5130332558037,3088.3366036454395,4294.7759382930344,-1741.0440690537489,-2688.9771914049074,1131.0012803989641,4198.0022007684138,-100.9309087171905,4527.7035829278047,-4527.7035829278047,100.9309087171905,8198.4456994033353,0.0
648204.59901257406,4167374.0504322448,-17500.0,2501.2837027463638,2800.1867017035975,2801.7846360725748,-1646.7156919973459,-1940.3274281806962,868.44782697638107,3465.6429082894188,678.41865388022461,3403.5492149598267,-3403.5492149598267,-678.41865388022461,6797.0499852821249,0.0
653204.59901257406,4167374.0504322448,-17500.0,2597.5204729484253,2313.3070377817658,1609.7877179101476,-1445.9919484617283,-1315.7052515182777,639.3066338637866,2811.0703884229556,1189.5320841631549,2329.9378826553502,-2329.9378826553502,-1189.5320841631549,5513.2669905912999,0.0
658204.59901257406,4167374.0504322448,-17500.0,2495.2923482569427,1766.1058292501573,736.40609508964235,-1200.7545757353378,-831.96740496034317,453.31495770832856,2269.5923975653709,1451.7232557423768,1419.2664387166901,-1419.2664387166901,-1451.7232557423768,4408.0698606203823,0.0
663204.59901257406,4167374.0504322448,-17500.0,2261.144013999472,1247.4359815172327,143.46463034434123,-953.69384815903777,-478.81628222276373,310.25067827642454,1832.6124157345912,1519.9017194246712,710.22398095228584,-710.22398095228584,-1519.9017194246712,3499.1234232192128,0.0
668204.59901257406,4167374.0504322448,-17500.0,1957.2702532386534,803.1239250392091,-228.47298355620251,-729.45996993805193,-233.82751287864414,204.69963481098247,1485.2807168802735,1456.3301566545601,195.92986075104011,-195.92986075104011,-1456.3301566545601,2777.3536812964612,0.0
673204.59901257406,4167374.0504322448,-17500.0,1631.8065611822319,448.61428870211597,-439.53385104714698,-539.11555082227096,-71.986438908341256,129.40971933617487,1213.600608316747,1315.5371120960076,-152.85219786599453,152.85219786599453,-1315.5371120960076,2219.6664825285084,0.0
678204.59901257406,4167374.0504322448,-17500.0,1317.0180034795674,181.20221011983384,-540.83172427535362,-384.95415721024102,29.353854389401462,77.230605156314709,1003.4329580305041,1138.7465024985445,-372.21013042421293,372.21013042421293,-1138.7465024985445,1797.4972884906281,0.0
683204.59901257406,4167374.0504322448,-17500.0,1031.5043245949948,-10.709945429880358,-571.61388008082031,-264.40217365680718,88.5659661441277,42.012668177349617,841.46987617864579,953.81130799020661,-496.45165200651553,496.45165200651553,-953.81130799020661,1482.0293710581395,0.0
688204.59901257406,4167374.0504322448,-17500.0,783.75792934744379,-141.65153335696581,-559.96492779040409,-172.70549607787532,119.54982309174434,18.87065509631686,716.15775825797778,777.60324140722162,-554.318752708631,554.318752708631,-777.60324140722162,1247.157031812101,0.0
693204.59901257406,4167374.0504322448,-17500.0,575.61567617645449,-225.77182293949434,-524.90811441142841,-104.5583268651976,132.31541444586068,4.1203608574182589,618.11570979168096,619.00410780082564,-568.08382885944786,568.08382885944786,-619.00410780082564,1071.0058376657707,0.0
698204.59901257406,4167374.0504322448,-17500.0,405.00712204543646,-275.32042708533118,-478.72553452781,-54.967188247012906,133.80497849690337,-4.9173851581228538,540.12722376011482,481.59370933132919,-554.08500362856137,554.08500362856137,-481.59370933132919,936.44932646084737,0.0
703204.59901257406,4167374.0504322448,-17500.0,267.8937012938336,-300.18862694884513,-428.97484371830592,-19.627407193236472,128.68565821243095,-10.139638632710021,476.86862512245955,365.7227661990504,-523.80659840823125,523.80659840823125,-365.7227661990504,830.87360925411224,0.0
528204.59901257406,4172374.0504322448,-17500.0,-718.30243156073061,521.20737470033441,-379.01061560290697,-234.48905261658822,166.23791918889052,-56.584669562643136,594.4993815151837,-442.78553044986381,319.13248281568065,-319.13248281568065,442.78553044986381,1179.5362558419781,0.0
533204.59901257406,4172374.0504322448,-17500.0,-740.45038177011565,590.56700655378677,-455.55870631516939,-259.7515905229227,199.043670012924,-66.859838181024884,657.36379994716708,-438.77723872884673,335.0567748478058,-335.0567748478058,438.77723872884673,1307.8849836152933,0.0
538204.59901257406,4172374.0504322448,-17500.0,-750.14527346794102,665.7189453881515,-549.12444558445213,-285.65015230553678,238.30014455035806,-78.900839294688268,727.40672231211272,-420.31073930158533,344.02953904026293,-344.02953904026293,420.31073930158533,1449.3924243429292,0.0
543204.59901257406,4172374.0504322448,-17500.0,-741.40910569970106,744.62762769714971,-663.02060287109646,-310.81662622679033,284.87574614000766,-92.828365772174422,807.20104374607456,-381.7026688012993,341.59898500821532,-341.59898500821532,381.7026688012993,1603.949771606769,0.0
548204.59901257406,4172374.0504322448,-17500.0,-706.50119379174987,823.40565099072444,-800.59898246332955,-333.03282251734225,339.39373503419824,-108.61629935472305,895.85826144366501,-315.81125880858366,321.52876795830485,-321.52876795830485,315.81125880858366,1770.5558139434318,0.0
553204.59901257406,4172374.0504322448,-17500.0,-635.78409653866254,895.36801049026019,-964.64352453816275,-348.88074129494447,401.87914264743506,-125.9561818858562,992.09799465136268,-214.06750604752651,275.36260111091349,-275.36260111091349,214.06750604752651,1946.910428290626,0.0
558204.59901257406,4172374.0504322448,-17500.0,-517.9306974048128,949.78850505277387,-1156.1978030265232,-353.32737886444914,471.15656726202866,-144.04222950796697,1094.7166213352752,-66.924960968883141,192.12411688385808,-192.12411688385808,66.924960968883141,2128.9901480171429,0.0
563204.59901257406,4172374.0504322448,-17500.0,-340.82916251499921,970.43202155266306,-1372.4764653244185,-339.31220631758094,543.87985432142909,-161.24868616458448,1201.9844730695681,134.88499465280691,58.465337344874314,-58.465337344874314,-134.88499465280691,2310.8089821937042,0.0
568204.59901257406,4172374.0504322448,-17500.0,-93.737777576093293,934.17795753416829,-1603.4045187307447,-297.51197873257416,613.06781598419593,-174.68086006312834,1311.8006880486262,397.70692029624331,-140.13923345075969,140.13923345075969,-397.70692029624331,2484.8763178228683,0.0
573204.59901257406,4172374.0504322448,-17500.0,228.59363885500852,810.53725160350029,-1826.3477902114896,-216.64315932151453,666.08899444902079,-179.61990808948713,1422.6399468116285,720.18541478406519,-416.15141815301814,416.15141815301814,-720.18541478406519,2644.4859570457265,0.0
578204.59901257406,4172374.0504322448,-17500.0,619.20784057440881,563.6905768093809,-1999.015224409465,-84.928416253103308,682.28601774266656,-168.97746550148614,1535.9287378441875,1085.761873254,-773.2700602564131,773.2700602564131,-1085.761873254,2790.000982744004,0.0
583204.59901257406,4172374.0504322448,-17500.0,1049.844016654667,159.74041934258349,-2051.8535360176688,106.39135246543833,631.01792095807571,-133.0575559327645,1660.5545012385041,1452.8345899678673,-1194.9015221631719,1194.9015221631719,-1452.8345899678673,2942.0809200293838,0.0
588204.59901257406,4172374.0504322448,-17500.0,1462.0402914552353,-417.53648844841484,-1884.2129895573014,356.68620083642929,471.96561034606532,-60.186140942167455,1818.7783689092244,1745.6661265153609,-1627.9982984025926,1627.9982984025926,-1745.6661265153609,3161.2923062459045,0.0
593204.59901257406,4172374.0504322448,-17500.0,1765.3805258806185,-1141.0505295249063,-1373.196019142478,646.95800334286605,160.88388838762282,61.015770156310772,2048.0168739453256,1854.0519976602457,-1967.2891732049573,1967.2891732049573,-1854.0519976602457,3556.0577170129691,0.0
598204.59901257406,4172374.0504322448,-17500.0,1854.4071179035741,-1911.1732085867379,-407.64531836459679,931.36991824678989,-335.60575903888974,237.11717827789553,2387.8102759685898,1654.93844572279,-2053.7871987330263,2053.7871987330263,-1654.93844572279,4239.3520584121625,0.0
603204.59901257406,4172374.0504322448,-17500.0,1653.5096805319517,-2543.8063011646295,1046.243393190837,1136.7679570634562,-1015.7862802110009,463.61691900692648,2850.5412343600146,1066.6839823731584,-1709.3859121088749,1709.3859121088749,-1066.6839823731584,5238.9957365313167,0.0
608204.59901257406,4172374.0504322448,-17500.0,1179.5834757714708,-2807.8608576575007,2867.4596070844659,1179.7087543176565,-1818.0483529233086,719.60858215617782,3397.9243977035721,124.3086041654413,-820.40874651092963,820.40874651092963,-124.3086041654413,6448.2686703476438,0.0
613204.59901257406,4172374.0504322448,-17500.0,578.42206976373006,-2525.9005632816993,4749.8575946263591,1002.7418881227659,-2615.7317833123061,968.00601757585025,3946.8588225101257,-975.52599774135933,559.1715633240608,-559.1715633240608,975.52599774135933,7655.7611513616403,0.0
618204.59901257406,4172374.0504322448,-17500.0,81.298292940170967,-1690.8064822681602,6282.0416112237317,612.46383004329277,-3250.0489293212709,1164.7438664378792,4401.6692194661273,-1924.246942847021,2166.542680994984,-2166.542680994984,1924.246942847021,8619.4648180209715,0.0
623204.59901257406,4172374.0504322448,-17500.0,-113.6858975200646,-502.12682646469051,7122.1576445526962,88.816497777976878,-3592.79647419192,1274.3902564033933,4672.0845376964335,-2444.8747327766023,3618.4225372888968,-3618.4225372888968,2444.8747327766023,9151.2241790632288,0.0
628204.59901257406,4172374.0504322448,-17500.0,51.98062963688632,725.53046744189282,7149.928035290407,-447.86797552010358,-3599.1685892535729,1283.2934256023871,4693.8074331610851,-2428.9324076252683,4586.7637076065694,-4586.7637076065694,2428.9324076252683,9176.0655653127251,0.0
633204.59901257406,4172374.0504322448,-17500.0,486.98444017825983,1713.146266218406,6486.4021118698829,-889.39371031440419,-3314.9697380151856,1202.2227821522158,4473.7501360334045,-1962.5250803737028,4931.7035908839152,-4931.7035908839152,1962.5250803737028,8738.3243092145258,0.0
638204.59901257406,4172374.0504322448,-17500.0,1025.7080061812524,2315.7109298676896,5392.6738493984612,-1175.6559862384779,-2841.3201641706801,1058.4443202124205,4072.3697671035097,-1244.2974212298579,4710.9871909617896,-4710.9871909617896,1244.2974212298579,7961.272331035103,0.0
643204.59901257406,4172374.0504322448,-17500.0,1515.2756458149122,2527.4648634758455,4143.170605009268,-1299.0420069722193,-2288.2760454750037,883.83473349255803,3567.6670914406086,-478.97710908959084,4098.8945758758982,-4098.8945758758982,478.97710908959084,6992.8033026583071,0.0
648204.59901257406,4172374.0504322448,-17500.0,1862.1918597821946,2430.3999686816983,2946.0260873380889,-1287.5929016943708,-1743.3057994253495,705.59526455229138,3031.6197605423586,187.90177068380672,3292.8799644405685,-3292.8799644405685,-187.90177068380672,5964.690695251451,0.0
653204.59901257406,4172374.0504322448,-17500.0,2036.1258963098221,2136.3359350901464,1921.2150693034007,-1183.8366949619017,-1260.5225795429667,542.06909245679185,2521.9285953512417,684.72586885905571,2454.4607692747377,-2454.4607692747377,-684.72586885905571,4973.5983043142824,0.0
658204.59901257406,4172374.0504322448,-17500.0,2051.5392892308296,1748.057931621202,1114.0333855277652,-1029.2893359424654,-864.0087272601188,402.73431991654633,2078.1411452916232,998.78146935894529,1688.753065017368,-1688.753065017368,-998.78146935894529,4078.8078165117627,0.0
663204.59901257406,4172374.0504322448,-17500.0,1945.4791799475026,1342.0749426006378,520.42258612349019,-856.68687245044441,-556.77580548081551,290.31316849364566,1706.3547078382269,1152.7099385271615,1048.5314196882225,-1048.5314196882225,-1152.7099385271615,3308.6078828172394,0.0
668204.59901257406,4172374.0504322448,-17500.0,1760.4497060463661,966.21493065275922,110.54742340421069,-688.05465332210395,-329.85744989998079,203.32573457098715,1399.4629451928261,1184.1250549950005,548.3242007707837,-548.3242007707837,-1184.1250549950005,2669.2882040356958,0.0
673204.59901257406,4172374.0504322448,-17500.0,1534.3505811444459,644.60111431040787,-154.34025963296088,-535.97232245181362,-169.20908221880688,138.21585271157727,1150.6389406811281,1132.1202970666222,179.48408273949582,-179.48408273949582,-1132.1202970666222,2153.4750820002109,0.0
678204.59901257406,4172374.0504322448,-17500.0,1296.2411010170342,384.81390418055526,-311.96840511255851,-406.01352819892105,-60.042948119285391,90.791687237204854,952.01627643136294,1030.2336988604573,-77.832805498519747,77.832805498519747,-1030.2336988604573,1746.5487519788494,0.0
683204.59901257406,4172374.0504322448,-17500.0,1065.8281301164222,184.46947087679399,-394.37928235728327,-299.19826719776,10.911483423258376,57.048328000052116,795.13385016757957,903.97912485304232,-246.71441684856694,246.71441684856694,-903.97912485304232,1431.0197691672965,0.0
688204.59901257406,4172374.0504322448,-17500.0,854.82908279690696,36.170127065984076,-426.58513724957788,-213.95792668080324,54.532510185353523,33.546836145290548,671.816414979162,771.00738711351744,-349.00820454450957,349.00820454450957,-771.00738711351744,1189.245300145122,0.0
693204.59901257406,4172374.0504322448,-17500.0,668.95927134256442,-69.250729436962757,-426.9806829726403,-147.50799759368871,79.222085630600915,17.521538198000979,574.77436920120647,642.45422596228832,-403.28512343612175,403.28512343612175,-642.45422596228832,1004.9925867026216,0.0
698204.59901257406,4172374.0504322448,-17500.0,509.8522114432028,-140.85637524204594,-408.47935612976772,-96.706382430296514,91.198208740450767,6.8442463956756399,497.88899805651636,524.5910784432607,-424.29460851472277,424.29460851472277,-524.5910784432607,864.26330260988595,0.0
703204.59901257406,4172374.0504322448,-17500.0,376.62143634110402,-186.68540841166063,-379.79200675071382,-58.532703278433779,94.914248589920589,-0.072002229922945027,436.26414660867852,420.3346043425102,-423.20028799748337,423.20028799748337,-420.3346043425102,755.63348499770188,0.0
533204.59901257406,4177374.0504322448,-17500.0,-580.81339654936346,545.94636095665635,-478.18433385345196,-212.77691175962025,189.18728955130697,-56.62924541566165,586.64942637608135,-309.96846213359424,260.92819307054106,-260.92819307054106,309.96846213359424,1169.9893341143493,0.0
538204.59901257406,4177374.0504322448,-17500.0,-567.36426203325971,602.28184287709564,-567.74942530209205,-228.50880461955035,222.71864779306401,-65.695142216840011,645.57262305579115,-274.30792567132056,253.39185618034259,-253.39185618034259,274.30792567132056,1282.7919328615831,0.0
543204.59901257406,4177374.0504322448,-17500.0,-534.45026147554279,656.90269692762786,-673.61285179009406,-241.64454873260979,261.22493417054852,-75.788966663365045,710.08418188205815,-218.67149135315208,232.18437816656308,-232.18437816656308,218.67149135315208,1402.8613708956004,0.0
548204.59901257406,4177374.0504322448,-17500.0,-475.87859028377898,704.96935454100935,-797.07791306396314,-249.95064737450446,304.53392410693499,-86.683773181900179,779.28540424562118,-137.67369900683423,191.71071080560773,-191.71071080560773,137.67369900683423,1528.4779376839906,0.0
553204.59901257406,4177374.0504322448,-17500.0,-384.61755277134216,739.15750456755416,-938.13168903093731,-250.28037724260346,351.71685219081735,-97.873714879751802,852.39728204539256,-25.55849510092871,124.99694055658425,-124.99694055658425,25.55849510092871,1656.9288394753355,0.0
558204.59901257406,4177374.0504322448,-17500.0,-253.38710088005882,748.90727191151336,-1094.2022829228388,-238.38327515081872,400.56574025701133,-108.41419440736202,928.36729245132994,123.00580544953118,23.884805044589619,-23.884805044589619,-123.00580544953118,1784.4628140971604,0.0
563204.59901257406,4177374.0504322448,-17500.0,-75.895705087494051,719.77880858690912,-1258.2297724494745,-208.81581014057033,446.84231035921596,-116.70642321526353,1006.0174009690628,311.41544430224189,-120.19885266994564,120.19885266994564,-311.41544430224189,1906.6694358883258,0.0
568204.59901257406,4177374.0504322448,-17500.0,150.96902558170081,633.30657673875407,-1415.8862959944913,-155.11338538530984,483.28319901345066,-120.23481781486997,1084.6044926456784,538.59103792217763,-314.44253589460538,314.44253589460538,-538.59103792217763,2019.8391116402438,0.0
573204.59901257406,4177374.0504322448,-17500.0,423.74658989252544,468.08128739620952,-1541.9846248419544,-70.487256979209789,498.45017520217522,-115.30198596029429,1165.076945015307,795.18025757237297,-561.22059336263851,561.22059336263851,-795.18025757237297,2124.2907829194351,0.0
578204.59901257406,4177374.0504322448,-17500.0,727.90195490175165,203.1955521920556,-1596.6630364830864,50.594416833634384,475.73720725411954,-96.871707931471789,1252.3256288355763,1058.6821289226443,-852.47291109577986,852.47291109577986,-1058.6821289226443,2230.9496554317248,1.0
583204.59901257406,4177374.0504322448,-17500.0,1033.1916444632393,-174.57798190841504,-1523.0444386714296,209.59321754542304,393.23179873766668,-58.727330188798341,1358.1819596125581,1288.6764458637379,-1161.9132268594342,1161.9132268594342,-1288.6764458637379,2371.1898670287956,0.0
588204.59901257406,4177374.0504322448,-17500.0,1291.4487718718397,-659.06217844709295,-1249.769642904321,399.82609038471446,225.62516322674449,5.7509889556587286,1503.1399979967694,1425.1205608316802,-1436.7391066572588,1436.7391066572588,-1425.1205608316802,2603.6441105665954,0.0
593204.59901257406,4177374.0504322448,-17500.0,1441.2039645251632,-1209.9518934523123,-703.39472332207311,601.99404517672451,-50.336017389564745,101.88596283316478,1712.3656212716407,1394.7731274834264,-1593.5954030392868,1593.5954030392868,-1394.7731274834264,3001.2529052321875,0.0
598204.59901257406,4177374.0504322448,-17500.0,1423.9234080649173,-1741.5028284394809,165.11127879288784,781.69515635939388,-445.99498969038564,231.03651218014892,2003.1747273220353,1131.2023868248068,-1527.0596444529449,1527.0596444529449,-1131.2023868248068,3610.310163834778,0.0
603204.59901257406,4177374.0504322448,-17500.0,1212.2283474014137,-2126.6879024875257,1342.179298691889,892.69136163800863,-948.14467353374357,387.57882399987432,2370.0166532206158,608.78545368357072,-1138.9726343374657,1138.9726343374657,-608.78545368357072,4411.3638420873785,0.0
608204.59901257406,4177374.0504322448,-17500.0,839.39957319525899,-2228.7920256644816,2717.8967973259173,888.96826230381396,-1509.4433450372005,557.04278476194099,2778.4855861203059,-121.67946788891834,-387.37357934055024,387.37357934055024,121.67946788891834,5314.8355243700453,0.0
613204.59901257406,4177374.0504322448,-17500.0,407.9078197117193,-1958.1953393948343,4085.1447813131072,743.75171097587634,-2050.7282724576175,717.32517263514285,3173.6770260217736,-921.91712897679542,666.32888580668998,-666.32888580668998,921.91712897679542,6185.4309445760773,0.0
618204.59901257406,4177374.0504322448,-17500.0,58.484753235259085,-1326.5982808422891,5192.1571982547994,466.20841888696731,-2480.5529787544838,843.86529910801971,3499.2219046045902,-1602.4125446708049,1848.6168651603393,-1848.6168651603393,1602.4125446708049,6879.7236873536285,0.0
623204.59901257406,4177374.0504322448,-17500.0,-91.202647072356868,-458.50649258318248,5832.9338425852138,103.75414350938769,-2725.8713433304092,917.17641258995855,3704.7418440343649,-1997.1823107479893,2925.404261692026,-2925.404261692026,1997.1823107479893,7286.4634365777383,0.0
628204.59901257406,4177374.0504322448,-17500.0,0.39559545974581733,455.69084304788964,5923.6620662956493,-274.15013403469595,-2757.2807590321472,929.01535736321262,3747.4468931631759,-2032.3374408502286,3690.9826326769289,-3690.9826326769289,2032.3374408502286,7355.4868581598021,0.0
633204.59901257406,4177374.0504322448,-17500.0,289.10822901135043,1235.9280113777045,5519.0747067374432,-601.45993125769678,-2594.4953012682527,883.97582835540163,3623.4679268218424,-1744.6853439984313,4039.5677479187807,-4039.5677479187807,1744.6853439984313,7103.3311280829366,0.0
638204.59901257406,4177374.0504322448,-17500.0,678.32224167728327,1770.3034313529549,4768.4519648168662,-835.4060932095299,-2291.7876901210034,796.22973130408639,3364.0810212108067,-1246.9309236951115,3981.3532107876727,-3981.3532107876727,1246.9309236951115,6596.4620509013839,0.0
643204.59901257406,4177374.0504322448,-17500.0,1065.7755567832112,2029.8795079392717,3848.7457972483089,-962.52200302160588,-1915.0801497365917,683.86617918005095,3015.8390422776652,-671.81220309389028,3609.1860955418742,-3609.1860955418742,671.81220309389028,5924.2547863290456,0.0
648204.59901257406,4177374.0504322448,-17500.0,1376.4797649043692,2049.0604634201482,2912.0184894253234,-992.86948824773515,-1522.9843080532457,563.77024514392633,2626.0005390325009,-128.56970236417669,3048.0613314763714,-3048.0613314763714,128.56970236417669,5174.7543222317036,0.0
653204.59901257406,4177374.0504322448,-17500.0,1573.4695987555756,1893.9619054516506,2061.3105127872527,-949.42148776709723,-1157.1871091086884,448.65121972691333,2235.2723868350304,315.60511293249988,2414.5901269406477,-2414.5901269406477,-315.60511293249988,4419.8034082998174,0.0
658204.59901257406,4177374.0504322448,-17500.0,1652.5019297459523,1635.6097586857416,1349.8663137346748,-858.41092424234671,-841.15356231654789,346.2741733503911,1877.3151167331825,634.03693769640051,1796.0380990563331,-1796.0380990563331,-634.03693769640051,3709.6350177399177,0.0
663204.59901257406,4177374.0504322448,-17500.0,1630.2586755664254,1334.050815110438,792.42890074865716,-743.14778762756794,-583.5502960536478,260.12003949242597,1568.0118341311504,829.31718815024635,1245.8995461215964,-1245.8995461215964,-829.31718815024635,3073.8850250836508,0.0
668204.59901257406,4177374.0504322448,-17500.0,1532.7997933442584,1032.3371966194318,379.43911557699784,-621.29535542868155,-383.14730427740352,190.6213370630278,1304.6857927522324,920.48121526830187,788.94118636567941,-788.94118636567941,-920.48121526830187,2525.7192235941757,0.0
673204.59901257406,4177374.0504322448,-17500.0,1387.2359205892351,756.8593620997666,89.185685490061303,-504.54123315125406,-233.27873438141256,136.39607947648133,1084.1628489984328,932.74875569279425,429.63954563187127,-429.63954563187127,-932.74875569279425,2066.7202337799649,0.0
678204.59901257406,4177374.0504322448,-17500.0,1217.0197055629801,520.67863414819692,-103.73628229704298,-399.51646590651916,-125.11706300020018,95.211913588488727,902.68089052118944,890.93940991273394,160.35277133040171,-160.35277133040171,-890.93940991273394,1691.2529441962374,0.0
683204.59901257406,4177374.0504322448,-17500.0,1040.0780890335138,327.59385892403753,-223.47521138727089,-309.1291799165931,-49.716111271490448,64.625192648036233,755.40105362675001,816.10679758054516,-32.351994784139492,32.351994784139492,-816.10679758054516,1389.8163200365771,0.0
688204.59901257406,4177374.0504322448,-17500.0,868.73679442370667,175.75340037795206,-290.593285309968,-233.84194250430676,0.91747212595575411,42.344339041625311,637.02483315133327,724.41278408966718,-163.49574991897265,163.49574991897265,-724.41278408966718,1151.3581343871272,0.0
693204.59901257406,4177374.0504322448,-17500.0,710.54596193786256,60.376457485332345,-321.39985836729687,-172.69118409285952,33.405135566048827,26.397362538641637,542.365523645233,627.29675824805372,-247.27540733171918,247.27540733171918,-627.29675824805372,964.73705680860257,0.0
698204.59901257406,4177374.0504322448,-17500.0,569.40833801963322,-24.425811804834467,-328.18644989314913,-124.01136295246366,52.957653230462327,15.178268240757925,466.71090977006838,532.24279605538368,-295.92519757406734,295.92519757406734,-532.24279605538368,819.58111616558483,0.0
533204.59901257406,4182374.0504322448,-17500.0,-441.08673801421105,491.03396795904359,-486.39967537643355,-170.79628235769968,175.72871229671472,-47.324575187996693,522.67452792320262,-199.88076752791008,189.90248144379129,-189.90248144379129,199.88076752791008,1038.4812697552877,0.0
538204.59901257406,4182374.0504322448,-17500.0,-411.63085163368822,529.37514128642044,-568.47740644788223,-178.6007029860067,203.34406825231127,-53.923480480637942,570.4038441530281,-153.52697363933655,169.625852245846,-169.625852245846,153.52697363933655,1126.5503797739582,0.0
543204.59901257406,4182374.0504322448,-17500.0,-363.56062519007219,561.92112939445622,-662.42529783976124,-182.78378559718669,233.90644938597509,-60.937071937917956,621.09808761786542,-88.995024197669338,135.04720717096342,-135.04720717096342,88.995024197669338,1217.7754644122028,0.0
548204.59901257406,4182374.0504322448,-17500.0,-292.40054524694915,583.61420503087265,-767.81695096765884,-181.33731492498634,266.71388800348223,-68.042766874988814,674.24470677135139,-2.7310539747658424,81.646767734069911,-81.646767734069911,2.7310539747658424,1310.3036749507141,0.0
553204.59901257406,4182374.0504322448,-17500.0,-193.63693361228781,587.4448204219226,-882.51049028526609,-171.63269253807519,300.29251010022728,-74.675338261631168,729.18477795113563,108.42260236821339,4.3048701849325255,-4.3048701849325255,-108.42260236821339,1401.7212650810711,0.0
558204.59901257406,4182374.0504322448,-17500.0,-63.443211395080766,564.13955099878115,-1001.5408992013748,-150.38799272271277,331.9962756319805,-79.919411415866989,785.23243491321603,246.34408401255507,-102.20752879393466,102.20752879393466,-246.34408401255507,1489.3344073983662,0.0
563204.59901257406,4182374.0504322448,-17500.0,100.11092085910758,502.13093093562355,-1115.5927937950189,-113.76724617450947,357.49355363810935,-82.380524743974831,842.01450108438803,410.22834656252917,-242.1994901673481,242.1994901673481,-410.22834656252917,1570.9944042616794,0.0
568204.59901257406,4182374.0504322448,-17500.0,295.26132216741257,388.15232638348817,-1209.0898740837895,-57.728544995237819,370.18265014216189,-80.052928125111663,900.16689928850963,594.57089035704371,-417.22144748541029,417.22144748541029,-594.57089035704371,1646.94228505092,0.0
573204.59901257406,4182374.0504322448,-17500.0,514.20551690934883,208.96885856782751,-1258.1763540035392,21.223605962658663,360.66929530628403,-70.227733051076456,962.52450025993858,786.62325211724897,-623.17118488066694,623.17118488066694,-786.62325211724897,1723.2710525756554,0.0
578204.59901257406,4182374.0504322448,-17500.0,740.60833048472114,-45.145000307724331,-1229.3155685080062,124.72564310965272,316.58862667844289,-49.522057197587344,1035.7156379628907,963.80789072961363,-846.32851246087182,846.32851246087182,-963.80789072961363,1817.1070992866842,0.0
583204.59901257406,4182374.0504322448,-17500.0,947.96783424169939,-374.74470036475509,-1079.9094702911095,250.62889423240833,223.25126325877389,-14.150860243924166,1131.3651916224903,1092.2762184909056,-1058.9223575524393,1058.9223575524393,-1092.2762184909056,1961.165153313367,0.0
588204.59901257406,4182374.0504322448,-17500.0,1100.6318140082662,-763.72583309307413,-763.0491550675107,390.70513318243422,65.748807666952374,39.419063090385407,1265.0110936365581,1128.6684806937656,-1215.9876170835132,1215.9876170835132,-1128.6684806937656,2200.5610452780065,0.0
593204.59901257406,4182374.0504322448,-17500.0,1159.6958867404867,-1172.0767761183354,-238.58324407004062,528.77187060516917,-166.94867675805546,113.35115850498802,1450.8531139300719,1027.6204418730233,-1256.7537969075318,1256.7537969075318,-1027.6204418730233,2575.0041521583366,0.0
598204.59901257406,4182374.0504322448,-17500.0,1095.0914095224837,-1533.3352935479925,509.01058739048722,640.66785464085376,-476.04459415572006,206.96755739736594,1693.5685933957752,756.49645851186324,-1114.6093971600963,1114.6093971600963,-756.49645851186324,3094.5621634539298,0.0
603204.59901257406,4182374.0504322448,-17500.0,901.81684278824343,-1762.6833637437535,1449.9383960036632,697.73405541754823,-846.68514266286229,315.36638720386031,1982.1349984598448,314.96452109966276,-737.80614540282113,737.80614540282113,-314.96452109966276,3728.0143588372275,0.0
608204.59901257406,4182374.0504322448,-17500.0,613.01792837846153,-1779.1762630338869,2495.7124357235662,674.4612148888549,-1244.7018661995269,428.89594261872327,2289.6991945568193,-249.10069857482307,-116.82516190504096,116.82516190504096,249.10069857482307,4408.4046420511768,0.0
613204.59901257406,4182374.0504322448,-17500.0,299.41297912893896,-1537.3587108151671,3506.0366760482589,558.43184944206757,-1620.0397156457927,534.25227728430025,2580.0342149520866,-839.86931562543703,694.3575697150269,-694.3575697150269,839.86931562543703,5048.1762667869016,0.0
618204.59901257406,4182374.0504322448,-17500.0,49.094050009046327,-1053.23535454281,4321.9475714767013,357.8878557935497,-1918.1564202434722,617.3598107890848,2818.9611269422066,-1337.5671444543498,1579.4321809297433,-1579.4321809297433,1337.5671444543498,5558.9769094167859,0.0
623204.59901257406,4182374.0504322448,-17500.0,-65.501920682934482,-407.20624919849388,4814.712772259657,101.94358664805462,-2095.7845173777196,667.14661343513683,2977.2407980254966,-1639.0711978456902,2390.2217719511823,-2390.2217719511823,1639.0711978456902,5872.2528628600194,0.0
628204.59901257406,4182374.0504322448,-17500.0,-15.459216072974396,281.33974347603237,4926.3538848047656,-167.83151642471711,-2133.6901545675323,678.57814088992109,3025.4697252774486,-1694.1114494150186,2994.2231955469842,-2994.2231955469842,1694.1114494150186,5954.2641114010148,0.0
633204.59901257406,4182374.0504322448,-17500.0,177.68079817725592,894.5354000240153,4681.0239122920848,-410.39515039279843,-2040.2446103707407,653.5803252115187,2956.7524461733915,-1517.4124571281354,3314.4425405845295,-3314.4425405845295,1517.4124571281354,5810.085042383057,0.0
638204.59901257406,4182374.0504322448,-17500.0,457.06487373307101,1349.9830363326539,4165.2535757564965,-596.27579313629053,-1845.175035169575,599.65101745760637,2787.5456340540914,-1173.5487863502753,3342.9363651481076,-3342.9363651481076,1173.5487863502753,5476.337071602682,0.0
643204.59901257406,4182374.0504322448,-17500.0,755.65875643246693,1614.3776882561119,3492.4089824528792,-712.37927734366883,-1588.0661603385313,527.11559406074866,2545.9308551442546,-747.51570059002961,3127.6523058680787,-3127.6523058680787,747.51570059002961,5007.4405021114799,0.0
648204.59901257406,4182374.0504322448,-17500.0,1017.4880418912733,1697.4819159430042,2769.9311303849299,-760.49583405638623,-1307.3802675351712,446.34847205338002,2262.7648994411029,-317.55540827560731,2745.7841944319252,-2745.7841944319252,317.55540827560731,4461.5325366856177,0.0
653204.59901257406,4182374.0504322448,-17500.0,1208.1358404704476,1635.889653086695,2079.7410791448556,-752.24399434816121,-1033.4886475506005,365.86615465754664,1966.2190808938544,60.465595690878445,2278.1128414226005,-2278.1128414226005,-60.465595690878445,3890.1869996736737,0.0
658204.59901257406,4182374.0504322448,-17500.0,1315.2099764981494,1476.1412659666439,1472.48503730159,-703.47220133487895,-786.22000948056245,291.52479201976445,1680.7211380111942,356.67214182052237,1792.2255092709502,-1792.2255092709502,-356.67214182052237,3333.120337858833,0.0
663204.59901257406,4182374.0504322448,-17500.0,1343.0278596403539,1262.4756271614206,971.06234867225953,-629.95686717296257,-575.6403235161431,226.58091888486248,1425.8883401767653,563.0393669718967,1335.5847572291693,-1335.5847572291693,-563.0393669718967,2817.0354618434367,0.0
668204.59901257406,4182374.0504322448,-17500.0,1305.6737974633104,1030.3434943216976,578.20153800512753,-544.92864750990861,-404.39677347914477,172.22166148918311,1204.1648142613712,686.23328478858195,935.73126752470023,-935.73126752470023,-686.23328478858195,2357.0425832355677,0.0
673204.59901257406,4182374.0504322448,-17500.0,1220.9746877860775,804.50856388668467,284.37753119203416,-458.15460637622346,-270.35561368209483,128.22883323844638,1013.260519582949,740.65151299703223,604.19024837485665,-604.19024837485665,-740.65151299703223,1959.2193771506077,0.0
678204.59901257406,4182374.0504322448,-17500.0,1106.3708694229933,599.93202043335816,74.213036845217715,-376.02979991334144,-168.8428145965278,93.576834551804595,851.69651073907357,743.15232464854387,341.44078547230572,-341.44078547230572,-743.15232464854387,1623.3337486040743,0.0
683204.59901257406,4182374.0504322448,-17500.0,976.66183756869486,423.89339174517755,-69.148090651213039,-302.16963109408897,-94.251914312954241,66.882388117389695,717.0889467534588,709.75170786804051,141.42923533471844,-141.42923533471844,-709.75170786804051,1345.2089884095731,0.0
688204.59901257406,4182374.0504322448,-17500.0,843.17057715441649,278.33009861290208,-161.48768516228719,-238.14687716035942,-41.044181521991888,46.699033995665339,606.30709179235873,653.96233938356454,-4.9947563222456779,4.9947563222456779,-653.96233938356454,1118.535666737567,0.0
693204.59901257406,4182374.0504322448,-17500.0,713.79539840303164,161.87104987805176,-216.30402357313588,-184.17522850097805,-4.2773519326063463,31.684705450568117,515.92166808644242,586.2638330755691,-107.78479432891982,107.78479432891982,-586.2638330755691,936.13690928535561,0.0
698204.59901257406,4182374.0504322448,-17500.0,593.51133368775447,71.377159280785179,-244.4649751879287,-139.65543840952293,20.184583551417091,20.679539328421008,442.55172133965038,514.23391663221764,-176.35482638806917,176.35482638806917,-514.23391663221764,790.78338342080974,0.0
538204.59901257406,4187374.0504322448,-17500.0,-282.90518862717613,453.19510982488572,-554.10442088734828,-136.17678971768512,182.00505623181476,-43.686732799830189,501.59778936836813,-57.484643958024527,96.098420751901898,-96.098420751901898,57.484643958024527,983.26886105104484,0.0
543204.59901257406,4187374.0504322448,-17500.0,-226.94048871453879,467.03943191477003,-633.96279641226783,-134.07544082607316,205.26350562860782,-48.310437466040625,540.93917074677654,9.5916165208891364,53.235612379616683,-53.235612379616683,-9.5916165208891364,1051.1839774619473,0.0
548204.59901257406,4187374.0504322448,-17500.0,-151.49823826343052,467.67261432749297,-719.67753366987233,-126.28808175823048,228.84149987786557,-52.591037861670266,581.42373920674083,94.039975731346402,-6.6078316812410307,6.6078316812410307,-94.039975731346402,1117.994511172609,0.0
553204.59901257406,4187374.0504322448,-17500.0,-54.173522110029936,448.98524472773096,-807.72416247538558,-110.77709662931099,251.0435429089118,-55.987053800834431,622.6376936990016,196.9267786440046,-86.715697255961771,86.715697255961771,-196.9267786440046,1181.9990673416789,0.0
558204.59901257406,4187374.0504322448,-17500.0,66.273838479422906,403.51219940866025,-891.8931272874629,-85.193258873163501,269.20057658602155,-57.697306385731686,664.38829302841395,317.66171403090453,-189.75683896459552,189.75683896459552,-317.66171403090453,1241.8995667596787,0.0
563204.59901257406,4187374.0504322448,-17500.0,208.92594622290284,322.77167122388772,-962.22922338847525,-47.057946651791816,279.36013974195652,-56.592984543427107,707.10584634394058,452.88143328916578,-316.75828511914631,316.75828511914631,-452.88143328916578,1297.8656073720595,0.0
568204.59901257406,4187374.0504322448,-17500.0,369.43148343929437,198.17866393989502,-1003.9155492761956,5.8602842894435083,276.00217693151671,-51.16582350189227,752.50353451309729,595.06131094106911,-465.54320920532234,465.54320920532234,-595.06131094106911,1353.4463734298774,0.0
573204.59901257406,4187374.0504322448,-17500.0,538.6192471732287,22.821107835444757,-996.43184752317961,74.901761508536524,251.9025558409102,-39.525319538727629,804.46225591295502,731.06976914962229,-628.61678510288607,628.61678510288607,-731.06976914962229,1418.4179485470888,0.0
578204.59901257406,4187374.0504322448,-17500.0,701.42814278395281,-205.67099338052253,-913.60704264321214,159.56715541458016,198.34858395728835,-19.495682265416722,869.80700247867708,841.17107339976371,-790.73339428478005,790.73339428478005,-841.17107339976371,1511.6433621437891,0.0
583204.59901257406,4187374.0504322448,-17500.0,836.9180202801889,-481.21807550880806,-725.50405447921992,256.33287497466063,105.98562950587403,11.125172243809999,958.13263575876033,899.36051691732359,-926.83938091568302,926.83938091568302,-899.36051691732359,1660.8403266316259,0.0
588204.59901257406,4187374.0504322448,-17500.0,920.39456996248339,-785.04174649806566,-403.22036834244034,357.50168214209549,-33.425478346258714,54.092498539464003,1079.6258104320416,876.21368462709029,-1001.7228428933288,1001.7228428933288,-876.21368462709029,1895.1071732968735,0.0
593204.59901257406,4187374.0504322448,-17500.0,928.54076670881329,-1082.7597299540234,72.741725524283268,450.63364139307828,-224.24642491205501,110.0308047401037,1240.858789845521,745.26098636513484,-973.2273457140102,973.2273457140102,-745.26098636513484,2231.3780110135917,0.0
598204.59901257406,4187374.0504322448,-17500.0,847.45940970169545,-1325.45506440453,701.32849757774329,519.31371889160675,-463.57266432649732,177.6572784749961,1440.4754344072312,492.75710185120352,-800.66700514688,800.66700514688,-492.75710185120352,2663.8999205265814,0.0
603204.59901257406,4187374.0504322448,-17500.0,681.52955140308245,-1457.2965244259599,1450.3039231289822,545.89241710341901,-738.30967996154504,253.18178478695685,1667.2044874127212,128.39305287373148,-458.3106161203367,458.3106161203367,-128.39305287373148,3162.9475577359517,0.0
608204.59901257406,4187374.0504322448,-17500.0,458.76257222441188,-1430.1226219908035,2251.8587144547619,516.12585411098848,-1024.4007704711723,330.25518661922342,1901.1569253338398,-308.12591903612895,49.649230340292149,-49.649230340292149,308.12591903612895,3680.3851252381105,0.0
613204.59901257406,4187374.0504322448,-17500.0,227.87416117021434,-1221.0927237612118,3010.163488188703,424.41831738033898,-1289.720207418869,400.76152763870135,2118.2406296255194,-750.39261421532797,679.72883268860437,-679.72883268860437,750.39261421532797,4158.5731869174924,0.0
618204.59901257406,4187374.0504322448,-17500.0,45.437395908309107,-845.45295420358832,3622.0870088944253,277.34162797542183,-1500.7493225792482,456.4282658108595,2297.3874200812252,-1120.7438580412606,1352.683157627999,-1352.683157627999,1120.7438580412606,4541.281584557858,0.0
623204.59901257406,4187374.0504322448,-17500.0,-42.569478087242629,-356.61549166240701,4004.6828232409698,93.298474263545629,-1631.0107327420226,490.78149214542793,2421.1203669458487,-1353.1198039039391,1971.8665843148601,-1971.8665843148601,1353.1198039039391,4784.802418063301,0.0
628204.59901257406,4187374.0504322448,-17500.0,-16.054861754411434,168.23516466040641,4117.6507858032965,-102.04833971288734,-1667.8188902016627,500.69656445434953,2468.2591234332053,-1413.0412211334078,2449.8076881695647,-2449.8076881695647,1413.0412211334078,4866.1552053522264,0.0
633204.59901257406,4187374.0504322448,-17500.0,114.53366058366582,650.61627258872056,3970.855151194326,-282.68504997450862,-1614.5155243028071,486.93115046074132,2431.8060447761213,-1305.3450393209816,2731.1165601241128,-2731.1165601241128,1305.3450393209816,4785.7527240449081,0.0
638204.59901257406,4187374.0504322448,-17500.0,315.29370436701225,1030.9179567681076,3615.2229868541272,-428.49366048043981,-1487.7051227395832,453.51923630919907,2320.5884970580651,-1067.485332934426,2802.3208332810495,-2802.3208332810495,1067.485332934426,4564.1538794508888,0.0
643204.59901257406,4187374.0504322448,-17500.0,542.51492459697408,1278.7224734826011,3123.5601677778786,-528.6016594465749,-1311.3611488605891,406.41377457742277,2151.8047713231499,-753.82196176995262,2687.1162102808958,-2687.1162102808958,753.82196176995262,4234.8858449943054,0.0
648204.59901257406,4187374.0504322448,-17500.0,755.89251081240104,1392.1161549980045,2570.5721951602509,-581.39638692152721,-1110.5359856563841,351.98078989343054,1945.6701568573922,-419.09262036033863,2432.4577865317119,-2432.4577865317119,419.09262036033863,3836.2840612774035,0.0
653204.59901257406,4187374.0504322448,-17500.0,926.77004740932955,1389.781303577593,2018.6609281742126,-592.23272388820783,-906.70961533129741,295.82976294006602,1721.6830389678739,-106.92616712704819,2092.9389033834386,-2092.9389033834386,106.92616712704819,3404.7454051131613,0.0
658204.59901257406,4187374.0504322448,-17500.0,1040.5637419243171,1300.9242993911871,1511.4440941779585,-570.32296591425529,-715.48192962314818,242.18102794015817,1496.8522709253443,154.92279563606041,1718.7226067806714,-1718.7226067806714,-154.92279563606041,2970.4959395966443,0.0
663204.59901257406,4187374.0504322448,-17500.0,1094.9634782332444,1156.6895794300235,1073.5805990718125,-525.9580366245018,-546.27714918096274,193.72554070094034,1287.2065734242501,353.98389070393773,1348.8837610483386,-1348.8837610483386,-353.98389070393773,2555.8482105090511,0.0
668204.59901257406,4187374.0504322448,-17500.0,1096.1636552706354,984.58706457361393,714.23621692232382,-468.59916610936239,-403.28450753696302,151.80887026134459,1102.1585804754811,489.56405818921058,1009.5190717051089,-1009.5190717051089,-489.56405818921058,2175.2943030479573,0.0
673204.59901257406,4187374.0504322448,-17500.0,1054.9028599616736,805.88448427459275,431.80485774153971,-405.88919325431459,-286.89385698371444,116.76242240980272,939.53297036259619,568.44273306524201,714.95896951083546,-714.95896951083546,-568.44273306524201,1836.6591794915889,0.0
678204.59901257406,4187374.0504322448,-17500.0,983.28502652116015,635.16839835335884,218.34993059257351,-343.37412872258,-195.11837980287251,88.251841666203887,798.44299345565469,601.0663722245871,470.42626057937838,-470.42626057937838,-601.0663722245871,1542.6650361946906,0.0
683204.59901257406,4187374.0504322448,-17500.0,892.6846240991481,481.1554646566583,63.061413118714441,-284.66287415969907,-124.75026254799833,65.571949548208693,677.99326567747426,598.77517843975886,274.9641213896889,-274.9641213896889,-598.77517843975886,1292.4846842402385,0.0
688204.59901257406,4187374.0504322448,-17500.0,792.63892589699651,348.01842473601835,-45.411670464698155,-231.79278889843241,-72.177490507856675,47.863309788546815,576.56504533219811,572.09585384581032,123.98343924896599,-123.98343924896599,-572.09585384581032,1083.0617731264322,0.0
693204.59901257406,4187374.0504322448,-17500.0,690.46989053073798,236.75756742231221,-117.59738678054603,-185.64453761183125,-33.892504924602108,34.253473864693504,492.06611758652184,529.89503595012116,11.184350777383827,-11.184350777383827,-529.89503595012116,910.124125008075,0.0
543204.59901257406,4192374.0504322443,-17500.0,-120.94854627672225,377.36056425799779,-593.0110855842911,-94.73804026420035,177.03596067345202,-37.79568806365485,469.9159291165825,80.983080954057783,-12.455952242947831,12.455952242947831,-80.983080954057783,903.97171280445411,0.0
548204.59901257406,4192374.0504322443,-17500.0,-46.940876414282407,362.29859650491937,-659.27127779707428,-83.236744248853427,192.89924785194916,-40.045383706646177,500.73812481078784,159.05410215527456,-73.662314515688422,73.662314515688422,-159.05410215527456,951.53278105800666,0.0
553204.59901257406,4192374.0504322443,-17500.0,43.45866072003092,328.27873736678424,-722.50035362573522,-64.968498002572204,206.05029841125736,-41.240568797679245,531.93759357968929,249.68029192567434,-150.9432567455832,150.9432567455832,-249.68029192567434,996.15496516697942,0.0
558204.59901257406,4192374.0504322443,-17500.0,149.76563840227172,269.72691225943748,-776.14848074179793,-38.371486998539297,214.04449169272362,-40.72411459974964,563.80860814302537,350.73636851421486,-244.98873746271951,244.98873746271951,-350.73636851421486,1037.9528978131566,0.0
563204.59901257406,4192374.0504322443,-17500.0,269.46950941613358,180.94531581909109,-810.71014508036785,-1.999732665515336,213.52658402006304,-37.628103797691857,597.42290296806493,457.61713626444043,-354.59949492705255,354.59949492705255,-457.61713626444043,1079.0703690142004,0.0
568204.59901257406,4192374.0504322443,-17500.0,397.23879250360511,57.062659655868764,-813.21261995243594,45.146281672692425,200.13841652407714,-30.865747873440423,635.13989819915071,562.40429865104807,-475.51297709450267,475.51297709450267,-562.40429865104807,1125.3068615999534,0.0
573204.59901257406,4192374.0504322443,-17500.0,524.24426911899752,-104.44665477284529,-767.12225429676482,103.13348232014739,168.58512956980422,-19.166188981969874,681.09749880976608,653.21622638625126,-599.02911611199966,599.02911611199966,-653.21622638625126,1187.8889022333528,0.0
578204.59901257406,4192374.0504322443,-17500.0,637.94362392875644,-301.66106737570857,-653.10743965846791,170.47213498119561,112.98755853509562,-1.1804316577760803,741.29487932056759,714.14068812994878,-710.72733738466854,710.72733738466854,-714.14068812994878,1283.9897296189586,0.0
583204.59901257406,4192374.0504322443,-17500.0,722.81428839203704,-525.76851663026082,-451.1965125375732,243.45064571433346,27.661689876010353,24.31384737160592,822.70516189860314,726.30970907264361,-789.8477042554058,789.8477042554058,-726.30970907264361,1433.7206568186023,0.0
588204.59901257406,4192374.0504322443,-17500.0,762.53780849143811,-758.93853798493888,-144.77269708344028,315.64173484798795,-91.584189168908352,58.096683779680575,931.16769381084328,670.68839338356156,-810.19040164959324,810.19040164959324,-670.68839338356156,1652.9724853936982,0.0
593204.59901257406,4192374.0504322443,-17500.0,743.8564388405307,-973.64864439760208,273.62405149163703,377.90966889176764,-245.70044763427899,100.10604982896866,1068.7224245897278,532.82002621492802,-743.46098953971637,743.46098953971637,-532.82002621492802,1945.8543395699651,0.0
598204.59901257406,4192374.0504322443,-17500.0,661.60236682125958,-1134.8597260773058,795.68346506560965,419.28270552275148,-430.54091408531974,149.04193355229444,1231.6839672750539,308.93375649776544,-565.53446980945228,565.53446980945228,-308.93375649776544,2301.4410258881394,0.0
603204.59901257406,4192374.0504322443,-17500.0,523.34247657825631,-1205.9973715978642,1392.1494991953523,428.88800664241518,-635.57325976355651,202.12595164823603,1410.3154050840612,11.584267164661256,-264.88605514812571,264.88605514812571,-11.584267164661256,2695.1928918510034,0.0
608204.59901257406,4192374.0504322443,-17500.0,351.24812586162466,-1158.239862542247,2012.1533536826655,398.71956016300038,-843.99538079576803,255.19075217068146,1590.1718619627898,-328.01285534934181,149.32100128443471,-149.32100128443471,328.01285534934181,3092.8709313365925,0.0
613204.59901257406,4192374.0504322443,-17500.0,179.06945355647258,-980.46808945704265,2589.4840783411437,326.43956351765405,-1034.8526238658499,303.20769092749913,1755.0584302354196,-663.5403270064761,643.30814533166733,-643.30814533166733,663.5403270064761,3455.8190911974571,0.0
618204.59901257406,4192374.0504322443,-17500.0,43.994890982500642,-685.67444877925266,3055.6084929843196,217.04802942982397,-1186.9962320491345,341.19768313098899,1891.9738761034769,-943.46256297164462,1162.1980233905197,-1162.1980233905197,943.46256297164462,3747.2315208826835,0.0
623204.59901257406,4192374.0504322443,-17500.0,-24.000051550605662,-310.21201518983594,3355.651407422703,82.475318092831316,-1283.758856772557,365.27458254561242,1990.1737292745386,-1124.322059025551,1641.3125571729138,-1641.3125571729138,1124.322059025551,3938.4232332547117,0.0
628204.59901257406,4192374.0504322443,-17500.0,-10.865992058390376,94.674163433300052,3461.3231584036207,-60.994069886728632,-1316.6672394063442,373.46512662282998,2033.5399429964032,-1182.1869345348582,2021.6008447160639,-2021.6008447160639,1182.1869345348582,4013.5054309456455,0.0
633204.59901257406,4192374.0504322443,-17500.0,78.469148155186986,475.78746505735319,3375.8220794101012,-196.53894623172988,-1286.8303363991245,366.01960711115635,2016.0534054342779,-1117.5727435610938,2263.2114329680494,-2263.2114329680494,1117.5727435610938,3971.1291873829814,0.0
638204.59901257406,4192374.0504322443,-17500.0,223.48611625067861,790.17969900146068,3129.5688052339938,-310.40909558055171,-1203.6917411997254,345.1434996137869,1942.5684883285728,-952.47094259853088,2352.2828379541834,-2352.2828379541834,952.47094259853088,3823.0099936899869,0.0
643204.59901257406,4192374.0504322443,-17500.0,395.60649974276492,1012.4448295920399,2769.653871518964,-394.1476814745929,-1081.9390673652422,314.31157919859663,1823.7986492693681,-721.81536821085058,2299.6174771916512,-2299.6174771916512,721.81536821085058,3590.0800826461059,0.0
648204.59901257406,4192374.0504322443,-17500.0,566.30901685575179,1135.8498493729041,2347.7141479699017,-445.0377679807695,-937.89433932775762,277.44657843950887,1673.0887146545763,-463.50262023278538,2133.4613077590016,-2133.4613077590016,463.50262023278538,3297.7271931508899,0.0
653204.59901257406,4192374.0504322443,-17500.0,713.0545029860408,1168.7200682570699,1910.1572285913173,-465.13120673909617,-786.52104223918138,238.21564318782936,1503.9821251812782,-210.44481484671178,1890.1703009303374,-1890.1703009303374,210.44481484671178,2971.4583513246398,0.0
658204.59901257406,4192374.0504322443,-17500.0,821.97612927009891,1128.650101169168,1492.5412731591846,-459.57244260641897,-639.61457147415774,199.58316412797916,1328.6391175754513,13.764176110725202,1605.9994134402521,-1605.9994134402521,-13.764176110725202,2633.7956804252854,0.0
663204.59901257406,4192374.0504322443,-17500.0,887.76357578889099,1036.8156865291037,1117.9523101213588,-434.88163618279532,-505.17914096490159,163.63408705507081,1157.7209126069115,195.75885027312768,1311.6712772416258,-1311.6712772416258,-195.75885027312768,2302.6031203261173,0.0
668204.59901257406,4192374.0504322443,-17500.0,911.849312606691,913.68813384510906,798.1724704643517,-397.60387846992779,-387.67130801261197,131.60451007204807,1002.5321524745649,331.00938751310042,1029.9063486759806,-1029.9063486759806,-331.00938751310042,1990.6331381124339,0.0
673204.59901257406,4192374.0504322443,-17500.0,899.99936070394938,776.50686104836996,536.24181887307043,-353.46080169244317,-288.70883631937585,104.0309657331356,865.27036909286016,421.3816487964578,775.23494223716511,-775.23494223716511,-421.3816487964578,1705.9004764560673,0.0
678204.59901257406,4192374.0504322443,-17500.0,860.07089913182028,638.27311368984749,329.32617887989142,-306.96039270877151,-207.91742574020671,80.942230335271347,743.74848650208617,472.59706025578788,555.1678992143444,-555.1678992143444,-472.59706025578788,1452.4991332487502,0.0
683204.59901257406,4192374.0504322443,-17500.0,800.30656998640325,507.78819657192389,171.24226728469341,-261.3375323316223,-143.7076549116355,62.042275504115636,637.6882288633559,492.12122950066305,371.92136760741266,-371.92136760741266,-492.12122950066305,1231.5577522846415,0.0
688204.59901257406,4192374.0504322443,-17500.0,728.24523598101837,390.26653201690988,54.373584637596906,-218.69040480285418,-93.887755320836419,46.859376455596518,546.44519895666303,487.6669629249634,224.15830911500618,-224.15830911500618,-487.6669629249634,1042.1459528197749,0.0
548204.59901257406,4197374.0504322443,-17500.0,27.903011530473847,270.09644570816749,-592.29769484036956,-50.351342016435638,160.08063369862234,-30.033753900212723,431.52131895641418,198.91497579746692,-121.71274930169852,121.71274930169852,-198.91497579746692,809.57558811002389,0.0
553204.59901257406,4197374.0504322443,-17500.0,108.51048775102019,226.74328704652552,-633.75506804467318,-31.387895754311884,166.33895209899205,-29.804176629932506,455.64980231223751,275.72106749054075,-192.62736529294978,192.62736529294978,-275.72106749054075,841.20270214134155,0.0
558204.59901257406,4197374.0504322443,-17500.0,199.22408174227155,162.08285505617422,-662.13214311067657,-5.8119156574392372,167.07403131745514,-27.986302006313004,480.93087185621056,357.24724926997777,-274.82970327893264,274.82970327893264,-357.24724926997777,872.06944265083553,0.0
563204.59901257406,4197374.0504322443,-17500.0,296.8458878050352,72.672511285017421,-668.98592378264345,27.096785409198471,159.57822076276784,-23.937588236469868,508.84626659332184,438.56200964234091,-365.80680811489282,365.80680811489282,-438.56200964234091,905.73310397535465,0.0
568204.59901257406,4197374.0504322443,-17500.0,396.04723003164082,-43.672995546326192,-643.59346675929783,67.566789339969176,140.5533942858917,-16.900271524437521,541.9798196527895,512.29565362656513,-460.41717722216259,460.41717722216259,-512.29565362656513,949.07584724851029,0.0
573204.59901257406,4197374.0504322443,-17500.0,489.14800710179009,-186.71531800916611,-573.26068306997684,114.9976908174575,106.26167671241392,-6.046065689931365,584.14855739797326,568.48979231862643,-550.09802930178478,550.09802930178478,-568.48979231862643,1012.900181091948,0.0
578204.59901257406,4197374.0504322443,-17500.0,566.33688104498503,-352.38035594998746,-444.32377860261272,167.57958032463833,52.882740777842905,9.4326307725553065,640.05653713645961,594.9858411848511,-622.33670402267694,622.33670402267694,-594.9858411848511,1110.8061675243457,0.0
583204.59901257406,4197374.0504322443,-17500.0,616.60235090714912,-531.36465190649164,-244.10471843399486,221.95477484728309,-22.863671113543333,30.17532327890984,714.25123456596725,578.66052786812588,-660.80772530215381,660.80772530215381,-578.66052786812588,1255.5383777903339,0.0
588204.59901257406,4197374.0504322443,-17500.0,629.57006066507552,-708.25765749729214,36.073186728379824,273.0651863955124,-122.82393669543363,56.453032756288714,809.56461603270884,507.72737414058736,-646.66352572934909,646.66352572934909,-507.72737414058736,1454.0963438294832,0.0
593204.59901257406,4197374.0504322443,-17500.0,598.18817145521689,-861.87297222596351,397.07236644457726,314.36854822823057,-246.34693797361447,87.941899376271635,925.67032242525408,375.02734965611791,-561.37482494652181,561.37482494652181,-375.02734965611791,1704.4642824318314,0.0
598204.59901257406,4197374.0504322443,-17500.0,521.7500373348588,-967.46226866868005,828.16470100586901,338.58226972254198,-389.30262052627751,123.52808721391705,1058.3708061052505,181.70425381577684,-391.10715916086167,391.10715916086167,-181.70425381577684,1995.2505826670997,0.0
603204.59901257406,4197374.0504322443,-17500.0,408.2331486601185,-1001.0619615163808,1304.6999336432129,338.98311956466864,-543.57103001794917,161.22566841476902,1199.8130507426467,-59.942654899621701,-131.8770060055794,131.8770060055794,59.942654899621701,2307.2953009998919,0.0
608204.59901257406,4197374.0504322443,-17500.0,274.67520386478628,-945.34284259771403,1788.8176221754547,311.05234156111948,-697.41145174956011,198.28764492174383,1339.5586388351376,-325.96018130558053,206.11995748425835,-206.11995748425835,325.96018130558053,2616.209493166451,0.0
613204.59901257406,4197374.0504322443,-17500.0,144.67629991823,-795.28919713401365,2234.1860612732694,253.99519250993853,-836.92955825436468,231.54624788812771,1466.6095009457197,-583.73179323052364,597.04346520617446,-597.04346520617446,583.73179323052364,2895.5881056419248,0.0
618204.59901257406,4197374.0504322443,-17500.0,43.20861789839114,-561.46610668803794,2594.2742206248909,171.54330682497084,-948.46152514530138,257.93597569021699,1573.142250549148,-798.33384726416637,1002.2876460409401,-1002.2876460409401,798.33384726416637,3120.7389590354974,0.0
623204.59901257406,4197374.0504322443,-17500.0,-9.7155316036317245,-269.1462274812277,2831.9247982750949,71.608495663716127,-1021.2488043694765,275.06637230722038,1652.2044159267302,-940.49834815191684,1377.5791812768832,-1377.5791812768832,940.49834815191684,3272.3573338420233,0.0
628204.59901257406,4197374.0504322443,-17500.0,-4.1738253557839888,46.837673438991054,2927.0409637004582,-35.21769364965931,-1049.5501192246104,281.66931926107299,1690.8982641053806,-993.39108626430698,1682.231883800277,-1682.231883800277,993.39108626430698,3339.2854488866205,0.0
633204.59901257406,4197374.0504322443,-17500.0,57.670062139506967,349.79032804859207,2879.7896161858007,-137.84389831383993,-1033.5083053631297,277.78263151490563,1684.534764019179,-955.76954947334957,1887.4106781326966,-1887.4106781326966,955.76954947334957,3319.6543837968461,0.0
638204.59901257406,4197374.0504322443,-17500.0,163.20918538475081,608.68048730176417,2708.5876530405631,-226.80916835431395,-978.58101245849218,264.63020600677424,1635.8674358608389,-840.6868380566965,1980.7401007436615,-1980.7401007436615,840.6868380566965,3220.2093537871442,0.0
643204.59901257406,4197374.0504322443,-17500.0,293.62695208355643,803.15844943595619,2444.1846529713589,-295.73182954759534,-893.88475608363444,244.26846134011956,1551.6859633366491,-670.77227449167503,1966.2991643542605,-1966.2991643542605,670.77227449167503,3054.1996118506586,0.0
648204.59901257406,4197374.0504322443,-17500.0,428.87968789478526,925.09388378781227,2122.2747464441718,-341.80095506132079,-790.10415086550938,219.13282719637778,1440.8840469104116,-472.1898349342888,1860.8924951695785,-1860.8924951695785,472.1898349342888,2838.5627234742083,0.0
653204.59901257406,4197374.0504322443,-17500.0,551.78109131800966,977.09261553189117,1776.9345705434512,-365.41494948260089,-677.59737351286458,191.61779885519701,1312.9082316294425,-269.29878140978974,1688.5202923004558,-1688.5202923004558,269.29878140978974,2591.1585731902892,0.0
658204.59901257406,4197374.0504322443,-17500.0,650.33870178836628,969.26657403869842,1436.2307168694686,-369.30135257490633,-565.08374745129265,163.77658043504064,1176.5937907585674,-81.196214340159486,1474.9558490601189,-1474.9558490601189,81.196214340159486,2328.5825538091808,0.0
663204.59901257406,4197374.0504322443,-17500.0,718.32138611028449,915.60068422219661,1120.2631670975209,-357.48633420711587,-459.01051045499167,137.16642547132034,1039.5373730553156,79.647190454884935,1243.6559140517929,-1243.6559140517929,-79.647190454884935,2064.7818204088062,0.0
668204.59901257406,4197374.0504322443,-17500.0,754.54824656470555,830.86055927718803,841.17517821285662,-334.38542259450259,-363.48730689483381,112.82016042683884,908.90163456459709,207.10356367546518,1013.4139264742983,-1013.4139264742983,-207.10356367546518,1810.444090028411,0.0
673204.59901257406,4197374.0504322443,-17500.0,761.53062060446507,728.46784989418779,604.37501438996492,-304.14984932835483,-280.58769415239811,91.302787586259782,792.62459635668642,300.14262507207906,797.57067537812736,-797.57067537812736,-300.14262507207906,1572.984154775299,0.0
678204.59901257406,4197374.0504322443,-17500.0,743.99129817524147,619.36296311470937,410.26425731576251,-270.28861850038771,-210.82035298928889,72.810325777990073,688.89959106333731,361.24735600719748,604.31718343221121,-604.31718343221121,-361.24735600719748,1356.9087336738794,0.0
683204.59901257406,4197374.0504322443,-17500.0,707.58846115772826,511.65334022636011,255.97135650637736,-235.51994096462192,-153.62380220101986,57.278230007314448,596.61729601168668,394.91685645400958,437.59421461349052,-437.59421461349052,-394.91685645400958,1164.3656425340271,0.0
553204.59901257406,4202374.0504322443,-17500.0,149.05573594003474,143.80318790120276,-546.51048605847211,-7.4382794233097478,132.19412393087293,-21.065164823656488,392.03993431963028,282.73828328449122,-216.35415907022045,216.35415907022045,-282.73828328449122,713.47953831506572,0.0
558204.59901257406,4202374.0504322443,-17500.0,224.53458979896314,78.005964587572805,-554.92085308870003,16.003324661146078,128.0089383192518,-18.573698778138901,413.05941990156919,346.39481279365049,-285.78397032397669,285.78397032397669,-346.39481279365049,738.47296787544838,0.0
563204.59901257406,4202374.0504322443,-17500.0,302.42085517629778,-7.3221256981659444,-541.37492861531769,44.771391863111631,116.31072833047153,-14.223853154061564,437.46567944024741,405.96501921935385,-358.85322482336676,358.85322482336676,-405.96501921935385,769.30524237498639,0.0
568204.59901257406,4202374.0504322443,-17500.0,377.90488289924792,-112.57278406475135,-497.38175913515238,78.65446634137983,94.684951679076434,-7.501278142748891,467.7343646562843,455.07267910384599,-430.3270644572716,430.3270644572716,-455.07267910384599,812.89417562262281,0.0
573204.59901257406,4202374.0504322443,-17500.0,444.70791092286464,-235.94490103224246,-413.56246951790536,116.7658023232962,60.575506628856054,2.1189065242898075,507.03848749099052,485.78652441788728,-492.48465732627682,492.48465732627682,-485.78652441788728,878.39225994334709,0.0
578204.59901257406,4202374.0504322443,-17500.0,495.47496936213332,-372.56381666908891,-280.6333554517534,157.32795731667963,11.591242623297113,15.101785901517596,558.73599399578598,489.17176432116486,-535.03223243546472,535.03223243546472,-489.17176432116486,975.37255558194852,0.0
583204.59901257406,4202374.0504322443,-17500.0,522.65287884044687,-513.7703933463672,-90.992931212966511,197.52451830387781,-54.033549201866144,31.752254134499601,625.48319842396472,456.41612156252421,-545.56931208495803,545.56931208495803,-456.41612156252421,1110.8520255096191,0.0
588204.59901257406,4202374.0504322443,-17500.0,519.89372589158529,-646.91614501529557,159.13076967518845,233.50753101553948,-136.84952262962324,52.091927304912311,708.25671573276304,380.57193239566868,-510.85840951036425,510.85840951036425,-380.57193239566868,1286.6565377973193,0.0
593204.59901257406,4202374.0504322443,-17500.0,483.83976682754155,-756.05443483569979,467.26534316934828,260.65542548300124,-235.56430164780451,75.734108625493661,805.66922072894522,258.74022822360229,-419.02166434900909,419.02166434900909,-258.74022822360229,1498.4028570907087,0.0
598204.59901257406,4202374.0504322443,-17500.0,415.88776217892695,-823.81956984551198,822.61521089916766,274.14180108096946,-346.54266140885085,101.79166154997235,913.79348779648637,94.220054042007192,-262.49319574271391,262.49319574271391,-94.220054042007192,1735.974586347581,0.0
603204.59901257406,4202374.0504322443,-17500.0,323.30191951597527,-834.46897219455582,1205.1599271306616,269.78765312624324,-463.65139934827948,128.86062654101676,1026.4918504121224,-102.1273926650821,-41.132906341417069,41.132906341417069,102.1273926650821,1984.751864487373,0.0
608204.59901257406,4202374.0504322443,-17500.0,219.00618613466563,-777.56080914169991,1586.7449122477319,245.04240523259261,-578.64510289447651,155.11585906360932,1136.2060717926465,-312.10951781509834,235.48545890475245,-235.48545890475245,312.10951781509834,2227.2419521683851,0.0
613204.59901257406,4202374.0504322443,-17500.0,119.6848570932553,-651.23882032230472,1934.5224947085208,199.82070319899489,-682.16054579575757,178.52770824329781,1235.4151433496786,-512.50317404282191,547.69347264891439,-547.69347264891439,512.50317404282191,2445.088523009139,0.0
618204.59901257406,4202374.0504322443,-17500.0,42.437318456237684,-463.91297876116585,2216.2810077346016,136.88988014590424,-765.17781456598925,197.16789719783858,1319.7913884089439,-679.18411253257796,867.92152395609332,-867.92152395609332,679.18411253257796,2621.3605975594937,0.0
623204.59901257406,4202374.0504322443,-17500.0,0.91222119300967297,-233.48730631796155,2406.3333482439602,61.605591407273046,-820.59384046315108,209.53213247005706,1384.246057480369,-792.02212571632742,1165.2478656567043,-1165.2478656567043,792.02212571632742,2742.7744694134021,0.0
628204.59901257406,4202374.0504322443,-17500.0,2.1976391402148705,15.857832596769949,2490.2218453164928,-18.98737420672515,-844.46090922034182,214.7913795270766,1418.1825862667442,-839.01282583943998,1411.11175024208,-1411.11175024208,839.01282583943998,2801.374811072636,0.0
633204.59901257406,4202374.0504322443,-17500.0,45.507962953567393,258.38099980792333,2466.8287144509541,-97.438117919492129,-836.53359031220327,212.90205281624969,1418.2511610399888,-818.32868672058635,1584.4735392945047,-1584.4735392945047,818.32868672058635,2795.2871599011924,0.0
638204.59901257406,4202374.0504322443,-17500.0,122.9852576408054,471.51546716634266,2347.4329291734421,-167.17478115282663,-800.01011129367919,204.55264693175749,1386.063884207196,-737.78391794401637,1674.9339576745567,-1674.9339576745567,737.78391794401637,2728.4152098626046,0.0
643204.59901257406,4202374.0504322443,-17500.0,222.12425434209132,639.29207072018789,2152.3275781233147,-223.44661894147154,-740.62571931098705,190.97773541949286,1325.9933545808642,-612.17678557498925,1683.1728663359829,-1683.1728663359829,612.17678557498925,2609.2569227745062,0.0
648204.59901257406,4202374.0504322443,-17500.0,328.84886817247127,753.77104047816852,1906.2784336987852,-263.74133641124348,-665.42699957405364,173.70405036473389,1244.0287234693337,-459.60411817417673,1619.0431346387777,-1619.0431346387777,459.60411817417673,2449.2149902591686,0.0
653204.59901257406,4202374.0504322443,-17500.0,430.27301166481681,814.57479885160615,1634.1646731825058,-287.69256999696978,-581.5780263490808,154.29963666225564,1146.7929001129048,-297.92016249384892,1498.3026727035831,-1498.3026727035831,297.92016249384892,2260.8305634902563,0.0
658204.59901257406,4202374.0504322443,-17500.0,516.53785430538107,827.1379115687281,1357.718972751436,-296.63058630244552,-495.44500587848768,134.17728482814385,1040.7335367996232,-142.14557415061972,1339.0897966621799,-1339.0897966621799,142.14557415061972,2056.2727252499071,0.0
663204.59901257406,4202374.0504322443,-17500.0,581.56889992687343,800.44489593025901,1093.7138678892607,-292.97627774349769,-412.06204927102721,114.47538996649337,931.56803059323124,-3.1196900750363739,1158.9770519124577,-1158.9770519124577,3.1196900750363739,1846.2706181712451,0.0
668204.59901257406,4202374.0504322443,-17500.0,622.9366833041297,744.88765691700951,853.4677900102339,-279.64855133687558,-334.95496193127224,96.013548185001355,824.07914578316581,112.73224453006804,973.00674350774898,-973.00674350774898,-112.73224453006804,1639.5218923864641,0.0
673204.59901257406,4202374.0504322443,-17500.0,641.15855987728878,670.61101954418677,643.29334355394155,-259.5900323820768,-266.2296490486836,79.305052218196892,723.61819848849541,202.86380475578784,792.73557898845525,-792.73557898845525,-202.86380475578784,1442.5104535161649,0.0
678204.59901257406,4202374.0504322443,-17500.0,638.77648809983043,586.46230393313454,465.46089458120844,-235.45009093165828,-206.81383017751469,64.603731425344662,635.1514886687994,267.68567756418224,626.08695942630357,-626.08695942630357,-267.68567756418224,1259.6189011679555,0.0
558204.59901257406,4207374.0504322443,-17500.0,233.32012029342229,14.116927025123243,-457.40158141024892,29.926683479100056,96.116756773567616,-11.717236225473066,357.61924148229309,325.03730774041463,-283.40233842219226,283.40233842219226,-325.03730774041463,631.57511845746683,0.0
563204.59901257406,4207374.0504322443,-17500.0,294.37763837309541,-64.449891075586919,-429.61430162118739,54.489570906712125,82.203486392409133,-7.4509413954459625,379.8216023742242,366.87002667626189,-340.35556388165548,340.35556388165548,-366.87002667626189,662.10596330677606,0.0
568204.59901257406,4207374.0504322443,-17500.0,350.82406029787899,-157.23790206340001,-374.24098703032547,82.37404568255937,59.967802208777378,-1.3342099327816899,408.06235859321089,397.12697112678512,-392.4142954839113,392.4142954839113,-397.12697112678512,706.90399130615924,0.0
573204.59901257406,4207374.0504322443,-17500.0,397.73721742141106,-261.69824529836694,-284.57893137636938,112.62757045244906,27.71306312897995,6.9561616206369203,444.76630810810047,409.71987583354701,-432.98373620794337,432.98373620794337,-409.71987583354701,772.94618229515618,0.0
578204.59901257406,4207374.0504322443,-17500.0,429.77447406835182,-372.9352135536671,-154.57148861439259,143.66544019829416,-15.993410283396301,17.674685144012795,492.13100785123277,398.28327257106793,-453.89147415423889,453.89147415423889,-398.28327257106793,866.25992428329801,0.0
583204.59901257406,4207374.0504322443,-17500.0,441.90320517131232,-483.40690338719833,19.984273894341818,173.22496150077518,-71.995537903018999,30.941225905874575,551.49669856340915,357.09636461250727,-445.94513604734698,445.94513604734698,-357.09636461250727,990.01521751253665,0.0
588204.59901257406,4207374.0504322443,-17500.0,430.41461179900983,-583.04563517574854,239.96679107439076,198.43663398398962,-140.17106810421254,46.667182925625447,622.80390343223883,282.33553566424325,-400.01859917841341,400.01859917841341,-282.33553566424325,1143.3942086007214,0.0
593204.59901257406,4207374.0504322443,-17500.0,394.07378737392253,-660.00212697187817,501.44441684475987,216.0576635044564,-219.07010825372683,64.488026748873224,704.31502651351718,173.48145876837413,-308.66623728362828,308.66623728362828,-173.48145876837413,1321.5026893475535,0.0
598204.59901257406,4207374.0504322443,-17500.0,335.12227477654619,-702.11689379713664,794.58094887691186,222.88423392933134,-305.67375513495966,83.722624095550046,792.64439450452483,34.542993489682686,-168.07386153607072,168.07386153607072,-34.542993489682686,1515.9345910505217,0.0
603204.59901257406,4207374.0504322443,-17500.0,259.75638737011258,-699.01026477756147,1103.4216455152987,216.30467214523671,-395.39154749458248,103.38143961827635,883.06188558450481,-125.35332463768523,20.076123676905205,-20.076123676905205,125.35332463768523,1715.6237683732743,0.0
608204.59901257406,4207374.0504322443,-17500.0,177.73741262156338,-644.4020653223921,1406.9650008478434,194.88845205331782,-482.38892850826301,122.23957956373087,970.06536978079271,-292.42894125669022,247.4189518505201,-247.4189518505201,292.42894125669022,1907.9055970515776,0.0
613204.59901257406,4207374.0504322443,-17500.0,100.99836513671336,-538.03654106383635,1681.6199230242757,158.85377166917098,-560.25656191502446,138.97468075592306,1048.515837884383,-449.95666260191842,498.97719203837175,-498.97719203837175,449.95666260191842,2079.8067922374321,0.0
618204.59901257406,4207374.0504322443,-17500.0,41.459466563382016,-386.54694709622066,1904.689214603889,110.25324688164856,-622.92150436111319,152.34882277275801,1116.5800028461526,-580.97680763539984,754.78093981813004,-754.78093981813004,580.97680763539984,2219.4877247085292,0.0
623204.59901257406,4207374.0504322443,-17500.0,8.6105256996073507,-202.83456667754231,2058.0811696936325,52.780887096646289,-665.59736847116142,161.39518306041617,1169.6223419930875,-671.37920543084738,992.83916425010216,-992.83916425010216,671.37920543084738,2317.6255140116173,0.0
628204.59901257406,4207374.0504322443,-17500.0,7.5758316850084544,-4.0058095876434203,2131.2629244736472,-8.7812006975442483,-685.52995316563067,165.56273445026102,1199.0869290391722,-712.48766340649865,1192.7575891088081,-1192.7575891088081,712.48766340649865,2368.4647773062711,0.0
633204.59901257406,4207374.0504322443,-17500.0,38.241465025928818,191.59200060660427,2122.667322363347,-69.338381677383595,-682.34722435371498,164.78352143087594,1202.7604915618938,-702.41115371718683,1339.0352068527829,-1339.0352068527829,702.41115371718683,2370.3197323831232,0.0
638204.59901257406,4207374.0504322443,-17500.0,95.644043024005441,367.4097136623825,2039.2657412065748,-124.27572070333898,-657.9449402974484,159.4495388962435,1181.6075079610891,-645.85293524008694,1423.1863103835331,-1423.1863103835331,645.85293524008694,2325.4462779104306,0.0
643204.59901257406,4207374.0504322443,-17500.0,171.38543176053261,511.0323253070012,1894.5972634726934,-170.0729822890566,-615.97968435083203,150.31264680859255,1138.4841577794518,-552.58769965675231,1444.2684881806572,-1444.2684881806572,552.58769965675231,2239.3627300224716,0.0
648204.59901257406,4207374.0504322443,-17500.0,255.54994927919077,615.35872253470893,1705.9475897433545,-204.62725711746896,-561.14086131916861,138.34048062861319,1077.4668735974883,-435.1905760165746,1407.9292057673795,-1407.9292057673795,435.1905760165746,2119.8219089742383,0.0
653204.59901257406,4207374.0504322443,-17500.0,338.5563299074978,678.59042591004334,1491.4579280041132,-227.27005093896435,-498.39630877734004,124.56559474680607,1003.2275008734474,-306.69670305805801,1324.4733156925236,-1324.4733156925236,306.69670305805801,1975.6748109325399,0.0
658204.59901257406,4207374.0504322443,-17500.0,412.53256077178594,703.31848696357122,1267.7722290694719,-238.54704511360788,-432.36679468839901,109.95853801096311,920.48170244487903,-178.72282607258035,1206.5905593286136,-1206.5905593286136,178.72282607258035,1815.8378595843601,0.0
663204.59901257406,4207374.0504322443,-17500.0,472.04483393376768,695.14189923160961,1048.5256941572295,-239.86734955510323,-366.91083139792863,95.341445087947534,833.56808889787794,-60.311583430869575,1067.286284637996,-1067.286284637996,60.311583430869575,1648.4976220680317,0.0
668204.59901257406,4207374.0504322443,-17500.0,514.22395415662766,661.22279944086597,843.69215113591667,-233.12551461464383,-304.92985875269665,81.345210824418714,746.18888775730841,42.495573137398594,918.34162077525775,-918.34162077525775,-42.495573137398594,1480.6042762321986,0.0
673204.59901257406,4207374.0504322443,-17500.0,538.4568218885853,609.0576523903411,659.62005965863955,-220.37012359183291,-248.35503889668863,68.403258715491944,661.37939054164178,126.51573963196756,769.40313944805678,-769.40313944805678,-126.51573963196756,1317.6370577801436,0.0
563204.59901257406,4212374.0504322443,-17500.0,278.4001958044193,-103.65155971817708,-333.76051526882804,58.811847914424156,55.703832947205441,-2.8191977417707541,332.99923196060467,325.87514713345291,-315.2069615577139,315.2069615577139,-325.87514713345291,577.57234044209429,0.0
568204.59901257406,4212374.0504322443,-17500.0,319.92704854009446,-183.96823116434516,-272.36623654032815,81.485632857539798,34.090604100209127,2.5807986056249561,359.54010525596425,342.1224029866089,-351.52000424319431,351.52000424319431,-342.1224029866089,623.29534588406477,0.0
573204.59901257406,4212374.0504322443,-17500.0,352.0774408174637,-271.26670620137912,-182.03897879706381,105.30298978964248,4.5382359449365453,9.599021663184061,393.63914844503802,342.25660375722208,-375.63504838933142,375.63504838933142,-342.25660375722208,688.2828587628444,0.0
578204.59901257406,4212374.0504322443,-17500.0,371.06773723524532,-361.03196372646971,-59.015970221846885,128.92487467578536,-33.761380179409073,18.36398986124048,436.60454985151381,321.86459300755195,-381.22407459772541,381.22407459772541,-321.86459300755195,775.88426477730025,0.0
583204.59901257406,4212374.0504322443,-17500.0,373.64091832119749,-446.94887283217838,98.707507377311302,150.58047659682552,-81.11141998574783,28.89803949357885,488.93764961950285,277.37201209031952,-361.59548067382269,361.59548067382269,-277.37201209031952,886.96404059660802,0.0
588204.59901257406,4212374.0504322443,-17500.0,357.77272783204938,-521.15341472288924,290.39894330371078,168.15464049702956,-137.07398493455821,41.073885899726413,550.06350574580927,206.91364259050167,-310.55875395044518,310.55875395044518,-206.91364259050167,1019.5580465171079,0.0
593204.59901257406,4212374.0504322443,-17500.0,323.39580306159428,-574.90204771453944,511.69894182376538,179.37754574073372,-200.26741389941071,54.579202127865578,618.2466133829414,111.21980126259859,-223.57539861453915,223.57539861453915,-111.21980126259859,1169.070811828497,0.0
598204.59901257406,4212374.0504322443,-17500.0,272.95202906113815,-599.67672255121443,754.0832250171801,182.1153392066137,-268.26026722616098,68.900884514435035,690.68329652098555,-5.7080578226309484,-99.032148543525025,99.032148543525025,5.7080578226309484,1328.730479244733,0.0
603204.59901257406,4212374.0504322443,-17500.0,211.55297534326371,-588.60854273319376,1004.9555938032316,174.72806251661922,-337.62599756899743,83.340311972509795,763.74626546889931,-136.39816384561738,60.649382168775603,-60.649382168775603,136.39816384561738,1490.1658111757695,0.0
608204.59901257406,4212374.0504322443,-17500.0,146.57511517562645,-537.9497594142739,1248.5667442432889,156.4264308474003,-404.19906003096327,97.066217565294636,833.40309175042569,-270.40041603075929,248.41979334808858,-248.41979334808858,270.40041603075929,1644.1116836647932,0.0
613204.59901257406,4212374.0504322443,-17500.0,86.653861214091094,-448.21567943831315,1467.7594266563808,127.53663285084268,-463.52587428079744,109.20283755391783,896.21085583088166,-395.52605055355343,452.83376616818327,-452.83376616818327,395.52605055355343,1781.256830144056,0.0
618204.59901257406,4212374.0504322443,-17500.0,40.237293008598442,-324.62411781032529,1646.2798507858611,89.586992533051884,-511.44302638376615,118.94021595263483,952.15303013278492,-499.65810227604015,659.23169315743939,-659.23169315743939,499.65810227604015,1893.1741739199758,0.0
623204.59901257406,4212374.0504322443,-17500.0,14.040258254574269,-176.61591763435027,1771.1679388650969,45.169560881342974,-544.66430843540195,125.64452726061297,996.0570376179495,-572.73433656297186,851.71491664807911,-851.71491664807911,572.73433656297186,1973.2025466002303,0.0
628204.59901257406,4212374.0504322443,-17500.0,11.811744891045514,-16.502406737561881,1834.6554910882537,-2.4084576480319533,-561.24107930158004,128.94368085476879,1021.4936938014789,-608.40225370336043,1015.4904947797104,-1015.4904947797104,608.40225370336043,2017.1204808085611,0.0
633204.59901257406,4212374.0504322443,-17500.0,33.74794403392783,142.44225303362293,1835.1159993765268,-49.605207865852137,-560.7894557599617,128.76909277472225,1027.0656305627313,-604.92228325392171,1139.0217477086533,-1139.0217477086533,604.92228325392171,2023.4855287246207,0.0
638204.59901257406,4212374.0504322443,-17500.0,76.676133551625483,287.96816806756118,1776.8851401579695,-93.142475421005912,-544.44256086544056,125.34599504258334,1013.3511063354389,-565.12843204191654,1215.4831727091396,-1215.4831727091396,565.12843204191654,1993.5865044171148,0.0
643204.59901257406,4212374.0504322443,-17500.0,134.89460452447767,410.45268939819067,1669.0942696372049,-130.41060637573241,-514.56230209266744,119.13884640228812,982.23885328214988,-495.54240365290389,1243.2483534928829,-1243.2483534928829,495.54240365290389,1931.0482730511605,0.0
648204.59901257406,4212374.0504322443,-17500.0,201.38116257879011,503.82134266518881,1523.8948652768938,-159.707499132377,-474.30005087060141,110.76804504227616,936.53246870241821,-404.95697568171346,1225.4319459743117,-1225.4319459743117,404.95697568171346,1841.1950540504795,0.0
653204.59901257406,4212374.0504322443,-17500.0,269.03361000206138,565.71843436006452,1354.5374272410047,-180.29317792338975,-427.11757728711416,100.91854194641826,879.55079962717002,-302.88758183380696,1168.7460639958604,-1168.7460639958604,302.88758183380696,1730.3144127244198,0.0
658204.59901257406,4212374.0504322443,-17500.0,331.67248232192696,597.05802440461059,1173.6962825451926,-192.28899699724153,-376.36312602429882,90.25816273658441,814.75283471533851,-198.23315585939264,1082.0388443392178,-1082.0388443392178,198.23315585939264,1604.9514613089143,0.0
663204.59901257406,4212374.0504322443,-17500.0,384.66269430918589,601.19485408252467,992.2771719710845,-196.47785691069345,-324.96240645705797,79.377017512638346,745.43064341215495,-98.350630725271458,974.86259949811802,-974.86259949811802,98.350630725271458,1471.3289211768833,0.0
668204.59901257406,4212374.0504322443,-17500.0,425.14047795783193,582.96819114753316,818.77222435140789,-194.06656905774818,-275.24299296888643,68.751915685829275,674.49387881704251,-8.5948533412439474,856.3118857414421,-856.3118857414421,8.5948533412439474,1334.9389357312991,0.0
573204.59901257406,4217374.0504322443,-17500.0,309.70779518618099,-270.02907378901494,-101.6172742648879,96.508953876012498,-11.429257864555911,10.823155388681609,350.97698869495548,283.82171962562194,-322.62071337715594,322.62071337715594,-283.82171962562194,618.59721617384753,0.0
578204.59901257406,4217374.0504322443,-17500.0,319.76053264551155,-342.00981764489973,12.294279093860499,114.42064438036273,-44.600407603461726,17.952102207129823,389.60961783458151,258.51092907069523,-317.69238100767467,317.69238100767467,-258.51092907069523,699.27384129002303,0.0
583204.59901257406,4217374.0504322443,-17500.0,316.47244104770863,-408.53658645280296,153.08689693676138,130.23616339018233,-84.420936903712658,26.310279932907466,435.45010970907674,213.87609768310796,-291.15516043238199,291.15516043238199,-213.87609768310796,797.77948026475508,0.0
588204.59901257406,4217374.0504322443,-17500.0,298.86795303348038,-463.53729390662602,319.2093700063906,142.4062523230902,-130.33491336976053,35.76643261996113,487.7134151455524,149.24222542555032,-238.87778032461574,238.87778032461574,-149.24222542555032,911.8051878441878,0.0
593204.59901257406,4217374.0504322443,-17500.0,267.48008494717061,-500.58107222133498,506.40948508572779,149.34173467472218,-181.12000250317089,46.065523499406268,544.82065135920379,65.928385542860241,-158.20388950791855,158.20388950791855,-65.928385542860241,1037.3430345292377,0.0
598204.59901257406,4217374.0504322443,-17500.0,224.64179692965567,-513.68924273371761,707.50236607992883,149.61542397467377,-234.85014466912745,56.824618549023278,604.49774337109307,-32.39548883446048,-48.776368950352847,48.776368950352847,32.39548883446048,1169.0155019474905,0.0
603204.59901257406,4217374.0504322443,-17500.0,174.49511111410774,-498.30256957665318,912.58071279455237,142.19404413738087,-288.964667659827,67.548224708981238,663.96285644029558,-139.69647801362893,86.807528689370017,-86.807528689370017,139.69647801362893,1300.4689452238724,0.0
608204.59901257406,4217374.0504322443,-17500.0,122.63298665171219,-452.22243430574412,1109.7560911931994,126.65650042381255,-340.46103877908246,77.66559768679528,720.24079625458421,-248.01829205851669,242.7195430070077,-242.7195430070077,248.01829205851669,1424.852480972952,0.0
613204.59901257406,4217374.0504322443,-17500.0,75.376907758925441,-376.29529299662431,1286.3992154606569,103.34547769855786,-386.20028216398242,86.587584207146193,771.19635456128231,-348.37783144389766,410.16781040937212,-410.16781040937212,348.37783144389766,1535.3864690889804,0.0
618204.59901257406,4217374.0504322443,-17500.0,38.80605386320272,-274.62951903405343,1430.6959469139358,73.405586408091509,-423.28005617898009,93.774665156241724,817.94967375061572,-431.9881415149527,578.25489306084887,-578.25489306084887,431.9881415149527,1625.9754132549076,0.0
623204.59901257406,4217374.0504322443,-17500.0,17.748446518058042,-154.2314987510546,1533.2177772306409,38.684556796314496,-449.40517279799485,98.803623816063691,854.41470217032304,-491.56006898581688,735.31346485063989,-735.31346485063989,491.56006898581688,1691.7822487672627,0.0
628204.59901257406,4217374.0504322443,-17500.0,14.978944576494317,-24.101263352001759,1588.1677081895859,1.5090352681583625,-463.17837339519656,101.4194048160706,876.3173664622509,-522.38465949997783,870.45743803085122,-870.45743803085122,522.38465949997783,1729.6704135023354,0.0
633204.59901257406,4217374.0504322443,-17500.0,30.819415650636621,106.0222542008988,1594.0298285523122,-35.620044551914447,-464.24983512175322,101.56141053575642,882.76173585294396,-522.94575436793866,975.0126521793718,-975.0126521793718,522.94575436793866,1738.4357474239837,0.0
638204.59901257406,4217374.0504322443,-17500.0,63.22065035668362,226.98324663374979,1553.5083671084919,-70.346826617416028,-453.30037446058412,99.359953624131379,874.08761611652744,-494.94331699436731,1043.5242223524269,-1043.5242223524269,494.94331699436731,1718.7959353720446,0.0
643204.59901257406,4217374.0504322443,-17500.0,108.26924731000258,331.31812514054934,1472.8259083629005,-100.7299227427426,-431.87449653356612,95.105835404328943,851.556716594318,-442.77072708135182,1074.1652886506022,-1074.1652886506022,442.77072708135182,1673.1562307359368,0.0
648204.59901257406,4217374.0504322443,-17500.0,160.9586493812881,413.9555518937388,1360.592164549191,-125.41595439834956,-402.11162852744468,89.201550899985065,817.11687481945728,-372.62036756851586,1068.5354336120638,-1068.5354336120638,372.62036756851586,1605.2097181554834,0.0
653204.59901257406,4217374.0504322443,-17500.0,216.02284002293217,472.44056125520223,1226.5197715247116,-143.70067417019621,-366.43915089736652,82.105305167028661,773.14343857926656,-291.45393549956873,1030.9833115920446,-1030.9833115920446,291.45393549956873,1519.455188454735,0.0
658204.59901257406,4217374.0504322443,-17500.0,268.65745044461198,506.73702291623925,1080.2399269590035,-155.48898195758969,-327.28611118330798,74.278439380174348,722.18404228497616,-206.05614385560045,967.66713382881755,-967.66713382881755,206.05614385560045,1420.7146837922298,0.0
583204.59901257406,4222374.0504322443,-17500.0,268.82330571815191,-370.63928166987864,189.29470489349464,112.35442325722899,-84.014252046218814,23.574726904505084,389.32518800851005,163.56234245229876,-232.87262438081535,232.87262438081535,-163.56234245229876,719.81494267575317,0.0
588204.59901257406,4222374.0504322443,-17500.0,251.04123540907446,-411.18416724543613,332.83459732719461,120.70462373397723,-121.72489230199257,30.949322101707459,433.97435061825337,105.26962557092017,-181.71753758406786,181.71753758406786,-105.26962557092017,817.62435558611776,0.0
593204.59901257406,4222374.0504322443,-17500.0,222.98187826312468,-436.21993325563705,491.33481412811977,124.77657620619148,-162.70911279012171,38.856619502384603,481.91777522408916,33.136171937852048,-108.12227178684492,108.12227178684492,-33.136171937852048,923.21167747659024,0.0
598204.59901257406,4222374.0504322443,-17500.0,186.73846236182558,-441.53912017556354,658.83521004091119,123.6115195405487,-205.4542811707739,47.011845261406442,531.32993036823245,-49.617939605314106,-12.416214441356118,12.416214441356118,49.617939605314106,1032.3311195409187,0.0
603204.59901257406,4222374.0504322443,-17500.0,145.63628726526929,-424.11031389605677,827.54595096426181,116.55759549254685,-248.04010622250036,55.06133599194817,580.07086309793306,-138.15503490765951,102.90586160348198,-102.90586160348198,138.15503490765951,1140.134168837702,0.0
608204.59901257406,4222374.0504322443,-17500.0,103.93714938689226,-382.68485536856127,988.4280605960862,103.40470599117766,-288.28111551830654,62.608599862130042,625.93375656409921,-226.3855484568565,233.07361873023513,-233.07361873023513,226.3855484568565,1241.5013682585193,0.0
613204.59901257406,4222374.0504322443,-17500.0,66.320673181209017,-318.21093902776727,1132.077774258978,84.472168923219542,-323.93486274020177,69.251328951901598,667.98016105403451,-307.61575638019281,371.29139234470233,-371.29139234470233,307.61575638019281,1331.43007817032,0.0
618204.59901257406,4222374.0504322443,-17500.0,37.223285195713864,-233.93306163863249,1249.7891499676341,60.623068429142812,-352.9465944529652,74.624044414531667,707.44775237107353,-375.38533341903133,509.3626375787569,-509.3626375787569,375.38533341903133,1405.4455898834817,0.0
623204.59901257406,4222374.0504322443,-17500.0,20.167785496347726,-135.11859908755139,1334.605334445052,33.193901932500481,-373.68793982267692,78.439332645548348,737.83306680070621,-424.33741849548278,638.60703426259533,-638.60703426259533,424.33741849548278,1459.983553204147,0.0
628204.59901257406,4222374.0504322443,-17500.0,17.231079263650219,-28.441458540473349,1382.1516765466499,3.8473515612537232,-385.14417266686462,80.51984553012008,756.68604024326874,-450.94035423882315,750.9063226767571,-750.9063226767571,450.94035423882315,1492.6851045752228,0.0
633204.59901257406,4222374.0504322443,-17500.0,28.76837648545974,78.859073693346957,1391.0856674733398,-25.62473566279396,-387.01406885446323,80.815136309450409,763.39346432319803,-453.90896118836548,839.67279426130472,-839.67279426130472,453.90896118836548,1502.5574451258635,0.0
638204.59901257406,4222374.0504322443,-17500.0,53.44461097646245,179.87301752707694,1363.0913610632529,-53.509867102758712,-379.70704257969305,79.400821588211016,758.14556450238774,-434.25004807588971,900.55493559668389,-900.55493559668389,434.25004807588971,1489.9798681521754,0.0
643204.59901257406,4222374.0504322443,-17500.0,88.545185861313627,268.79423150921696,1302.4509384287132,-78.356164291754325,-364.24491661587211,76.461366746568856,741.7924546672848,-394.95003163227119,931.76450257758552,-931.76450257758552,394.95003163227119,1456.562725152593,0.0
648204.59901257406,4222374.0504322443,-17500.0,130.47384248118732,341.44562105563858,1215.3142272563532,-99.0972032923424,-342.09486658656147,72.260946664824885,715.70035733546104,-340.40316220667603,934.00473375067838,-934.00473375067838,340.40316220667603,1404.8921306366169,0.0
598204.59901257406,4227374.0504322443,-17500.0,156.71327607057512,-380.92829812148227,610.52654382702269,102.71021855312465,-179.81865471406567,39.039372207768778,468.94433383291062,-60.244555814370585,13.664157592842773,-13.664157592842773,60.244555814370585,914.96837439779495,0.0
603204.59901257406,4227374.0504322443,-17500.0,122.88369265832118,-362.86263971696513,750.18956955023793,96.211965497575662,-213.61370225723579,45.143749371838993,509.1697352804232,-133.6803011470474,112.00146321260975,-112.00146321260975,133.6803011470474,1003.9887646065162,0.0
608204.59901257406,4227374.0504322443,-17500.0,89.115370897692955,-325.88153322218056,882.46507825936374,85.084211860482256,-245.36139197021933,50.837721599149134,546.85491841122894,-206.0723224852855,221.27154825259021,-221.27154825259021,206.0723224852855,1087.270631854981,0.0
613204.59901257406,4227374.0504322443,-17500.0,58.909712895261691,-270.91893916618329,1000.2742991942442,69.608113498793188,-273.43923002032523,55.842615141396557,582.3958880116196,-272.38014078354348,336.18665268054025,-336.18665268054025,272.38014078354348,1161.076254760379,0.0
618204.59901257406,4227374.0504322443,-17500.0,35.546844224723195,-200.54823000902323,1097.1198612682158,50.439335151822199,-296.37161205240972,59.906962869397695,615.68341381760342,-327.79307326862238,450.51331901076242,-450.51331901076242,327.79307326862238,1222.0761824913391,0.0
623204.59901257406,4227374.0504322443,-17500.0,21.632139798769817,-118.77672118853926,1167.8014462426142,28.557660499483593,-312.98639072267184,62.832458643576771,641.109960314722,-368.32190424706704,557.71166947697259,-557.71166947697259,368.32190424706704,1267.6082972166864,0.0
628204.59901257406,4227374.0504322443,-17500.0,18.736773436522892,-30.61864724042826,1208.9823654643787,5.1686027385645685,-322.53767140131828,64.494091939540638,657.3570719522578,-391.28847475588657,651.6525139847439,-651.6525139847439,391.28847475588657,1295.8781390799672,0.0
633204.59901257406,4227374.0504322443,-17500.0,27.204965470981193,58.478744430828776,1219.5059610364895,-18.426461827863669,-324.77366383341621,64.851145942883349,663.97377660878249,-395.61965907982807,727.28416564887561,-727.28416564887561,395.61965907982807,1306.0723612308693,0.0
603204.59901257406,4017374.0504322448,-22500.0,45.202449118063676,188.931001082297,1105.5749165209193,67.866524856691882,380.226138725829,98.748502812273657,647.58583921653803,-354.23797209942711,764.46228767872697,-764.46228767872697,354.23797209942711,1274.792651071592,0.0
608204.59901257406,4017374.0504322448,-22500.0,20.213585148225373,110.84292178970568,1141.2982698233338,41.865052751266639,391.37024645996144,101.38936422935323,656.60025476886267,-378.54034023781975,726.26457722215741,-726.26457722215741,378.54034023781975,1293.8485119706713,0.0
613204.59901257406,4017374.0504322448,-22500.0,4.8191706776830872,25.462161355023696,1150.4340088100794,13.65441968032904,394.45128352892016,102.16582697233196,656.64041985275492,-386.23394136948343,665.76160824175884,-665.76160824175884,386.23394136948343,1296.0199437867482,0.0
618204.59901257406,4017374.0504322448,-22500.0,0.60143234250546251,-62.480127283140156,1130.7130880791644,-15.352777258803485,388.80976856934711,100.9290468596011,647.33440108152433,-375.7607998523664,585.19785787976105,-585.19785787976105,375.7607998523664,1280.5366487289591,0.0
623204.59901257406,4017374.0504322448,-22500.0,8.0311565446797211,-147.71131074555032,1081.821884706796,-43.589281222684534,374.3440527199752,97.65306736419376,628.89878748341084,-347.08396503697855,488.52799503588921,-488.52799503588921,347.08396503697855,1247.5495251120039,0.0
628204.59901257406,4017374.0504322448,-22500.0,26.33606426919339,-224.98062993577307,1005.5679154628837,-69.491183701461949,351.5570803288918,92.445217416195788,602.60201744739084,-301.79596440660839,381.08175989224435,-381.08175989224435,301.79596440660839,1198.1829232920804,0.0
633204.59901257406,4017374.0504322448,-22500.0,53.562093832553863,-289.65370074089799,905.76606339770592,-91.664760763772136,321.52676266985679,85.540200015236891,571.56555183431522,-242.98840560036976,269.01579854633002,-269.01579854633002,242.98840560036976,1134.4892231681986,0.0
638204.59901257406,4017374.0504322448,-22500.0,86.82486946989701,-338.23093939359478,787.8511237822471,-109.03332246266366,285.80121177906261,77.27801469537782,537.07313170968621,-174.89514685261321,158.64170725969842,-158.64170725969842,174.89514685261321,1059.3081925428683,0.0
643204.59901257406,4017374.0504322448,-22500.0,122.70442661885123,-368.69579356081266,658.28101928986393,-120.93853415147576,246.23557114542481,68.069140401561086,499.33287598628493,-102.37273807736244,55.749119073412999,-55.749119073412999,102.37273807736244,976.04953907953609,0.0
648204.59901257406,4017374.0504322448,-22500.0,157.70344886910448,-380.63711753070163,523.83894454752317,-127.18057342042339,204.79917581395298,58.353007731815779,459.66930711679674,-30.317790860505951,-34.958046650794003,34.958046650794003,30.317790860505951,888.43012223620406,0.0
653204.59901257406,4017374.0504322448,-22500.0,188.67990024334759,-375.14154999831203,390.9554866257572,-127.99504111681401,163.38540585354724,48.556581008600574,419.68343702800598,36.871909661574087,-110.22646054822746,110.22646054822746,-36.871909661574087,800.19972244336986,0.0
658204.59901257406,4017374.0504322448,-22500.0,213.17864410321471,-354.49944286901876,265.15685346384123,-123.97724877735777,123.65330604409816,39.059258788757504,380.90633625464164,95.704629348770197,-168.38232015376866,168.38232015376866,-95.704629348770197,714.88514347948842,0.0
593204.59901257406,4022374.0504322448,-22500.0,139.89913517645206,368.07166138495779,1069.94292082124,135.27753477049444,391.77363013702467,108.01723918801601,684.69311807794031,-286.55511879961847,872.06669113922544,-872.06669113922544,286.55511879961847,1348.1244258390793,0.0
598204.59901257406,4022374.0504322448,-22500.0,95.043184955390629,308.71760417077735,1165.6503592416148,113.74434312855107,422.67746895324666,115.61433813729509,715.77794055961283,-347.19709952565358,885.72403499661937,-885.72403499661937,347.19709952565358,1409.0070980072171,0.0
603204.59901257406,4022374.0504322448,-22500.0,54.731205775888021,231.81275381175678,1240.6798342133823,86.65877035005937,446.86939062224229,121.55880515553071,738.4547214426193,-396.13596082240804,873.02765109146219,-873.02765109146219,396.13596082240804,1454.1332195696409,0.0
608204.59901257406,4022374.0504322448,-22500.0,22.824278926450955,140.25548560480325,1288.4700351793388,54.964321418884829,462.36858297790076,125.38799307686538,751.16552812125758,-428.54272861933293,831.98005796064228,-831.98005796064228,428.54272861933293,1480.5408874496084,0.0
613204.59901257406,4022374.0504322448,-22500.0,2.6618102866393976,38.693481073377271,1303.6964949291171,20.122754701392733,467.57266920083447,126.72766102944571,752.76258545313294,-440.52778409701449,762.75865583115433,-762.75865583115433,440.52778409701449,1486.0176802854821,0.0
618204.59901257406,4022374.0504322448,-22500.0,-3.4838655434937071,-66.79494036832692,1283.0631820793976,-15.982275110958067,461.48616844781867,125.3436964227114,742.69408383169332,-429.78455425075435,667.99432321852828,-667.99432321852828,429.78455425075435,1469.3932657749581,0.0
623204.59901257406,4022374.0504322448,-22500.0,5.1557130988602768,-169.30077833442178,1225.9081562874571,-51.22118371706415,443.89497692389318,121.18168166603023,721.25379095588471,-396.06830607707707,552.70356916450805,-552.70356916450805,396.06830607707707,1430.750470754431,0.0
628204.59901257406,4022374.0504322448,-22500.0,27.628776808740497,-261.88587829012459,1134.4795292609658,-83.451421551207076,415.44706558482,114.38553419067854,690.2739291226917,-341.38543323722257,423.83900762077718,-423.83900762077718,341.38543323722257,1371.5146345906078,0.0
633204.59901257406,4022374.0504322448,-22500.0,61.337176269614844,-338.44393731398191,1013.7927883486755,-110.76780205610021,377.61428082337511,105.28967329270388,653.30852001095946,-269.82303703474554,289.51028261786109,-289.51028261786109,269.82303703474554,1294.395519845842,0.0
638204.59901257406,4022374.0504322448,-22500.0,102.40084866841572,-394.45134064271616,871.0738340525902,-131.72300288471698,332.5362987446203,94.384737598025083,611.56984160641559,-187.03334654440161,158.0131831698279,-158.0131831698279,187.03334654440161,1203.1848500307362,0.0
643204.59901257406,4022374.0504322448,-22500.0,146.23855594892945,-427.4579496895978,714.88884820687622,-145.4760192073185,282.77363123523935,82.262668521146935,565.90575242996783,-99.473676350679781,36.855357537970477,-36.855357537970477,99.473676350679781,1102.4379658094638,0.0
648204.59901257406,4022374.0504322448,-22500.0,188.23692684238443,-437.23260177042255,554.13211920337358,-151.84377086499345,231.01685910591911,69.551343619145044,518.20215517739155,-13.560646714588479,-68.036540354387398,68.036540354387398,13.560646714588479,997.0882848272073,0.0
653204.59901257406,4022374.0504322448,-22500.0,224.36548457826578,-425.56343990304163,397.06595021719573,-151.25412963320514,179.80613609551742,56.850693556248245,470.56501725828014,65.09101030860333,-152.79630574563461,152.79630574563461,-65.09101030860333,892.05013173385464,0.0
658204.59901257406,4022374.0504322448,-22500.0,251.62370386910558,-395.79174622076334,250.57180486855546,-144.62055216595229,131.30630773657617,44.68046102779023,424.94534294068245,132.21362211068731,-215.73918180921027,215.73918180921027,-132.21362211068731,791.85326902710176,0.0
663204.59901257406,4022374.0504322448,-22500.0,268.2611859517155,-352.20383808829246,119.7047451596613,-133.17182164015534,87.165399778887249,33.446106311753582,382.94349812179343,185.1510952497953,-257.1625500860564,257.1625500860564,-185.1510952497953,700.33142078346998,0.0
668204.59901257406,4022374.0504322448,-22500.0,273.77342037007992,-299.41223217881679,7.5638793456722873,-118.27343726600155,48.462627862587034,23.424571221939509,345.68723779542859,222.85066248486854,-278.92425522171374,278.92425522171374,-222.85066248486854,620.36405835251378,0.0
583204.59901257406,4027374.0504322448,-22500.0,278.59456581382756,499.49653429908409,902.51809101009337,194.98062575948967,360.47222010394751,107.43556100705216,674.97015353475138,-138.25592186903145,860.45256503907899,-860.45256503907899,138.25592186903145,1333.3152143671766,0.0
588204.59901257406,4027374.0504322448,-22500.0,228.56588812402069,480.38163686113546,1043.2002115628643,185.58849794538713,408.64346186704034,119.96672117546838,727.85770636010443,-221.04324346977558,932.31613444246716,-932.31613444246716,221.04324346977558,1435.4402559733385,0.0
593204.59901257406,4027374.0504322448,-22500.0,173.80133891703602,438.83291461649105,1177.9475854217633,168.60156492261652,454.40268424240094,131.80060385900822,775.57911295932729,-303.55182108139684,983.71222294915674,-983.71222294915674,303.55182108139684,1527.9713573393583,0.0
598204.59901257406,4027374.0504322448,-22500.0,118.53402285328909,373.63047284998697,1298.220646674929,143.7295665173138,495.00467404734457,142.25824026826689,815.67645105942972,-379.68691976965903,1008.186031937184,-1008.186031937184,379.68691976965903,1606.2686153183713,0.0
603204.59901257406,4027374.0504322448,-22500.0,67.781651461783227,285.6045108293813,1394.8107921213757,111.3333394195742,527.52430884070668,150.62139219949958,845.7230721831055,-442.71163733978864,1000.4158074313714,-1000.4158074313714,442.71163733978864,1665.7367286916624,0.0
608204.59901257406,4027374.0504322448,-22500.0,26.767280133334641,178.01765278032445,1458.8024766822487,72.53225701316849,549.15282165352448,156.20346199124964,863.55553878875276,-486.02830529805522,957.15200864698716,-957.15200864698716,486.02830529805522,1702.2577551058494,0.0
613204.59901257406,4027374.0504322448,-22500.0,0.15629527905569895,56.617524838528894,1482.736594314737,29.211664402887703,557.55027344701773,158.43314130325885,867.53550719259533,-504.13717182252782,878.03615269483089,-878.03615269483089,504.13717182252782,1712.659127788635,0.0
618204.59901257406,4027374.0504322448,-22500.0,-8.7571095817828883,-70.740948814419312,1461.7915058620961,-16.09726274911004,551.20056481065023,156.93830770498832,856.83803968768382,-493.60433410625996,766.09442453473252,-766.09442453473252,493.60433410625996,1695.158232815322,0.0
623204.59901257406,4027374.0504322448,-22500.0,1.270043349978063,-194.91650608040683,1394.7246707364332,-60.467994349065471,529.69363913667746,151.61280464457727,831.85324400662057,-453.81562500300606,627.72155328278768,-627.72155328278768,453.81562500300606,1649.6955628580497,0.0
628204.59901257406,4027374.0504322448,-22500.0,29.069919628139317,-306.63487857589797,1284.3346009761224,-100.92658715849494,493.86557622152219,142.65007937418804,795.08020438484471,-387.30642845283802,472.07822693865813,-472.07822693865813,387.30642845283802,1578.0873569896285,0.0
633204.59901257406,4027374.0504322448,-22500.0,71.147913229942432,-397.75547462645994,1137.2880291112499,-134.8337667969279,445.75157619434145,130.5333621986864,750.46748741639612,-299.54159635374839,309.96974521380452,-309.96974521380452,299.54159635374839,1483.9542643311324,0.0
638204.59901257406,4027374.0504322448,-22500.0,122.21883547277011,-462.3763764096164,963.30721251631462,-160.22180960354493,388.34936270056119,115.98145778740462,699.51667790176782,-198.15916986205158,152.4211310863918,-152.4211310863918,198.15916986205158,1372.4245904548952,0.0
643204.59901257406,4027374.0504322448,-22500.0,176.07582684727265,-497.53546752507123,773.87970872470703,-176.01550768711138,325.23851072406859,99.860370436611319,643.8767198509637,-91.839745425780293,9.2524375257776512,-9.2524375257776512,91.839745425780293,1249.6597298601837,0.0
648204.59901257406,4027374.0504322448,-22500.0,226.58147332260154,-503.37335730803426,580.77042427246761,-182.09645879268021,260.13535652189142,83.078742758955357,586.18135959735082,10.938441268644851,-112.04735016504998,112.04735016504998,-10.938441268644851,1122.2801392016486,0.0
653204.59901257406,4027374.0504322448,-22500.0,268.55119596944331,-482.77176391035272,394.646464271627,-179.211553593095,196.47347625675152,66.487763589835552,529.21350161059377,102.98564529908202,-206.94710184995341,206.94710184995341,-102.98564529908202,996.78003673906119,0.0
658204.59901257406,4027374.0504322448,-22500.0,298.35347187556852,-440.60882990525624,224.06102270559228,-168.76351319332704,137.08322533176661,50.802908977207075,475.46123803608498,179.12679846847965,-273.94720863239996,273.94720863239996,-179.12679846847965,878.99757491896571,0.0
663204.59901257406,4027374.0504322448,-22500.0,314.15041891403462,-382.84092519064876,74.919079734174645,-152.54227774984878,84.009693949596794,36.557164680682298,426.86080894366069,236.48653241919979,-314.18600175106724,314.18600175106724,-236.48653241919979,773.66820409168861,0.0
668204.59901257406,4027374.0504322448,-22500.0,315.80436582839479,-315.61727785202982,-49.583022693967195,-132.45732693361461,38.471247895412091,24.087076763495631,384.64265479011192,274.3708669724175,-330.75215850116433,330.75215850116433,-274.3708669724175,684.05763013622004,0.0
673204.59901257406,4027374.0504322448,-22500.0,304.54663818383284,-244.57593472117935,-148.65044016840199,-110.31619732692165,0.93147195304808428,13.546018317461833,349.27308162214172,293.86403748896885,-327.89686429566484,327.89686429566484,-293.86403748896885,611.67971888866464,0.0
678204.59901257406,4027374.0504322448,-22500.0,282.53031639677369,-174.39035514258276,-223.36480837533432,-87.672750097811601,-28.757177131716261,4.9354205292929896,320.50224132084554,297.28612470217899,-310.3048014403829,310.3048014403829,-297.28612470217899,556.17564306435418,0.0
573204.59901257406,4032374.0504322448,-22500.0,421.98142865753834,539.04073376377903,639.51417572406081,229.92918046478263,290.65180040147368,96.249078326737447,617.57579004222339,52.963272209721254,721.08021940032165,-721.08021940032165,-52.963272209721254,1228.0113771303111,0.0
578204.59901257406,4032374.0504322448,-22500.0,388.46607043091996,567.53815788844429,793.01794957897152,237.05944859832366,347.38707093472641,112.08221737199102,685.73026938893975,-25.728766613313439,835.46476002433133,-835.46476002433133,25.728766613313439,1359.7004905200129,0.0
583204.59901257406,4032374.0504322448,-22500.0,341.83574537783613,577.80686083780654,957.89063783579502,237.32444847871051,407.46306634605577,128.67365102822609,754.19779282284856,-116.48220569831415,943.81197625250502,-943.81197625250502,116.48220569831415,1491.6134546989203,0.0
588204.59901257406,4032374.0504322448,-22500.0,283.9237919134211,564.76355418810294,1127.7689774416892,229.10391416306848,468.62040580869609,145.41629179281887,820.25579532048062,-215.40003572868778,1038.1950868505637,-1038.1950868505637,215.40003572868778,1619.0406396870321,0.0
593204.59901257406,4032374.0504322448,-22500.0,218.26744117494326,524.19754237533289,1293.8945500804909,211.10795130100101,527.84047230188423,161.51433501841041,880.90036875908822,-316.590826086177,1109.7625710262964,-1109.7625710262964,316.590826086177,1736.41451162205,0.0
598204.59901257406,4032374.0504322448,-22500.0,150.08556355975608,453.6558635871977,1445.420018526492,182.65578868490255,581.45997189030163,176.01457657682272,932.86758971735833,-412.35814719168121,1149.6200312352157,-1149.6200312352157,412.35814719168121,1837.5974411848701,0.0
603204.59901257406,4032374.0504322448,-22500.0,85.911286510770779,353.32953905942708,1570.1902599577822,143.94784936992747,625.43290213339731,187.87376796533363,972.8491144889033,-493.80453884251256,1150.0355160025752,-1150.0355160025752,493.80453884251256,1916.3316091118816,0.0
608204.59901257406,4032374.0504322448,-22500.0,32.837321603157342,226.73329574271656,1656.0292090092041,96.267666099174704,655.74663300117777,196.06340374150892,997.81491685495632,-551.87511425200728,1105.8267598896589,-1105.8267598896589,551.87511425200728,1966.8463838774367,0.0
613204.59901257406,4032374.0504322448,-22500.0,-2.5667458013961704,80.934321083265004,1692.4064340226378,42.040495094249664,668.95033791376261,199.7011656031932,1005.4025897288719,-578.73538778579916,1015.6549571725424,-1015.6549571725424,578.73538778579916,1984.5515034366626,0.0
618204.59901257406,4032374.0504322448,-22500.0,-15.477726280308314,-73.864761509354821,1672.2122790785068,-15.307993481595478,662.7118859728397,198.18869390997131,994.362958705442,-569.23837740284682,882.88699099195026,-882.88699099195026,569.23837740284682,1966.7181688970754,0.0
623204.59901257406,4032374.0504322448,-22500.0,-3.8907923321967819,-225.44710231131864,1593.2390116620811,-71.708397135271781,636.28028628565539,191.32578301723899,965.17803049051861,-522.12556092676425,715.7061885092736,-715.7061885092736,522.12556092676425,1913.0107657830351,0.0
628204.59901257406,4032374.0504322448,-22500.0,30.775043220186664,-361.26178236919532,1458.9667384336274,-122.97457528671573,590.7339707609533,179.37264307178134,921.0922247584931,-440.60558006947809,526.31112890577617,-526.31112890577617,440.60558006947809,1825.7560746871841,0.0
633204.59901257406,4032374.0504322448,-22500.0,83.761072897200563,-470.31757060678933,1278.3610426945042,-165.39723764419762,528.92475703836294,163.03790975646166,866.57916999984911,-332.07467905655483,329.27735594252397,-329.27735594252397,332.07467905655483,1709.8533808295126,0.0
638204.59901257406,4032374.0504322448,-22500.0,147.7704447917034,-544.83908591330407,1064.6712906799587,-196.26888518692087,455.11444134306964,143.39183370385871,803.82784047803716,-206.99025436862178,139.43129714775625,-139.43129714775625,206.99025436862178,1572.3364348278153,0.0
643204.59901257406,4032374.0504322448,-22500.0,214.29192034179155,-581.2815806227328,833.48305403411894,-214.21779584761214,374.37627132329175,121.72100805719427,735.53880117095764,-77.158659288310091,-30.26750101432469,30.26750101432469,77.158659288310091,1421.6509837670553,0.0
648204.59901257406,4032374.0504322448,-22500.0,275.09163225036127,-580.49172832735326,600.49626695942902,-219.28359450382348,291.90146082733418,99.357832505095658,665.37163088629143,46.125926016866437,-170.34397496533919,170.34397496533919,-46.125926016866437,1266.7842557040149,0.0
653204.59901257406,4032374.0504322448,-22500.0,323.49377131408227,-547.05907012083208,379.53660530847753,-212.74226518374158,212.3641828458002,77.521573755017144,597.02112207620837,153.64461812788841,-275.61424020068756,275.61424020068756,-153.64461812788841,1116.3881186699493,0.0
658204.59901257406,4032374.0504322448,-22500.0,355.17849058464805,-488.11681237161662,181.18124064082824,-196.75288759378017,139.46402194730391,57.200368055402457,533.65377378297376,239.21060006838539,-345.12974586629696,345.12974586629696,-239.21060006838539,977.99715478761232,0.0
663204.59901257406,4032374.0504322448,-22500.0,368.40524896297984,-411.94843989164849,12.157259743646661,-173.93068636921208,75.701034618910853,39.088842080140481,477.56503031733268,299.92664346513061,-381.43954827780237,381.43954827780237,-299.92664346513061,857.37725663403307,0.0
668204.59901257406,4032374.0504322448,-22500.0,363.74082402175361,-326.72530016185965,-124.55025728667717,-146.94567324645448,22.372394524908788,23.580210619996851,429.99422530204322,335.84865866617127,-389.47834710874866,389.47834710874866,-335.84865866617127,758.00327131497318,0.0
673204.59901257406,4032374.0504322448,-22500.0,343.47345053911027,-239.58244609271657,-229.08873766694973,-118.21417856505933,-20.266697995340913,10.800148159625133,391.10187091268165,349.2755553184644,-375.39199386555833,375.39199386555833,-349.2755553184644,680.71878931236824,0.0
678204.59901257406,4032374.0504322448,-22500.0,310.91566959992235,-156.10208185833318,-303.88077880116703,-89.710516506179033,-52.752366390705731,0.66500850023538705,360.12408151473574,343.90567666435447,-345.53100812521745,345.53100812521745,-343.90567666435447,623.76685371827807,0.0
683204.59901257406,4032374.0504322448,-22500.0,269.75772885270339,-80.164200887541242,-352.73936770999768,-62.892530303129334,-76.139732187312688,-7.0522428670302109,335.68136624713452,324.05019764257071,-305.7298319355055,305.7298319355055,-324.05019764257071,583.39530067151429,0.0
568204.59901257406,4037374.0504322448,-22500.0,520.23254463097282,541.06067218797625,480.81586453831852,252.84995460239477,253.06582065056477,93.380063369286091,602.48057799577577,178.71470457106267,617.65800187793047,-617.65800187793047,-178.71470457106267,1195.4487810297778,0.0
573204.59901257406,4037374.0504322448,-22500.0,504.4546540260028,598.373103351856,635.78664702383685,271.453662599697,314.99102589230768,111.93943043330546,677.53654667682599,110.32979181551769,752.98921225875938,-752.98921225875938,-110.32979181551769,1347.4926805635928,0.0
578204.59901257406,4037374.0504322448,-22500.0,471.65054718880145,642.50188620495123,812.27990507832021,284.37581901726128,384.15247637894419,132.37536468474377,758.92427573999316,23.180313923897586,892.64453012932495,-892.64453012932495,-23.180313923897586,1506.8036741605711,0.0
583204.59901257406,4037374.0504322448,-22500.0,421.41741136572205,666.57898436609867,1006.3707059930044,289.2307592074348,458.94156006790655,154.20588206832355,842.92107618340901,-81.166079919566243,1029.0044462586484,-1029.0044462586484,81.166079919566243,1669.0436221959906,0.0
588204.59901257406,4037374.0504322448,-22500.0,355.24233804533384,663.50059779459775,1211.0349386057874,283.62110289703173,536.68677137521126,176.66567353108789,925.58247174843132,-198.68551168430992,1152.2148184672194,-1152.2148184672194,198.68551168430992,1828.4461107622262,0.0
593204.59901257406,4037374.0504322448,-22500.0,276.95187676455208,626.8904248520372,1415.8346546626458,265.46831396427672,613.5736208950409,198.68949704591157,1002.9283500958248,-322.53641553728846,1250.7059935771335,-1250.7059935771335,322.53641553728846,1977.9088741740222,0.0
598204.59901257406,4037374.0504322448,-22500.0,192.85937122792694,552.35398260089289,1607.0929035359193,233.42911407076431,684.73043345013082,218.93949314724972,1070.5970872509743,-443.10877996358846,1312.2679965240109,-1312.2679965240109,443.10877996358846,2109.3062350853384,0.0
603204.59901257406,4037374.0504322448,-22500.0,111.42418459398647,438.85104859271809,1768.7808277404908,187.33897333696277,744.54819802644101,235.89309610804085,1124.0508016016884,-548.6825592855223,1325.6989990512868,-1325.6989990512868,548.6825592855223,2214.0796358873813,0.0
608204.59901257406,4037374.0504322448,-22500.0,42.300117536682535,289.86908173209184,1884.2030340036829,128.58017371867251,787.25589893029041,247.99597893321052,1159.0097297510883,-626.78967586667954,1282.84218287012,-1282.84218287012,626.78967586667954,2284.0822494228746,0.0
613204.59901257406,4037374.0504322448,-22500.0,-5.192631789659572,113.99894332763907,1938.3794533762723,60.24926939336639,807.71316984199984,253.86937680473403,1172.0285600253217,-666.18854870153064,1180.6301650374269,-1180.6301650374269,666.18854870153064,2312.60865282856,0.0
618204.59901257406,4037374.0504322448,-22500.0,-23.918209518400971,-75.455154129805535,1920.7335526980214,-12.988352570815639,802.29256706831234,252.53876958125954,1161.1831737333002,-659.10358385912321,1022.5831172521217,-1022.5831172521217,659.10358385912321,2295.4505022505105,0.0
623204.59901257406,4037374.0504322448,-22500.0,-10.637766240596099,-261.99771685276215,1827.4581511154545,-85.4048800081857,769.65138631060472,243.63342097733562,1126.9926293512199,-603.1649552158085,819.20023264488441,-819.20023264488441,603.1649552158085,2231.7651685983819,0.0
628204.59901257406,4037374.0504322448,-22500.0,32.957310862859948,-428.41733389884627,1662.8543996494386,-151.01886876326958,711.17171040306539,227.50112249950433,1073.5312752460095,-502.4263104806131,586.90389306999566,-586.90389306999566,502.4263104806131,2124.5388581074549,0.0
633204.59901257406,4037374.0504322448,-22500.0,100.30063276554951,-559.66869707885701,1439.1334329063648,-204.53534399184679,630.90812596276191,205.19793364481845,1006.121936072726,-367.02994430862111,345.61978832717159,-345.61978832717159,367.02994430862111,1980.4957020691063,0.0
638204.59901257406,4037374.0504322448,-22500.0,181.17048581316328,-645.40355997000108,1174.601286815473,-242.18125527514351,535.01565674162191,178.34515773701088,928.12094191993265,-211.49642218673912,115.54066971274446,-115.54066971274446,211.49642218673912,1809.4301071205839,0.0
643204.59901257406,4037374.0504322448,-22500.0,263.74601161340036,-681.4607638950464,890.66593356883971,-262.21886791800898,430.79025074975806,148.88568948757049,843.67882918595774,-52.082693059708319,-86.076272820685617,86.076272820685617,52.082693059708319,1623.0874742327821,1.0
648204.59901257406,4037374.0504322448,-22500.0,336.89087827414767,-669.9730211396809,608.46367919671775,-265.02348419201496,325.56789915117565,118.80024992558509,757.88967442912565,96.04670371792615,-247.25896286556844,247.25896286556844,-96.04670371792615,1433.8166028917472,0.0
653204.59901257406,4037374.0504322448,-22500.0,392.02519671667812,-618.20564739474571,345.9560962824404,-252.75076559170077,225.75092777903859,89.85101095277966,675.67809525620044,221.08634456507986,-362.3273258234089,362.3273258234089,-221.08634456507986,1253.22969473175,0.0
658204.59901257406,4037374.0504322448,-22500.0,424.16438010629327,-536.60903482773267,116.09139819219628,-228.73493407724229,136.15728722831173,63.403688176571592,601.04621073555484,315.82181361740112,-431.5401843022467,431.5401843022467,-315.82181361740112,1091.0269549746265,0.0
663204.59901257406,4037374.0504322448,-22500.0,432.03410041580645,-436.69685717860239,-73.78766283561238,-196.80572101883891,59.76420511990252,40.348660371495278,536.61603929882438,377.74670342367511,-459.75349003638672,459.75349003638672,-377.74670342367511,954.03108519871671,0.0
668204.59901257406,4037374.0504322448,-22500.0,417.45732908048785,-329.2602081463815,-221.47855806542447,-160.68832618149341,-2.1991991991451427,21.112821667134501,483.43238532185057,408.31318051545662,-454.63494089244494,454.63494089244494,-408.31318051545662,845.46016164588491,0.0
673204.59901257406,4037374.0504322448,-22500.0,384.35082152665177,-223.19402792019352,-328.79364867995395,-123.5833725129572,-49.926804357683274,5.7346574388067362,441.04950992513943,411.7204649920954,-424.93318293247268,424.93318293247268,-411.7204649920954,764.63098348656433,0.0
678204.59901257406,4037374.0504322448,-22500.0,337.66054201854416,-124.97299903625235,-400.19678686349403,-87.95023579947329,-84.609675880734756,-6.030242635039067,407.90019785887819,393.62927273786823,-379.12161528989844,379.12161528989844,-393.62927273786823,707.4594716792551,0.0
683204.59901257406,4037374.0504322448,-22500.0,282.46532713660048,-38.651765857909346,-441.52508635783636,-55.463899675234536,-108.01641171888849,-14.60098722469764,381.8467094664008,360.07031444629894,-324.53559662928211,324.53559662928211,-360.07031444629894,667.87019345496822,0.0
688204.59901257406,4037374.0504322448,-22500.0,223.35432389177657,33.801282495641921,-458.9773114817454,-27.09030697683971,-122.14489509735516,-20.478488875762562,360.72397221990673,316.67075813267303,-266.96983940151023,266.96983940151023,-316.67075813267303,639.56502390813546,0.0
693204.59901257406,4037374.0504322448,-22500.0,164.08396902512024,92.018709630349292,-458.42440535276143,-3.223654488459526,-128.9711346429645,-24.175911027333854,342.70928056001236,268.20726513679404,-210.62286099200412,210.62286099200412,-268.20726513679404,617.33238376104725,0.0
563204.59901257406,4042374.0504322448,-22500.0,600.55516216124613,498.71986346495794,301.03498193704019,261.84754968594956,201.38637549447523,85.80659697262756,575.79774899775555,301.85588631166257,469.89772852694449,-469.89772852694449,-301.85588631166257,1128.7281257625179,0.0
568204.59901257406,4042374.0504322448,-22500.0,610.56828754299613,580.68641536949735,443.10222459044172,292.18687378673394,263.82922811513492,106.13761010542811,655.38231734274586,254.88613793909747,613.48097726091044,-613.48097726091044,-254.88613793909747,1294.0430450511687,0.0
573204.59901257406,4042374.0504322448,-22500.0,602.5451031258707,657.59449437404771,614.69851033770431,319.3578205195131,337.21281854991975,129.57310996613953,743.06586093579074,185.06783100729024,772.53214629340539,-772.53214629340539,-185.06783100729024,1474.4475906285211,0.0
578204.59901257406,4042374.0504322448,-22500.0,573.38203301217482,722.13530095959209,815.57887602997448,340.56949622652354,421.12815278303032,155.92743898888241,839.22197683332763,90.772303606965522,941.5839441808821,-941.5839441808821,-90.772303606965522,1666.8777761941535,0.0
583204.59901257406,4042374.0504322448,-22500.0,521.41080162494677,765.45279179341208,1042.4554850166478,352.55108556168653,514.01935952803467,184.68337962282516,941.70904956350773,-27.423516749764417,1111.9931788412891,-1111.9931788412891,27.423516749764417,1866.4408350921126,0.0
588204.59901257406,4042374.0504322448,-22500.0,447.28252861672337,777.80206316916872,1287.9980418076977,351.81142591896418,612.85563446190281,214.90620281873925,1045.1682147812792,-165.80045656310904,1271.7616061370452,-1271.7616061370452,165.80045656310904,2066.1998416453271,0.0
593204.59901257406,4042374.0504322448,-22500.0,354.78580861650823,749.74976668076499,1540.0938759863286,335.07914747773748,712.90788532072236,245.18918979616203,1144.0961330792961,-316.73936585081242,1405.9457981809346,-1405.9457981809346,316.73936585081242,2257.1649456491295,0.0
598204.59901257406,4042374.0504322448,-22500.0,251.32739873441059,673.91442675666167,1781.7213616296078,299.91506410666875,807.74910634990817,273.66240850582318,1232.6061159350029,-468.46138071050189,1497.8968818219328,-1497.8968818219328,468.46138071050189,2428.6062108637552,0.0
603204.59901257406,4042374.0504322448,-22500.0,147.74485960361724,547.05018571330208,1991.823426094031,245.42309883322588,889.60324548662982,298.09717788000381,1304.4331489203532,-605.6247655714559,1531.4441054226663,-1531.4441054226663,605.6247655714559,2568.782027338134,0.0
608204.59901257406,4042374.0504322448,-22500.0,57.176441321575581,372.0309434597151,2147.4513625118743,172.90748169983266,950.12339020788534,316.12576600231,1353.4801480734729,-711.03696175898449,1493.8649551862318,-1493.8649551862318,711.03696175898449,2666.1103033987006,0.0
613204.59901257406,4042374.0504322448,-22500.0,-7.0677943293607264,159.08384834132119,2227.141916266271,86.261329431848921,981.57615825512778,325.567990328615,1374.661051909145,-768.45930597879635,1379.1106181543519,-1379.1106181543519,768.45930597879635,2710.6978479019735,0.0
618204.59901257406,4042374.0504322448,-22500.0,-34.317276348625512,-74.408802773744839,2215.01491133135,-8.1321037632699387,978.25294305097339,324.81550752062236,1364.9578292606782,-766.04473171293489,1190.4043023166498,-1190.4043023166498,766.04473171293489,2695.9984386983315,0.0
623204.59901257406,4042374.0504322448,-22500.0,-19.312500233624363,-305.94323422280468,2104.5936979113753,-102.11014634505582,937.77450606044806,313.18497340019888,1324.77150311792,-699.50801904178979,941.21285387161424,-941.21285387161424,699.50801904178979,2620.2452117471562,0.0
628204.59901257406,4042374.0504322448,-22500.0,36.003352008850371,-511.58030603200427,1901.1334359085472,-186.98775525654705,861.89015231687597,291.13568869175617,1259.1420641086088,-573.9404805419922,653.90324358060684,-653.90324358060684,573.9404805419922,2487.2772537366086,0.0
633204.59901257406,4042374.0504322448,-22500.0,122.44062039894231,-670.41553953620007,1621.4862147225265,-255.07756752778357,756.4516931846274,260.26747407324569,1174.7845246648776,-403.44429718570188,356.10730033992763,-356.10730033992763,403.44429718570188,2306.4577545151228,0.0
638204.59901257406,4042374.0504322448,-22500.0,225.45302479919809,-768.53097542975581,1291.3284762667199,-301.05074162410403,630.50343204995158,223.08315721227763,1076.8864163708943,-208.49338452639961,75.705515264904776,-75.705515264904776,208.49338452639961,2091.6596375032464,0.0
643204.59901257406,4042374.0504322448,-22500.0,328.40119984995926,-801.21503045392126,940.44974673408649,-322.74004877984072,494.70176078269969,182.56766992717101,971.67461051964415,-11.764858299807472,-164.11837176375968,164.11837176375968,11.764858299807472,1859.4723797272507,0.0
648204.59901257406,4042374.0504322448,-22500.0,416.11097485556843,-772.89252410420852,597.54778052010454,-321.19078340972158,359.5357041909084,141.70684686630076,866.27662435400521,166.23256110460801,-348.3206824571011,348.3206824571011,-166.23256110460801,1627.077390785568,0.0
653204.59901257406,4042374.0504322448,-22500.0,477.62771439138618,-695.03911397875311,285.95532714952958,-300.028159352209,233.81588549445323,103.06800986655981,767.26987228636312,310.46462381772,-471.17956359146973,471.17956359146973,-310.46462381772,1410.1556394868051,0.0
658204.59901257406,4042374.0504322448,-22500.0,507.51213480846468,-582.98913242053402,21.233346795573823,-264.41997289235024,123.75884937585381,68.532293176970157,679.63546186596511,412.88620410075271,-535.30950449632599,535.30950449632599,-412.88620410075271,1221.0795575352433,0.0
663204.59901257406,4042374.0504322448,-22500.0,505.64612423853862,-452.7024713617804,-189.21187478179024,-219.97902523109605,32.747485440748399,39.206533839392144,606.16144858926293,472.17229286314085,-549.26534272990932,549.26534272990932,-472.17229286314085,1067.4700654396743,0.0
668204.59901257406,4042374.0504322448,-22500.0,475.99025484379985,-318.27851275140353,-344.95870797817304,-171.87423441989071,-38.363076112058579,15.485476527175887,547.30413747879834,492.21178078336118,-524.70049258281369,524.70049258281369,-492.21178078336118,951.26862636884414,1.0
673204.59901257406,4042374.0504322448,-22500.0,424.90921781688974,-190.55033520910001,-450.58690041865037,-124.28099774405415,-90.625171959825508,-2.7933095771220571,501.54422737018791,480.09382650993166,-473.86041005151583,473.86041005151583,-480.09382650993166,868.83563337126907,0.0
678204.59901257406,4042374.0504322448,-22500.0,359.58706866971511,-76.688199887422627,-513.56622648587313,-80.169025527141457,-126.292401787141,-16.162421843994533,466.14991687660108,444.19683743469591,-407.82393401732497,407.82393401732497,-444.19683743469591,812.57074823219125,0.0
683204.59901257406,4042374.0504322448,-22500.0,286.83407135373164,19.481310540918329,-542.46690880962171,-41.345604829740708,-148.18876593476102,-25.35063235056095,438.06558430513746,392.73097855930422,-335.55971611602814,335.55971611602814,-392.73097855930422,773.59614573629278,0.0
688204.59901257406,4042374.0504322448,-22500.0,212.37146543415301,96.779530241323158,-545.68446837692943,-8.6481872598092355,-159.23265272372146,-31.146227188750807,414.59818006438081,332.83604183024426,-263.64941092571797,263.64941092571797,-332.83604183024426,744.13570835966152,0.0
693204.59901257406,4042374.0504322448,-22500.0,140.53580349922584,155.87864132494789,-530.68029507658105,17.806256510878164,-162.12994974103165,-34.304409377825046,393.74449476391493,270.17039159945324,-196.44924406555538,196.44924406555538,-270.17039159945324,718.64357511254468,0.0
698204.59901257406,4042374.0504322448,-22500.0,74.281930380552083,198.57632358208392,-503.63754719088934,38.378286166892309,-159.21196421421851,-35.494264470127298,374.21427711785293,208.85437056043278,-136.47595373342963,136.47595373342963,-208.85437056043278,693.80229921120781,0.0
558204.59901257406,4047374.0504322448,-22500.0,647.48234501252546,412.63917477093304,118.66241030244036,253.83887145826466,139.8342350125354,73.747358538130968,537.09281910617563,404.70488091575339,291.18288854287971,-291.18288854287971,-404.70488091575339,1033.5359130017785,0.0
563204.59901257406,4047374.0504322448,-22500.0,687.87403304893394,510.06765696474389,234.65611233014855,294.24244562269604,197.50444985547779,94.488371561415107,618.38749804941153,387.695711007272,427.54402963644515,-427.54402963644515,-387.695711007272,1202.4337523691922,0.0
568204.59901257406,4047374.0504322448,-22500.0,713.09648403997892,612.07960842334262,384.06281211271238,335.03396261721451,268.82082077121731,119.45390323219679,710.45583249516767,347.88174882368384,588.78432320500406,-588.78432320500406,-347.88174882368384,1393.8463987609357,0.0
573204.59901257406,4047374.0504322448,-22500.0,717.74236287084295,712.66268605519372,570.65324283675204,373.61090895628314,354.91033082016691,148.90124537666685,813.30855277119736,280.48049180703202,773.0991843646068,-773.0991843646068,-280.48049180703202,1606.813231742032,0.0
578204.59901257406,4047374.0504322448,-22500.0,696.76791611038675,803.24278003359461,796.10954995086888,406.45016732704983,455.99241069250115,182.79468372230286,926.99121287408025,181.88343023683291,975.40801654903703,-975.40801654903703,-181.88343023683291,1838.5008911875968,0.0
583204.59901257406,4047374.0504322448,-22500.0,646.51335652104228,872.69793385972525,1058.6013810883032,429.15948584349979,570.85437804782134,220.65362264517898,1050.9585236435255,50.887004825966415,1186.4004559912978,-1186.4004559912978,-50.887004825966415,2083.6572550135925,0.0
588204.59901257406,4047374.0504322448,-22500.0,566.00751660661081,907.9481102729527,1351.1953090971469,436.7447297702048,696.28852579603722,261.3945771240293,1180.1150827831218,-109.85613800622673,1391.902483761713,-1391.902483761713,109.85613800622673,2334.1567207771723,0.0
593204.59901257406,4047374.0504322448,-22500.0,458.35200869512505,895.35206519175404,1660.4198716706608,424.16506584073437,826.61210581336968,303.20258827905212,1306.8493421675673,-292.44338607767941,1572.961075608451,-1572.961075608451,292.44338607767941,2578.7817499151693,0.0
598204.59901257406,4047374.0504322448,-22500.0,331.79968793322303,823.03260562684193,1965.5172880353164,387.20606525967708,953.462122210129,343.48704654337496,1423.0794087662066,-482.85838737094821,1707.1047592818591,-1707.1047592818591,482.85838737094821,2803.4406760156726,0.0
603204.59901257406,4047374.0504322448,-22500.0,199.97868735000509,683.97258550838592,2239.0501142114122,323.59950415041004,1066.0952198323098,378.98540619310137,1520.0944516619938,-661.25453647110896,1771.1184153338736,-1771.1184153338736,661.25453647110896,2992.0111409071615,0.0
608204.59901257406,4047374.0504322448,-22500.0,80.702062238950745,479.30151315453287,2449.4694577313717,234.17563537007754,1152.3917557071302,406.06720759180297,1589.1350239960955,-803.9571834188414,1745.3007566759156,-1745.3007566759156,803.9571834188414,3127.9277302747646,0.0
613204.59901257406,4047374.0504322448,-22500.0,-6.9248528822177118,220.74154338274346,2565.8322811886733,123.68672162120706,1200.6079910649926,421.24562073609212,1622.5993790685072,-887.37866026287293,1618.5335814471196,-1618.5335814471196,887.37866026287293,3196.4488000998426,0.0
618204.59901257406,4047374.0504322448,-22500.0,-46.775233303603585,-69.02744327240346,2564.0618022879157,0.88254316823392287,1201.6466833570587,421.82837585211348,1615.666262003424,-893.30514555153366,1392.7803589610069,-1392.7803589610069,893.30514555153366,3187.2829598931203,0.0
623204.59901257406,4047374.0504322448,-22500.0,-30.240640479503593,-358.99212292184808,2433.1994364404059,-122.45879349925947,1151.2980266328973,406.55406568216478,1568.2921209932085,-814.14329288280487,1085.2384044405796,-1085.2384044405796,814.14329288280487,3096.9961225392303,0.0
628204.59901257406,4047374.0504322448,-22500.0,40.608535877161927,-615.34778600144796,2179.5075127982168,-233.50834434168553,1051.7132983277227,376.0113820606698,1486.6898614955253,-656.19559874772483,726.73263809714911,-726.73263809714911,656.19559874772483,2930.5000968476329,0.0
633204.59901257406,4047374.0504322448,-22500.0,152.71502466059755,-808.57445624307366,1826.5898631191287,-320.89911085681416,911.4826948333191,332.66917133731573,1379.8157255409728,-439.37012973231163,356.18718602893409,-356.18718602893409,439.37012973231163,2701.0606310089643,0.0
638204.59901257406,4047374.0504322448,-22500.0,285.02189610296739,-919.74704225792038,1411.0373481882871,-376.99684227838964,744.13992860427243,280.46718086736018,1255.6876814694313,-193.01338093850507,12.661472095711858,-12.661472095711858,193.01338093850507,2428.677962600364,0.0
643204.59901257406,4047374.0504322448,-22500.0,413.7749640900899,-943.90420086335234,974.88187192004682,-399.18423959679438,565.51329524313962,224.07726820585461,1123.6006121316816,50.807154009632612,-272.4340318784578,272.4340318784578,-50.807154009632612,2137.1926256981328,0.0
648204.59901257406,4047374.0504322448,-22500.0,518.17251378822198,-889.51638555597117,557.39134932215507,-389.80546768492911,390.77527124414667,168.06423046274793,993.59452062732828,264.19096895452611,-480.43601121248122,480.43601121248122,-264.19096895452611,1850.8170662097448,0.0
653204.59901257406,4047374.0504322448,-22500.0,584.4292011656911,-774.71195449096911,188.7509926957153,-354.95438793416787,232.07554165352309,116.19103353791661,874.43789269536785,428.2322007892389,-606.62375307672335,606.62375307672335,-428.2322007892389,1590.7945963930551,0.0
658204.59901257406,4047374.0504322448,-22500.0,607.25284623284438,-622.00273909552936,-112.94492747006528,-302.66747362661658,97.287524871261837,71.022893403433898,772.14176780050195,534.70621469913794,-657.93936454946106,657.93936454946106,-534.70621469913794,1372.557971790558,0.0
663204.59901257406,4047374.0504322448,-22500.0,588.91934545765139,-453.37476479400226,-341.41382479942666,-241.15721268974801,-10.080851828144164,33.858256377010129,689.23548751373892,584.90650496311446,-648.76424067452672,648.76424067452672,-584.90650496311446,1203.5955234524974,0.0
668204.59901257406,4047374.0504322448,-22500.0,536.8983069050048,-286.92870320376215,-499.6851278409838,-177.52014915811296,-90.137155907842981,4.9074200056911854,624.88403060351357,586.78714004963706,-596.45040893267048,596.45040893267048,-586.78714004963706,1082.5733938174596,0.0
673204.59901257406,4047374.0504322448,-22500.0,461.13186193458455,-135.37972471075742,-596.72980917632447,-117.07027204477622,-145.46605078488815,-16.401329894543466,575.83136229347497,551.70267218434276,-517.79022996511833,517.79022996511833,-551.70267218434276,1000.7625469390039,0.0
678204.59901257406,4047374.0504322448,-22500.0,371.75588905403453,-6.069723235844708,-644.29084662562946,-63.216087910693332,-179.9879603806674,-31.097678717802665,537.80566172578824,491.66112051597742,-426.87721934578695,426.87721934578695,-491.66112051597742,945.83838854160058,0.0
683204.59901257406,4047374.0504322448,-22500.0,277.60918892346075,98.113212545373358,-654.48512230691563,-17.69392588386685,-198.04196997589034,-40.396756827105811,506.78180317087288,417.48929953177924,-334.25151499405399,334.25151499405399,-417.48929953177924,906.0881588854752,0.0
688204.59901257406,4047374.0504322448,-22500.0,185.52218542293849,177.47334590694595,-638.30894583416841,19.035198184879746,-203.76906361907962,-45.506239626936626,479.68333270436432,337.90426593805557,-246.95186165229461,246.95186165229461,-337.90426593805557,872.86100436703327,0.0
693204.59901257406,4047374.0504322448,-22500.0,100.19358719426754,234.28785780307456,-604.91596881116095,47.366844058144885,-200.77198138576176,-47.511617171460735,454.52173044093593,259.2751718569383,-169.06302526160951,169.06302526160951,-259.2751718569383,840.93958315417956,0.0
698204.59901257406,4047374.0504322448,-22500.0,24.421635807253288,271.82259597586693,-561.43880993005268,68.19261075908436,-191.98348491647658,-47.323479016503263,430.21123482316193,185.81119780607048,-102.4383165425466,102.4383165425466,-185.81119780607048,807.79542051690964,0.0
703204.59901257406,4047374.0504322448,-22500.0,-40.505657185336915,293.63531847740103,-513.13180376558387,82.628275535627523,-179.66844531946597,-45.666769395939092,406.28852349003438,119.95224343495946,-47.39882063925532,47.39882063925532,-119.95224343495946,772.62700068718118,0.0
553204.59901257406,4052374.0504322448,-22500.0,648.70474377753499,291.12772249640221,-46.94045484398525,228.02138746165457,74.358500545359703,58.062931355403855,491.06481593846479,471.00744781524895,101.00967210330546,-101.00967210330546,-471.00744781524895,921.26962593890505,0.0
558204.59901257406,4052374.0504322448,-22500.0,718.70428043566346,391.43122743071717,33.958072196410576,274.93302357579893,122.37285616500063,77.648200167822921,569.40899969677685,487.42424087742438,215.16273780177377,-215.16273780177377,-487.42424087742438,1082.6886048507049,0.0
563204.59901257406,4052374.0504322448,-22500.0,780.12010551720721,505.21233001083573,147.07641513471725,326.16808445984151,185.08373924002743,102.23331927924129,660.93378550078603,485.59109706945048,359.55621406407931,-359.55621406407931,-485.59109706945048,1272.3152835701776,0.0
568204.59901257406,4052374.0504322448,-22500.0,826.52245331543213,629.24625492666166,299.38198598779036,379.96254923920981,265.10896582139361,132.58034924469936,766.56588310411291,458.67459154435636,536.57068271677713,-536.57068271677713,-458.67459154435636,1491.791944885673,0.0
573204.59901257406,4052374.0504322448,-22500.0,850.51673539749765,757.48031512957823,497.33362316770831,433.40342829268354,364.69794615736026,169.29713527147041,886.74948028641552,399.52457272016301,746.20072302162794,-746.20072302162794,-399.52457272016301,1741.2816687899472,0.0
578204.59901257406,4052374.0504322448,-22500.0,844.46833188893436,880.33803831942009,745.53789079195462,482.2056528417919,485.17253403961632,212.65809060802641,1021.5174275368972,301.71618005598401,984.62767944053053,-984.62767944053053,-301.71618005598401,2018.7113143530032,0.0
583204.59901257406,4052374.0504322448,-22500.0,801.76034566285932,984.33770800800926,1044.8373686724249,520.63195328933261,626.16522718721205,262.36718816724687,1170.7320972456935,161.15136037848322,1242.6380412260123,-1242.6380412260123,-161.15136037848322,2318.9069058968853,0.0
588204.59901257406,4052374.0504322448,-22500.0,718.61074207514855,1052.3983314060554,1389.9237806851213,541.69382001433939,784.70548378374588,317.28218346816499,1331.0621782324833,-21.821351494959913,1504.2329376454545,-1504.2329376454545,21.821351494959913,2632.7465351844075,0.0
593204.59901257406,4052374.0504322448,-22500.0,596.27221284769632,1065.277825891744,1766.8354669106604,537.78946307101057,954.30671618970359,375.15009960987442,1493.3633985434576,-240.05525220579261,1746.014155732857,-1746.014155732857,240.05525220579261,2946.5501396747086,0.0
598204.59901257406,4052374.0504322448,-22500.0,443.11407212626006,1004.5063516164694,2151.0651325542094,501.89118206930362,1124.3356513129331,432.44003204413968,1646.4609655792492,-477.66444430327704,1938.1250028097606,-1938.1250028097606,477.66444430327704,3242.0081393630135,0.0
603204.59901257406,4052374.0504322448,-22500.0,275.73950442956209,856.84635444868775,2507.3790219686516,429.2665249684614,1280.0760007582205,484.39588684304653,1778.1560931969157,-709.49108378314497,2047.5266661103578,-2047.5266661103578,709.49108378314497,3497.0353973767997,0.0
608204.59901257406,4052374.0504322448,-22500.0,118.07166188082076,619.61097357301662,2792.5517952883279,319.45779039372542,1403.9089516125068,525.42695811682347,1875.7659167764762,-903.12021504217284,2043.9257519064972,-2043.9257519064972,903.12021504217284,3687.8330795794759,0.0
613204.59901257406,4052374.0504322448,-22500.0,-2.3938263937835287,305.29317839450545,2961.769581756464,177.942823561447,1477.8521281904916,549.89775745160489,1927.7894246924516,-1024.1652474523075,1907.6706174903466,-1907.6706174903466,1024.1652474523075,3792.2225222716961,0.0
618204.59901257406,4052374.0504322448,-22500.0,-61.034847400024155,-56.712969983787204,2978.1753664229277,16.68215681469102,1487.2205348908083,553.23591776572334,1926.3975798476852,-1044.372314584733,1637.5290716717395,-1637.5290716717395,1044.372314584733,3793.8355311428977,0.0
623204.59901257406,4052374.0504322448,-22500.0,-43.618710996889547,-423.26197795460655,2823.2085484063487,-147.12469363888295,1424.5288465267431,533.0961978334816,1870.4591760044841,-950.39683910414908,1255.1987560792907,-1255.1987560792907,950.39683910414908,3686.2166290014925,0.0
628204.59901257406,4052374.0504322448,-22500.0,48.019533201446386,-745.84096852080472,2503.9771299339809,-294.17733398828943,1292.2716793133529,490.18760723835544,1767.6496883566642,-749.81269805937848,803.67704646155141,-803.67704646155141,749.81269805937848,3475.5790487511304,0.0
633204.59901257406,4052374.0504322448,-22500.0,195.02416868961456,-982.01280911813546,2054.0504558725415,-407.32655603667962,1103.2804191744049,428.39169708118635,1630.470113488386,-471.17947678436269,338.73011945993653,-338.73011945993653,471.17947678436269,3181.0498363693109,0.0
638204.59901257406,4052374.0504322448,-22500.0,366.34194944698379,-1105.7638055442685,1526.506962893262,-475.47304422721658,878.22528040197619,354.04663150924546,1471.389085138831,-157.32811691903063,-84.048605137513903,84.048605137513903,157.32811691903063,2832.0667698158641,0.0
643204.59901257406,4052374.0504322448,-22500.0,527.56164345405477,-1112.6928745504431,981.50841458801074,-495.66029910610729,641.03481561761612,274.60717915090197,1304.342808364629,145.75200970234494,-421.78823794715049,421.78823794715049,-145.75200970234494,2463.5243238916387,0.0
648204.59901257406,4052374.0504322448,-22500.0,650.06460967724627,-1018.394087000269,473.13214498794923,-472.71924005043036,413.90275144174331,197.15015165078188,1143.5733077189348,399.96865828161737,-651.92635518120733,651.92635518120733,-399.96865828161737,2109.9805174466501,0.0
653204.59901257406,4052374.0504322448,-22500.0,716.99493380299486,-851.5433976852687,40.007635493336444,-416.91595647166469,213.54492885591537,127.20698372832793,1000.6626641121254,582.13813147603992,-772.91813323275642,772.91813323275642,-582.13813147603992,1800.1450513377101,0.0
658204.59901257406,4052374.0504322448,-22500.0,724.59027253777958,-645.1339291777623,-298.0781991435133,-340.77446771727921,49.585819515160338,68.200957946823195,882.42575491859748,685.4193381865274,-799.36519623088509,799.36519623088509,-685.4193381865274,1552.3467434382826,0.0
663204.59901257406,4052374.0504322448,-22500.0,679.66673546693903,-429.0978019155217,-538.27370091641842,-256.24232986920941,-75.053761818403956,21.480280075694466,790.20117752168414,716.2352782116094,-754.65052577752056,754.65052577752056,-716.2352782116094,1371.5723769102474,0.0
668204.59901257406,4052374.0504322448,-22500.0,595.26493362872009,-226.01468579547844,-689.7411406316312,-172.8828862434809,-162.51837019388159,-13.248541695472435,720.71290844998157,689.06663579771612,-664.04580721242655,664.04580721242655,-689.06663579771612,1249.6942834473568,0.0
673204.59901257406,4052374.0504322448,-22500.0,486.36706617116704,-49.921342796536337,-768.12692897983436,-97.189197545703863,-217.99627745290053,-37.335130736922693,668.15135702378382,621.3371626924793,-549.96272384923327,549.96272384923327,-621.3371626924793,1170.2216398427358,0.0
678204.59901257406,4052374.0504322448,-22500.0,366.78773864578443,92.735985316503317,-790.996307697416,-32.73809638869696,-247.93377032236953,-52.63829325788091,626.45434076302661,529.65825445255416,-429.64559283725185,429.64559283725185,-529.65825445255416,1115.4398356829122,0.0
683204.59901257406,4052374.0504322448,-22500.0,247.50445749731105,201.15021322657179,-774.82520478238337,19.205954193975799,-258.76570569294068,-61.115047180290325,590.79409008471009,427.73831871394771,-314.76859580008011,314.76859580008011,-427.73831871394771,1071.5703267893662,0.0
688204.59901257406,4052374.0504322448,-22500.0,136.17043532383681,278.07231851665597,-733.45717607246229,58.961974095214373,-256.18261201536023,-64.565278799658202,558.02275670829897,325.66765888880917,-212.1506984146618,212.1506984146618,-325.66765888880917,1030.1807938768295,0.0
693204.59901257406,4052374.0504322448,-22500.0,37.375202333018244,328.07441795917003,-677.63050230178624,87.77600140281811,-244.82121177007022,-64.507178534336745,526.44469940961631,230.08812395338234,-124.91802877647964,124.91802877647964,-230.08812395338234,987.21391870851585,0.0
698204.59901257406,4052374.0504322448,-22500.0,-46.742547453162231,356.31294306694809,-615.14424536906256,107.32000708662787,-228.23079213347503,-62.143312676721941,495.36378360589924,144.79832053369336,-53.683114523356892,53.683114523356892,-144.79832053369336,941.41448259988374,0.0
703204.59901257406,4052374.0504322448,-22500.0,-115.80256103877339,367.762622187418,-551.32545187810194,119.35540618037267,-208.98880212694647,-58.379781931535064,464.66585414792183,71.481841570258155,2.4695051257809553,-2.4695051257809553,-71.481841570258155,893.02891039068106,0.0
553204.59901257406,4057374.0504322448,-22500.0,691.40218092011241,238.89670968097192,-136.82453575127798,234.83491109593365,46.408862074702547,57.076481015452792,515.666040854632,536.89444066626345,1.9400479100806933,-1.9400479100806933,-536.89444066626345,951.883219502364,0.0
558204.59901257406,4057374.0504322448,-22500.0,784.69806468215086,348.37265207012786,-67.551897156896544,291.1828722075046,95.132178255927172,79.266931786296311,600.97765835983478,573.6777751910297,113.11362152727003,-113.11362152727003,-573.6777751910297,1126.2161106884107,0.0
563204.59901257406,4057374.0504322448,-22500.0,872.5797748292764,477.50664096598155,36.610493031761685,354.84990541522768,161.34805236876244,107.91433917853915,702.60579273734572,593.16003939266716,260.44609362338582,-260.44609362338582,-593.16003939266716,1335.7446530533687,0.0
568204.59901257406,4057374.0504322448,-22500.0,947.33539429189216,624.28229066298604,185.22621860138531,424.3297176497685,249.01911370638771,144.28198576887283,822.35395159666768,586.59239085925105,448.94788847474871,-448.94788847474871,-586.59239085925105,1584.0058779969813,0.0
573204.59901257406,4057374.0504322448,-22500.0,999.35777677425529,783.33821913000315,388.1912954644215,496.62643205220371,362.02061987138296,189.54410071928081,961.51914886754332,543.98077964866991,681.45373183724689,-681.45373183724689,-543.98077964866991,1873.0558470626008,0.0
578204.59901257406,4057374.0504322448,-22500.0,1017.7686972317478,944.73694333016306,654.24581742929831,566.8025615650663,503.45360221758347,244.54504564570826,1120.7172429665043,455.14475003476571,956.70338449809913,-956.70338449809913,-455.14475003476571,2202.4338599336406,0.0
583204.59901257406,4057374.0504322448,-22500.0,991.8142101207053,1092.9230840801313,988.57693306186684,627.64358245522465,674.60035235146631,309.44699613849468,1300.0423693112891,311.63603577441393,1266.9382818686345,-1266.9382818686345,-311.63603577441393,2567.8659217468121,0.0
588204.59901257406,4057374.0504322448,-22500.0,913.22205478412582,1206.3883950965271,1389.4562899186374,669.64895639497104,873.52473641363838,383.27400310660767,1497.7781793435706,109.63597037332431,1595.3641940190596,-1595.3641940190596,-109.63597037332431,2959.8256432593298,0.0
593204.59901257406,4057374.0504322448,-22500.0,779.47297001423726,1258.784199006717,1844.2051179153586,681.63319210495263,1093.4671467624923,463.40897700585509,1705.0411439568047,-146.36098609369299,1914.2432751002489,-1914.2432751002489,146.36098609369299,3362.2269549350449,0.0
598204.59901257406,4057374.0504322448,-22500.0,597.46382439955119,1222.297460263964,2325.3798407643258,652.22897617493618,1321.4212512225522,545.17490614209657,1907.0280207423693,-439.82775344040294,2184.8527533198121,-2184.8527533198121,439.82775344040294,3751.7305707706987,0.0
603204.59901257406,4057374.0504322448,-22500.0,386.33868303769628,1073.7672860256835,2788.825472687296,572.42577349075748,1537.5546554751065,621.71027013691491,2086.6121450498763,-739.94409714798689,2360.8139188208215,-2360.8139188208215,739.94409714798689,4098.2960773467285,0.0
608204.59901257406,4057374.0504322448,-22500.0,177.63534039336784,803.04761845382666,3175.840263895489,438.89252923173029,1716.3340177819264,684.40002631199752,2225.3234974295265,-1002.877690764795,2395.9568549194437,-2395.9568549194437,1002.877690764795,4367.6770261517759,0.0
613204.59901257406,4057374.0504322448,-22500.0,10.867042891588458,421.45601659167505,3421.4022184068531,257.20851895272045,1830.0469084034703,724.05396243577877,2305.5660132803323,-1178.4798400934615,2256.3971849824411,-2256.3971849824411,1178.4798400934615,4526.2120961256187,0.0
618204.59901257406,4057374.0504322448,-22500.0,-76.036509825038351,-33.517089902907507,3468.5700646701584,43.546433139302508,1854.6768365893936,732.79143188826572,2314.4347703823473,-1222.5566408449054,1933.9287945087226,-1933.9287945087226,1222.5566408449054,4547.5267050811508,0.0
623204.59901257406,4057374.0504322448,-22500.0,-59.264370024909049,-501.36893522540726,3285.7562267529443,-176.70385208207338,1776.7953888589952,706.20479681338122,2248.4792434184142,-1111.6813207217206,1455.231926211939,-1455.231926211939,1111.6813207217206,4419.659087784551,0.0
628204.59901257406,4057374.0504322448,-22500.0,60.474218021502516,-911.27135526387872,2880.1880000715041,-373.93311888207501,1598.9070946076847,645.02310572742613,2117.1582731110211,-854.39780744596351,880.99401404215791,-880.99401404215791,854.39780744596351,4150.2359851433694,0.0
633204.59901257406,4057374.0504322448,-22500.0,255.47503800730874,-1201.0095306476778,2300.4129515363552,-521.69155942221141,1340.5484278461774,555.47343734624928,1938.5856818663433,-492.39592963342096,292.60624158865818,-292.60624158865818,492.39592963342096,3767.3943513823469,0.0
638204.59901257406,4057374.0504322448,-22500.0,479.00320220722995,-1334.4438534806839,1624.9268748017678,-603.5921798572432,1034.0029838268447,447.99427783711019,1732.3977305188187,-89.431040592046827,-229.44503090272696,229.44503090272696,89.431040592046827,3315.4659916851215,0.0
643204.59901257406,4057374.0504322448,-22500.0,680.45870277463541,-1309.6403346236987,941.13930209049101,-616.79848682375484,716.1363705693766,334.72926440594375,1519.7250299587031,287.58530614308961,-626.33359394656463,626.33359394656463,-287.58530614308961,2846.5692717076754,0.0
648204.59901257406,4057374.0504322448,-22500.0,820.49682822651107,-1154.7543062765767,323.80201269301585,-570.88552854652664,419.73284095248465,226.79342317596311,1320.8684399694473,586.67672621061502,-872.17155582273062,872.17155582273062,-586.67672621061502,2410.5871539357049,0.0
653204.59901257406,4057374.0504322448,-22500.0,879.66396843449775,-915.21747778856661,-178.74761689953237,-483.21419019447654,167.57115912490869,132.29999880812852,1150.7839274666283,780.79383336814169,-972.91006866330883,972.91006866330883,-780.79383336814169,2045.816839071256,0.0
658204.59901257406,4057374.0504322448,-22500.0,858.60383818117737,-639.10427055615799,-547.49315618470087,-373.2883714451882,-29.383431432832097,55.621566750724909,1016.173843899468,867.79203697566777,-956.32931408253648,956.32931408253648,-867.79203697566777,1771.6669879622359,0.0
663204.59901257406,4057374.0504322448,-22500.0,772.26657051675375,-366.32391399544707,-787.21048572068457,-258.27618149657036,-170.35167688111181,-2.2535708959138501,915.36393401406667,863.44744591720735,-859.37291611804824,859.37291611804824,-863.44744591720735,1585.4848524621266,0.0
668204.59901257406,4057374.0504322448,-22500.0,642.2101014288138,-123.72615434390957,-917.3036595420291,-150.66062890702452,-261.38993935312345,-42.752765536001945,840.9660085563288,792.3075410937148,-717.8500947235849,717.8500947235849,-792.3075410937148,1466.9842341660255,0.0
673204.59901257406,4057374.0504322448,-22500.0,490.15342031172463,74.841099699297558,-963.09783411407295,-57.835377248736819,-311.9212849689593,-68.632615769204094,783.85509353200905,680.00910389108981,-560.54811395933939,560.54811395933939,-680.00910389108981,1389.5494096886716,0.0
678204.59901257406,4057374.0504322448,-22500.0,334.087615687702,225.72154539678212,-949.6510655180407,17.091377105586616,-332.06603339586138,-83.08797292360228,736.28839854671833,548.54751118033687,-407.36954707014866,407.36954707014866,-548.54751118033687,1330.7917112346165,0.0
683204.59901257406,4057374.0504322448,-22500.0,186.80074574540416,331.87292079157675,-898.37872805924258,74.031802786112962,-331.01663610167634,-89.167232877114998,693.13117827464202,414.33375198732358,-270.05207248306738,270.05207248306738,-414.33375198732358,1276.6656179388178,0.0
688204.59901257406,4057374.0504322448,-22500.0,56.030194243161681,399.71463781124424,-825.85511314410974,114.69231978976002,-316.29887692046373,-89.470319054689739,651.65149407804984,288.15135333381858,-154.03518213317994,154.03518213317994,-288.15135333381858,1220.446896912041,0.0
693204.59901257406,4057374.0504322448,-22500.0,-54.577666122466027,436.8549774682395,-743.94199268948898,141.6177277825046,-293.62664626045671,-86.050015951448771,610.77631153122582,176.08627422545499,-60.501043317482299,60.501043317482299,-176.08627422545499,1160.1125578870708,0.0
698204.59901257406,4057374.0504322448,-22500.0,-144.28972961775079,450.69667652220767,-660.54324744780183,157.55140885271786,-267.0788732616893,-80.433830340804789,570.37225119343236,80.759304896152486,11.898554571633873,-11.898554571633873,-80.759304896152486,1096.0858993652896,0.0
703204.59901257406,4057374.0504322448,-22500.0,-214.21522380282957,447.72471001122898,-580.53281785641821,165.0646014328791,-239.40579961150524,-73.702553449130022,530.73724233057862,2.4843676442240366,65.779484201082738,-65.779484201082738,-2.4843676442240366,1029.7870071264858,0.0
708204.59901257406,4057374.0504322448,-22500.0,-266.4700831721492,433.24721608037828,-506.61830473717549,166.3791655555134,-212.35150470745921,-66.585141967169861,492.2991225714087,-59.804043039349466,104.19832310133293,-104.19832310133293,59.804043039349466,962.84068607479162,0.0
548204.59901257406,4062374.0504322448,-22500.0,603.83703688667038,72.837497113109322,-261.8329325136927,177.88341640599756,-22.452915990699324,34.775961569167613,466.14288493855963,527.58378196080855,-186.61551831878003,186.61551831878003,-527.58378196080855,832.43723635447122,0.0
553204.59901257406,4062374.0504322448,-22500.0,717.8934480600019,163.15055357369869,-235.99989479340798,232.93167512958715,9.2051018400943061,52.847138808597421,540.79095141926359,595.82240626967564,-118.49026055262885,118.49026055262885,-595.82240626967564,980.1509388021426,0.0
558204.59901257406,4062374.0504322448,-22500.0,837.72268053006087,277.91843940498126,-184.36728628493202,298.91579782798073,56.158958932751439,77.312234655210688,631.99455752544668,657.69136798338855,-17.294158980455279,17.294158980455279,-657.69136798338855,1164.007510513575,0.0
563204.59901257406,4062374.0504322448,-22500.0,957.52155005924953,419.29933619224443,-96.759222788995771,376.13880151711231,123.27445036771856,109.92462198017196,742.84651728398183,705.31312856234604,125.34930850764516,-125.34930850764516,-705.31312856234604,1390.6078240977658,0.0
568204.59901257406,4062374.0504322448,-22500.0,1068.6493656009081,587.34704514355133,39.173921407511543,463.76376058743483,216.21016050891888,152.65822960722127,876.3942715935799,728.15193681206028,317.81753224535464,-317.81753224535464,-728.15193681206028,1666.2141823766058,0.0
573204.59901257406,4062374.0504322448,-22500.0,1159.3463492902176,778.48167303073285,237.40836978816478,559.14948492363567,341.0644268373681,207.55437702061462,1035.3038933904568,713.11130258943763,567.00674307743338,-567.00674307743338,-713.11130258943763,1995.8468988556397,0.0
578204.59901257406,4062374.0504322448,-22500.0,1215.0196059754837,983.5804870178921,512.11548419103292,657.06627722348355,503.61685527056528,276.42435209500303,1221.4916584435882,645.37782337438534,875.95839570216208,-875.95839570216208,-645.37782337438534,2381.9493265908304,0.0
583204.59901257406,4062374.0504322448,-22500.0,1219.5268070052286,1185.9563971306038,874.92443359169829,748.92609421682778,708.00027014752845,360.35730801981771,1435.9711913803355,510.44943013818602,1240.5010002775136,-1240.5010002775136,-510.44943013818602,2822.5507850706126,0.0
588204.59901257406,4062374.0504322448,-22500.0,1157.933927190373,1359.8542446125043,1330.5299590186007,822.31355315751296,954.69200520402239,459.00826395515355,1678.3716229913812,297.76710513017133,1645.1371203058004,-1645.1371203058004,-297.76710513017133,3308.9935300997372,0.0
593204.59901257406,4062374.0504322448,-22500.0,1021.021204263787,1470.5591393145412,1870.6648115816179,861.278660665281,1237.8894622465232,569.70616719241684,1941.6498359605994,6.0592701382090581,2059.0152785165719,-2059.0152785165719,-6.0592701382090581,3823.5039899438516,0.0
598204.59901257406,4062374.0504322448,-22500.0,811.20774625340744,1477.6224300009608,2467.296673427536,847.98852608499965,1542.7045177349996,686.55046576049824,2208.0300834855434,-350.25261250045151,2433.7243337071995,-2433.7243337071995,350.25261250045151,4337.255233366579,0.0
603204.59901257406,4062374.0504322448,-22500.0,548.40281973454933,1342.6440867439619,3067.2861498519915,766.25264532683445,1843.1736547462108,799.84432528526895,2453.7994280659354,-735.5542545586967,2705.5559419441274,-2705.5559419441274,735.5542545586967,4809.9917244932976,0.0
608204.59901257406,4062374.0504322448,-22500.0,272.79691748905287,1041.8636140376072,3592.2736199889741,606.90014090490877,2102.6503650068107,896.37480272272796,2652.018110078413,-1091.9360247275429,2805.0357668751349,-2805.0357668751349,1091.9360247275429,5192.5582405412097,0.0
613204.59901257406,4062374.0504322448,-22500.0,40.715672179654504,581.064958440856,3948.1624460331568,373.87842647027458,2278.2938204623297,961.06197849311627,2775.5239727198586,-1346.6207314237136,2674.813389528033,-2674.813389528033,1346.6207314237136,5433.5169362765619,0.0
618204.59901257406,4062374.0504322448,-22500.0,-89.030588871718138,6.505649014621433,4046.3117448628827,88.4982755555165,2330.3347690183095,980.1269876423197,2802.7616839123357,-1430.030248905965,2292.4945977018911,-2292.4945977018911,1430.030248905965,5489.7927797710499,0.0
623204.59901257406,4062374.0504322448,-22500.0,-76.08915373406073,-596.53296511533938,3832.5161999987267,-211.44109837194779,2234.363391872912,945.16023200978827,2725.5630886741155,-1300.8754346051023,1689.1501066327764,-1689.1501066327764,1300.8754346051023,5339.2229165836134,0.0
628204.59901257406,4062374.0504322448,-22500.0,82.008653062533028,-1122.7554934503926,3312.1052679623044,-479.56573944034881,1991.8714723019975,856.56064095123224,2555.3954893592368,-967.43601843673571,951.38836155110164,-951.38836155110164,967.43601843673571,4990.5833973045392,0.0
633204.59901257406,4062374.0504322448,-22500.0,343.79980389490674,-1478.9338177701995,2556.5413220825103,-674.06524501553713,1633.2124556019457,724.52919131068745,2319.3309326493713,-491.7124838445265,200.44259125932973,-200.44259125932973,491.7124838445265,4486.1676875781995,0.0
638204.59901257406,4062374.0504322448,-22500.0,637.36019917314354,-1614.3718880297813,1684.4131334877925,-770.36156744129778,1210.0835737399759,566.70786747884722,2048.9074041246713,29.311554968369592,-444.99161330887779,444.99161330887779,-29.311554968369592,3894.5032685963606,0.0
643204.59901257406,4062374.0504322448,-22500.0,887.1695541400486,-1533.840147548437,824.6714032510481,-767.05454016391559,780.44279906924066,403.31991609482515,1776.6767231995073,496.88285909103888,-904.07263577657386,904.07263577657386,-496.88285909103888,3295.1729042228512,0.0
648204.59901257406,4062374.0504322448,-22500.0,1039.6113769281769,-1287.7599058145945,80.555367311994644,-682.80810442290306,393.07954327435579,252.02656228880261,1531.5884409123732,840.65917329471006,-1150.3682316176273,1150.3682316176273,-840.65917329471006,2760.7847344114102,0.0
653204.59901257406,4062374.0504322448,-22500.0,1074.9381312502578,-948.09837930296339,-490.12113012656192,-547.08534278885259,78.316413084450417,124.5876463180379,1331.9657387214384,1032.272640335241,-1205.6312535034278,1205.6312535034278,-1032.272640335241,2340.5556641328335,0.0
658204.59901257406,4062374.0504322448,-22500.0,1003.8383930996404,-584.02012956076203,-874.79322694755342,-390.09190450362706,-153.20271943020475,26.095692896362149,1181.9711877827494,1080.8201182053922,-1119.7179449692981,1119.7179449692981,-1080.8201182053922,2049.0451521541636,0.0
663204.59901257406,4062374.0504322448,-22500.0,855.14920786317248,-246.83847626108692,-1093.0755140582216,-235.92468105389003,-305.96509579078946,-43.804395131785064,1073.7296780196821,1018.2143150950241,-949.25219764125711,949.25219764125711,-1018.2143150950241,1866.2653882111329,0.0
668204.59901257406,4062374.0504322448,-22500.0,662.80936324866673,34.12422875528096,-1180.5158664266846,-99.99483905840566,-393.05896248845028,-88.858036913198021,993.75073992993407,883.76487340779988,-743.08671383195986,743.08671383195986,-883.76487340779988,1753.3569620125302,0.0
673204.59901257406,4062374.0504322448,-22500.0,456.81677168659098,248.32485446519883,-1175.6431958676526,10.359800966447546,-430.47795878827782,-114.25652436603019,929.36272944922564,713.40074367476427,-536.12765352844099,536.12765352844099,-713.40074367476427,1673.3342332772911,0.0
678204.59901257406,4062374.0504322448,-22500.0,259.11797646935889,397.91069067267716,-1112.3736702672404,93.747325642362327,-433.40511022994775,-125.26131575060322,871.90198670980647,534.56093586102554,-349.26245919523944,349.26245919523944,-534.56093586102554,1602.0137933451101,0.0
683204.59901257406,4062374.0504322448,-22500.0,83.154305304039497,491.84215271903139,-1016.999193673321,152.38157348857442,-414.40658021811981,-126.45014136448241,816.80351804263921,365.30835087879422,-192.28424696395331,192.28424696395331,-365.30835087879422,1527.8284139740372,0.0
688204.59901257406,4062374.0504322448,-22500.0,-64.673251230149901,541.55519933803134,-908.05485560055433,190.19073167774468,-382.95773664787902,-121.43681485274297,762.3615210147417,215.70685501432408,-67.515162185234402,67.515162185234402,-215.70685501432408,1447.4027831262586,0.0
693204.59901257406,4062374.0504322448,-22500.0,-182.94827878098172,558.31917398751943,-797.55341587947771,211.55025895157019,-345.69952568980727,-112.87742811088262,708.44192481818197,89.960975077500109,27.059570178967455,-27.059570178967455,-89.960975077500109,1361.4922790616251,0.0
698204.59901257406,4062374.0504322448,-22500.0,-273.33244483021872,551.92539691840273,-692.60269317794996,220.56307451556893,-306.98770643574812,-102.61203454639545,655.58417281123013,-11.530295070940468,95.528440302019504,-95.528440302019504,11.530295070940468,1272.4167890171454,0.0
703204.59901257406,4062374.0504322448,-22500.0,-339.09744309122664,530.24127384034375,-596.90503884475493,220.7296856349476,-269.48251952163599,-91.846441782627863,604.4921696162902,-90.550843306305609,142.61817511630636,-142.61817511630636,90.550843306305609,1182.7238448038195,0.0
708204.59901257406,4062374.0504322448,-22500.0,-384.12566054749072,499.24489451232461,-511.95134118791384,214.85821177887004,-234.66161273988885,-81.323948360786503,555.79483158766254,-149.93112334570463,172.88902980246382,-172.88902980246382,149.93112334570463,1094.6053542583752,0.0
713204.59901257406,4062374.0504322448,-22500.0,-412.29902384685374,463.27959610653045,-437.88908648595174,205.10234083956294,-203.21983367462553,-71.466938073852191,509.96969061581882,-192.82516580146535,190.35145391249131,-190.35145391249131,192.82516580146535,1009.7143368192388,0.0
543204.59901257406,4067374.0504322448,-22500.0,464.26009928564565,-84.946809002058032,-334.51603900037929,110.54362823941331,-77.948336267220611,12.891258746620325,428.91087668521448,461.64686872439205,-330.76482884953708,330.76482884953708,-461.64686872439205,746.83993037909818,0.0
548204.59901257406,4067374.0504322448,-22500.0,583.77353478354246,-23.929703227920808,-344.73304965187612,158.1966186005611,-63.639081560464767,25.73024421962765,491.23485314840718,548.36923282039197,-307.14714011242881,307.14714011242881,-548.36923282039197,862.74916540092306,0.0
553204.59901257406,4067374.0504322448,-22500.0,718.8394107715751,60.982887814171193,-340.28015088502991,218.45673914558242,-37.967730369084485,44.160655252218909,568.21732035463867,639.72580564310408,-258.73827376162001,258.73827376162001,-639.72580564310408,1010.4511988854838,0.0
558204.59901257406,4067374.0504322448,-22500.0,867.05180434654119,174.91574752813071,-312.67173222713961,293.28810655342562,3.8328864920040728,70.131790566670873,663.65886856788688,730.67888798149079,-176.29356929918009,176.29356929918009,-730.67888798149079,1198.5692319093314,0.0
563204.59901257406,4067374.0504322448,-22500.0,1023.2975114195086,322.57972583786773,-250.3847726504971,384.18920168342191,67.92932173367997,106.08542185023569,781.90927666570235,813.20413782526975,-48.754627280670832,48.754627280670832,-813.20413782526975,1436.7073583982005,0.0
568204.59901257406,4067374.0504322448,-22500.0,1178.7888076831059,507.08472152161096,-138.44818610894285,491.57955116900069,161.97070180561457,154.95112852828507,927.65966483511056,875.53282699631836,136.19068119630975,-136.19068119630975,-875.53282699631836,1734.8716548970497,0.0
573204.59901257406,4067374.0504322448,-22500.0,1320.1882521220466,728.06948374823526,41.497472661321801,613.8928596243544,294.90034221453567,220.02652618997126,1105.5734767472434,901.67435583247061,390.72400526122124,-390.72400526122124,-901.67435583247061,2102.4715841416491,0.0
578204.59901257406,4067374.0504322448,-22500.0,1429.2111661687356,979.0511889482367,310.17119801466208,746.36100006321021,476.26206913307954,304.65645537046595,1319.772963359944,871.67902953409759,724.26815351530365,-724.26815351530365,-871.67902953409759,2546.7070256743978,0.0
583204.59901257406,4067374.0504322448,-22500.0,1483.3469180529796,1244.1277158405394,687.94871761413424,879.5906589323962,714.69100101407787,411.6047427302849,1573.3744012897341,763.34077487345519,1139.2209949721353,-1139.2209949721353,-763.34077487345519,3070.1429889572532,0.0
588204.59901257406,4067374.0504322448,-22500.0,1458.5655384643551,1494.638405145942,1189.6712583459471,998.25158216464899,1015.2586420687556,542.01597145589733,1868.0778191135246,556.20523544460673,1624.9373607879297,-1624.9373607879297,-556.20523544460673,3667.3577938115577,0.0
593204.59901257406,4067374.0504322448,-22500.0,1334.8986855190262,1687.1851123135762,1816.3805496362736,1080.5404501685875,1375.4946251702511,693.93793002549126,2199.8986145837016,238.62528026046516,2150.6048581907935,-2150.6048581907935,-238.62528026046516,4320.8455942724631,0.0
598204.59901257406,4067374.0504322448,-22500.0,1105.2089840257015,1765.4104853107576,2544.3435879798562,1099.4744804227219,1780.3829168352102,860.56157957582639,2550.0959143593109,-182.21615548185241,2659.0794963735298,-2659.0794963735298,182.21615548185241,4996.8876555539655,0.0
603204.59901257406,4067374.0504322448,-22500.0,785.83599597682985,1668.6315974649797,3313.8470611198154,1027.2777386830103,2197.6011174733399,1028.6812491978997,2887.1141192914702,-669.36294653151435,3065.7582416958426,-3065.7582416958426,669.36294653151435,5642.9729018624485,0.0
608204.59901257406,4067374.0504322448,-22500.0,424.93301269075874,1349.5986779823106,4023.4584483480344,843.62662671789644,2575.6225455888361,1178.309187514805,3171.9435328417844,-1149.4068882070655,3268.1765891620666,-3268.1765891620666,1149.4068882070655,6189.2470920893093,0.0
613204.59901257406,4067374.0504322448,-22500.0,101.25803568163103,799.67781258949947,4538.3312761078487,546.73711487646881,2848.3687694864075,1284.6582065543139,3362.4394557244627,-1518.1640373463229,3170.9623336753934,-3170.9623336753934,1518.1640373463229,6556.8326077141537,0.0
618204.59901257406,4067374.0504322448,-22500.0,-93.819948746660387,72.171961894835263,4719.8445241232648,163.15245907563039,2949.26548473603,1323.3127398609693,3422.1655976253433,-1665.7669063568312,2724.002274144188,-2724.002274144188,1665.7669063568312,6674.4297649553137,0.0
623204.59901257406,4067374.0504322448,-22500.0,-91.00901516332739,-712.72917272683969,4474.0522332062556,-250.64222018200925,2833.2186591338073,1277.9268432561305,3333.5111600091514,-1518.9533088562073,1959.2167525728266,-1959.2167525728266,1518.9533088562073,6500.6377107966091,0.0
628204.59901257406,4067374.0504322448,-22500.0,119.95375498150935,-1395.5064618110839,3799.3639192910528,-620.40700380249552,2497.9255911094506,1147.5269497709214,3109.6518341455408,-1082.201282343103,1001.3311311995683,-1001.3311311995683,1082.201282343103,6043.9249459704151,0.0
633204.59901257406,4067374.0504322448,-22500.0,475.79080845807738,-1832.993494857127,2803.0200411950018,-878.19003143330019,1991.604770680289,949.20444258961493,2792.1979500570906,-449.58774460287475,35.049113359575557,-35.049113359575557,449.58774460287475,5369.4591590253622,0.0
638204.59901257406,4067374.0504322448,-22500.0,863.0337252690058,-1953.524536552103,1668.4694103475176,-986.53360947570377,1399.4175318521468,713.66026653610481,2433.1335649819548,227.76657719203206,-761.0502071204038,761.0502071204038,-227.76657719203206,4586.3905312362003,0.0
643204.59901257406,4067374.0504322448,-22500.0,1167.380985857608,-1777.8107954350928,588.82211262015346,-948.86798195279687,814.47357067421876,475.39026672521135,2083.5981762127585,802.15461220996599,-1276.5325728271798,1276.5325728271798,-802.15461220996599,3819.1898042670996,0.0
648204.59901257406,4067374.0504322448,-22500.0,1317.5271330049807,-1395.969958892847,-294.70798699886382,-801.40948825692203,309.5676424243315,262.69862371560549,1784.4488654957595,1180.5261210549099,-1492.4471095648857,1492.4471095648857,-1180.5261210549099,3173.6096098343387,0.0
653204.59901257406,4067374.0504322448,-22500.0,1300.0155325164064,-921.52805007168445,-919.28523638039792,-594.23814564386487,-76.947656143989647,92.127523084952671,1555.4601968785546,1340.7344410166243,-1461.9024932314401,1461.9024932314401,-1340.7344410166243,2707.0988430165371,0.0
658204.59901257406,4067374.0504322448,-22500.0,1146.0751756207844,-451.53660362548356,-1290.4945343729264,-373.46209341043283,-339.24103653252712,-31.655827689789753,1392.8379644783417,1315.3329285561394,-1270.522657676192,1270.522657676192,-1315.3329285561394,2414.4626193250806,0.0
663204.59901257406,4067374.0504322448,-22500.0,907.03213271465961,-47.823460285170775,-1454.3991395758412,-171.47525925461292,-492.96180197625756,-112.49823737450592,1277.750584095555,1162.5544983245013,-1001.8147202121321,1001.8147202121321,-1162.5544983245013,2243.2912179653595,0.0
668204.59901257406,4067374.0504322448,-22500.0,633.47396394445229,262.7364668566799,-1470.3267731778024,-5.406665579403481,-563.10788774101627,-158.58016059906717,1189.1410603102531,941.80263764888025,-718.72876691785461,718.72876691785461,-941.80263764888025,2132.0069783006488,0.0
673204.59901257406,4067374.0504322448,-22500.0,364.10633810802528,478.41494512037951,-1393.277152859142,119.67973675550918,-575.27546234131273,-179.10794628393683,1111.8310763614436,700.28128327977993,-459.79791919904704,459.79791919904704,-700.28128327977993,2037.4691525696001,0.0
678204.59901257406,4067374.0504322448,-22500.0,123.05110793334934,611.41878394401044,-1266.2303724923422,206.26077912067888,-551.09418418887151,-182.37094101237562,1037.8527992461229,469.29476350158325,-243.32645276688274,243.32645276688274,-469.29476350158325,1938.8945763376512,0.0
683204.59901257406,4067374.0504322448,-22500.0,-78.089627757193114,679.26497132155714,-1119.0352974822135,260.4663439832234,-506.79964115463531,-174.94433001455062,964.38910705934177,266.07456996496381,-73.980871601021917,73.980871601021917,-266.07456996496381,1830.4088940513041,0.0
688204.59901257406,4067374.0504322448,-22500.0,-236.55119175758497,699.54411343733591,-970.4386159100078,289.45537973871382,-453.54837428862299,-161.60461195310106,891.36268710508784,97.590355030821101,51.296618022938915,-51.296618022938915,-97.590355030821101,1713.4081905746532,0.0
693204.59901257406,4067374.0504322448,-22500.0,-354.88587766065791,687.40159442480513,-831.00615378719215,299.95504600434771,-398.43303036969201,-145.58630615917366,819.77750522921178,-35.671934304538013,139.06804669590201,-139.06804669590201,35.671934304538013,1591.8156871127994,0.0
698204.59901257406,4067374.0504322448,-22500.0,-438.28998564452536,654.7442569985916,-705.8183698342674,297.62145444313313,-345.60089997938127,-128.94178458598225,750.82795636382843,-136.76876149616587,196.8203011661279,-196.8203011661279,136.76876149616587,1469.7458396194406,0.0
703204.59901257406,4067374.0504322448,-22500.0,-492.84664861475255,610.35607283732986,-596.55446417950191,286.88738597222698,-297.211308586516,-112.88208328930637,685.51583413901403,-210.31046600256951,231.60255001189768,-231.60255001189768,210.31046600256951,1350.5754649286957,0.0
708204.59901257406,4067374.0504322448,-22500.0,-524.50629615105834,560.39560709680075,-502.94917544852149,271.05582323540119,-254.16100949715275,-98.052972051195582,624.55679589260774,-261.25797498234175,249.43996663762255,-249.43996663762255,261.25797498234175,1236.7178274944779,0.0
713204.59901257406,4067374.0504322448,-22500.0,-538.57783362755106,508.98204709883248,-423.73947354915305,252.48982886656032,-216.59251616570876,-84.739148924542732,568.46412019673733,-294.27487355807204,255.18724813068692,-255.18724813068692,294.27487355807204,1129.6980917103244,0.0
543204.59901257406,4072374.0504322448,-22500.0,398.44148670453779,-188.04714808256608,-392.46262260862727,76.06655574160142,-117.37065777455597,0.55358964513303766,459.67807576684402,440.79581452856308,-434.93297802639501,434.93297802639501,-440.79581452856308,796.19349548773289,0.0
548204.59901257406,4072374.0504322448,-22500.0,529.2633272436841,-140.97707907761952,-422.80530822863614,123.90629286484277,-111.47782874241361,12.056500834692134,522.932817953111,543.73683841952493,-435.57735046362944,435.57735046362944,-543.73683841952493,908.01157926079009,0.0
553204.59901257406,4072374.0504322448,-22500.0,682.86152400030915,-68.779202399524422,-443.32191789482852,186.88379079808416,-95.042705683414937,29.62628152609263,601.12031448109724,658.17215569356961,-414.33645258471904,414.33645258471904,-658.17215569356961,1051.3850154061133,0.0
558204.59901257406,4072374.0504322448,-22500.0,858.74816388485476,35.724889698096035,-445.7053468532564,268.27074860683848,-62.665190817994379,55.725411529138199,698.82920908566393,780.37601065638034,-360.73751673734489,360.73751673734489,-780.37601065638034,1237.1159279920978,0.0
563204.59901257406,4072374.0504322448,-22500.0,1053.6033511410501,180.22169350316804,-417.85149658539518,371.24610288351147,-6.9522026515134661,93.600466389207426,821.72655542794996,903.21535258424365,-261.31152303582547,261.31152303582547,-903.21535258424365,1478.2555907356498,0.0
568204.59901257406,4072374.0504322448,-22500.0,1259.811823739924,371.8099312693513,-342.86871361773331,498.23204434046545,81.860622179137849,147.38479514185823,976.46716914353112,1014.8237406661508,-99.674492514233805,99.674492514233805,-1014.8237406661508,1789.6230106369003,0.0
573204.59901257406,4072374.0504322448,-22500.0,1463.7996051146167,614.97995675565676,-198.36150877132619,649.77849124615625,216.06528776088439,222.08508094602055,1170.3811075550018,1097.2932311673217,142.53165580719366,-142.53165580719366,-1097.2932311673217,2186.7772776034863,0.0
578204.59901257406,4072374.0504322448,-22500.0,1644.5525028990367,908.33622422157111,43.420502654796472,822.87214965439011,410.10066491345754,323.32210091064786,1410.9087225202761,1125.8910537768322,483.17992918237451,-483.17992918237451,-1125.8910537768322,2684.2013076225371,0.0
583204.59901257406,4072374.0504322448,-22500.0,1773.0986999350057,1239.8879170436464,413.58116444142541,1008.6470415725373,679.13922782288103,456.63341455113533,1704.9018367594049,1069.7242215510933,934.8601309788354,-934.8601309788354,-1069.7242215510933,3292.3204754098001,0.0
588204.59901257406,4072374.0504322448,-22500.0,1814.2730290142258,1581.2365347314528,941.30318656467045,1189.7451264307945,1035.973556663215,626.09888383706266,2058.0122179968448,895.27617000927694,1496.9930191669232,-1496.9930191669232,-895.27617000927694,4012.9446685692433,0.0
593204.59901257406,4072374.0504322448,-22500.0,1732.5448042562598,1882.0749472356163,1643.6949518463687,1338.1055136780449,1485.5203838155508,832.07931180868184,2471.2919347680036,574.55840268240922,2144.79539024718,-2144.79539024718,-574.55840268240922,4832.9324455960541,0.0
598204.59901257406,4072374.0504322448,-22500.0,1503.586591822311,2068.2312688864731,2509.8183355669744,1414.7871421124178,2016.7000308202767,1068.0786183401744,2928.4504846614082,99.175509723387222,2816.8764365319048,-2816.8764365319048,-99.175509723387222,5716.5757429468385,0.0
603204.59901257406,4072374.0504322448,-22500.0,1131.563050847994,2048.7028728403602,3480.542302237016,1374.3177477145216,2592.8102427943736,1317.2899805418583,3390.3182573207946,-500.69560793953247,3406.7374136834069,-3406.7374136834069,500.69560793953247,6598.6151862049983,0.0
608204.59901257406,4072374.0504322448,-22500.0,667.59374994675341,1738.0451082296006,4431.3889637904931,1176.2053161942579,3144.1439931575974,1550.328301606831,3801.578561595371,-1138.6806560082555,3768.0137282153105,-3768.0137282153105,1138.6806560082555,7381.9134512127175,0.0
613204.59901257406,4072374.0504322448,-22500.0,217.61173642914736,1096.3966782838502,5173.2545719460113,804.07193915942128,3569.9470781915406,1726.6949189316877,4096.9442766696384,-1669.8147894408723,3745.5448250968611,-3745.5448250968611,1669.8147894408723,7945.8586197531431,0.0
618204.59901257406,4072374.0504322448,-22500.0,-77.297082066698039,176.16383468919446,5489.5979042801873,286.87023197046858,3757.9362069649719,1802.6369721143437,4214.1986492079477,-1921.2502383704964,3236.6921162016947,-3236.6921162016947,1921.2502383704964,8171.0045075856433,0.0
623204.59901257406,4072374.0504322448,-22500.0,-96.719921542423663,-854.96468717981054,5215.9564556518253,-291.45187815600229,3623.2415545381541,1745.6499430416516,4116.7820303710405,-1762.0214671144249,2263.3967298556367,-2263.3967298556367,1762.0214671144249,7978.8662526393155,0.0
628204.59901257406,4072374.0504322448,-22500.0,187.753015825425,-1750.6686763655496,4331.9839420085536,-809.29071383982398,3152.5566146161027,1550.4435412662801,3817.6335984055549,-1183.7535006761125,1006.1713116540011,-1006.1713116540011,1183.7535006761125,7372.8886921025787,0.0
633204.59901257406,4072374.0504322448,-22500.0,677.55228399382804,-2284.8716892745629,3001.9414139237379,-1152.5841909854989,2424.3291066073029,1246.3381314557039,3382.4055146849596,-332.29364740033884,-246.39018152320878,246.39018152320878,332.29364740033884,6456.2840891038295,0.0
638204.59901257406,4072374.0504322448,-22500.0,1188.6200649806158,-2355.9538795363951,1517.246286126689,-1263.3503762651496,1583.5616781584047,888.65674582493421,2899.5993190917839,550.45284986521654,-1219.7442670199898,1219.7442670199898,-550.45284986521654,5409.1838876905867,0.0
643204.59901257406,4072374.0504322448,-22500.0,1545.9621159336548,-2020.6816557844768,171.00911015956925,-1158.315656385882,783.30996861934523,537.84549926280488,2451.3507645641048,1241.1798562364268,-1766.2367887782514,1766.2367887782514,-1241.1798562364268,4431.2474508884798,0.0
648204.59901257406,4072374.0504322448,-22500.0,1660.1142898171743,-1440.2344587641398,-848.77531646690056,-907.95179877595194,131.4037013180284,239.38039859410975,2093.3271039030647,1623.2878465285751,-1894.4016570885763,1894.4016570885763,-1623.2878465285751,3673.7315425465727,0.0
653204.59901257406,4072374.0504322448,-22500.0,1539.8819298715459,-791.4477827652122,-1488.9399387407998,-597.06379247132691,-329.09151242393119,14.953096415932961,1839.6181103036927,1699.2900029356213,-1716.8928041827901,1716.8928041827901,-1699.2900029356213,3186.527895070411,0.0
658204.59901257406,4072374.0504322448,-22500.0,1255.4202305123615,-204.17110905099668,-1795.34266639834,-293.90487393149135,-607.6072102309347,-134.65130236743479,1668.0859320510274,1546.5921752890852,-1374.4207995564186,1374.4207995564186,-1546.5921752890852,2913.8345490054089,0.0
663204.59901257406,4072374.0504322448,-22500.0,891.85618756355757,255.99966336733141,-1857.4400019663049,-38.582700386016143,-741.34181450278788,-221.15289739503862,1543.6727872234469,1263.2647084517776,-983.34060619473894,983.34060619473894,-1263.2647084517776,2754.4987819575554,0.0
668204.59901257406,4072374.0504322448,-22500.0,519.28129504087269,574.84523536902839,-1766.3931266410564,153.93100337836506,-774.12385751786633,-260.71372186975293,1438.6483435379444,932.81908313909389,-617.54034873699902,617.54034873699902,-932.81908313909389,2628.7095246074837,0.0
673204.59901257406,4072374.0504322448,-22500.0,182.53941500622599,767.89411380808303,-1594.8388078440653,285.11350089888964,-744.41591913146283,-268.76429616478697,1338.3571343396661,611.56770954693332,-312.68400860743907,312.68400860743907,-611.56770954693332,2497.1842975377499,0.0
678204.59901257406,4072374.0504322448,-22500.0,-96.592268649497058,862.48353374125054,-1392.4936078320186,364.57701133722935,-681.06234942501533,-257.69379797597378,1237.9081037732376,330.16431035470248,-78.408306347969301,78.408306347969301,-330.16431035470248,2349.1408635865055,0.0
683204.59901257406,4072374.0504322448,-22500.0,-312.63527609639993,886.84645174457046,-1189.4729667576112,404.36397892173716,-603.46638590597502,-236.40937911214155,1137.4321905721049,100.57169644504265,90.010992662218683,-90.010992662218683,-100.57169644504265,2187.2421147725554,0.0
688204.59901257406,4072374.0504322448,-22500.0,-469.63502724877833,865.04141231198821,-1001.7877933043821,415.83724726292922,-523.53101090840835,-210.79691029496891,1038.8542826983589,-76.692178979826366,203.43047503826241,-203.43047503826241,76.692178979826366,2018.3733794648965,0.0
693204.59901257406,4072374.0504322448,-22500.0,-576.09846442119579,815.49165771445723,-836.38101991743713,408.38681620199213,-447.86908173185668,-184.45816932482353,944.26564553926812,-207.01001326658923,274.02560187628148,-274.02560187628148,207.01001326658923,1849.3906336261791,0.0
698204.59901257406,4072374.0504322448,-22500.0,-641.80354604806439,751.3143004943538,-694.88544999770204,389.17112330540942,-379.66045799196928,-159.41375395840507,855.30262202942504,-298.072818002688,312.9265057746403,-312.9265057746403,298.072818002688,1685.6251014871518,0.0
703204.59901257406,4072374.0504322448,-22500.0,-676.0633630619501,681.31867763392631,-576.12321789899818,363.34414863784974,-320.00931159696836,-136.66032972576781,773.04521223244035,-357.83667673791183,329.32983080722795,-329.32983080722795,357.83667673791183,1530.6521024019228,0.0
708204.59901257406,4072374.0504322448,-22500.0,-686.94402172372838,611.09856652678423,-477.63762028470472,334.4477754822509,-268.85438885433115,-116.56947051266701,698.15476012462091,-393.51605767137556,330.38324861333768,-330.38324861333768,393.51605767137556,1386.5394398982121,0.0
713204.59901257406,4072374.0504322448,-22500.0,-681.03858542933517,543.9799808642357,-396.5671156049595,304.81121822454929,-225.54285822041888,-99.154745408802157,630.93560632703395,-411.19732960712867,321.4141898965043,-321.4141898965043,411.19732960712867,1254.2186838330317,0.0
718204.59901257406,4072374.0504322448,-22500.0,-663.52759797473652,481.75835166922241,-330.1054584934995,275.89249077592467,-189.17307640825393,-84.241678440781712,570.87177839977051,-415.78640316090554,306.26935290206603,-306.26935290206603,415.78640316090554,1133.8335129666243,0.0
538204.59901257406,4077374.0504322448,-22500.0,185.59338605611197,-311.56651188128097,-388.3454570146568,-4.1791635851353881,-149.80958687082128,-20.659091403273681,446.36436234175585,292.26375787138858,-496.75259544938996,496.75259544938996,-292.26375787138858,782.41407126128843,0.0
543204.59901257406,4077374.0504322448,-22500.0,294.8352419220372,-302.02438202856524,-438.33492001605231,27.173109471577796,-159.53959997830864,-15.964507134064597,500.35783309842805,388.88036970067998,-534.88615618972005,534.88615618972005,-388.88036970067998,870.91666395922687,0.0
548204.59901257406,4077374.0504322448,-22500.0,430.8358664125102,-275.35570876757851,-489.18433119709016,71.652266359585909,-164.45268727378391,-7.1794359519927777,565.10927705739982,504.15947607082467,-564.16519567039245,564.16519567039245,-504.15947607082467,979.44379318491019,0.0
553204.59901257406,4077374.0504322448,-22500.0,597.11203581003861,-224.41276085082339,-536.61482768643816,133.29203234979892,-160.74811424202548,7.772207066575767,644.2124021017695,638.68728618582463,-577.05182751079383,577.05182751079383,-638.68728618582463,1116.4278155084837,0.0
558204.59901257406,4077374.0504322448,-22500.0,795.98542318836667,-140.20163200834759,-573.40139370355973,216.8742851894356,-142.72888153995092,31.838091091040432,742.63813054420689,791.03049216521617,-562.68692634821377,562.68692634821377,-791.03049216521617,1293.7988936273221,0.0
563204.59901257406,4077374.0504322448,-22500.0,1027.2780269066598,-12.019395689421451,-588.03174526051373,327.70390215915978,-102.10044753307101,69.111713345634655,867.0601010196192,956.3334706122713,-506.03524808461464,506.03524808461464,-956.3334706122713,1527.5632160712589,0.0
568204.59901257406,4077374.0504322448,-22500.0,1286.4061166059666,171.80292934124768,-563.06140520150666,471.01859743519486,-27.17852990244295,125.11501494867555,1026.0638703488319,1124.4175135442092,-387.24598956593121,387.24598956593121,-1124.4175135442092,1837.8512659007604,0.0
573204.59901257406,4077374.0504322448,-22500.0,1561.8517414826777,422.08059733610673,-473.37864139680977,650.79793018411135,97.834579408294687,207.00496362629804,1230.1040210471804,1277.4758065773603,-181.72123341860049,181.72123341860049,-1277.4758065773603,2248.1396577940827,0.0
578204.59901257406,4077374.0504322448,-22500.0,1832.2495414567675,745.25213926297681,-284.94478718584884,867.68040709955528,293.1488055112697,323.53478241780385,1491.0949335871455,1387.7794001086231,138.25181253772723,-138.25181253772723,-1387.7794001086231,2783.362805015056,0.0
583204.59901257406,4077374.0504322448,-22500.0,2063.8502051878627,1137.493766020667,44.8257798382988,1115.7237249738439,582.58917425867958,484.47437979960654,1821.678754315127,1416.3997771355648,599.00153765059304,-599.00153765059304,-1416.3997771355648,3466.4844139588799,0.0
588204.59901257406,4077374.0504322448,-22500.0,2209.9803903701936,1576.1510220835717,563.03406880075022,1377.9751640648958,990.61241963212603,699.0434499013794,2234.475020651359,1314.8453463952158,1216.4580601213909,-1216.4580601213909,-1314.8453463952158,4312.7801100158613,0.0
593204.59901257406,4077374.0504322448,-22500.0,2215.288372164739,2009.3148653739236,1310.6679397035432,1621.4786405158657,1535.6468623235439,972.80716386953304,2739.3952255894583,1032.5953245404658,1981.1791892723809,-1981.1791892723809,-1032.5953245404658,5320.9374435993814,0.0
598204.59901257406,4077374.0504322448,-22500.0,2028.5518644411816,2346.933313706269,2302.1119479665094,1793.6757564165518,2218.286084747067,1302.6041039153383,3328.4441540793177,534.14753338780201,2837.6774040992846,-2837.6774040992846,-534.14753338780201,6460.5658541713774,0.0
603204.59901257406,4077374.0504322448,-22500.0,1627.2152944398897,2461.2428211663942,3493.4912425714651,1824.2439950987427,3004.185916303571,1669.7462636199509,3958.3041278069086,-172.25953396191699,3663.0138530522695,-3663.0138530522695,172.25953396191699,7657.516990998015,0.0
608204.59901257406,4077374.0504322448,-22500.0,1051.6551380619455,2209.3914086469822,4745.8812974209868,1638.4987306161538,3805.5744424784207,2033.3841709171088,4553.7867504286205,-998.77369125591031,4258.6416774876598,-4258.6416774876598,998.77369125591031,8782.3587781474653,0.0
613204.59901257406,4077374.0504322448,-22500.0,433.91452249342996,1491.0137072297762,5804.9013618208792,1187.6648146766429,4473.0029523609992,2328.6522725631744,5015.0403404846666,-1754.4111436486089,4380.2346277231836,-4380.2346277231836,1754.4111436486089,9653.247860029338,0.0
618204.59901257406,4077374.0504322448,-22500.0,-12.663266617785002,335.50730878348412,6336.1692994687437,492.13129349092804,4816.9832673014462,2476.6149031850719,5235.1630368504993,-2171.5301867154171,3828.9161720484849,-3828.9161720484849,2171.5301867154171,10068.486923743412,0.0
623204.59901257406,4077374.0504322448,-22500.0,-77.16923838366651,-1029.9961289592588,6049.7256670068182,-326.38510395904842,4674.622533892024,2410.8196686526117,5139.1260932160149,-2014.8490062223673,2588.9264885629382,-2588.9264885629382,2014.8490062223673,9876.4279328324046,0.0
628204.59901257406,4077374.0504322448,-22500.0,310.33728101477186,-2218.2352076557459,4879.188558717291,-1064.0015330573342,4002.9940025673554,2113.2455508025482,4732.9446925479633,-1240.9778376342254,920.65786553522798,-920.65786553522798,1240.9778376342254,9061.8730693659072,0.0
633204.59901257406,4077374.0504322448,-22500.0,993.03728159891898,-2860.62745865544,3081.6881658495172,-1521.6860479848665,2933.0900226116373,1635.4870611864287,4122.984519492984,-81.238688786128705,-712.00478839841969,712.00478839841969,81.238688786128705,7793.4944559625155,0.0
638204.59901257406,4077374.0504322448,-22500.0,1662.7811835494615,-2814.1251686567048,1134.0233306145994,-1608.4370741392925,1721.7517049721803,1081.7618021551023,3465.804647538992,1065.2452437219936,-1877.261721213883,1877.261721213883,-1065.2452437219936,6381.4063879131736,1.0
643204.59901257406,4077374.0504322448,-22500.0,2050.211177147638,-2215.8102532868706,-514.94009121285922,-1375.4483054703974,626.59179174698716,561.38092078625732,2896.2036838873778,1859.4476782034772,-2388.7895732564175,2388.7895732564175,-1859.4476782034772,5153.6795516001594,0.0
648204.59901257406,4077374.0504322448,-22500.0,2058.6951639855611,-1353.7037133251326,-1630.9012411133383,-960.71461944809255,-197.16589523412816,146.63648505176408,2482.7462562566288,2173.8792611347967,-2329.1573194608459,2329.1573194608459,-2173.8792611347967,4312.475778167056,0.0
653204.59901257406,4077374.0504322448,-22500.0,1754.5917676531039,-495.21698446308477,-2207.4900847200211,-505.650722493128,-716.15785951269299,-138.89179958713197,2214.4299518026905,2076.3902060613386,-1918.8830485786236,1918.8830485786236,-2076.3902060613386,3850.0194192477775,0.0
658204.59901257406,4077374.0504322448,-22500.0,1276.1565464466773,201.55010508508676,-2368.7253632579132,-105.10096684195821,-977.12690393048013,-307.16944684695721,2034.7694226967001,1723.1545922153277,-1376.1360662874786,1376.1360662874786,-1723.1545922153277,3611.1474630700304,0.0
663204.59901257406,4077374.0504322448,-22500.0,753.30151546139621,685.92229090416868,-2268.0882821748464,199.35623205613891,-1055.4176524846841,-386.10050968605645,1890.7951469389254,1265.6568568304526,-848.57322229034367,848.57322229034367,-1265.6568568304526,3443.3808651918371,0.0
668204.59901257406,4077374.0504322448,-22500.0,272.67880298230659,973.86894502876385,-2032.9400300445216,403.70525498185873,-1021.8642321997322,-405.19958544818849,1753.7467927346852,809.43634665839636,-409.00804099229322,409.00804099229322,-809.43634665839636,3267.9173223880016,0.0
673204.59901257406,4077374.0504322448,-22500.0,-123.23258063308678,1108.8249559497801,-1749.3337231226401,522.94629037123366,-929.84993492752733,-388.70855818239141,1614.5590056685407,411.38415653961738,-77.992133954159527,77.992133954159527,-411.38415653961738,3063.6173310270847,0.0
678204.59901257406,4077374.0504322448,-22500.0,-423.38835786916377,1137.5616771660427,-1467.2013594885029,577.98198875556511,-814.44058046863802,-353.89772106340166,1473.9426469289522,92.783260823061994,151.95878344310626,-151.95878344310626,-92.783260823061994,2835.6973365527138,0.0
683204.59901257406,4077374.0504322448,-22500.0,-634.48677982819027,1099.4321740914254,-1211.2307908603275,588.64639063251286,-696.26253060546412,-311.87662543979098,1335.6983708421121,-146.0849917765504,299.45961081559733,-299.45961081559733,146.0849917765504,2596.7067625916543,0.0
688204.59901257406,4077374.0504322448,-22500.0,-770.94728563909223,1023.6043926610799,-990.71752861537584,570.98266584374574,-586.09355962977963,-269.17040512279283,1203.6013278459691,-315.01550110515905,384.89357589238557,-384.89357589238557,315.01550110515905,2358.4386950894559,0.0
693204.59901257406,4077374.0504322448,-22500.0,-848.92730106077022,929.96281237333187,-806.57777967290588,536.81928952556518,-488.62041982879708,-229.23140952319045,1080.3848230368526,-427.17657555658559,426.2246511930324,-426.2246511930324,427.17657555658559,2129.5163172821321,0.0
698204.59901257406,4077374.0504322448,-22500.0,-883.31533573177421,831.17130170255029,-655.72170571024253,494.3257291150768,-405.05860970884589,-193.60372833219543,967.66431433170089,-495.58219396229777,437.70063908770464,-437.70063908770464,495.58219396229777,1915.2951216528002,0.0
703204.59901257406,4077374.0504322448,-22500.0,-886.55694010420655,734.76117239441373,-533.54758089769632,448.84743600635892,-334.82148852017269,-162.72741261088868,866.17074460873232,-531.55059377492353,429.92831208502417,-429.92831208502417,531.55059377492353,1718.5332368655847,0.0
708204.59901257406,4077374.0504322448,-22500.0,-868.45853151162271,644.82811969622833,-435.24025165899786,403.69686617111898,-276.50946791531504,-136.45260288243222,775.81138708414574,-544.25581316905163,410.4662821366141,-410.4662821366141,544.25581316905163,1540.1585168308457,0.0
713204.59901257406,4077374.0504322448,-22500.0,-836.44105156010903,563.27740627961134,-356.37533405477461,360.79272350524974,-228.46105656706564,-114.35008281068775,695.61246195058698,-540.80918418901956,384.52014963945345,-384.52014963945345,540.80918418901956,1379.9163676245244,0.0
718204.59901257406,4077374.0504322448,-22500.0,-795.95079277457921,490.68162418179315,-293.14473623873914,321.13474479579008,-189.03749917181582,-95.888766722982794,624.3283041830673,-526.55376167837267,355.56666098100214,-355.56666098100214,526.55376167837267,1236.8503605176807,0.0
538204.59901257406,4082374.0504322448,-22500.0,46.588839834978565,-407.75321826499192,-403.45978881179468,-61.109587191730476,-182.24594941868978,-37.945354864900352,495.3044383592154,202.48677080459828,-559.50874896374921,559.50874896374921,-202.48677080459828,883.89889920574183,0.0
543204.59901257406,4082374.0504322448,-22500.0,147.70566674999841,-420.92279865475189,-466.58531905752716,-37.903884673484789,-202.08190158245083,-37.094384645482307,553.53149046809347,299.33334649310882,-621.82855415784434,621.82855415784434,-299.33334649310882,977.92273418442903,0.0
548204.59901257406,4082374.0504322448,-22500.0,279.6315431620302,-420.83733959573084,-536.23218451219634,-1.5491956147965111,-219.8445438330597,-32.772908466323322,621.79826119403162,420.04133488195453,-682.21802048357495,682.21802048357495,-420.04133488195453,1088.4231588214486,0.0
553204.59901257406,4082374.0504322448,-22500.0,448.52675016229847,-400.03423877867243,-609.95055090207757,52.899413187942372,-232.17150851090165,-22.78293552267062,703.25311039117446,567.73708084160603,-734.34295151447054,734.34295151447054,-567.73708084160603,1222.2211179017195,0.0
558204.59901257406,4082374.0504322448,-22500.0,660.27071990727325,-348.39091041613733,-682.59846643474907,131.74195137358407,-233.60207869531166,-3.8290338295074529,802.54328177817524,744.22273906011105,-768.18913644273084,768.18913644273084,-744.22273906011105,1390.1199001305306,0.0
563204.59901257406,4082374.0504322448,-22500.0,919.1913110215371,-252.75605116873373,-744.7339417144409,242.65713803120516,-215.58418461532196,28.927209690161348,926.46882765668397,948.4685998531196,-768.65943081024704,768.65943081024704,-948.4685998531196,1608.6076100437763,0.0
568204.59901257406,4082374.0504322448,-22500.0,1225.9340558369415,-97.048076931808311,-780.37923522657343,394.37554872125929,-165.18431942320376,82.410453787189155,1084.7154719346036,1174.2967395536316,-714.05185502168615,714.05185502168615,-1174.2967395536316,1901.4156397410056,0.0
573204.59901257406,4082374.0504322448,-22500.0,1574.2187897020174,136.60600464487476,-764.18409020303898,595.67275157299139,-63.580687123591701,166.20675084295564,1290.483731886118,1407.124038028277,-574.85028645031741,574.85028645031741,-1407.124038028277,2300.1555854879334,0.0
578204.59901257406,4082374.0504322448,-22500.0,1946.4115864807316,464.7830119601777,-658.35933645983403,853.19110621247512,115.35389711617769,292.9909188312933,1560.750126982135,1619.9082517099787,-313.74942188005809,313.74942188005809,-1619.9082517099787,2843.1749659922316,0.0
583204.59901257406,4082374.0504322448,-22500.0,2308.3567737992262,896.4803184520232,-410.47005686492059,1167.4620609183883,405.63536356495229,478.42429191328085,1916.0136081143023,1769.0904385483493,111.40728077628273,-111.40728077628273,-1769.0904385483493,3571.9681847737011,0.0
588204.59901257406,4082374.0504322448,-22500.0,2605.0105797135143,1422.3147942509111,45.56598184429884,1526.5474725652639,847.45025783345477,739.83583330543513,2379.8562847428943,1792.564888376013,739.15485688028207,-739.15485688028207,-1792.564888376013,4524.413503842381,0.0
593204.59901257406,4082374.0504322448,-22500.0,2760.2788707425648,1998.6229558867224,781.08299916671581,1897.254779430597,1480.6554423372502,1092.6254061517889,2977.3725217680762,1613.6431079346637,1587.0309164444764,-1587.0309164444764,-1613.6431079346637,5723.3645169659521,0.0
598204.59901257406,4082374.0504322448,-22500.0,2687.0920056406612,2528.5163937816096,1850.594027357314,2215.4880735958227,2330.0031652149873,1543.0759499075052,3719.1095061017636,1157.4137845794125,2622.4316443911048,-2622.4316443911048,-1157.4137845794125,7158.4653668954443,0.0
603204.59901257406,4082374.0504322448,-22500.0,2316.04300431518,2848.2137249121629,3249.1274006426688,2380.7541737833394,3378.6874795975755,2076.6218304863532,4567.5909810290668,387.3095740861695,3723.1097079802398,-3723.1097079802398,-387.3095740861695,8760.07374291222,0.0
608204.59901257406,4082374.0504322448,-22500.0,1648.7990497961855,2738.4652394752429,4847.8380411839771,2265.6116526758997,4530.8476139061822,2642.6173335106646,5428.4166225103354,-634.7221059043743,4641.48338837544,-4641.48338837544,634.7221059043743,10369.405296182174,0.0
613204.59901257406,4082374.0504322448,-22500.0,825.59044753763919,1993.473554339608,6329.6947552454176,1756.2536470946013,5577.0495182355671,3141.9306537915136,6153.7192828188381,-1682.2315771868166,5012.5871810096378,-5012.5871810096378,1682.2315771868166,11721.636110833026,0.0
618204.59901257406,4082374.0504322448,-22500.0,153.61835045448888,568.98103178020051,7193.8061236545809,833.34851670206228,6201.677002066077,3432.6365459553135,6560.2920487284791,-2356.4637322922745,4470.0648578935961,-4470.0648578935961,2356.4637322922745,12476.711137498822,0.0
623204.59901257406,4082374.0504322448,-22500.0,1.6905636895702303,-1248.5639175544779,6929.8285804261004,-338.50301518583706,6086.7022055094039,3374.4109859633604,6494.0165880870099,-2236.1462632006333,2896.1541454254402,-2896.1541454254402,2236.1462632006333,12335.801007902972,0.0
628204.59901257406,4082374.0504322448,-22500.0,534.56623934435186,-2841.779752232299,5363.8557036711727,-1409.9294305578151,5111.0167413826575,2911.457950960762,5934.0720927527946,-1189.9037926955982,659.12432788053479,-659.12432788053479,1189.9037926955982,11227.255617842997,0.0
633204.59901257406,4082374.0504322448,-22500.0,1497.5025876380341,-3587.7252200857665,2907.4878238053152,-2016.5455124639627,3499.5356558410722,2137.0622145478951,5057.7340503086516,406.6403375482779,-1471.5837650010299,1471.5837650010299,-406.6403375482779,9436.6444696477956,0.0
638204.59901257406,4082374.0504322448,-22500.0,2355.6430809245012,-3291.644778821435,365.76986985022018,-2014.4325198185438,1729.5310166625236,1259.8394891948296,4154.5024849945903,1872.5440925771818,-2801.86629545505,2801.86629545505,-1872.5440925771818,7525.4431423900032,0.0
643204.59901257406,4082374.0504322448,-22500.0,2698.2569428183297,-2269.6039426300367,-1576.1484044922761,-1543.4815988669577,243.92124815823587,485.09240678905462,3448.2882535348817,2699.0482199201847,-3132.6196238873913,3132.6196238873913,-2699.0482199201847,6040.4868382118648,0.0
648204.59901257406,4082374.0504322448,-22500.0,2467.4489977555704,-1031.2086629127718,-2672.9153617563543,-875.12376840095044,-751.55254094765917,-77.308455155761692,2998.597575295792,2800.9630935599598,-2723.2700368575952,2723.2700368575952,-2800.9630935599598,5196.1859226758806,0.0
653204.59901257406,4082374.0504322448,-22500.0,1858.2973588096963,44.716923523311415,-3045.7534524984735,-235.70665220888893,-1276.105030483162,-417.54600966915871,2726.7190293294348,2392.8074056582827,-1975.7190482025126,1975.7190482025126,-2392.8074056582827,4808.9842705139399,0.0
658204.59901257406,4082374.0504322448,-22500.0,1114.8209709115292,802.80273259716296,-2951.7807912159328,260.06101802868216,-1455.5777583552747,-580.89720550393861,2527.131800191135,1753.3591098041004,-1197.8272335977165,1197.8272335977165,-1753.3591098041004,4583.6002459668889,0.0
663204.59901257406,4082374.0504322448,-22500.0,412.04333885283671,1245.4502787393737,-2623.6142430025657,588.03725704925364,-1425.5848797198882,-625.61086858771694,2338.7005395728256,1089.8420900779965,-546.6499371770542,546.6499371770542,-1089.8420900779965,4350.8228798311329,0.0
668204.59901257406,4082374.0504322448,-22500.0,-163.43946494477606,1442.773844647322,-2217.0269521907835,771.19552336299057,-1289.7830884186992,-601.25673386705193,2143.0948739500286,513.06171233635951,-67.749645084152689,67.749645084152689,-513.06171233635951,4065.6423127538092,0.0
673204.59901257406,4082374.0504322448,-22500.0,-588.98303236261313,1475.2133376235909,-1817.705471765762,847.27356258576651,-1114.3297388537449,-542.77490786367537,1942.4892298557581,62.24802206680728,251.26153412226023,-251.26153412226023,-62.24802206680728,3738.4815002988339,0.0
678204.59901257406,4082374.0504322448,-22500.0,-876.43834871269109,1409.2759559906228,-1464.1799924380653,852.21758526277165,-936.16640216398025,-471.93528504389457,1744.6103877792889,-263.59090891891452,443.72223487839875,-443.72223487839875,263.59090891891452,3393.0855367547433,0.0
683204.59901257406,4082374.0504322448,-22500.0,-1051.2791094243012,1292.2253906466212,-1168.1779405735099,814.27923961767431,-773.18443943115687,-400.93032194178062,1556.4671402378458,-483.00493970940931,544.87573964979617,-544.87573964979617,483.00493970940931,3050.3733948892086,0.0
688204.59901257406,4082374.0504322448,-22500.0,-1141.0040179697962,1154.5559380065852,-928.17402543873538,753.42423842401138,-632.18110886897136,-335.77692780332472,1382.6777636815552,-619.18128863772176,584.35706267526348,-584.35706267526348,619.18128863772176,2724.5572394791793,0.0
693204.59901257406,4082374.0504322448,-22500.0,-1169.9157122433151,1014.4343386148854,-737.18169591601577,682.75418519997538,-514.09327272728137,-278.84693261701455,1225.5854634513455,-693.82020858075589,584.51603764700053,-584.51603764700053,693.82020858075589,2423.6817283994947,0.0
698204.59901257406,4082374.0504322448,-22500.0,-1157.4728379934106,881.77475650818019,-586.77326981455269,610.33167937001394,-417.10765722425799,-230.53141460530964,1085.7846282427683,-724.8866041384141,561.14399240654973,-561.14399240654973,724.8866041384141,2151.2657118022357,0.0
703204.59901257406,4082374.0504322448,-22500.0,-1118.350777929566,761.31131309603882,-468.92773943303257,540.77838117629369,-338.37168677720007,-190.25029878297147,962.5339323803837,-726.2742313140543,524.89715598696262,-524.89715598696262,726.2742313140543,1907.8746456067499,0.0
708204.59901257406,4082374.0504322448,-22500.0,-1063.1706905861556,654.70417140667871,-376.73494689790135,476.487357793782,-274.8663227406862,-157.02677481541605,854.25649851146659,-708.27176601342762,482.69943043479321,-482.69943043479321,708.27176601342762,1692.3265058212851,0.0
713204.59901257406,4082374.0504322448,-22500.0,-999.37166038801263,561.89428835945148,-304.54166672023683,418.46973495434543,-223.80481218051489,-129.7919340832911,759.21356830559125,-678.26322755208275,438.88232107133263,-438.88232107133263,678.26322755208275,1502.5111173416619,0.0
718204.59901257406,4082374.0504322448,-22500.0,-932.01441177871072,481.94114493554838,-247.85790990999189,366.9204761479196,-182.78212955442464,-107.53367888988929,675.83651965826209,-641.41801340382131,396.03596199312256,-396.03596199312256,641.41801340382131,1335.9215446766768,0.0
723204.59901257406,4082374.0504322448,-22500.0,-864.43548504274406,413.51775707296247,-203.17851612416359,321.58005977829225,-149.79893465361238,-89.358486221046761,602.72966213324071,-601.27224290698587,355.61009060231095,-355.61009060231095,601.27224290698587,1189.9711086331276,0.0
533204.59901257406,4087374.0504322448,-22500.0,-186.84304828148095,-456.13143095870765,-338.67337540225537,-133.49630726974542,-183.48113604913991,-53.155082770675591,497.67089015250787,12.407991904284302,-523.96591911134578,523.96591911134578,-12.407991904284302,916.43342848161933,0.0
538204.59901257406,4087374.0504322448,-22500.0,-129.24919926433429,-497.53531328345252,-399.93235395350001,-130.65943875251375,-211.30932828417636,-58.568548134521158,555.11387933275364,78.772245169024245,-600.72641440333439,600.72641440333439,-78.772245169024245,1012.5176115294001,0.0
543204.59901257406,4087374.0504322448,-22500.0,-46.418053753208675,-536.11713195983123,-472.26639775666217,-120.04317497046456,-241.74162617235825,-63.006926520652542,620.70070766833328,167.24874061087229,-685.53777950679614,685.53777950679614,-167.24874061087229,1120.4331882714478,0.0
548204.59901257406,4087374.0504322448,-22500.0,69.050805159721264,-567.39490510095163,-556.52628604190818,-97.695328663319629,-273.59368442400756,-65.204496387388886,696.09870441349108,283.22546592445462,-776.49860961148886,776.49860961148886,-283.22546592445462,1242.734372748708,0.0
553204.59901257406,4087374.0504322448,-22500.0,225.90851188226367,-584.5184401963337,-652.55518780447551,-58.105865794071569,-304.41949609161043,-63.072915534501917,783.69781964637787,432.55960563661176,-869.47037542822807,869.47037542822807,-432.55960563661176,1383.6462798343975,0.0
558204.59901257406,4087374.0504322448,-22500.0,433.91096428433138,-577.4015731960385,-758.17823652962045,6.2264447446008084,-329.69337347973686,-53.258126187878609,887.10790974403915,620.91353700745162,-956.76151894119016,956.76151894119016,-620.91353700745162,1550.4994586474679,0.0
563204.59901257406,4087374.0504322448,-22500.0,702.87275077994195,-531.77279226555822,-867.54375436437408,105.1892597405688,-341.57356035568705,-30.504136181550425,1011.9716534231309,852.4235195670791,-1025.2851830199422,1025.2851830199422,-852.4235195670791,1756.1039919268869,0.0
568204.59901257406,4087374.0504322448,-22500.0,1040.7127811096334,-428.3997000675584,-968.54549174326814,251.22049615045813,-327.11693151531171,13.216023867295172,1167.1945431813067,1127.3291429451183,-1054.1763657778415,1054.1763657778415,-1127.3291429451183,2022.1999446436548,0.0
573204.59901257406,4087374.0504322448,-22500.0,1449.963740052654,-243.05368191865296,-1039.0800553866618,458.86090210764155,-265.8661443055102,89.798020825546217,1366.588654880228,1438.1362460737187,-1012.0969407929948,1012.0969407929948,-1438.1362460737187,2383.4465453539033,0.0
578204.59901257406,4087374.0504322448,-22500.0,1922.2198727395962,51.707314117421916,-1042.1353616147946,743.02914976456327,-126.92731892283852,216.20779920271676,1630.6957844856711,1764.0095766610439,-855.00126991837988,855.00126991837988,-1764.0095766610439,2890.2046388626413,0.0
583204.59901257406,4087374.0504322448,-22500.0,2430.3390539286011,481.16382256601918,-920.39308134869452,1114.9868201767886,133.86049476567163,415.40416865685035,1988.3511752658985,2063.6296341412221,-526.1317864059414,526.1317864059414,-2063.6296341412221,3607.4589339053191,0.0
588204.59901257406,4087374.0504322448,-22500.0,2919.263939612797,1057.0005856393848,-592.50798639913762,1574.6364745702517,575.09077383059036,716.12827227576076,2477.9523327644829,2268.0747119057833,38.432130612625542,-38.432130612625542,-2268.0747119057833,4607.7996737022668,0.0
593204.59901257406,4087374.0504322448,-22500.0,3298.545334374121,1757.1893576441635,44.137421028294206,2097.8374024466948,1266.013724916156,1149.9605094632348,3148.4572882487173,2277.824904583415,893.38467551136011,-893.38467551136011,-2277.824904583415,5957.3061891928464,0.0
598204.59901257406,4087374.0504322448,-22500.0,3443.6094073396484,2496.1313043294413,1095.4092201976007,2618.5602619976648,2271.9983498425604,1743.0845628522852,4045.8223080197231,1972.1257807838351,2050.0413178919994,-2050.0413178919994,-1972.1257807838351,7691.6301012925587,0.0
603204.59901257406,4087374.0504322448,-22500.0,3218.9991739223087,3089.8474257445364,2623.374105095455,3009.4318415718076,3620.4288723451596,2499.3250710020084,5160.5369399975707,1244.7223862090832,3418.3780393748002,-3418.3780393748002,-1244.7223862090832,9776.4037932879455,0.0
608204.59901257406,4087374.0504322448,-22500.0,2543.8500271673906,3237.2593651582138,4554.3188639370319,3073.8161218366567,5237.7772683203793,3371.4169345677942,6391.6602092023049,84.599439064001672,4729.8390605387413,-4729.8390605387413,-84.599439064001672,12047.844945643979,0.0
613204.59901257406,4087374.0504322448,-22500.0,1513.4111187225844,2573.34864040701,6544.6867080592738,2581.7341644328699,6862.2034410769766,4223.1772644837229,7534.6366119093318,-1293.4515368819712,5484.7925972708499,-5484.7925972708499,1293.4515368819712,14147.611746207527,0.0
618204.59901257406,4087374.0504322448,-22500.0,525.55550525332285,882.38336287546099,7890.5707362726125,1398.9277063297757,7988.5442263396098,4806.2568011310277,8282.1081016165772,-2341.891748003371,5051.3629059220875,-5051.3629059220875,2341.891748003371,15514.436394613027,0.0
623204.59901257406,4087374.0504322448,-22500.0,210.92632975654709,-1532.9715959681382,7713.3560977361985,-292.79009032851479,7992.0853952732505,4814.7227179250231,8317.2348966599257,-2323.6026477601999,3075.5155274382814,-3075.5155274382814,2323.6026477601999,15552.144716662302,0.0
628204.59901257406,4087374.0504322448,-22500.0,949.98564731856845,-3685.3162281565569,5599.9858756301201,-1885.9453980709568,6546.1348231620786,4076.4365002955374,7536.1270596322247,-896.78695481057775,51.532963250837781,-51.532963250837781,896.78695481057775,14029.607281970986,0.0
633204.59901257406,4087374.0504322448,-22500.0,2321.0220479560667,-4481.6637099528461,2223.8523816906691,-2672.5896909027238,4048.1596999299513,2764.7622218680212,6243.7166246806637,1314.5569163429886,-2702.0427212872687,2702.0427212872687,-1314.5569163429886,11449.733273491025,0.0
638204.59901257406,4087374.0504322448,-22500.0,3357.9757457934493,-3685.0838624062349,-1016.7516506214554,-2428.3698826582054,1436.2752979447675,1334.3463992293666,5002.0520480575142,3108.3670057247828,-4054.4808099086758,4054.4808099086758,-3108.3670057247828,8888.1729875705732,0.0
643204.59901257406,4087374.0504322448,-22500.0,3463.9199495591893,-2010.7264490116781,-3112.2311357128797,-1525.4330218325058,-521.35371690772206,187.18029665788649,4174.1713097231614,3760.7523377034172,-3912.7420239676817,3912.7420239676817,-3760.7523377034172,7236.0058174103833,0.0
648204.59901257406,4087374.0504322448,-22500.0,2759.3940061768867,-329.42050768280501,-3940.8918671789329,-492.86452520798474,-1615.7818679143638,-534.29019635810585,3725.3940766127998,3388.2073232755215,-2922.7866196566042,2922.7866196566042,-3388.2073232755215,6523.8112897671735,0.0
653204.59901257406,4087374.0504322448,-22500.0,1691.6246961791076,896.9005163666784,-3899.1390392786329,342.28841996584794,-2025.3645900008198,-886.69475337989911,3442.2810639366849,2490.4118430331591,-1748.1827008307955,1748.1827008307955,-2490.4118430331591,6209.7243349488535,0.0
658204.59901257406,4087374.0504322448,-22500.0,633.89040209747134,1601.0356362458856,-3429.7649919127439,886.68710553205915,-2020.9166063613231,-990.95780615386377,3181.4751355486305,1497.0502654534105,-751.64335307188753,751.64335307188753,-1497.0502654534105,5903.5161437703091,0.0
663204.59901257406,4087374.0504322448,-22500.0,-226.87644352972316,1896.998641335198,-2830.4253206042513,1174.199728032233,-1816.3852653513929,-955.14364502575756,2901.5681256165312,637.24586755629514,-39.629422688306818,39.629422688306818,-637.24586755629514,5499.32481797523,0.0
668204.59901257406,4087374.0504322448,-22500.0,-843.44671800080107,1929.7854589492772,-2253.8383707044472,1277.1043899351348,-1543.0257858586854,-853.62589385277829,2608.3779200550271,-14.146598538676358,410.12631045420545,-410.12631045420545,14.146598538676358,5018.2606502203062,0.0
673204.59901257406,4087374.0504322448,-22500.0,-1239.0717805854188,1816.0730530699047,-1760.1030415166372,1263.6604992322091,-1269.1477698224376,-730.64829730326619,2318.1025487672055,-463.20782034613489,660.72043824712864,-660.72043824712864,463.20782034613489,4506.8789978162249,0.0
678204.59901257406,4087374.0504322448,-22500.0,-1461.0884971104474,1634.1296987602427,-1361.5849284123451,1185.186486069543,-1024.6517186688909,-609.53776331970812,2043.9891320111747,-746.83208377127858,775.31175145533052,-775.31175145533052,746.83208377127858,4003.146430818289,0.0
683204.59901257406,4087374.0504322448,-22500.0,-1557.80649756966,1430.9477061639705,-1050.1047862036189,1075.9569208974631,-818.84709953879542,-500.86276582138993,1793.815494080927,-907.08952617821456,803.80212318608073,-803.80212318608073,907.08952617821456,3530.6790502477402,0.0
688204.59901257406,4087374.0504322448,-22500.0,-1569.6479058558973,1232.1748726715864,-810.85855691980726,957.03107754060409,-651.19706886838981,-408.1154512712647,1570.7786160354869,-980.78657473258716,781.50859844184959,-781.50859844184959,980.78657473258716,3101.3260925454938,0.0
693204.59901257406,4087374.0504322448,-22500.0,-1527.2991258034226,1050.2286694231436,-628.67372869967892,840.37471008942452,-517.15749651856424,-331.22519330207979,1374.9479598109342,-996.63467453178998,731.82437464986003,-731.82437464986003,996.63467453178998,2719.0592870870337,0.0
698204.59901257406,4087374.0504322448,-22500.0,-1452.7147263103914,889.87378931104911,-490.36785817694488,732.1380227496411,-411.09078086385068,-268.55836964424088,1204.5166010453861,-975.63504271411648,669.50657987452769,-669.50657987452769,975.63504271411648,2383.1617310897213,0.0
703204.59901257406,4087374.0504322448,-22500.0,-1360.9539221873267,751.73700992370868,-385.31637753538871,634.95757041950958,-327.5834825399146,-217.97703025445904,1056.8281709225419,-932.51805360718424,603.45879312001182,-603.45879312001182,932.51805360718424,2090.4318655849279,0.0
708204.59901257406,4087374.0504322448,-22500.0,-1261.978733887353,634.39237329345599,-305.28593943047559,549.45610369384212,-261.94465007925533,-177.35168233984743,929.08296722934995,-877.28920898871843,538.77920319622922,-538.77920319622922,877.28920898871843,1836.5549645135134,0.0
713204.59901257406,4087374.0504322448,-22500.0,-1162.1483865667026,535.54941082684661,-244.03468908839,475.18140397777933,-210.31815444386021,-144.78093440371248,818.66032174907355,-816.55904918619603,478.17489470578477,-478.17489470578477,816.55904918619603,1616.9239603810374,0.0
718204.59901257406,4087374.0504322448,-22500.0,-1065.3463127125046,452.69149895024708,-196.88570936474892,411.16552932884696,-169.62530223087629,-118.6587279483425,723.19940042226551,-754.56795031855631,422.89305248876116,-422.89305248876116,754.56795031855631,1427.0804526475245,0.0
723204.59901257406,4087374.0504322448,-22500.0,-973.79357012336402,383.3970932126997,-160.35429909802625,356.24607387920224,-137.44883394998837,-97.670301704369408,640.60721343422597,-693.93663550061922,373.31818517738873,-373.31818517738873,693.93663550061922,1262.9302003269402,0.0
528204.59901257406,4092374.0504322448,-22500.0,-384.53847887794865,-454.81361928338305,-262.85780018873703,-186.40097726539497,-169.14653968693906,-61.911916317535528,498.53851169865322,-158.9667917374272,-448.35525790301676,448.35525790301676,158.9667917374272,943.54150986478919,0.0
533204.59901257406,4092374.0504322448,-22500.0,-370.56910259874451,-511.1555781674349,-313.77348818759759,-200.41250130929606,-199.01348912010383,-71.596958324196436,557.71044598539379,-127.06538909289745,-524.1695429820403,524.1695429820403,127.06538909289745,1048.2292078147993,0.0
538204.59901257406,4092374.0504322448,-22500.0,-340.30002685137333,-572.23750914881839,-376.05780592809094,-211.99090995572919,-234.01476321490293,-82.253880910208508,625.04429272277514,-78.944144755793559,-612.78784994141392,612.78784994141392,78.944144755793559,1165.577134224689,0.0
543204.59901257406,4092374.0504322448,-22500.0,-287.30364692573369,-636.57189240124092,-452.06464577548758,-218.75295447308102,-274.50444989594621,-93.484738868918143,701.70508027732797,-9.1893228106633842,-715.38502861037637,715.38502861037637,9.1893228106633842,1296.8938737019848,0.0
548204.59901257406,4092374.0504322448,-22500.0,-203.17318622648924,-701.22925431988574,-544.28109572432459,-217.05661024844059,-320.36556320368209,-104.43143820773503,789.06498209831966,89.002796632871082,-832.38030632585435,832.38030632585435,-89.002796632871082,1443.6746620103718,0.0
553204.59901257406,4092374.0504322448,-22500.0,-77.180579143404998,-761.03885789939136,-654.96498244669863,-201.45924900265311,-370.53139624558315,-113.45131994134326,888.83365310342754,223.89287993880913,-962.6512555715201,962.6512555715201,-223.89287993880913,1607.9092569373875,0.0
558204.59901257406,4092374.0504322448,-22500.0,103.88335449521645,-807.47025457651887,-785.3953861395081,-164.01349216982882,-422.16834909192318,-117.59945621438327,1003.3419290446034,404.97551927799339,-1102.2462412984719,1102.2462412984719,-404.97551927799339,1792.851253408511,0.0
563204.59901257406,4092374.0504322448,-22500.0,355.40523485602546,-827.17058089055797,-934.45612221438057,-93.426490990621517,-469.32676753030967,-111.82443154268569,1136.1359776765123,642.1625959149037,-1242.3725446417034,1242.3725446417034,-642.1625959149037,2004.7459369087758,0.0
568204.59901257406,4092374.0504322448,-22500.0,693.69548948907061,-800.26335924066689,-1096.1379318321251,25.789778021625803,-500.79682787519226,-87.762729334914297,1293.1558526853159,943.8831783208243,-1366.433177677156,1366.433177677156,-943.8831783208243,2256.3582705853337,0.0
573204.59901257406,4092374.0504322448,-22500.0,1133.0231163331277,-698.82471989206897,-1255.4209291218633,213.83691093753032,-496.86403713363785,-32.021115523594602,1484.9076995148462,1313.3898672839762,-1446.0186084169507,1446.0186084169507,-1313.3898672839762,2573.3671166794229,0.0
578204.59901257406,4092374.0504322448,-22500.0,1679.9148017596744,-486.5709868393381,-1382.0231562853151,495.09039245662183,-424.73699214492552,76.084169121360844,1730.0806531524913,1742.4250223878528,-1436.2239474305195,1436.2239474305195,-1742.4250223878528,3003.9488790680357,0.0
583204.59901257406,4092374.0504322448,-22500.0,2323.6838800741484,-121.82758990196471,-1421.9783324232626,895.16562361744616,-232.80869781352976,267.11780347528367,2060.8034856827026,2201.6351407701259,-1271.7551558620601,1271.7551558620601,-2201.6351407701259,3628.6826304271772,0.0
588204.59901257406,4092374.0504322448,-22500.0,3022.8543268528488,432.75509219885527,-1288.4696769675199,1433.4530655752601,155.04844542155644,583.67723236062227,2529.3630510831172,2628.2408467776513,-867.33680743073228,867.33680743073228,-2628.2408467776513,4562.8204930214433,0.0
593204.59901257406,4092374.0504322448,-22500.0,3689.2144126339481,1189.0249350982219,-856.46362913637063,2108.2453919371701,841.78108421445859,1080.2998929481314,3216.4286860356156,2914.1443447556785,-129.01556686070694,129.01556686070694,-2914.1443447556785,5942.3531831608179,0.0
598204.59901257406,4092374.0504322448,-22500.0,4175.2403655674434,2095.8907816190713,29.070177876002973,2871.3783954071969,1948.7336197417071,1817.6008437681714,4227.5620692386747,2902.382541502971,1013.3855528288227,-1013.3855528288227,-2902.382541502971,7891.7311774945701,0.0
603204.59901257406,4092374.0504322448,-22500.0,4278.0886299789036,2983.4087342177409,1513.4953081068638,3590.6175577674771,3582.3849132592045,2844.2680501590303,5623.4252047960463,2407.8480807057158,2538.7286788878519,-2538.7286788878519,-2407.8480807057158,10469.723886312742,0.0
608204.59901257406,4092374.0504322448,-22500.0,3790.6221387021837,3497.6233350470411,3630.0996521386242,4005.3031825432436,5750.8456040575711,4155.2505594823861,7334.5724849429625,1294.5564305565711,4216.7940801777258,-4216.7940801777258,-1294.5564305565711,13574.291717570497,0.0
613204.59901257406,4092374.0504322448,-22500.0,2661.0363522580451,3084.8684269980586,6093.1616070301643,3713.2690808023149,8197.847271709923,5608.3645291686671,9114.7391936251406,-335.70897720080029,5453.6993880145055,-5453.6993880145055,335.70897720080029,16789.254563041821,1.0
618204.59901257406,4092374.0504322448,-22500.0,1293.2816962022437,1213.1866941934036,8024.8459901176302,2313.8029543060388,10184.409628162322,6803.753826920396,10477.358570362088,-1847.3681806898996,5266.5738137669305,-5266.5738137669305,1847.3681806898996,19241.317006129444,0.0
623204.59901257406,4092374.0504322448,-22500.0,697.77019489166457,-1943.6305624433721,8005.4790425763331,-125.91947570870755,10510.113784239289,7064.6071338980455,10781.839180722049,-2030.8483687908874,2833.2137184106368,-2833.2137184106368,2030.8483687908874,19752.983883082878,0.0
628204.59901257406,4092374.0504322448,-22500.0,1731.2580685385954,-4837.7024145177475,5141.145040528143,-2557.4779058614154,8319.9605432284789,5847.9859671835593,9690.2888752137769,-75.401741039569401,-1252.0339426151372,1252.0339426151372,75.401741039569401,17664.501264350678,0.0
633204.59901257406,4092374.0504322448,-22500.0,3684.6086010145732,-5496.7635617568931,556.72955675965989,-3510.1859913750241,4336.3243514875485,3483.1048992652527,7745.8821635159593,2961.6007484517422,-4668.9634064600677,4668.9634064600677,-2961.6007484517422,13900.090810454783,0.0
638204.59901257406,4092374.0504322448,-22500.0,4747.2445612954934,-3746.8277878068525,-3298.0496054604437,-2668.0112753191052,508.89499630832262,1075.4753361637806,6090.168435919546,4906.1857969835319,-5609.8790891462641,5609.8790891462641,-4906.1857969835319,10626.199424327247,0.0
643204.59901257406,4092374.0504322448,-22500.0,4187.355073976044,-1169.1877416795219,-5111.6049021285844,-1021.2566013764604,-1876.5001514771723,-568.22334776080299,5228.7091950777658,4901.5486943929509,-4481.3775111676978,4481.3775111676978,-4901.5486943929509,9091.6391742333544,0.0
648204.59901257406,4092374.0504322448,-22500.0,2658.3519179719874,886.09833142017101,-5241.8892478622138,451.57862272530753,-2833.1063726538723,-1376.5083574086671,4802.6682452287023,3656.4129722409252,-2667.3968685133477,2667.3968685133477,-3656.4129722409252,8594.4339166052741,0.0
653204.59901257406,4092374.0504322448,-22500.0,1005.7472658987693,2053.3508211665708,-4545.9846623591238,1396.3580564618801,-2912.1099089033087,-1619.7144516794708,4436.4885857207719,2111.7141839788369,-1077.8899113181837,1077.8899113181837,-2111.7141839788369,8190.132209207728,0.0
658204.59901257406,4092374.0504322448,-22500.0,-329.12731698630301,2509.7959934651572,-3630.5807648709447,1856.4679908824692,-2593.2920733362434,-1563.116429702357,4023.1379159335911,783.26785265766728,16.385445289000245,-16.385445289000245,-783.26785265766728,7600.0332703787053,0.0
663204.59901257406,4092374.0504322448,-22500.0,-1244.3357157839603,2533.0517642827358,-2779.8350610631719,1985.1543759972483,-2154.3985890458066,-1377.7677214442481,3578.6668806919097,-179.90166767877852,660.83427625743502,-660.83427625743502,179.90166767877852,6867.790389552898,0.0
668204.59901257406,4092374.0504322448,-22500.0,-1792.4987915942511,2337.0607407147399,-2084.8177053399136,1920.936965240084,-1725.3193510787619,-1156.7180911446312,3138.4742053019313,-802.7526994351274,983.51279531533442,-983.51279531533442,802.7526994351274,6087.7954918346095,0.0
673204.59901257406,4092374.0504322448,-22500.0,-2067.406543036067,2053.8271118981002,-1550.4401853495845,1760.1292785874596,-1354.9349666511575,-944.67523345174959,2727.7227977492557,-1163.1686291325364,1102.1547479915776,-1102.1547479915776,1163.1686291325364,5329.5116505184214,0.0
678204.59901257406,4092374.0504322448,-22500.0,-2156.8441183528221,1755.1165222024931,-1151.8759906309479,1561.9083296657259,-1053.7642752332317,-759.61501936055049,2359.0058723127026,-1339.8806431819605,1102.163611907609,-1102.163611907609,1339.8806431819605,4631.3358477690099,0.0
683204.59901257406,4092374.0504322448,-22500.0,-2129.0159434860252,1475.6265197863233,-858.93295002579816,1359.4987553343231,-816.47189256288414,-605.93304897825453,2036.0322977098617,-1396.0732002814584,1039.2140119686292,-1039.2140119686292,1396.0732002814584,4009.4215494092196,0.0
688204.59901257406,4092374.0504322448,-22500.0,-2032.3241380695301,1229.3061454588044,-644.83536961745085,1169.7861486334668,-632.61771784111374,-481.82590863107475,1757.3305250880262,-1377.5473591425991,947.30397472836626,-947.30397472836626,1377.5473591425991,3466.5928795279333,0.0
693204.59901257406,4092374.0504322448,-22500.0,-1899.2330950454923,1019.3307514304337,-488.39107005008174,1000.0510905953198,-491.33659835357304,-383.16515519301521,1518.8754463173484,-1315.6253526972746,846.12144056112368,-846.12144056112368,1315.6253526972746,2998.608328530494,0.0
698204.59901257406,4092374.0504322448,-22500.0,-1750.591847164317,843.76106534800522,-373.69889127871028,852.26457670460934,-383.09685337537519,-305.37757277209772,1315.7301891970687,-1230.8813090937499,746.42289371265224,-746.42289371265224,1230.8813090937499,2598.0234191063132,0.0
703204.59901257406,4092374.0504322448,-22500.0,-1599.2430411198529,698.58592639766687,-289.14879334050596,725.67336378180926,-300.14637646448523,-244.2594676539679,1142.9511853907186,-1136.3782905454752,653.60644682069812,-653.60644682069812,1136.3782905454752,2256.3925104684054,0.0
708204.59901257406,4092374.0504322448,-22500.0,-1452.7093656417171,579.26815218048034,-226.37850120812897,618.28398352352713,-236.42192810507478,-196.25432334138125,995.99818061900919,-1040.1219643333304,569.96580375198334,-569.96580375198334,1040.1219643333304,1965.4269454095593,0.0
713204.59901257406,4092374.0504322448,-22500.0,-1315.0775775131817,481.47270081736337,-179.40058278018464,527.67650291918653,-187.28105071794809,-158.48227893027314,870.87303999057235,-946.80091928861418,496.06628210621795,-496.06628210621795,946.80091928861418,1717.5430661916835,0.0
718204.59901257406,4092374.0504322448,-22500.0,-1188.2730740255111,401.36325578537685,-143.93295856016832,451.42524153500221,-149.20910095203109,-128.66825257920431,764.13401546417072,-858.97516921020406,431.56365031669748,-431.56365031669748,858.97516921020406,1506.068569360312,0.0
723204.59901257406,4092374.0504322448,-22500.0,-1072.9010743912456,335.68221940279585,-116.90760853403067,387.29704793497234,-119.55947181984806,-105.03992201591537,672.85884985626421,-777.86807205909588,375.67996230688743,-375.67996230688743,777.86807205909588,1325.268972210419,0.0
528204.59901257406,4097374.0504322448,-22500.0,-558.75757413130543,-476.40366124302255,-227.40573712092734,-245.7691202637244,-173.15321770998463,-77.282347091635955,553.59506614534769,-297.62609880476043,-417.49227909677859,417.49227909677859,297.62609880476043,1064.9458063025177,0.0
533204.59901257406,4097374.0504322448,-22500.0,-575.42770880528485,-544.74184431051958,-274.01413757356772,-273.79281567667232,-206.68832691698574,-91.582632220867026,623.21888044055675,-288.81411708004646,-495.50360777200842,495.50360777200842,288.81411708004646,1192.6430600266087,0.0
538204.59901257406,4097374.0504322448,-22500.0,-581.05565670347687,-622.46066219591626,-332.3217627969704,-302.95331215098821,-247.21052943252249,-108.38245839787106,703.04442467650335,-267.18008841843755,-589.35713409828566,589.35713409828566,267.18008841843755,1337.4497189709111,0.0
543204.59901257406,4097374.0504322448,-22500.0,-569.63029099649873,-709.70240021243546,-405.41608723994062,-331.72217214844255,-295.92267644538913,-127.80604494034141,794.48844570633071,-227.24146546030795,-701.87282692632743,701.87282692632743,227.24146546030795,1501.160595253674,0.0
548204.59901257406,4097374.0504322448,-22500.0,-532.77585550442302,-805.64626566837433,-497.0374676149811,-357.41749473958799,-353.9184597459402,-149.67874255138187,899.04974515948902,-161.62867478523236,-835.85137930063775,835.85137930063775,161.62867478523236,1685.3971930499424,0.0
553204.59901257406,4097374.0504322448,-22500.0,-459.03929832898024,-907.75617396101507,-611.50654234461206,-375.57207399976244,-421.82901176652791,-173.22574048035847,1018.2680067922613,-60.643617299724724,-993.54849844492799,993.54849844492799,60.643617299724724,1891.4436189634464,0.0
558204.59901257406,4097374.0504322448,-22500.0,-333.14296353756521,-1010.609432090335,-753.38390342308105,-379.02332030532972,-499.13816180543483,-196.5478111021273,1153.7010832744363,88.084073969739848,-1175.6700122131251,1175.6700122131251,-88.084073969739848,2120.1534323900232,0.0
563204.59901257406,4097374.0504322448,-22500.0,-135.41008972935194,-1104.1583205256152,-926.58611934757835,-356.66223321660982,-582.92309257831448,-215.73503085618151,1307.0097603281147,299.5854387069777,-1379.5811646995294,1379.5811646995294,-299.5854387069777,2372.2097440487146,0.0
568204.59901257406,4097374.0504322448,-22500.0,158.18572068190417,-1171.323183932619,-1132.4771056006591,-291.84046020923955,-665.63650637999035,-223.41468324439504,1480.3793654612236,590.68258948941161,-1596.3060493553637,1596.3060493553637,-590.68258948941161,2649.4592628985952,0.0
573204.59901257406,4097374.0504322448,-22500.0,574.49407626871027,-1185.0371745400023,-1366.1708409292637,-160.61397847287665,-731.37385027657126,-206.46243554283524,1677.8166149177632,977.38434718746566,-1805.8459366333173,1805.8459366333173,-977.38434718746566,2958.9781144555545,0.0
578204.59901257406,4097374.0504322448,-22500.0,1138.7695078342497,-1105.4651270330271,-1610.0021178242421,69.585917366122032,-749.93405554811466,-142.57863618359625,1908.4673096587462,1469.2095234965532,-1970.5780792269838,1970.5780792269838,-1469.2095234965532,3323.1542846059383,0.0
583204.59901257406,4097374.0504322448,-22500.0,1865.4210256323988,-879.40698568590756,-1823.1797863914021,439.47705876930178,-668.09826886925953,4.457149398504459,2194.1087639756188,2058.8340495677317,-2027.4716970724469,2027.4716970724469,-2058.8340495677317,3800.4165192328842,0.0
588204.59901257406,4097374.0504322448,-22500.0,2742.092939916417,-446.08673397291727,-1927.8372481199922,993.00233404606593,-398.40043985395079,290.60015018775084,2584.2138764608621,2706.1119064580548,-1882.2966494600228,1882.2966494600228,-2706.1119064580548,4516.754856651849,0.0
593204.59901257406,4097374.0504322448,-22500.0,3707.0438956579173,243.91143224954646,-1795.362507859028,1763.7685854359606,191.96600161827436,797.15837427146016,3182.718186410978,3318.2872994832342,-1413.3953477758077,1413.3953477758077,-3318.2872994832342,5688.0758888442269,0.0
598204.59901257406,4097374.0504322448,-22500.0,4623.6140531469173,1188.7947827171952,-1243.7094553591585,2747.2570031910873,1284.7050085976587,1633.1488895324196,4177.1981362887209,3733.4110421314972,-497.83773063168405,497.83773063168405,-3733.4110421314972,7593.1352945116223,0.0
603204.59901257406,4097374.0504322448,-22500.0,5259.1759374571111,2268.6753780718168,-64.466161609389204,3850.8740381860471,3090.6394116365573,2927.9080763453549,5770.311294425278,3719.2240271574046,923.40985824380891,-923.40985824380891,-3719.2240271574046,10485.68794667321,0.0
608204.59901257406,4097374.0504322448,-22500.0,5285.5469105624825,3144.0784201482111,1889.3569173438714,4806.2158560708431,5770.3892978237236,4795.2524712786899,8004.830029788066,3011.0551024078827,2715.1262816725134,-2715.1262816725134,-3011.0551024078827,14455.32289109052,0.0
613204.59901257406,4097374.0504322448,-22500.0,4390.6506470961613,3129.419929692242,4477.2171628074966,5037.357202366522,9203.0825718953383,7205.7073146277498,10663.138236185314,1480.315372069598,4301.8156477273751,-4301.8156477273751,-1480.315372069598,19164.6352606293,0.0
618204.59901257406,4097374.0504322448,-22500.0,2749.786217636793,1269.2663904433043,6794.6369534379974,3658.0871110275102,12479.517603123184,9642.1758197912604,13063.736309020429,-363.57454986750372,4384.7327359583542,-4384.7327359583542,363.57454986750372,23413.247511065274,0.0
623204.59901257406,4097374.0504322448,-22500.0,1760.4849967536979,-2666.7233354576679,6839.2749239887144,232.01706804568718,13463.96760605758,10662.50720864297,13986.200510147093,-797.43953937438221,1429.317476161089,-1429.317476161089,797.43953937438221,25003.192050982416,0.0
628204.59901257406,4097374.0504322448,-22500.0,3225.0923564159025,-6385.224474734363,2984.3749119097688,-3534.3737175204665,10073.409718050565,8563.4971708074045,12499.354219257672,1874.6733517114228,-3939.8784052410156,3939.8784052410156,-1874.6733517114228,22227.257490787124,0.0
633204.59901257406,4097374.0504322448,-22500.0,5923.7944157597312,-6372.8435178623586,-2838.1390539117128,-4424.2385195034794,3668.4750106566894,3977.1297164186562,9612.1894666306307,5825.4348518048346,-7637.0802272705796,7637.0802272705796,-5825.4348518048346,16865.30831762404,0.0
638204.59901257406,4097374.0504322448,-22500.0,6433.3131861673219,-2985.6860202949451,-6583.5465009078616,-2205.4435563542761,-1606.3263606510404,-112.54662872423054,7662.4436697708697,7196.3663499073418,-7120.7868476850936,7120.7868476850936,-7196.3663499073418,13272.382532703861,0.0
643204.59901257406,4097374.0504322448,-22500.0,4401.4397160759736,530.85839103514161,-7190.9659444307053,544.63452917379027,-3953.4395871155702,-2197.2046047630433,6929.5169212252285,5626.182524846693,-4327.5766617801119,4327.5766617801119,-5626.182524846693,12249.742038350994,0.0
648204.59901257406,4097374.0504322448,-22500.0,1695.8823463681183,2569.9815978860524,-6112.2241757811244,2313.2136131221923,-4271.837273984017,-2781.8013094535654,6403.0117197607888,3107.58906709851,-1657.079027294654,1657.079027294654,-3107.58906709851,11690.466903084649,0.0
653204.59901257406,4097374.0504322448,-22500.0,-482.46364295325873,3302.5177707327366,-4654.8527691581794,3069.2710217713916,-3743.0215211472873,-2659.3048392179717,5754.3770982926371,952.99179314213575,98.33029256060513,-98.33029256060513,-952.99179314213575,10773.885793623718,0.0
658204.59901257406,4097374.0504322448,-22500.0,-1883.5607943070206,3295.0306011003431,-3373.8491239462332,3191.7493875592777,-3010.3179042393226,-2287.2963173720209,5037.4934075284582,-510.91575250659866,1038.5146561634681,-1038.5146561634681,510.91575250659866,9596.9679294571197,0.0
663204.59901257406,4097374.0504322448,-22500.0,-2644.5353599271302,2960.9520378491557,-2395.3538379701799,2993.2584167018886,-2326.7022138650868,-1869.914437351963,4336.5089887951472,-1375.2875868994888,1444.6671623219636,-1444.6671623219636,1375.2875868994888,8360.0380453059151,0.0
668204.59901257406,4097374.0504322448,-22500.0,-2966.6078273111084,2525.6864976594511,-1690.7318192669127,2661.8472490003624,-1764.9366492054912,-1487.928079929658,3698.4198535627729,-1815.8635466428991,1545.2623860204967,-1545.2623860204967,1815.8635466428991,7187.928399858356,0.0
673204.59901257406,4097374.0504322448,-22500.0,-3015.2763399943551,2095.3026486790241,-1196.2315747312268,2297.9759796846574,-1328.3896960795669,-1167.0654429959902,3140.6058217763511,-1984.4802400325943,1487.5068148808009,-1487.5068148808009,1984.4802400325943,6137.5603420891612,0.0
678204.59901257406,4097374.0504322448,-22500.0,-2906.4273116097233,1712.4950187763955,-852.57378365216857,1950.6347820328403,-998.21952693552646,-909.25581025107556,2664.1293844421116,-1989.9021801535919,1357.5059532483806,-1357.5059532483806,1989.9021801535919,5225.6370888761567,0.0
683204.59901257406,4097374.0504322448,-22500.0,-2715.3617512439764,1389.188025806191,-614.04444772105148,1640.5294949554805,-751.69028831213586,-707.12806090388699,2262.4205565485613,-1903.9807331759687,1202.6306445724852,-1202.6306445724852,1903.9807331759687,4448.2869528940464,0.0
688204.59901257406,4097374.0504322448,-22500.0,-2488.6589700417026,1123.6005416042549,-447.87463362363388,1373.5967770361128,-568.509840097439,-550.73443492517492,1926.060161894869,-1771.9531874615168,1047.3997398034107,-1047.3997398034107,1771.9531874615168,3792.468238356761,0.0
693204.59901257406,4097374.0504322448,-22500.0,-2253.8719344252913,908.6984639935223,-331.33865068116739,1148.5856057337705,-432.41843847976475,-430.47165094424003,1645.2265082687638,-1621.2335557277943,903.42228900603857,-903.42228900603857,1621.2335557277943,3242.1100506649636,0.0
698204.59901257406,4097374.0504322448,-22500.0,-2026.4357836593319,736.15976584850034,-248.90601894852028,961.16179652506446,-331.02849807062699,-338.14285782388703,1410.8236416334419,-1467.7772925311258,775.27827866048278,-775.27827866048278,1467.7772925311258,2781.1838019269035,0.0
703204.59901257406,4097374.0504322448,-22500.0,-1814.2993966528838,598.09177253072448,-190.01801731039677,806.03583287994843,-255.14250523728268,-267.16287370538356,1214.9066940611376,-1320.3799641135247,663.88682157291294,-663.88682157291294,1320.3799641135247,2395.0891559804268,0.0
708204.59901257406,4097374.0504322448,-22500.0,-1620.9184989452376,487.65893021168722,-147.49434738314943,677.99515565474212,-198.01938419562927,-212.41311758666595,1050.753203106796,-1183.4699510590576,568.38611299601268,-568.38611299601268,1183.4699510590576,2071.1449279794001,0.0
713204.59901257406,4097374.0504322448,-22500.0,-1447.1450278829641,399.20800764088966,-116.43490303434181,572.3503491910293,-154.74587737316614,-169.987467747712,912.77730984411346,-1058.8810995760739,487.15578222172803,-487.15578222172803,1058.8810995760739,1798.6353437896746,0.0
718204.59901257406,4097374.0504322448,-22500.0,-1292.3883056333812,328.17960336182847,-93.476633895703529,485.07668251554901,-121.7440527777467,-136.93324522130911,796.38190428230655,-946.95210072284692,418.35151003057751,-418.35151003057751,946.95210072284692,1568.6445098471502,0.0
723204.59901257406,4097374.0504322448,-22500.0,-1155.3253972416435,270.9499956072043,-76.295977208922949,412.81367127060645,-96.403956903004854,-111.02829661517256,697.80676068110427,-847.20532013762818,360.17321896307544,-360.17321896307544,847.20532013762818,1373.8274562273891,0.0
528204.59901257406,4102374.0504322448,-22500.0,-740.92145643361812,-475.01158881853036,-183.52598902393214,-307.17037814835908,-169.39423997640114,-93.056959668102607,610.19832775748375,-446.79423116797739,-362.27325348297222,362.27325348297222,446.79423116797739,1189.6863271669642,0.0
533204.59901257406,4102374.0504322448,-22500.0,-793.06518723464035,-550.55317228424724,-222.39095361553839,-350.7674011336083,-204.5333690043314,-112.36291197122814,691.58126276799749,-466.17089345901712,-435.94554091104857,435.94554091104857,466.17089345901712,1343.3193261270435,0.0
538204.59901257406,4102374.0504322448,-22500.0,-841.6458186584133,-639.25578132933197,-271.92796373423965,-399.95324781782057,-247.97027553212848,-135.9621621660327,785.91277624586519,-478.28626457404835,-526.68982840364276,526.68982840364276,478.28626457404835,1520.1403599929192,0.0
543204.59901257406,4102374.0504322448,-22500.0,-882.0196785403067,-742.90815862628631,-335.44437919482908,-454.52667889792792,-301.65747237802833,-164.67229471130946,895.22207437071017,-478.46176266829553,-638.5421406743294,638.5421406743294,478.46176266829553,1723.2992368607429,0.0
548204.59901257406,4102374.0504322448,-22500.0,-907.16028781823468,-862.98790703423958,-417.26110140132073,-513.48371540286905,-367.83202260470193,-199.28200085234639,1021.6730708129446,-459.94540617171458,-776.24493107679757,776.24493107679757,459.94540617171458,1955.8747497519214,0.0
553204.59901257406,4102374.0504322448,-22500.0,-906.67351687212124,-1000.1096518202517,-522.92337549463298,-574.41334787904179,-448.85068011831186,-240.34019703285472,1167.4256294562904,-413.15837285053112,-945.08446048051883,945.08446048051883,413.15837285053112,2220.4660743247869,0.0
558204.59901257406,4102374.0504322448,-22500.0,-865.53308470753814,-1153.0490281273364,-659.32117923901808,-632.53977673925863,-546.76148925653843,-287.73041634240883,1334.3850763176749,-324.79935500577119,-1150.3841716230822,1150.3841716230822,324.79935500577119,2518.5233280572911,0.0
563204.59901257406,4102374.0504322448,-22500.0,-762.59815909914664,-1317.0997207579537,-834.51774693859193,-679.25438674981524,-662.35968064139411,-339.8610369310897,1523.8021929864476,-176.93927802238056,-1396.3372054332399,1396.3372054332399,176.93927802238056,2849.3609476164015,0.0
568204.59901257406,4102374.0504322448,-22500.0,-569.18132336597455,-1481.4575158143948,-1056.8640782379575,-699.96800335704006,-793.27999348468677,-392.19163472002043,1735.7279177471057,53.529459767769708,-1683.6533570476531,1683.6533570476531,-53.529459767769708,3208.9513572315636,0.0
573204.59901257406,4102374.0504322448,-22500.0,-248.37493931092285,-1625.3662109719917,-1332.5823129192459,-671.19067662875011,-930.36878631440948,-434.65786535331455,1968.497448515476,394.27102214057072,-2005.2354099242659,2005.2354099242659,-394.27102214057072,3589.1409283646062,0.0
578204.59901257406,4102374.0504322448,-22500.0,243.35763594374157,-1713.1561938620662,-1660.3995906090463,-557.05256217710621,-1051.1637146781359,-447.36163881578096,2218.9605834675176,874.13329756427549,-2338.9488539246349,2338.9488539246349,-874.13329756427549,3979.5594546745338,0.0
583204.59901257406,4102374.0504322448,-22500.0,949.62260393013366,-1689.61207806225,-2021.1911783048395,-306.29717894994161,-1108.9479063765129,-393.72904852793584,2485.7587788516621,1514.4568378780586,-2637.0472708358948,2637.0472708358948,-1514.4568378780586,4378.8808813484147,0.0
588204.59901257406,4102374.0504322448,-22500.0,1898.855981382575,-1480.2070409619193,-2360.9436941873237,147.53417310465792,-1016.1535308702836,-210.38876385799253,2782.3595101908832,2312.1179523770588,-2814.324750515776,2814.324750515776,-2312.1179523770588,4831.7582962911383,0.0
593204.59901257406,4102374.0504322448,-22500.0,3077.9460799595472,-1005.9782855416858,-2569.452317602399,877.40528183128185,-623.39208896873356,206.37137081256495,3178.1137380316309,3214.0790204356763,-2743.7527457280939,2743.7527457280939,-3214.0790204356763,5516.6542096227704,0.0
598204.59901257406,4102374.0504322448,-22500.0,4398.9437330565816,-226.44126730455611,-2469.1752473185234,1938.2454360092597,297.82688307700397,1016.5129566471613,3900.5757593440148,4092.4786531802702,-2279.0764317125195,2279.0764317125195,-4092.4786531802702,6860.8508860509182,0.0
603204.59901257406,4102374.0504322448,-22500.0,5669.1239258996129,785.05424337788611,-1844.7308949644118,3319.1918730201191,2050.5706173687277,2453.1771436296522,5386.3051417530514,4738.4497290140207,-1326.6679908124665,1326.6679908124665,-4738.4497290140207,9494.7735558656659,0.0
608204.59901257406,4102374.0504322448,-22500.0,6549.8064211110623,1743.2530594707634,-536.43892599553658,4846.6230110572033,4956.7440382766554,4834.5516594900091,7949.5774309741691,4871.0305087626584,30.339065815609047,-30.339065815609047,-4871.0305087626584,13939.018898329168,0.0
613204.59901257406,4102374.0504322448,-22500.0,6495.5706694285645,1982.9202682679754,1384.7271911839543,5919.0103116980854,9140.8095316541421,8474.4755886556595,11547.186240518091,4164.5864209227511,1309.5007950934462,-1309.5007950934462,-4164.5864209227511,20191.92470523257,0.0
618204.59901257406,4102374.0504322448,-22500.0,5139.8258323634946,258.01529357951455,3135.347788483668,5053.929497177639,13736.588686398702,13024.227021490091,15411.853656771114,2711.2368415733381,1135.8368300678969,-1135.8368300678969,-2711.2368415733381,26923.851050557754,0.0
623204.59901257406,4102374.0504322448,-22500.0,3939.0836673995791,-4213.239272114507,2479.138310343254,620.88418309709914,15464.12470303233,15771.054901582775,17491.763882460873,2399.9678591046404,-2606.1473985669227,2606.1473985669227,-2399.9678591046404,30516.046937502018,0.0
628204.59901257406,4102374.0504322448,-22500.0,6093.3618931074952,-8238.4568414651312,-2509.5124228429277,-4917.0437261815532,10135.828243550359,11896.587035461404,15660.839760810759,5986.7577675289303,-8968.4579954381097,8968.4579954381097,-5986.7577675289303,27239.030783520477,0.0
633204.59901257406,4102374.0504322448,-22500.0,9318.2913860369517,-6335.6750644018884,-8362.0351729136655,-4715.1331378215236,570.57447083329157,2745.7788262784952,11932.9796496082,10186.436705176711,-11259.289829962778,11259.289829962778,-10186.436705176711,20680.525693934433,0.0
638204.59901257406,4102374.0504322448,-22500.0,7732.2588214784919,-853.19010158846527,-9985.1069721387703,199.83873504741879,-5271.4601374788854,-3540.1465740781891,10377.718191965685,9132.1952575725009,-7540.095480360058,7540.095480360058,-9132.1952575725009,18081.021178326751,0.0
643204.59901257406,4102374.0504322448,-22500.0,3216.8080693778934,2885.1143879229326,-8272.0341941152219,3950.2235745266771,-6333.4076186078146,-5202.7199609345607,9653.8857924725962,4931.7802304181569,-2864.8209891768124,2864.8209891768124,-4931.7802304181569,17270.550931747399,0.0
648204.59901257406,4102374.0504322448,-22500.0,-604.41633696684653,4160.2745567565244,-5888.7499483066758,5310.4958476254478,-5403.8883843473168,-4807.124193764982,8559.7896848577275,1211.3780868848139,109.3391551595563,-109.3391551595563,-1211.3780868848139,15732.520626917621,0.0
653204.59901257406,4102374.0504322448,-22500.0,-2864.3285939874922,4110.7117690079267,-3951.587968390771,5307.3767609892793,-4136.3658733439925,-3932.5085881944306,7301.7230813856504,-1103.3916851493386,1523.4209269527623,-1523.4209269527623,1103.3916851493386,13699.960534335227,0.0
658204.59901257406,4102374.0504322448,-22500.0,-3930.3974340447053,3574.2049534910257,-2600.2750593615606,4764.7237342998196,-3043.1315696124043,-3080.8513352997038,6113.5073490324094,-2302.3436597812174,2026.8190600754258,-2026.8190600754258,2302.3436597812174,11643.689407677204,0.0
663204.59901257406,4102374.0504322448,-22500.0,-4272.109174914026,2939.0340230111251,-1707.5636071921831,4076.2675033337218,-2207.3087490552325,-2368.1454108435096,5081.5104875084053,-2805.0314590081784,2076.7422589621369,-2076.7422589621369,2805.0314590081784,9782.5067919213361,0.0
668204.59901257406,4102374.0504322448,-22500.0,-4215.5470457045576,2353.2140979082842,-1128.6677894717941,3404.2141664943351,-1595.8726610574311,-1803.8983284429737,4217.1136453215286,-2912.2763099126964,1925.3547127142717,-1925.3547127142717,2912.2763099126964,8180.4465266995694,0.0
673204.59901257406,4102374.0504322448,-22500.0,-3958.0372879849401,1860.4769840775009,-754.56254741305065,2808.0994938357985,-1156.3373369503377,-1369.5037603705705,3504.8904245090339,-2809.7193328329008,1700.7035496323583,-1700.7035496323583,2809.7193328329008,6835.3635384955896,0.0
678204.59901257406,4102374.0504322448,-22500.0,-3613.2725291887168,1463.3460145556392,-511.90547084857951,2303.1715150894938,-842.20123533761318,-1040.3023402827773,2922.3458869002625,-2606.0806868420768,1464.3869016823633,-1464.3869016823633,2606.0806868420768,5720.5575566295147,0.0
683204.59901257406,4102374.0504322448,-22500.0,-3244.529795021368,1150.007449443628,-353.33594614753048,1885.9497540860652,-617.62488001620136,-792.8637768085722,2447.0784233099043,-2363.0323948148753,1243.8155921068742,-1243.8155921068742,2363.0323948148753,4802.4763121393835,0.0
688204.59901257406,4102374.0504322448,-22500.0,-2885.4064326934235,905.32128381513746,-248.71714366320421,1545.8443397968651,-456.46599395667823,-607.43789186704305,2059.2038873090673,-2114.3025116498447,1049.2715820685034,-1049.2715820685034,2114.3025116498447,4048.1827389441414,0.0
693204.59901257406,4102374.0504322448,-22500.0,-2552.3007880364867,715.033236006072,-178.93113982146662,1270.5088022895079,-340.1330786198331,-468.38646391934753,1741.9598572814702,-1877.2978886904493,882.77250011293256,-882.77250011293256,1877.2978886904493,3428.2867966913536,0.0
698204.59901257406,4102374.0504322448,-22500.0,-2251.8592132948129,567.10981877636391,-131.81729501474456,1048.2040050521884,-255.55636902118036,-363.77091091179068,1481.6009674674688,-1660.0674802075191,742.62273707195254,-742.62273707195254,1660.0674802075191,2917.8059476112976,0.0
703204.59901257406,4102374.0504322448,-22500.0,-1985.3821399173607,451.90031466657427,-99.594951209250752,868.69892105123881,-193.58386961408397,-284.66982213539222,1267.0309217756724,-1465.4314398647098,625.70297628284516,-625.70297628284516,1465.4314398647098,2496.079622451563,0.0
708204.59901257406,4102374.0504322448,-22500.0,-1751.3984815390188,361.86942527765353,-77.248532693479035,723.47286641646565,-147.80288851158718,-224.49450992015781,1089.3686319123765,-1293.4018937141382,528.58034281402649,-528.58034281402649,1293.4018937141382,2146.2926346421677,0.0
713204.59901257406,4102374.0504322448,-22500.0,-1547.143490649783,291.21595065451447,-61.517368288050939,605.60886362468443,-113.70407026914071,-178.40534360859689,941.53499866076731,-1142.5826592795315,448.0105950290926,-448.0105950290926,1142.5826592795315,1854.8822788329214,0.0
718204.59901257406,4102374.0504322448,-22500.0,-1369.3865468577374,235.50494487157309,-50.262820768239067,509.57395666973389,-88.09948567314261,-142.85182155021272,817.89464527698703,-1010.9637011363257,381.13399572058819,-381.13399572058819,1010.9637011363257,1610.9602500820047,0.0
723204.59901257406,4102374.0504322448,-22500.0,-1214.874118577254,191.35430872098178,-42.069336822314774,430.9771714709521,-68.720509607567934,-115.22464784716718,713.95734218762902,-896.35738655590899,325.52098427071991,-325.52098427071991,896.35738655590899,1405.7975543318505,0.0
523204.59901257406,4107374.0504322448,-22500.0,-838.70792737287547,-383.84446258575662,-112.90301207297954,-317.06802964850357,-129.69800718883567,-89.030670425501086,585.86853908962371,-549.8636526437499,-234.04719050224301,234.04719050224301,549.8636526437499,1157.0480398547606,0.0
528204.59901257406,4107374.0504322448,-22500.0,-922.12407632023417,-447.55717838146415,-135.24035963074721,-367.76150793324723,-156.99529200965125,-108.54035396948856,665.9647297305961,-598.79404787261569,-283.93995526387693,283.93995526387693,598.79404787261569,1312.066729491173,0.0
533204.59901257406,4107374.0504322448,-22500.0,-1012.2663085531451,-523.92531330554584,-163.86650592174448,-427.58167925154908,-191.15058467187924,-132.97335662670841,759.70639916692562,-649.56434801745581,-346.37513738212209,346.37513738212209,649.56434801745581,1492.8273412105661,0.0
538204.59901257406,4107374.0504322448,-22500.0,-1107.9898423731556,-615.60272184749988,-200.92944056155329,-498.03029165000055,-234.07345596756801,-163.65124147911092,869.64707657853535,-700.39747605783555,-424.86192956136944,424.86192956136944,700.39747605783555,1703.9177242187775,0.0
543204.59901257406,4107374.0504322448,-22500.0,-1206.909475667057,-725.6736067773279,-249.3893093790671,-580.62794119071441,-288.19707963448764,-202.21526442253457,998.74967783309808,-748.29438775222695,-523.90970547628046,523.90970547628046,748.29438775222695,1950.5399247029752,0.0
548204.59901257406,4107374.0504322448,-22500.0,-1304.6825316097631,-857.57393759182651,-313.3285031049341,-676.69260561694784,-356.56999950475665,-250.64684678526103,1150.3646253230954,-788.40722597927652,-649.25546834154943,649.25546834154943,788.40722597927652,2238.3734784030717,0.0
553204.59901257406,4107374.0504322448,-22500.0,-1393.9449439549783,-1014.8427940559742,-398.35830176362305,-786.91443872786465,-442.89645976166736,-311.22055598728281,1328.1188506789724,-813.13767909496664,-808.06593140029531,808.06593140029531,813.13767909496664,2573.214223176893,0.0
558204.59901257406,4107374.0504322448,-22500.0,-1462.77254478076,-1200.5486529489667,-512.11542825089055,-910.58531175772237,-551.42652162389936,-386.30316490913395,1535.6371606429968,-810.88070574198491,-1009.0075288716466,1009.0075288716466,810.88070574198491,2960.2100707245072,0.0
563204.59901257406,4107374.0504322448,-22500.0,-1492.5444199798917,-1416.125803698156,-664.77872408456642,-1044.2647481698393,-686.48821146267653,-477.83404684589954,1775.9661196020481,-764.36727179509808,-1261.9537777232224,1261.9537777232224,764.36727179509808,3402.4097949010948,0.0
568204.59901257406,4107374.0504322448,-22500.0,-1455.1711576133421,-1659.1933687496667,-869.3739306607099,-1179.5649350332958,-851.24142243020356,-586.18240063274902,2050.4930615911949,-648.69061684250096,-1576.8645565261616,1576.8645565261616,648.69061684250096,3898.2012181445607,0.0
573204.59901257406,4107374.0504322448,-22500.0,-1309.9552150516818,-1919.7475560398643,-1141.2652194164075,-1299.6531743948306,-1044.8413849113863,-707.84398340135999,2357.0678677872684,-429.46376595460015,-1960.9700775808324,1960.9700775808324,429.46376595460015,4437.1265280184698,0.0
578204.59901257406,4107374.0504322448,-22500.0,-1001.1420838347572,-2174.0765294163675,-1495.4498159148586,-1374.1117370362929,-1256.5127855478709,-831.06314115428518,2687.0122126310448,-62.406302085374818,-2412.791991533556,2412.791991533556,62.406302085374818,4993.8148666890229,0.0
583204.59901257406,4107374.0504322448,-22500.0,-458.97751280118666,-2376.4854822503394,-1938.8741534418064,-1352.3194447063536,-1454.0086434865984,-927.91499636236927,3021.1293290071449,502.63387427822249,-2911.0537478310553,2911.0537478310553,-502.63387427822249,5521.5753380271117,0.0
588204.59901257406,4107374.0504322448,-22500.0,389.8821636777638,-2452.17855443694,-2453.3261365991893,-1157.3673015327927,-1562.9757615060742,-940.70375803128979,3327.216423219455,1307.6795793488268,-3397.7077634086795,3397.7077634086795,-1307.6795793488268,5954.6515675259234,0.0
593204.59901257406,4107374.0504322448,-22500.0,1594.3262068794315,-2303.9707777379663,-2965.9384382749331,-687.21337872586662,-1435.2911395875944,-760.2749885315385,3572.6792760768062,2356.5408233134199,-3762.1865133109354,3762.1865133109354,-2356.5408233134199,6254.9475235410027,0.0
598204.59901257406,4107374.0504322448,-22500.0,3133.2594322011182,-1861.90424374544,-3321.2420699058471,163.26198995230166,-815.84930486197334,-195.51576503954405,3817.8585002351292,3575.7483974256465,-3857.9293215814005,3857.9293215814005,-3575.7483974256465,6613.0632371959109,0.0
603204.59901257406,4107374.0504322448,-22500.0,4888.4094437764397,-1202.5730355380599,-3319.5646322540824,1450.1271018060693,652.81464708684837,1064.5543033617303,4565.14737611284,4816.8630067202757,-3614.7618663667454,3614.7618663667454,-4816.8630067202757,7907.7338818770049,0.0
608204.59901257406,4107374.0504322448,-22500.0,6670.9735996571317,-669.1201280664086,-2920.8163262940084,3119.2176123324289,3332.8274889759882,3515.1406393310144,6688.3961086943627,5954.2685669251696,-3253.4210276322915,3253.4210276322915,-5954.2685669251696,11642.446772506426,0.0
613204.59901257406,4107374.0504322448,-22500.0,8067.5271899937115,-857.76033915172138,-2500.5654020954325,4805.6883773705376,7399.749617445822,7933.3368779231341,10647.655048978888,6856.848511778815,-3393.7249578174919,3393.7249578174919,-6856.848511778815,18602.271806798675,0.0
618204.59901257406,4107374.0504322448,-22500.0,8180.692872207801,-2803.8635857173381,-2919.2708896864974,4793.7963847815272,12089.5630934456,14628.037254423542,15895.163997863856,7234.8503734115047,-5199.9967609376827,5199.9967609376827,-7234.8503734115047,27700.934024517624,0.0
623204.59901257406,4107374.0504322448,-22500.0,7903.3136571870118,-7232.162178746511,-5850.9000045100147,-71.689204304396966,13203.850725045053,19313.87871616058,19528.689815159189,8367.7569938881516,-10335.190812895204,10335.190812895204,-8367.7569938881516,34004.053986420986,0.0
628204.59901257406,4107374.0504322448,-22500.0,11197.15394437714,-9606.5146789359351,-11307.863219304987,-6245.0788589825606,5226.9083659810958,11667.300236520798,18131.129100687343,12822.163477619684,-15827.649673860877,15827.649673860877,-12822.163477619684,31513.451117601129,0.0
633204.59901257406,4107374.0504322448,-22500.0,13162.874260978519,-4446.2068911101978,-13631.523566142399,-2182.4229364118851,-5386.282029608592,-4000.3986369736822,15419.095211045169,14647.370040940392,-13333.452827682178,13333.452827682178,-14647.370040940392,26707.10408351455,0.0
638204.59901257406,4107374.0504322448,-22500.0,7084.0461501645004,1837.3592312269659,-10925.879834210864,5989.3587969439932,-8709.757706783048,-10385.123578814628,14732.029150252874,8759.3645111041351,-5816.9591914281791,5816.9591914281791,-8759.3645111041351,25695.04684403343,0.0
643204.59901257406,4107374.0504322448,-22500.0,9.4472832848292256,4338.0330219346542,-7151.9486925356659,9203.9449294810202,-7359.2992196652112,-9373.8815765695745,13067.964749513418,2075.6104150564306,-557.67262993307872,557.67262993307872,-2075.6104150564306,23349.646091205577,0.0
648204.59901257406,4107374.0504322448,-22500.0,-4028.6081952931554,4442.1742037582571,-4344.1446604220946,8943.5898751746681,-5293.6114300300496,-7052.7964463642775,10808.100069806002,-1855.3661157581923,1755.6735878703616,-1755.6735878703616,1855.3661157581923,19786.867781944045,0.0
653204.59901257406,4107374.0504322448,-22500.0,-5658.4817945965851,3764.0300595293079,-2579.8416962718788,7629.4822205264363,-3651.5530999536527,-5151.6657677145076,8721.9730891475319,-3597.9208425064512,2469.226896054523,-2469.226896054523,3597.9208425064512,16288.243215575312,0.0
658204.59901257406,4107374.0504322448,-22500.0,-6011.5022938364491,2979.0603504423502,-1527.015809623937,6229.8535968459901,-2501.7085421195043,-3768.8993234869049,7014.0457601824837,-4151.1018131804794,2491.3961438933779,-2491.3961438933779,4151.1018131804794,13300.98607314499,0.0
663204.59901257406,4107374.0504322448,-22500.0,-5771.2566795562534,2293.0502563908149,-907.61395308566171,5007.9316206558469,-1720.662261293435,-2770.4228497361582,5662.3227518367457,-4128.711920597937,2253.1153463581377,-2253.1153463581377,4128.711920597937,10860.913969551828,0.0
668204.59901257406,4107374.0504322448,-22500.0,-5283.6843436268382,1745.2084132095815,-543.71161818871281,4004.3829011938769,-1192.4191039945135,-2045.3706478461272,4598.7310573096729,-3848.798121812109,1941.5591704013755,-1941.5591704013755,3848.798121812109,8894.5260058764488,0.0
673204.59901257406,4107374.0504322448,-22500.0,-4717.8739078339186,1323.6509660784068,-329.27013733076149,3199.927732130443,-833.78985410470466,-1517.3406504845791,3759.776729659809,-3470.7962816882573,1634.1554427025803,-1634.1554427025803,3470.7962816882573,7315.5839507210121,0.0
678204.59901257406,4107374.0504322448,-22500.0,-4155.174884876018,1004.5187628168248,-202.37129412241191,2562.2206565338106,-588.61907659151586,-1132.2662550962195,3094.9006948349142,-3073.6562598623996,1359.8041577512249,-1359.8041577512249,3073.6562598623996,6047.7420488641237,0.0
683204.59901257406,4107374.0504322448,-22500.0,-3632.7101450419354,764.481391690441,-126.98164575620297,2059.2155364460887,-419.59024022381328,-850.86732054464233,2565.160681206266,-2695.046409253001,1126.1346625948263,-1126.1346625948263,2695.046409253001,5027.8191416315431,0.0
688204.59901257406,4107374.0504322448,-22500.0,-3164.9017159199389,584.14711252815277,-82.06298388061586,1662.9739164727141,-301.97010512156061,-644.48115877146586,2140.685233404688,-2351.1590599060255,931.82451737638053,-931.82451737638053,2351.1590599060255,4204.7654439986418,0.0
693204.59901257406,4107374.0504322448,-22500.0,-2754.5996958553033,448.41273462669051,-55.259665520965704,1350.4592332140803,-219.3269297677522,-492.31495793914559,1798.5285568515812,-2047.0687295565265,772.22442807124639,-772.22442807124639,2047.0687295565265,3537.8592893884211,0.0
698204.59901257406,4107374.0504322448,-22500.0,-2399.013451885522,345.87181890182313,-39.265931499454403,1103.2510924112396,-160.68838505081169,-379.38868001917729,1521.0270201111771,-1782.2816463013369,641.88582757891527,-641.88582757891527,1782.2816463013369,2994.8824963434463,0.0
703204.59901257406,4107374.0504322448,-22500.0,-2092.8982682878859,268.03992158850929,-29.733747104465266,906.88749626231049,-118.67781441138087,-294.95790297247231,1294.5513003450264,-1553.7286501335882,535.63327366576027,-535.63327366576027,1553.7286501335882,2550.4734634974916,0.0
708204.59901257406,4107374.0504322448,-22500.0,-1830.2403783254435,208.64861636605198,-24.060389330372214,750.13502380173702,-88.296035148452575,-231.32595707576186,1108.5546594769157,-1357.3601820435401,448.95470507460595,-448.95470507460595,1357.3601820435401,2184.7162776788537,0.0
713204.59901257406,4107374.0504322448,-22500.0,-1605.1122658887477,163.07555639564021,-20.681211110959861,624.31754999307361,-66.125394121795026,-182.97139637316269,954.84774391174096,-1188.970149497361,378.08228664927162,-378.08228664927162,1188.970149497361,1881.9771747750324,0.0
718204.59901257406,4107374.0504322448,-22500.0,-1412.0695886067774,127.90843654053286,-18.653462647798609,522.74805697436943,-49.807955166641939,-145.91879304591046,827.04556585165756,-1044.5943858003566,319.94246824936624,-319.94246824936624,1044.5943858003566,1629.9669308214361,0.0
723204.59901257406,4107374.0504322448,-22500.0,-1246.3006469684512,100.62055232363242,-17.409232437909722,440.2704832319157,-37.701605305999003,-117.29097557874769,720.14667916161011,-920.67851264591445,272.06006810761983,-272.06006810761983,920.67851264591445,1418.9991788930279,0.0
523204.59901257406,4112374.0504322448,-22500.0,-978.92270850726618,-335.42803486429028,-74.14784849177093,-361.71208470789503,-111.72578980140918,-99.888405275872572,629.2211901230645,-670.09299467601159,-150.97068187025394,150.97068187025394,670.09299467601159,1250.3925254210201,0.0
528204.59901257406,4112374.0504322448,-22500.0,-1092.1661146542299,-393.02149344971178,-87.586409380416683,-424.32777542985849,-135.72966813681398,-122.95227964253438,718.7854291586782,-744.49025391762689,-186.15856137716412,186.15856137716412,744.49025391762689,1426.0893337671453,0.0
533204.59901257406,4112374.0504322448,-22500.0,-1219.7626985744037,-462.8744206838241,-104.96952717094067,-499.86105351645477,-166.02255782387701,-152.30068926548688,824.64021813472698,-827.17052878484299,-231.02264470143984,231.02264470143984,827.17052878484299,1633.1783347731696,0.0
538204.59901257406,4112374.0504322448,-22500.0,-1362.7644222126587,-547.94458304246314,-127.79375635867257,-591.19382082640368,-204.49373490939581,-189.84785894065632,950.17600150751753,-918.17151436535346,-288.59342303204812,288.59342303204812,918.17151436535346,1878.0525879859522,0.0
543204.59901257406,4112374.0504322448,-22500.0,-1521.6361314634273,-651.90150760934137,-158.21085257284599,-701.7794880551819,-253.63633117358799,-238.11267957037958,1099.5043059699931,-1016.8211850821241,-362.9322848099597,362.9322848099597,1016.8211850821241,2168.3581033182672,0.0
548204.59901257406,4112374.0504322448,-22500.0,-1695.700663199777,-779.23503703591894,-199.33852024297616,-835.65265373748412,-316.72315385375367,-300.38565795073151,1277.5526266257748,-1121.215494989588,-459.48242339988303,459.48242339988303,1121.215494989588,2513.0888456007651,0.0
553204.59901257406,4112374.0504322448,-22500.0,-1882.2295268933058,-935.30512085121813,-255.72111428508114,-997.32613393188615,-397.99957103738279,-380.90516293200898,1490.1148685817518,-1227.3889298214317,-585.51440916414106,585.51440916414106,1227.3889298214317,2922.5269869159993,0.0
558204.59901257406,4112374.0504322448,-22500.0,-2074.9826839248221,-1126.2314378223818,-334.00259169033723,-1191.4568071327724,-502.84466897632484,-484.99426889170996,1743.7853010646536,-1328.0200913296271,-750.65228360011633,750.65228360011633,1328.0200913296271,3407.8431113831216,0.0
563204.59901257406,4112374.0504322448,-22500.0,-2261.9167085176068,-1358.4219213702177,-443.88142574374746,-1422.0709553462541,-637.77476061472009,-619.04485880166612,2045.639481523642,-1410.4577518957167,-967.40441476571868,967.40441476571868,1410.4577518957167,3980.0174506485941,0.0
568204.59901257406,4112374.0504322448,-22500.0,-2421.6910936454906,-1637.3482260173305,-599.3820726512572,-1690.987449193746,-809.99146307996159,-790.1081671270947,2402.3979339668435,-1453.8137369931269,-1251.4656774708051,1251.4656774708051,1453.8137369931269,4647.4645280103568,0.0
573204.59901257406,4112374.0504322448,-22500.0,-2518.5773649311868,-1964.8397613841662,-820.30771474966525,-1994.8394212155256,-1025.808190355137,-1004.6088960388198,2818.5669049156863,-1424.9342763852937,-1621.1977447010822,1621.1977447010822,1424.9342763852937,5411.2733964133013,0.0
578204.59901257406,4112374.0504322448,-22500.0,-2495.6672173444172,-2333.6402140792811,-1133.1824158309078,-2319.7625950797965,-1286.5108287549983,-1265.2492542575023,3292.6009895804937,-1273.5055809146861,-2094.913426819327,2094.913426819327,1273.5055809146861,6256.2547263068482,0.0
583204.59901257406,4112374.0504322448,-22500.0,-2267.6248324675194,-2717.4340006323951,-1569.4285181320511,-2632.5108171058887,-1578.59866662074,-1564.2875141280804,3809.3458888517298,-928.11258036698894,-2683.0672082559568,2683.0672082559568,928.11258036698894,7135.1732602655975,0.0
588204.59901257406,4112374.0504322448,-22500.0,-1718.6295995591124,-3055.464094225003,-2154.7834678484724,-2867.3829370767226,-1852.3348324294061,-1869.6281696019394,4326.1434355440379,-299.50278482326235,-3370.3698828286197,3370.3698828286197,299.50278482326235,7944.4220913577528,0.0
593204.59901257406,4112374.0504322448,-22500.0,-721.67698904131066,-3239.5344595877182,-2877.7416700276553,-2913.7337863833109,-1978.9310765375299,-2097.2830806011184,4751.8314878557585,693.52534897933947,-4084.5696219515057,4084.5696219515057,-693.52534897933947,8501.5763370173354,0.0
598204.59901257406,4112374.0504322448,-22500.0,794.07674514049654,-3145.2175723979135,-3627.6846148824975,-2629.2850075405008,-1683.8869646985831,-2064.0810565120587,4939.517507469106,2056.0908407264951,-4675.7072120443427,4675.7072120443427,-2056.0908407264951,8602.6724586830187,0.0
603204.59901257406,4112374.0504322448,-22500.0,2753.3374649691873,-2816.6336497348525,-4166.4512248134733,-1937.4764143749937,-520.28777413623823,-1439.1469040958459,4878.9401245493236,3655.8983278631904,-5033.0283943997229,5033.0283943997229,-3655.8983278631904,8504.2996654594099,0.0
608204.59901257406,4112374.0504322448,-22500.0,5074.7699756225675,-2830.2761111948212,-4435.2910815920404,-974.2561835518311,1877.7328785090733,242.29085794332343,5924.3328860708152,5458.6534395705321,-5570.3555877839271,5570.3555877839271,-5458.6534395705321,10261.262129357208,0.0
613204.59901257406,4112374.0504322448,-22500.0,8066.3943372033536,-4141.9661749436646,-5405.405526256025,103.63987818051443,5152.2840977073565,3678.5047746473101,9118.8576546534932,8094.1228352534636,-7645.687599101002,7645.687599101002,-8094.1228352534636,16515.694526456326,0.0
618204.59901257406,4112374.0504322448,-22500.0,11258.936507099572,-6961.6212675168872,-8808.4248147849885,616.53190930374865,7940.4389216456839,9878.5743194405895,14141.687865934327,11816.653617545064,-12323.319060604175,12323.319060604175,-11816.653617545064,26694.357475412718,0.0
623204.59901257406,4112374.0504322448,-22500.0,13895.851522282659,-10369.639719732288,-14509.040285173398,-2789.6287038160485,6337.0986033756635,13798.957062775144,19716.290863025613,15950.495746572946,-18671.153607197761,18671.153607197761,-15950.495746572946,35644.155415493326,0.0
628204.59901257406,4112374.0504322448,-22500.0,17625.744150712784,-9014.225957209057,-17944.568087358708,-5005.0802873180519,-2427.4700885656371,1536.2520934707256,20714.209715471039,19750.830879794768,-20122.707125341483,20122.707125341483,-19750.830879794768,35894.424902885563,0.0
633204.59901257406,4112374.0504322448,-22500.0,14690.516675093955,-2382.8120120270082,-14447.6899427589,4495.7814316225231,-8133.3099193503494,-15252.06392963805,19428.708135360666,15885.751604887686,-12392.60709166358,12392.60709166358,-15885.751604887686,33900.46961138615,0.0
638204.59901257406,4112374.0504322448,-22500.0,4133.1937747244301,1782.0942634392352,-8760.0788300249405,12943.15208756122,-7458.675120856532,-17136.173820425996,18420.950573283066,5858.7046353111145,-4167.2546072495807,4167.2546072495807,-5858.7046353111145,31990.457378336141,0.0
643204.59901257406,4112374.0504322448,-22500.0,-3713.6714920125628,2774.8129905052601,-4770.9914811841854,13806.382418110243,-5213.051352788807,-12530.685990640344,15401.149999880265,-1347.8802183429721,134.60277590251621,-134.60277590251621,1347.8802183429721,27313.189590322119,0.0
648204.59901257406,4112374.0504322448,-22500.0,-6982.3189505608889,2515.6533780462019,-2503.3854410918075,11609.010651774461,-3394.8130724595349,-8497.7476765306001,12147.982162972789,-4501.0154529202646,1730.2030316762414,-1730.2030316762414,4501.0154529202646,22068.349784090948,0.0
653204.59901257406,4112374.0504322448,-22500.0,-7713.5030059942737,1977.3341225255758,-1281.999141224394,9142.5773034503891,-2181.6508747726994,-5851.5329549381386,9484.5501249130048,-5409.1960377305122,2105.0137984281619,-2105.0137984281619,5409.1960377305122,17596.147828923422,0.0
658204.59901257406,4112374.0504322448,-22500.0,-7383.2860049426999,1471.2713637729896,-635.53232225132888,7101.1922734874142,-1406.765740071007,-4129.7704692750358,7455.4563273824151,-5343.8031254885227,2010.9635403579516,-2010.9635403579516,5343.8031254885227,14066.815723560556,0.0
663204.59901257406,4112374.0504322448,-22500.0,-6676.7215703181701,1068.2168759881108,-297.87014356456297,5520.0397456393312,-914.36713234005344,-2965.3274664558453,5922.9872809327171,-4905.0487377303052,1764.7758607554915,-1764.7758607554915,4905.0487377303052,11319.617491990444,0.0
668204.59901257406,4112374.0504322448,-22500.0,-5880.6597377961898,766.2644803547214,-124.92246665524267,4310.750678108775,-599.61824167397549,-2153.8111777465206,4754.8488258617454,-4352.7801240689705,1492.2587452883993,-1492.2587452883993,4352.7801240689705,9173.6020547121916,0.0
673204.59901257406,4112374.0504322448,-22500.0,-5112.0300470283046,545.98733328573257,-39.34908583948598,3385.6329001493209,-396.54879070331663,-1578.7488858140025,3853.7141046204729,-3797.71997158966,1240.2656619515396,-1240.2656619515396,3797.71997158966,7486.4243507465635,0.0
678204.59901257406,4112374.0504322448,-22500.0,-4415.6631438637332,387.18790662208096,0.28834978843769221,2675.7252122848145,-264.17772326973255,-1167.3596877734601,3151.0089899208779,-3285.2866910631483,1023.2082334749048,-1023.2082334749048,3285.2866910631483,6151.8600200970504,0.0
683204.59901257406,4112374.0504322448,-22500.0,-3804.6426712264106,273.24650633986778,16.172360818590207,2128.8158554980409,-176.99034480344585,-870.959999770796,2597.8757276536044,-2831.2904280532589,842.40214343978232,-842.40214343978232,2831.2904280532589,5090.14746559997,0.0
688204.59901257406,4112374.0504322448,-22500.0,-3277.8327488641507,191.5773230145308,20.147892696985465,1705.5407473001026,-118.98581403356469,-655.91609831660378,2158.7930096903387,-2437.8941129979321,694.27519402444705,-694.27519402444705,2437.8941129979321,4240.6696503317453,0.0
693204.59901257406,4112374.0504322448,-22500.0,-2828.0160349206603,132.9943812605174,18.49930389719183,1376.2224577210302,-80.034954325774635,-498.71330624703012,1807.4847266120837,-2101.1719807075201,573.86085738057557,-573.86085738057557,2101.1719807075201,3556.985927369054,0.0
698204.59901257406,4112374.0504322448,-22500.0,-2445.8580827823571,90.909554087521656,14.515842437565315,1118.5023462594952,-53.659409167365119,-382.84627569724898,1524.272097377474,-1814.8330928165676,476.24059379967161,-476.24059379967161,1814.8330928165676,3003.373310781622,0.0
703204.59901257406,4112374.0504322448,-22500.0,-2121.8299234721053,60.632920139053397,9.8744036942673237,915.54195208201122,-35.670570993785766,-296.70039355077233,1294.2783856709298,-1572.0493366044955,397.07326659186674,-397.07326659186674,1572.0493366044955,2552.2778145929806,0.0
708204.59901257406,4112374.0504322448,-22500.0,-1847.0913233774988,38.833003683601262,5.3878157097581223,754.65297925799598,-23.330732825421123,-232.0757451609781,1106.17105289804,-1366.3161123607206,332.72764546040219,-332.72764546040219,1366.3161123607206,2182.3913360818565,0.0
713204.59901257406,4112374.0504322448,-22500.0,-1613.83425970697,23.140676311843436,1.4109226991497468,626.25674085788694,-14.831123098081616,-183.15627739722703,951.25806460777198,-1191.8111445966902,280.25001828793751,-280.25001828793751,1191.8111445966902,1877.1839669033848,0.0
718204.59901257406,4112374.0504322448,-22500.0,-1415.3550462335629,11.866288184948747,-1.9388998217353608,523.10066880586339,-8.9642535400567009,-145.79262218870127,822.83034639470191,-1043.4996679694859,237.27402608810769,-237.27402608810769,1043.4996679694859,1623.7858083772821,0.0
723204.59901257406,4112374.0504322448,-22500.0,-1245.9907765111884,3.7994365885087751,-4.6622845794256591,439.67037253372627,-4.9157999668020054,-117.00396923628855,715.6751147067431,-917.11205913347499,201.91772566523053,-201.91772566523053,917.11205913347499,1412.129617588944,0.0
523204.59901257406,4117374.0504322448,-22500.0,-1100.8853511287002,-267.000604971136,-40.678618654305041,-400.4730367110393,-87.493083055943458,-109.31319600257495,670.01938115333212,-776.66541193136004,-57.848635726228792,57.848635726228792,776.66541193136004,1331.8976038408823,0.0
528204.59901257406,4117374.0504322448,-22500.0,-1240.5364121294342,-312.90544946463694,-46.027954691943698,-473.58011218785174,-106.14863538262867,-135.49746215047892,767.97574752643493,-874.1753280258971,-74.895679663808323,74.895679663808323,874.1753280258971,1525.8930472306818,0.0
533204.59901257406,4117374.0504322448,-22500.0,-1401.5698712517051,-368.84932148377834,-53.001099120246259,-563.03463241095562,-129.73636221658063,-169.18720540622093,884.75033895332945,-986.10664321662375,-97.406859902324811,97.406859902324811,986.10664321662375,1756.450972436282,0.0
538204.59901257406,4117374.0504322448,-22500.0,-1587.2170932382041,-437.41957034663,-62.344408134697581,-673.02623452390549,-159.7830468823359,-212.8463134702088,1024.6080298287457,-1114.3855067215195,-127.34325334793937,127.34325334793937,1114.3855067215195,2031.7194022881761,0.0
543204.59901257406,4117374.0504322448,-22500.0,-1800.8676171956308,-521.92978257109235,-75.205420893666087,-808.87997935284761,-198.33669464252733,-269.82120944442022,1192.8735928361302,-1260.8621599258076,-167.44516662418471,167.44516662418471,1260.8621599258076,2361.7893855965026,0.0
548204.59901257406,4117374.0504322448,-22500.0,-2045.7728849626512,-626.61246259363827,-93.36832779093082,-977.33255642720792,-248.14530103405232,-344.661775819632,1396.2021958019043,-1426.9979999389934,-221.56605562469178,221.56605562469178,1426.9979999389934,2759.0940655285535,0.0
553204.59901257406,4117374.0504322448,-22500.0,-2324.4673821971887,-756.83550646326182,-119.63698294937409,-1186.8286954095008,-312.88245187885275,-443.54262044560124,1642.8850617044345,-1613.2927471155301,-295.15400897016411,295.15400897016411,1613.2927471155301,3238.797346201769,0.0
558204.59901257406,4117374.0504322448,-22500.0,-2637.7003403149861,-919.30899573387205,-158.46222092596352,-1447.7851132194021,-397.40932269256837,-574.79261426202356,1943.1675971104553,-1818.2692764091159,-395.94189277106511,395.94189277106511,1818.2692764091159,3819.0581650464155,0.0
563204.59901257406,4117374.0504322448,-22500.0,-2982.5299086013283,-1122.1929830559657,-216.97273934787506,-1772.7049151893032,-508.02444661608774,-749.51221775053068,2309.5150381122958,-2036.712906248471,-534.92063762528949,534.92063762528949,2036.712906248471,4520.929364390403,0.0
568204.59901257406,4117374.0504322448,-22500.0,-3348.9867069276397,-1374.8929335532794,-306.665323119172,-2175.8937070284755,-652.55800253680184,-982.19200618648676,2756.6614225525745,-2256.6586033380622,-727.66504063026923,727.66504063026923,2256.6586033380622,5367.393620536167,0.0
573204.59901257406,4117374.0504322448,-22500.0,-3714.3030471111629,-1687.0438462178372,-446.13436670755982,-2672.2666748862166,-839.94171645938366,-1291.1153176778766,3301.0553847416163,-2454.2975697340871,-995.98970858586279,995.98970858586279,2454.2975697340871,6380.5378828926187,0.0
578204.59901257406,4117374.0504322448,-22500.0,-4033.0410701759624,-2065.5246136498345,-665.28438352624892,-3274.1434712944015,-1078.3314454281301,-1698.0562857134587,3958.7642728377109,-2585.5164890659707,-1369.5296169344879,1369.5296169344879,2585.5164890659707,7574.8199148417252,0.0
583204.59901257406,4117374.0504322448,-22500.0,-4220.7457513582121,-2506.834741708421,-1011.0344129443801,-3983.5449131600535,-1369.3981240197534,-2226.0936755242897,4739.5050916774717,-2572.5269573975888,-1885.5055571591497,1885.5055571591497,2572.5269573975888,8942.1994807754945,0.0
588204.59901257406,4117374.0504322448,-22500.0,-4129.8899117491546,-2979.2306764820191,-1551.9214283028493,-4774.5417451673256,-1692.3154630757381,-2892.016126335941,5631.1201673342421,-2285.9921799704371,-2580.94699189925,2580.94699189925,2285.9921799704371,10420.894452242697,0.0
593204.59901257406,4117374.0504322448,-22500.0,-3528.5997880576397,-3386.903616198616,-2369.1675536433249,-5557.0867862919877,-1959.9236785738076,-3681.6640673815496,6562.7832133163047,-1535.1818906288534,-3462.5327458440506,3462.5327458440506,1535.1818906288534,11837.485834588912,0.0
598204.59901257406,4117374.0504322448,-22500.0,-2137.7174030124247,-3529.8676845398518,-3496.817299812149,-6130.2350221471042,-1908.8593577933875,-4477.0724491193105,7337.1839406368363,-118.63093545786569,-4434.9661207981553,4434.9661207981553,118.63093545786569,12852.656978008245,0.0
603204.59901257406,4117374.0504322448,-22500.0,156.56841352093781,-3210.995414928163,-4768.1415827069459,-6246.6299810911487,-912.4439391739578,-4912.5781345497116,7611.2228576895795,1975.8038497966022,-5265.7116593160699,5265.7116593160699,-1975.8038497966022,13246.706513228535,0.0
608204.59901257406,4117374.0504322448,-22500.0,3136.7213049892966,-2937.3900456173842,-5836.8879887591747,-6091.7727393914402,1877.4469089609336,-4422.4780334017833,7644.43158102706,4511.0578151519285,-6129.7028776122979,6129.7028776122979,-4511.0578151519285,14752.021685567466,0.0
613204.59901257406,4117374.0504322448,-22500.0,7555.6369758584742,-4715.3672078373947,-7530.1308634800489,-6327.8789628391414,5705.6030658352674,-3108.1010126157371,12102.100497193522,8479.056792408921,-9214.1033863025677,9214.1033863025677,-8479.056792408921,21561.9331890596,0.0
618204.59901257406,4117374.0504322448,-22500.0,14932.299046942742,-8855.4752679755693,-12909.294981739411,-5235.3684124093324,6469.2010895197673,-739.32903916183716,18425.550656572963,16055.806059209888,-16732.022590417593,16732.022590417593,-16055.806059209888,32054.148563039187,0.0
623204.59901257406,4117374.0504322448,-22500.0,20310.441150614963,-10986.660473865384,-19926.783994147627,-3156.4311895867654,1573.4796540368891,1924.8583469077003,23207.902739689664,22553.325279475681,-23244.123022857264,23244.123022857264,-22553.325279475681,40208.406099031439,0.0
628204.59901257406,4117374.0504322448,-22500.0,20226.35964015327,-7479.7475662705965,-19747.422948838102,290.02233161623229,-4665.1102227391611,-7105.8188880261623,22035.384852088311,22154.36130695606,-20331.647528724388,20331.647528724388,-22154.36130695606,38545.592295281975,0.0
633204.59901257406,4117374.0504322448,-22500.0,12593.272855122621,-2963.8857876427464,-13441.677607615771,9211.443129968231,-4578.5412820784222,-17337.184037308907,18702.148734550436,14046.655355235554,-11951.967139729048,11951.967139729048,-14046.655355235554,33737.337834763115,0.0
638204.59901257406,4117374.0504322448,-22500.0,1963.7621137086594,-1414.9380604343276,-7529.1041800170069,14661.99270040585,-2395.8195347548999,-16751.285682645688,17613.072112657137,4096.8500353427671,-5675.8177121481176,5675.8177121481176,-4096.8500353427671,30509.935607816376,0.0
643204.59901257406,4117374.0504322448,-22500.0,-4864.9150145987314,-953.40578253157537,-3845.2867003139368,14249.814913010388,-1172.7207171481534,-12088.595866788204,14808.948879692764,-2214.4739890024039,-2133.9293031725811,2133.9293031725811,2214.4739890024039,26011.749672960621,0.0
648204.59901257406,4117374.0504322448,-22500.0,-7513.2701595899434,-709.29478748867064,-1867.2806438170865,11676.06996031364,-570.28008838824417,-8225.8360321906857,11752.25456941921,-4852.4784249845961,-399.76540154627901,399.76540154627901,4852.4784249845961,21163.290664727472,0.0
653204.59901257406,4117374.0504322448,-22500.0,-7926.1948983411839,-565.79817836105474,-861.89773464877885,9092.5896780896328,-244.25946619228708,-5679.3100394375924,9210.983239909272,-5507.034269734565,346.25476968164821,-346.25476968164821,5507.034269734565,16977.781233391972,0.0
658204.59901257406,4117374.0504322448,-22500.0,-7431.6714958528146,-479.06370646771416,-363.75173279517094,7015.0316385209508,-66.537372607402048,-4012.7354436426863,7256.4216963162726,-5317.2853019759641,615.30348800190995,-615.30348800190995,5317.2853019759641,13631.347778295827,0.0
663204.59901257406,4117374.0504322448,-22500.0,-6641.45529754774,-418.87743871932668,-123.68406198284138,5428.3517627791498,24.805671487532731,-2882.6892973132967,5772.3545666480304,-4820.5054689921808,670.38094632258981,-670.38094632258981,4820.5054689921808,11001.823316048507,0.0
668204.59901257406,4117374.0504322448,-22500.0,-5805.7844331978577,-370.22510880385681,-13.653425349528746,4225.8458875521983,66.954458753804502,-2094.4697703311526,4637.7174451496248,-4245.4810706984126,635.85978350754453,-635.85978350754453,4245.4810706984126,8934.4382245582747,0.0
673204.59901257406,4117374.0504322448,-22500.0,-5021.7377993237096,-327.44327605541065,31.668847781680533,3311.7705332943037,82.407176686197758,-1535.7508037456639,3760.8786994661341,-3686.2331700734503,568.65526900794544,-568.65526900794544,3686.2331700734503,7301.946078968972,0.0
678204.59901257406,4117374.0504322448,-22500.0,-4322.9358663961866,-288.89721302296437,45.574655599118373,2613.5017845862285,84.163030786917219,-1135.9719518060713,3076.3602546900406,-3178.8930952451228,494.20974796543237,-494.20974796543237,3178.8930952451228,6006.7584902353283,0.0
683204.59901257406,4117374.0504322448,-22500.0,-3716.0912734555022,-254.25526319426717,44.964755538856231,2077.2810877236152,79.41311683376729,-847.86988158068539,2537.1468674934335,-2734.1314512418976,423.36697280855947,-423.36697280855947,2734.1314512418976,4974.2177018950542,0.0
688204.59901257406,4117374.0504322448,-22500.0,-3196.4813285828736,-223.4297561842929,38.32560433202449,1663.2174501833974,71.991206341072143,-638.78642381168811,2108.8959600175467,-2351.3347313348863,360.20016400566828,-360.20016400566828,2351.3347313348863,4146.8442866705946,0.0
693204.59901257406,4117374.0504322448,-22500.0,-2754.9207733995186,-196.26775963691662,29.81949877761161,1341.5811583717177,63.863780259129022,-485.89208880379465,1766.1337346986159,-2025.1477954774441,305.68393590536573,-305.68393590536573,2025.1477954774441,3480.2202314629712,0.0
698204.59901257406,4117374.0504322448,-22500.0,-2381.0332982810528,-172.51303244072727,21.39347712063509,1090.1553475698429,55.985895564743203,-373.1621466423498,1489.7451912978236,-1748.599060273973,259.43835039256408,-259.43835039256408,1748.599060273973,2939.9726363682462,0.0
703204.59901257406,4117374.0504322448,-22500.0,-2064.7732957094904,-151.84188378696936,13.871648746808791,892.30502655587691,48.776726894955182,-289.31879935786725,1265.2588869219182,-1514.5875049541773,220.55999404039187,-220.55999404039187,1514.5875049541773,2499.478770124234,0.0
708204.59901257406,4117374.0504322448,-22500.0,-1797.0786473040123,-133.90613872655445,7.5213842356604701,735.54827229322586,42.379037781192075,-226.39864174429695,1081.6390757713452,-1316.5512803320521,188.01130877578078,-188.01130877578078,1316.5512803320521,2138.0930894707681,0.0
713204.59901257406,4117374.0504322448,-22500.0,-1570.0780830655117,-118.36300608152719,2.3460738316237375,610.49076051582938,36.798404289707136,-178.75196845168307,930.41266134825935,-1148.7168726183108,160.79474443109848,-160.79474443109848,1148.7168726183108,1839.766281619985,0.0
718204.59901257406,4117374.0504322448,-22500.0,-1377.0861497575333,-104.89332990250352,-1.7650613004715825,510.0351423621367,31.977320574058247,-142.34694407509218,805.03366856687251,-1006.1444526343346,138.0215347807914,-138.0215347807914,1006.1444526343346,1591.9827739283896,0.0
723204.59901257406,4117374.0504322448,-22500.0,-1212.4993245890616,-93.210067329324403,-4.9618420334319069,428.79460295826021,27.833792893695364,-114.28652463503809,700.41412891490472,-884.67595885113565,118.93033293806235,-118.93033293806235,884.67595885113565,1384.9433023074796,0.0
523204.59901257406,4122374.0504322448,-22500.0,-1197.3830980092757,-181.88728299690956,-16.302378361230563,-431.18962064804595,-58.047690611746134,-116.80519665077975,705.21988385722966,-862.71914267617376,39.360902674815122,-39.360902674815122,862.71914267617376,1397.6700479813858,0.0
528204.59901257406,4122374.0504322448,-22500.0,-1357.6034690043757,-211.34838729498594,-15.695204445245505,-512.51184251660789,-69.610928127551702,-145.44894644694611,810.49446300266209,-978.6945210544668,42.106567989876623,-42.106567989876623,978.6945210544668,1606.2324980668902,0.0
533204.59901257406,4122374.0504322448,-22500.0,-1544.6906635479886,-246.99863951114153,-14.947479974780311,-612.86731707305273,-84.057229978782473,-182.56077643341973,936.5669763935075,-1114.0320021176749,44.33790992897616,-44.33790992897616,1114.0320021176749,1855.4902343072945,0.0
538204.59901257406,4122374.0504322448,-22500.0,-1763.6179085902938,-290.40601258331043,-14.19775092436074,-737.48418897204863,-102.23314200122677,-231.04225116746781,1088.4553845777141,-1272.2268684194198,45.530320225292144,-45.530320225292144,1272.2268684194198,2155.0292051117353,0.0
543204.59901257406,4122374.0504322448,-22500.0,-2020.1491264689842,-343.58833399459371,-13.752856133582124,-893.1888833400825,-125.25920149465583,-294.90367119979464,1272.557634200353,-1457.2650020480392,44.83359625315677,-44.83359625315677,1457.2650020480392,2516.9742557470254,0.0
548204.59901257406,4122374.0504322448,-22500.0,-2320.7932642933656,-409.14912041724955,-14.230572479477541,-1088.9148582039122,-154.61775645731203,-379.71508370536134,1497.0657938752577,-1673.5304295006649,40.876047067333616,-40.876047067333616,1673.5304295006649,2956.6760232542124,0.0
553204.59901257406,4122374.0504322448,-22500.0,-2672.5774885130936,-490.45059143596092,-16.817505355657218,-1336.3616306856325,-192.26017210377353,-493.23993662105113,1772.5108226977538,-1925.5375797105983,31.444905128553955,-31.444905128553955,1925.5375797105983,3493.5483804118212,0.0
558204.59901257406,4122374.0504322448,-22500.0,-3082.4654746373003,-591.82956441571059,-23.73796802550288,-1650.832048883462,-240.72630101065403,-646.31641588345815,2112.4720215972866,-2217.327452299065,12.956610181923907,-12.956610181923907,2217.327452299065,4152.0469140847435,0.0
563204.59901257406,4122374.0504322448,-22500.0,-3556.0970959938441,-718.85579841588367,-39.11322712438772,-2052.2654724816985,-303.2515155546057,-854.06847828689604,2534.4881852202943,-2551.2286801036662,-20.435799288687349,20.435799288687349,2551.2286801036662,4962.7280051927928,0.0
568204.59901257406,4122374.0504322448,-22500.0,-4095.2255658243503,-878.61104437459994,-70.552137192112752,-2566.4507767913974,-383.79991706749786,-1137.5560422271124,3061.1991116695795,-2925.4103590266468,-78.373305281622152,78.373305281622152,2925.4103590266468,5963.2155147747881,0.0
573204.59901257406,4122374.0504322448,-22500.0,-4692.5853252520938,-1079.9023508917699,-132.12689914114395,-3226.2939379211684,-486.89207903481241,-1526.0501012176203,3721.6878531328334,-3329.0794532437285,-176.96263542163047,176.96263542163047,3329.0794532437285,7198.649235181424,0.0
578204.59901257406,4122374.0504322448,-22500.0,-5321.4517069304857,-1333.0715481699795,-249.98847842189645,-4072.5884611074966,-616.94175817679206,-2060.33972859803,4552.7007415696226,-3732.9077502420314,-343.46700107969241,343.46700107969241,3732.9077502420314,8720.4932262104194,0.0
583204.59901257406,4122374.0504322448,-22500.0,-5913.836660593206,-1648.1276123111138,-472.94550285597137,-5152.0595115836522,-776.35289061827814,-2797.9432413918071,5598.2430476202608,-4069.5419842632327,-624.28458805436026,624.28458805436026,4069.5419842632327,10580.507945348418,0.0
588204.59901257406,4122374.0504322448,-22500.0,-6314.7240465175864,-2026.6438691191463,-891.76226510971992,-6504.1204314652223,-959.64716456886072,-3820.7823795512013,6901.6856045947698,-4194.0061189403241,-1096.7247505806379,1096.7247505806379,4194.0061189403241,12810.116357587942,0.0
593204.59901257406,4122374.0504322448,-22500.0,-6193.9724827268992,-2433.1985651020473,-1670.1099718039402,-8108.0067202586097,-1131.5879147009143,-5236.7104936960386,8471.1915150882451,-3810.5867039804634,-1877.8541035855542,1877.8541035855542,3810.5867039804634,15358.16783451337,0.0
598204.59901257406,4122374.0504322448,-22500.0,-4931.7376113439714,-2716.6517636431081,-3072.5568118532638,-9722.7833975104677,-1139.6487071949007,-7112.569919582862,10171.271211993622,-2385.1538686170516,-3095.9367331506783,3095.9367331506783,2385.1538686170516,17941.618747568584,0.0
603204.59901257406,4122374.0504322448,-22500.0,-1716.325321636531,-2511.668517771629,-5396.8917848048823,-10601.451520547402,-418.79538514182673,-9109.3033594639637,11512.546237290915,752.13694349176512,-4758.0202975914744,4758.0202975914744,-752.13694349176512,19940.317818668922,0.0
608204.59901257406,4122374.0504322448,-22500.0,3542.9633682796739,-1721.7059351151786,-8644.8811858769095,-9781.2893483150692,2450.8736347457261,-9670.6902728907935,12152.794688686132,5661.1199641731282,-6802.7345687425395,6802.7345687425395,-5661.1199641731282,21818.163614336227,0.0
613204.59901257406,4122374.0504322448,-22500.0,10091.215621632604,-2781.1938326594418,-12694.564818318389,-8219.3444918813002,7712.2803401582287,-7347.8828492568009,16471.281102699482,11936.224747412236,-10981.889312026988,10981.889312026988,-11936.224747412236,28814.341395828575,0.0
618204.59901257406,4122374.0504322448,-22500.0,19110.493327475935,-8189.6203528538099,-18563.232609327439,-5074.4545534703711,7752.0903461866201,-4843.2133207187626,22621.82344715482,20988.707779138669,-20052.399326462095,20052.399326462095,-20988.707779138669,39362.53211542833,0.0
623204.59901257406,4122374.0504322448,-22500.0,21934.964226996195,-10452.690358481343,-22319.627518274396,1604.3501279951338,-1477.6933262834225,77.120549476128531,24569.345632392608,24515.167874254334,-24424.911426752322,24424.911426752322,-24515.167874254334,42555.528786292489,0.0
628204.59901257406,4122374.0504322448,-22500.0,16485.627255172985,-6376.5745943926004,-18420.644886378297,3787.7464653227489,-6109.0813978683645,-1566.4897744650623,19926.3121964536,18862.967178226958,-18101.195036157769,18101.195036157769,-18862.967178226958,34513.482313607601,0.0
633204.59901257406,4122374.0504322448,-22500.0,9609.8408896534947,-3638.7004634843183,-12441.382087909862,7177.0441522800838,-2799.9051464028798,-8407.2213539531695,13373.823562535781,11563.694074089892,-11446.016441758578,11446.016441758578,-11563.694074089892,25126.508466728563,0.0
638204.59901257406,4122374.0504322448,-22500.0,2374.716055641537,-3535.4872419222083,-7805.4153287477075,10226.46844609107,456.85999176215978,-10189.315399011206,12525.935970104418,4660.1017018596322,-7589.4509703718977,7589.4509703718977,-4660.1017018596322,22033.011922505229,0.0
643204.59901257406,4122374.0504322448,-22500.0,-2835.6454254657228,-3574.1481657586228,-4572.2289380668817,10508.706074265727,1535.8277092031185,-8527.4013604660558,11527.083166883171,-267.07159708240988,-4961.5093795449939,4961.5093795449939,267.07159708240988,20055.578128310386,0.0
648204.59901257406,4122374.0504322448,-22500.0,-5398.77877826044,-3187.306367148743,-2554.4272359127235,9170.7920420846149,1577.3146221183622,-6391.2356769040043,9740.18648327763,-2866.930295529437,-3104.8903583557021,3104.8903583557021,2866.930295529437,17382.434024774102,0.0
653204.59901257406,4122374.0504322448,-22500.0,-6196.1383368923271,-2649.3211372904871,-1397.3580730721778,7489.7351522121462,1343.4185293141566,-4685.1352340246085,7961.2463280629054,-3887.0778895964932,-1896.7346493101441,1896.7346493101441,3887.0778895964932,14588.347266902309,0.0
658204.59901257406,4122374.0504322448,-22500.0,-6107.518959942292,-2143.4525759674407,-759.48335739004392,5975.8160710356615,1080.2221217803374,-3437.1351909339837,6450.9945353111771,-4076.6578446901758,-1149.1308133499351,1149.1308133499351,4076.6578446901758,12077.502485562758,0.0
663204.59901257406,4122374.0504322448,-22500.0,-5642.1060539548607,-1721.112708221377,-412.7838274646877,4736.4408467149915,849.51495939541246,-2531.6936357250897,5232.1939273967946,-3883.7808046371911,-692.66942460043879,692.66942460043879,3883.7808046371911,9955.3230541728717,0.0
668204.59901257406,4122374.0504322448,-22500.0,-5049.2272552133309,-1382.4466548019584,-225.33827605084019,3753.1684663708538,662.17018902262714,-1872.4613710496396,4262.4249536920306,-3536.6744058728937,-413.04116227399618,413.04116227399618,3536.6744058728937,8206.4051433479017,0.0
673204.59901257406,4122374.0504322448,-22500.0,-4444.0971158019911,-1114.5506077614348,-124.49743516515827,2981.5913148606255,515.10173781150911,-1391.4729101806611,3492.2329323322597,-3145.7654731468092,-240.50865395232722,240.50865395232722,3145.7654731468092,6781.1252957917932,0.0
678204.59901257406,4122374.0504322448,-22500.0,-3877.4565758632639,-903.40851727161976,-70.754359218713915,2378.3698963262868,401.58648975041638,-1040.114765131545,2879.1307015252223,-2762.8755653768721,-133.49073249366893,133.49073249366893,2762.8755653768721,5625.1898653807593,0.0
683204.59901257406,4122374.0504322448,-22500.0,-3368.9819299991109,-736.87637324530067,-42.613694646236958,1906.938318540947,314.63353703587222,-782.9288617747751,2389.1462522479942,-2410.710577462105,-67.04129329091279,67.04129329091279,2410.710577462105,4688.8608143282217,0.0
688204.59901257406,4122374.0504322448,-22500.0,-2923.2669115092021,-605.12371774878056,-28.331115476971018,1537.8702666874685,248.14224074898047,-593.99257258690625,1995.6720336815727,-2097.3902591167748,-25.976757422271476,25.976757422271476,2097.3902591167748,3929.5617152994855,0.0
693204.59901257406,4122374.0504322448,-22500.0,-2537.7519216547939,-500.41196112674231,-21.466458860822868,1248.0063153468493,197.18926917412983,-454.46978352297498,1678.0086479607219,-1823.8090125489825,-0.91895033282003169,0.91895033282003169,1823.8090125489825,3312.1097421180348,0.0
698204.59901257406,4122374.0504322448,-22500.0,-2206.782738399806,-416.73268291899689,-18.484604691014678,1019.3584993061924,157.96272049167743,-350.76683456251857,1420.0894559131823,-1587.4646457554079,13.997520118252851,-13.997520118252851,1587.4646457554079,2808.0345295858906,0.0
703204.59901257406,4122374.0504322448,-22500.0,-1923.7018956433665,-349.45281156074782,-17.451726990440445,838.07024978901325,127.57681413518512,-273.11679276644628,1209.444897004651,-1384.4673030423985,22.478939794529651,-22.478939794529651,1384.4673030423985,2394.5891756991277,0.0
708204.59901257406,4122374.0504322448,-22500.0,-1681.8941373349014,-295.00981678586834,-17.320678383072458,693.51558910037306,103.87173347357449,-214.51133496186191,1036.3805221097798,-1210.574950705749,26.886180430852505,-26.886180430852505,1210.574950705749,2053.7289563169525,0.0
713204.59901257406,4122374.0504322448,-22500.0,-1475.2716835579008,-250.66430341636007,-17.536128621896616,577.5600484899719,85.238326853744113,-169.91467683562018,893.33645464789618,-1061.7036580144334,28.732383545229368,-28.732383545229368,1061.7036580144334,1771.1876996780863,0.0
718204.59901257406,4122374.0504322448,-22500.0,-1298.4594126202883,-214.30572137516668,-17.814872621487922,483.9735543222165,70.477906215709837,-135.69563511251283,774.39431146670609,-934.15346190351966,28.991336387552906,-28.991336387552906,934.15346190351966,1535.6941080257682,0.0
723204.59901257406,4122374.0504322448,-22500.0,-1146.8239077131882,-184.30210188406039,-18.022981100884572,407.97393356193868,58.694979563794945,-109.22242789848248,674.90124948281141,-824.68303424897044,28.291070530045033,-28.291070530045033,824.68303424897044,1338.33035477716,0.0
523204.59901257406,4127374.0504322448,-22500.0,-1262.7826483314793,-85.072034675594054,-3.9728518287666668,-452.16742290266671,-24.925666756371875,-121.97055311303752,730.9274477571247,-922.71342401711684,134.11107570174647,-134.11107570174647,922.71342401711684,1444.6212838604915,0.0
528204.59901257406,4127374.0504322448,-22500.0,-1435.8190678146252,-94.825345095498463,-0.59344638369022495,-538.75758957553376,-28.188849861215274,-152.23182156301189,841.37448688989173,-1050.6236119421405,156.21124114763796,-156.21124114763796,1050.6236119421405,1662.9401952421417,0.0
533204.59901257406,4127374.0504322448,-22500.0,-1638.8875903641056,-105.80302878022245,3.691509284949277,-646.01048567910004,-31.808704503523106,-191.56913848208256,973.9501686098198,-1200.8782884859138,182.70003673381427,-182.70003673381427,1200.8782884859138,1924.5957047468596,0.0
538204.59901257406,4127374.0504322448,-22500.0,-1877.9025170521213,-118.10109963451714,8.9931980566640135,-779.75614855689173,-35.729953126823013,-243.15159663799778,1134.1187486421693,-1377.866620464732,214.51978529478436,-214.51978529478436,1377.866620464732,2240.0700783645107,0.0
543204.59901257406,4127374.0504322448,-22500.0,-2159.8938296840606,-131.77592185676909,15.347744601160795,-947.68208427737943,-39.805569134188943,-311.39176089544333,1328.9200452516443,-1586.7779374447496,252.78271481815466,-252.78271481815466,1586.7779374447496,2622.7560664233065,0.0
548204.59901257406,4127374.0504322448,-22500.0,-2493.0892394413177,-146.80831628330748,22.611778622094675,-1159.9708951081154,-43.721467029310965,-402.47320975636046,1567.4808633389091,-1833.6298351510695,298.75420221850379,-298.75420221850379,1833.6298351510695,3089.8304644954242,0.0
553204.59901257406,4127374.0504322448,-22500.0,-2886.8701118162658,-163.05041511912424,30.259091779044795,-1430.1612161274852,-46.864393028717032,-525.1087881304129,1861.7116072428244,-2125.1713385903536,353.77382696613006,-353.77382696613006,2125.1713385903536,3663.3898033433729,0.0
558204.59901257406,4127374.0504322448,-22500.0,-3351.4568687817264,-180.15465912245054,36.989313471309373,-1776.3114041253671,-48.091298805490503,-691.62986535226912,2227.2677033245377,-2468.5247157126573,419.04133006370466,-419.04133006370466,2468.5247157126573,4371.9239013189745,0.0
563204.59901257406,4127374.0504322448,-22500.0,-3897.0393794580655,-197.49657233040116,39.977165501423471,-2222.5758090064483,-45.329146063862829,-919.55335395616487,2684.8961192904148,-2870.2975481857056,495.11588480641853,-495.11588480641853,2870.2975481857056,5252.2203995638483,0.0
568204.59901257406,4127374.0504322448,-22500.0,-4531.7899733649238,-214.14607445706659,33.429120457408729,-2801.3674080586429,-34.893488894973665,-1233.8742315131501,3262.3705339425583,-3334.633933735372,580.80688736317074,-580.80688736317074,3334.633933735372,6351.8479244667324,0.0
573204.59901257406,4127374.0504322448,-22500.0,-5257.527302241223,-229.04492180087311,5.7894758857031441,-3556.3688340464855,-10.369213917269857,-1670.5877048904531,3997.3408453419679,-3859.0626994267495,670.76171446811782,-670.76171446811782,3859.0626994267495,7732.4268479451293,0.0
578204.59901257406,4127374.0504322448,-22500.0,-6060.1236398437686,-241.7839917117428,-65.724608017559532,-4546.6864248286811,39.098926146686459,-2282.7081065613838,4941.5611576703313,-4425.5235247987739,750.22438470427733,-750.22438470427733,4425.5235247987739,9473.932069606295,0.0
583204.59901257406,4127374.0504322448,-22500.0,-6887.198310132927,-254.80398915142652,-225.96440262613598,-5851.5457966021204,131.03766157349412,-3152.1249008761815,6166.6121592356103,-4980.0975869395297,783.58235627222393,-783.58235627222393,4980.0975869395297,11679.497650001776,0.0
588204.59901257406,4127374.0504322448,-22500.0,-7593.8141218748988,-278.15334320072122,-563.67572468095113,-7568.8848124901861,291.65871762979765,-4414.9902127225305,7768.1796541037347,-5385.2498310811716,689.52790489168274,-689.52790489168274,5385.2498310811716,14475.204644197345,0.0
593204.59901257406,4127374.0504322448,-22500.0,-7811.3320060270435,-336.11929773744214,-1255.6395252381769,-9773.1913058109021,556.52895935985487,-6309.6924531088171,9852.0407429144307,-5307.7640854176225,289.76328166941994,-289.76328166941994,5307.7640854176225,17977.809794808854,0.0
598204.59901257406,4127374.0504322448,-22500.0,-6673.8152938281064,-464.25809643808788,-2651.5599472242329,-12299.940795935629,977.8504377314772,-9204.6643274974867,12439.076115846998,-3988.7043761838072,-780.55992624461442,780.55992624461442,3988.7043761838072,22139.202060784337,0.0
603204.59901257406,4127374.0504322448,-22500.0,-2537.4184233601654,-668.50719587051742,-5393.5431195187493,-14029.671148960324,1708.4234517003651,-13218.961909847951,15133.173215454972,0.46431037530373942,-3152.7120942010692,3152.7120942010692,-0.46431037530373942,26312.294744406976,0.0
608204.59901257406,4127374.0504322448,-22500.0,5883.3585350936664,-1018.8056793842178,-10300.382475895529,-11908.312459048077,3342.1058895062051,-16059.065348653048,16620.004182468059,7888.7536893073147,-7550.3264062712069,7550.3264062712069,-7888.7536893073147,29160.239384320972,0.0
613204.59901257406,4127374.0504322448,-22500.0,15091.008197534393,-3133.6775382947808,-16928.702378848146,-4857.9931692158252,6099.7934137599204,-11003.799137594417,18624.687103734585,17076.428758272574,-14450.124104261431,14450.124104261431,-17076.428758272574,32901.902582459195,0.0
618204.59901257406,4127374.0504322448,-22500.0,20526.170225510883,-9013.4268578494957,-20838.437097610527,1096.3051953658874,3339.0713415977925,-1873.9532833952567,22849.081594392657,22864.028599625315,-22216.686726249041,22216.686726249041,-22864.028599625315,39585.393745134868,0.0
623204.59901257406,4127374.0504322448,-22500.0,17637.691890915576,-10437.8199694667,-17069.451080084393,5706.924662446826,-7128.9430702923974,3853.3049020892054,22302.011369798412,19576.915840587921,-20768.935845786931,20768.935845786931,-19576.915840587921,38641.882979874383,0.0
628204.59901257406,4127374.0504322448,-22500.0,10743.787002188004,-5324.8669007902154,-11419.319144456951,4016.5728370005845,-10041.321439248673,4911.4145168644309,16438.592664645308,12187.94529187156,-12400.658579826611,12400.658579826611,-12187.94529187156,28842.71061695044,0.0
633204.59901257406,4127374.0504322448,-22500.0,7164.2381151123782,-2641.7055977255723,-8663.9238711015532,2937.7775646268165,-4839.8140589628247,99.830197964018055,10075.980013995648,8409.2214386577925,-8133.1313431182507,8133.1313431182507,-8409.2214386577925,17484.816700818454,0.0
638204.59901257406,4127374.0504322448,-22500.0,3729.5142302014451,-3063.752876487144,-6877.0785763865706,4363.6179614359326,-154.04924583635756,-3431.9686993085938,7204.9635467162834,5308.5709382897348,-6910.6932516791512,6910.6932516791512,-5308.5709382897348,13159.868506366682,0.0
643204.59901257406,4127374.0504322448,-22500.0,311.67692587225133,-3777.3537645888509,-5057.5398328451347,5457.3900940188205,1862.6488295831712,-4313.5268926598546,7482.2023528364871,2232.3370600530584,-5905.248799193545,5905.248799193545,-2232.3370600530584,12959.55953729127,0.0
648204.59901257406,4127374.0504322448,-22500.0,-2104.3271470650816,-3866.2594339585112,-3458.0545116991602,5542.6511921782712,2282.7813045670182,-3947.1094507377761,7046.3167905845257,-80.560082902760769,-4686.9953422450953,4686.9953422450953,80.560082902760769,12464.906889538757,0.0
653204.59901257406,4127374.0504322448,-22500.0,-3408.6233059439382,-3515.4399298964127,-2277.3134168713268,5039.0946786747236,2086.6624429839389,-3255.9034648948791,6196.4469205485339,-1467.5765217697851,-3532.8967960255595,3532.8967960255595,1467.5765217697851,11289.16611825162,0.0
658204.59901257406,4127374.0504322448,-22500.0,-3926.7795051295516,-3007.1801326529348,-1483.9534067120887,4336.8130920406775,1727.7013301199413,-2574.919919564873,5279.2489626012111,-2156.9914911017991,-2597.915944404755,2597.915944404755,2156.9914911017991,9848.891404824597,0.0
663204.59901257406,4127374.0504322448,-22500.0,-3982.7818623118287,-2496.1591373582073,-972.21913327737025,3630.2439658224016,1372.0485178279898,-1995.6278660677563,4435.9382447422886,-2411.0559396498466,-1893.6683700070062,1893.6683700070062,2411.0559396498466,8420.5589879376967,0.0
668204.59901257406,4127374.0504322448,-22500.0,-3795.0956490541989,-2043.0716754153107,-646.43284191401392,2995.502156501198,1069.8140962564987,-1530.9088582910563,3707.9316104234026,-2418.2585656340912,-1379.5065274210538,1379.5065274210538,2418.2585656340912,7126.4640799733552,0.0
673204.59901257406,4127374.0504322448,-22500.0,-3493.9360606919354,-1663.213927792691,-438.85462954400845,2454.4063534222387,828.52688313014971,-1169.3794705548339,3097.1436681969999,-2296.2042623126245,-1008.5252548018249,1008.5252548018249,2296.2042623126245,6005.4908173846634,0.0
678204.59901257406,4127374.0504322448,-22500.0,-3152.9036599575174,-1353.3428856857781,-305.5142329245034,2005.8267274837456,641.45291513521533,-893.05621674871088,2591.6546328541117,-2114.2187230347213,-741.53500411607911,741.53500411607911,2114.2187230347213,5057.557741344749,0.0
683204.59901257406,4127374.0504322448,-22500.0,-2811.828695184598,-1103.9210017483006,-218.7920565854325,1639.70973209917,498.35498476520735,-683.88286449650991,2175.8971268236523,-1911.72151972548,-548.96985811884451,548.96985811884451,1911.72151972548,4266.2738762271265,0.0
688204.59901257406,4127374.0504322448,-22500.0,-2490.8872744861515,-904.29395360412923,-161.51866186113105,1343.4144948892488,389.41968256462184,-526.18420120616258,1834.6177268330578,-1710.2113367690181,-409.42145105724114,409.42145105724114,1710.2113367690181,3609.9822539631541,0.0
693204.59901257406,4127374.0504322448,-22500.0,-2199.0156403354149,-744.69860207916395,-123.02117256005849,1104.5492305089645,306.46023159881804,-407.3084106495964,1554.3008675529882,-1520.6421993143965,-307.65949193923029,307.65949193923029,1520.6421993143965,3066.9141140185311,0.0
698204.59901257406,4127374.0504322448,-22500.0,-1938.8974148567283,-616.88757315803764,-96.630367231111677,912.13128831433403,243.05822070932479,-317.46345457224925,1323.5353844219319,-1347.8904654499008,-232.923237121292,232.923237121292,1347.8904654499008,2617.3870173280266,0.0
703204.59901257406,4127374.0504322448,-22500.0,-1709.8880192345359,-514.17081683468859,-78.145400443477044,756.92127765116265,194.33609586518591,-249.25466984919129,1132.9325874311121,-1193.42455293884,-177.61930331942301,177.61930331942301,1193.42455293884,2244.5177592304949,0.0
708204.59901257406,4127374.0504322448,-22500.0,-1509.7141947957934,-431.23867341155614,-64.894632156881116,631.37692807968358,156.64507655896159,-197.17554464984593,974.88213782356456,-1056.8881266194865,-136.3780893495146,136.3780893495146,1056.8881266194865,1934.2449830779674,0.0
713204.59901257406,4127374.0504322448,-22500.0,-1335.4339320623465,-363.92454012381341,-55.160870384083772,529.44830398107808,127.27421197003585,-157.15390492117504,843.26375754077981,-937.02008326372766,-105.38631378762653,105.38631378762653,937.02008326372766,1675.04885437188,0.0
718204.59901257406,4127374.0504322448,-22500.0,-1183.9652985669056,-308.97635999258398,-47.827849411679765,446.33210305793375,104.21244780717407,-126.18539304559282,733.17314505782872,-832.18151629682086,-81.920583739908807,81.920583739908807,832.18151629682086,1457.5802492034613,0.0
723204.59901257406,4127374.0504322448,-22500.0,-1052.3580486535986,-263.85952076242029,-42.161418481276932,378.23451924692608,85.965222306751386,-102.05153018659165,640.67446159679037,-740.64520869278499,-64.023293318098069,64.023293318098069,740.64520869278499,1274.2852589376398,0.0
523204.59901257406,4132374.0504322448,-22500.0,-1293.6969666074817,17.311096444603248,-5.351096541643666,-462.37068043659536,9.9956585640193172,-124.56450264249381,745.62411706674823,-953.10818376168845,220.02678422880103,-220.02678422880103,953.10818376168845,1470.7200678022598,0.0
528204.59901257406,4132374.0504322448,-22500.0,-1470.7004518270389,28.565750320983508,-2.9506122305446914,-550.88697034195548,15.545414822745515,-155.49208712761171,858.41466569906208,-1085.2689677316125,258.98065100847384,-258.98065100847384,1085.2689677316125,1693.3009526381234,0.0
533204.59901257406,4132374.0504322448,-22500.0,-1678.1531616115176,43.931548763300611,-0.11301458173158196,-660.46018431727282,23.441040144694128,-195.69218002242661,993.77534364192491,-1240.3445163839626,306.38462404056412,-306.38462404056412,1240.3445163839626,1960.0871431369578,0.0
538204.59901257406,4132374.0504322448,-22500.0,-1921.909365414228,64.911170274461313,3.0498619142215291,-796.98994038361411,34.711214067139835,-248.39692494015614,1157.2656287830118,-1422.7306387472042,364.32162244952383,-364.32162244952383,1422.7306387472042,2281.7761900331466,0.0
543204.59901257406,4132374.0504322448,-22500.0,-2208.8475025266807,93.588756889116041,6.2385889695408689,-968.23019325684709,50.876322169494024,-318.10200259286103,1356.0466077874173,-1637.5606479700778,435.39876447491008,-435.39876447491008,1637.5606479700778,2672.0426207156079,0.0
548204.59901257406,4132374.0504322448,-22500.0,-2546.8859415872057,132.86364560050964,8.8015942266928011,-1184.4088033884746,74.205892305573727,-411.09866873714822,1599.401747894741,-1890.6799425835575,522.84397618390869,-522.84397618390869,1890.6799425835575,3148.4395455793137,0.0
553204.59901257406,4132374.0504322448,-22500.0,-2944.8313541082821,186.77452336703436,9.4379286629313359,-1459.0527793981171,108.1224410302502,-536.23520211937375,1899.4475748163179,-2188.4596191894689,630.57314732858754,-630.57314732858754,2188.4596191894689,3733.5815761527997,0.0
558204.59901257406,4132374.0504322448,-22500.0,-3411.8891596275203,260.93611838563095,5.6607268968730295,-1810.0821827414998,157.83901252503497,-706.00334905841942,2272.1162294000701,-2537.289218195936,763.15800365338055,-763.15800365338055,2537.289218195936,4456.6983813084671,0.0
563204.59901257406,4132374.0504322448,-22500.0,-3956.5243017136527,363.10039620989721,-7.174001774898211,-2261.2625249814673,231.37312275848296,-938.09072794520034,2738.5464113545809,-2942.4539202334599,925.54409027352347,-925.54409027352347,2942.4539202334599,5355.6986818356736,0.0
568204.59901257406,4132374.0504322448,-22500.0,-4584.0635453656105,503.79864235583062,-37.632491196076863,-2844.1522569934996,341.16180189744,-1257.6337862496091,3327.1136566644186,-3405.8229285007983,1122.183812097034,-1122.183812097034,3405.8229285007983,6479.9696172524673,0.0
573204.59901257406,4132374.0504322448,-22500.0,-5291.788623587976,696.86737379763952,-101.4206084937924,-3600.7903279548218,506.62721489709526,-1700.6814546872624,4076.5249473941776,-3921.1897484171104,1354.8552212742925,-1354.8552212742925,3921.1897484171104,7894.3499931722135,0.0
578204.59901257406,4132374.0504322448,-22500.0,-6058.6306171544757,959.23110707342607,-227.25775742588272,-4587.4731284643231,758.1947091494236,-2320.2410556416398,5040.6961821909799,-4464.679157746672,1617.5225312150014,-1617.5225312150014,4464.679157746672,9685.0504505208391,0.0
583204.59901257406,4132374.0504322448,-22500.0,-6822.1057284706285,1308.1790395881037,-467.59131487315688,-5879.3858816318461,1143.3570055188659,-3198.850732301275,6296.2526982567169,-4973.920956735481,1884.4146569075087,-1884.4146569075087,4973.920956735481,11968.338734471175,0.0
588204.59901257406,4132374.0504322448,-22500.0,-7422.9765979572985,1751.3361262829283,-918.03433459902635,-7570.5003899025105,1734.9507184725146,-4477.9334966351516,7951.6317752864807,-5299.9187081244982,2082.1551218853197,-2082.1551218853197,5299.9187081244982,14899.64236181076,0.0
593204.59901257406,4132374.0504322448,-22500.0,-7469.4377989853601,2256.2853833621507,-1752.1151580223091,-9734.9687616383872,2638.8270030740041,-6421.9835155493238,10145.435661260613,-5092.8362864332748,2024.0400860115424,-2024.0400860115424,5092.8362864332748,18661.93585850349,0.0
598204.59901257406,4132374.0504322448,-22500.0,-6037.2691109183243,2664.7142846735428,-3280.1590588126905,-12204.108554644537,3983.0866322895395,-9497.3962939883149,12978.024860962912,-3554.3723061077221,1259.9695073915595,-1259.9695073915595,3554.3723061077221,23341.635081092594,0.0
603204.59901257406,4132374.0504322448,-22500.0,-1297.2000937198602,2469.0720548948693,-6022.5639516760893,-13717.272024222984,5800.0139989517747,-14068.137081421197,16201.955802718881,879.20923358669336,-1203.1797721233736,1203.1797721233736,-879.20923358669336,28439.03416117511,0.0
608204.59901257406,4132374.0504322448,-22500.0,8246.2381351323693,421.93703299826791,-10582.135447435394,-10272.682227349185,7445.6435694984702,-17704.754107194771,18459.483735403872,9611.727496446847,-6941.1725390051124,6941.1725390051124,-9611.727496446847,31980.894153431378,0.0
613204.59901257406,4132374.0504322448,-22500.0,16710.037746058064,-4824.3002329447445,-16026.852058693254,370.4804446424061,6201.2013969548079,-9873.7028663786859,18895.660861643646,18099.092642906086,-15554.297059097902,15554.297059097902,-18099.092642906086,33071.563522147815,0.0
618204.59901257406,4132374.0504322448,-22500.0,16270.943712200857,-10304.970761744989,-16495.856090460231,4818.4996507370661,-632.79046423966463,6331.868487720154,20161.983174027722,18365.707038299221,-20119.701241517414,20119.701241517414,-18365.707038299221,35159.764684793066,0.0
623204.59901257406,4132374.0504322448,-22500.0,12333.820632743889,-10045.779606962247,-9779.869555246989,3183.2450943106664,-8278.2384614351249,10178.695016517435,17836.776553610747,13179.562668550085,-15503.650267509156,15503.650267509156,-13179.562668550085,31380.598906939493,0.0
628204.59901257406,4132374.0504322448,-22500.0,8002.6518722078363,-5121.7917650502532,-4627.2029050233177,732.71453093044897,-9978.9585950626752,8210.0983885675068,13069.143549935856,7862.0930693664222,-7980.0366693518981,7980.0366693518981,-7862.0930693664222,23264.221316386418,0.0
633204.59901257406,4132374.0504322448,-22500.0,6264.0502678126895,-1829.1229345691415,-4076.1362773106371,-764.59213219033359,-6114.2683576648669,4337.0574475927797,7576.954286034661,6135.2325340792258,-4762.1350071909283,4762.1350071909283,-6135.2325340792258,14650.972733872968,0.0
638204.59901257406,4132374.0504322448,-22500.0,4912.2449654304573,-1660.2387478778021,-4642.0369914333633,-73.281010544094158,-1732.7606179450802,871.18653099621451,5299.6357058931299,5316.2874552208668,-4726.645811973598,4726.645811973598,-5316.2874552208668,9289.656171877732,0.0
643204.59901257406,4132374.0504322448,-22500.0,2918.1505329087331,-2519.9967338800475,-4486.5121307406725,1256.564410947487,837.55071593881632,-1025.328103462786,4728.2148134492072,3861.8697652884043,-5002.7846679248651,5002.7846679248651,-3861.8697652884043,8189.7747510239487,0.0
648204.59901257406,4132374.0504322448,-22500.0,912.16883509325942,-3102.8693564921446,-3745.2286076003456,2173.6994084047328,1843.9937290501534,-1727.7094764740757,4758.3379759983764,2179.4145199892355,-4727.0433690370382,4727.0433690370382,-2179.4145199892355,8344.1348649681204,0.0
653204.59901257406,4132374.0504322448,-22500.0,-613.95251836797513,-3206.0111733315466,-2874.4160299825585,2550.8067376081121,2010.4277991032857,-1815.1967150572848,4518.4454194629561,769.16155244835636,-4073.3751830112301,4073.3751830112301,-769.16155244835636,8143.5951524464062,0.0
658204.59901257406,4132374.0504322448,-22500.0,-1584.7029262220919,-2994.9238204022499,-2115.3970408624668,2560.5952947705578,1825.2013998800144,-1643.9312113049102,4082.7693027908822,-218.83913043188045,-3321.6002204679753,3321.6002204679753,218.83913043188045,7538.3316086497425,0.0
663204.59901257406,4132374.0504322448,-22500.0,-2110.3281960876934,-2643.8195872350093,-1530.1429585500848,2375.2965006207532,1533.4737684962383,-1390.0018219383921,3583.7901957150616,-831.22054057692469,-2627.7019520467265,2627.7019520467265,831.22054057692469,6737.0345174850836,0.0
668204.59901257406,4132374.0504322448,-22500.0,-2329.6584339945389,-2260.7874566270443,-1103.5615538233058,2108.0797530412274,1240.9762017212533,-1133.0320803668506,3095.6455021960742,-1166.8743170702778,-2046.9937210023081,2046.9937210023081,1166.8743170702778,5895.217948323665,0.0
673204.59901257406,4132374.0504322448,-22500.0,-2356.2588701641403,-1899.6692963098253,-800.37183803434539,1823.0018358078296,986.08547094183211,-905.06953219021921,2651.6285660533654,-1317.1527121865674,-1584.251126880903,1584.251126880903,1317.1527121865674,5097.271753927871,0.0
678204.59901257406,4132374.0504322448,-22500.0,-2270.5153778640629,-1582.0511686177474,-586.80525886575401,1552.6080623647144,777.46572640214447,-715.35978341200905,2262.9515643912455,-1350.9861132675132,-1224.7286527500955,1224.7286527500955,1350.9861132675132,4380.4964821697076,0.0
683204.59901257406,4132374.0504322448,-22500.0,-2125.358533118183,-1312.8359781891704,-436.33729132411861,1311.0614017770981,611.97089439344461,-562.89230927559413,1929.9226443744706,-1315.9421698111616,-948.87876022332443,948.87876022332443,1315.9421698111616,3755.77433501424,0.0
688204.59901257406,4132374.0504322448,-22500.0,-1953.9855578611748,-1089.2421043599011,-329.71672027673588,1102.490981360085,482.70362412494478,-442.71286595640305,1647.967514124842,-1243.1979715694179,-738.29943159765128,738.29943159765128,1243.1979715694179,3220.6045723425782,0.0
693204.59901257406,4132374.0504322448,-22500.0,-1776.3071373618905,-905.5399806071747,-253.46897643960816,925.95502995284312,382.39990878735915,-348.94702674449064,1410.739068982863,-1152.4227987530044,-577.63012576313633,577.63012576313633,1152.4227987530044,2766.5194191541891,0.0
698204.59901257406,4132374.0504322448,-22500.0,-1603.6527617931913,-755.3717321054188,-198.31557388587109,778.25867198202582,304.67236248527189,-276.11112112511415,1211.6619759181156,-1055.5961446089345,-454.7537919852299,454.7537919852299,1055.5961446089345,2383.0632746994306,0.0
703204.59901257406,4132374.0504322448,-22500.0,-1441.976297972185,-632.78453388220794,-157.90392351316476,655.46870960651256,244.32117837622823,-219.56844299518173,1044.6385952072255,-959.71710962699922,-360.38946802266793,360.38946802266793,959.71710962699922,2059.7834039654081,0.0
708204.59901257406,4132374.0504322448,-22500.0,-1293.9586036366886,-532.61227094985361,-127.88259656084851,553.67330649189194,197.27354980906526,-175.59183359443836,904.31766769780597,-868.63578491457622,-287.53731624295017,287.53731624295017,868.63578491457622,1787.1254219506757,0.0
713204.59901257406,4132374.0504322448,-22500.0,-1160.3555207250706,-450.54789817360052,-105.25834244515481,469.32426036338637,160.40332970853154,-141.26831957971422,786.14797445635099,-784.25784426450639,-230.95717977100674,230.95717977100674,784.25784426450639,1556.7583123563186,0.0
718204.59901257406,4132374.0504322448,-22500.0,-1040.8381868470995,-383.07945987334278,-87.958423431489948,399.35471921333607,131.33478290894433,-114.35623098530849,686.32828711664922,-707.31648306373995,-186.73578913886689,186.73578913886689,707.31648306373995,1361.6061911447537,0.0
723204.59901257406,4132374.0504322448,-22500.0,-934.51058682568373,-327.37899804406146,-74.53561620633414,341.18714826235379,108.26963940832103,-93.144510624984008,601.72009637435065,-637.86208612487258,-151.94871618036885,151.94871618036885,637.86208612487258,1195.7524984562285,0.0
523204.59901257406,4137374.0504322448,-22500.0,-1289.3630808229168,118.67670424827915,-20.562567610539595,-461.53309318320356,44.698538702415938,-124.51678007278269,748.8097045601088,-952.77948735305552,291.65974574048926,-291.65974574048926,952.77948735305552,1475.1436571682821,0.0
528204.59901257406,4137374.0504322448,-22500.0,-1461.3849289565567,150.11174105365487,-22.857132372921615,-548.57406880908502,58.820195492071591,-155.13725972236088,860.93560427783916,-1081.277178160522,343.27235298909949,-343.27235298909949,1081.277178160522,1696.275977256201,0.0
533204.59901257406,4137374.0504322448,-22500.0,-1661.5379977416926,190.54772445841596,-26.374752320036944,-655.8207174177071,77.8355752347438,-194.80785558420504,995.11320212241344,-1230.8070826622716,405.92915602770597,-405.92915602770597,1230.8070826622716,1960.6416822232572,0.0
538204.59901257406,4137374.0504322448,-22500.0,-1894.6419215503918,242.84810029241387,-31.89264786283367,-788.71241247971682,103.6506147354618,-246.61722820308856,1156.6289465020252,-1404.8854289508499,482.25772842909311,-482.25772842909311,1404.8854289508499,2278.447103622309,0.0
543204.59901257406,4137374.0504322448,-22500.0,-2166.0547084961222,310.86510845982133,-40.672717437859326,-954.28214560557512,139.00003071256182,-314.82273727572505,1352.2287528179638,-1607.3398637990367,575.48940406008467,-575.48940406008467,1607.3398637990367,2662.6248213243357,0.0
548204.59901257406,4137374.0504322448,-22500.0,-2481.4449843556185,399.78957837164052,-54.770911699352858,-1161.6169011625898,187.84264168098852,-405.31598284360314,1590.559173279966,-1842.0648816596697,689.52775904252962,-689.52775904252962,1842.0648816596697,3129.5976477155982,0.0
553204.59901257406,4137374.0504322448,-22500.0,-2846.268010359996,516.6102673227042,-77.552783477467187,-1422.4178181386389,255.95843123088736,-526.26734525475456,1882.7484358502904,-2112.4980558241982,828.94077665419684,-828.94077665419684,2112.4980558241982,3700.2413346084027,0.0
558204.59901257406,4137374.0504322448,-22500.0,-3264.7059377401488,670.69220969471803,-114.56025816193188,-1751.6465583289239,351.85358879829141,-689.00431495007615,2243.1738967627089,-2420.5923720094966,998.76403598319587,-998.76403598319587,2420.5923720094966,4401.0800121671191,0.0
563204.59901257406,4137374.0504322448,-22500.0,-3737.6532728006709,874.44408943749795,-174.97743431554315,-2168.2065032324463,488.13307888809504,-909.18447037452336,2690.4845089398736,-2764.889918002777,1203.8840311008416,-1203.8840311008416,2764.889918002777,5265.7492212277239,0.0
568204.59901257406,4137374.0504322448,-22500.0,-4258.9920002280069,1143.9417739144787,-274.12262463349481,-2695.5359931320149,683.5791555988377,-1208.3393887029993,3248.9866109326103,-3136.985556609146,1447.5334480367214,-1447.5334480367214,3136.985556609146,6336.7661888813573,0.0
573204.59901257406,4137374.0504322448,-22500.0,-4808.7191953127403,1499.1039436530477,-437.69299704566896,-3361.851159310906,966.27884095767581,-1615.9571574515276,3950.5715506073921,-3515.0445887172623,1727.9355643732929,-1727.9355643732929,3515.0445887172623,7667.666195993208,0.0
578204.59901257406,4137374.0504322448,-22500.0,-5339.9367217397548,1962.3194725066971,-708.9647732719493,-4199.3701329213509,1378.2621917346246,-2172.6715200196504,4837.4130035505987,-3851.6780176914972,2031.0604732284157,-2031.0604732284157,3851.6780176914972,9325.5024222208376,0.0
583204.59901257406,4137374.0504322448,-22500.0,-5752.923531655123,2552.5719946051222,-1160.820685513555,-5240.2282979827423,1982.1199731973231,-2936.4231865882434,5965.3267500430184,-4050.3145785900792,2314.9879445888805,-2314.9879445888805,4050.3145785900792,11392.965876577993,0.0
588204.59901257406,4137374.0504322448,-22500.0,-5840.5162991822399,3266.7731435097371,-1914.9818926360961,-6499.6026079978637,2869.0830961766642,-3995.9803034104862,7405.1003412296268,-3916.9879072697895,2475.3772243166623,-2475.3772243166623,3916.9879072697895,13964.819362906479,0.0
593204.59901257406,4137374.0504322448,-22500.0,-5173.6050408970559,4024.1989357335456,-3168.7647750687129,-7907.8716378524223,4160.9390250357192,-5493.0689780130488,9227.7718611751388,-3062.5383203794454,2267.5855790577061,-2267.5855790577061,3062.5383203794454,17113.970588929362,0.0
598204.59901257406,4137374.0504322448,-22500.0,-2909.7339575746464,4506.8206014682401,-5211.6271731711431,-9062.8396779154027,5957.8307515701963,-7591.4987135287411,11423.735139080785,-743.37025941350112,1139.0220540684666,-1139.0220540684666,743.37025941350112,20742.888847859871,0.0
603204.59901257406,4137374.0504322448,-22500.0,2185.7317626368972,3768.8208997527654,-8313.3923004127191,-8541.5361010734287,7998.3507981360181,-9971.507780461674,13643.844818889336,4116.0607778564645,-2016.204741634325,2016.204741634325,-4116.0607778564645,24161.873053709496,0.0
608204.59901257406,4137374.0504322448,-22500.0,9799.7592378971713,-86.800841074495651,-11991.9818074429,-3379.8666572910538,8330.9005904011829,-9511.5102849392242,14911.244446307486,11272.117696204019,-8390.2713823289887,8390.2713823289887,-11272.117696204019,25874.383792373654,0.0
613204.59901257406,4137374.0504322448,-22500.0,13151.507007758297,-6892.9604771232762,-13313.509383470358,5095.1278561615791,2155.4897347519732,1409.773586832441,15934.04285302503,14724.733279566377,-15105.215866336437,15105.215866336437,-14724.733279566377,27602.143628514852,0.0
618204.59901257406,4137374.0504322448,-22500.0,9494.0166286165331,-9225.5249411533296,-9522.0919190943805,4142.8681438628837,-8268.3355283039873,16074.349071153538,18471.152537102342,10934.855369187573,-14245.117673642935,14245.117673642935,-10934.855369187573,32279.445368184483,0.0
623204.59901257406,4137374.0504322448,-22500.0,8024.1585629917736,-6183.3173209239239,-4068.023321172675,-1718.3507483824988,-12213.505769023834,16665.824696358308,17076.772337823935,7773.1667056035112,-8516.3901885185114,8516.3901885185114,-7773.1667056035112,29940.999509272082,0.0
628204.59901257406,4137374.0504322448,-22500.0,7239.2259862696046,-2512.8798155029026,-1012.0736381716473,-3819.3011169242477,-10648.318950367127,11248.260462691214,13043.037710379051,5875.1157333014753,-3744.2512563071405,3744.2512563071405,-5875.1157333014753,22805.723294121934,0.0
633204.59901257406,4137374.0504322448,-22500.0,6531.2937229017525,-240.29047807016576,-1138.9412014859342,-3918.7472851862358,-6930.0398712810274,6568.886100673395,9068.3704354370839,5216.8809341554297,-1887.753374468394,1887.753374468394,-5216.8809341554297,15793.719530265476,0.0
638204.59901257406,4137374.0504322448,-22500.0,5791.5494304170452,11.721100640145345,-2437.5258794068268,-2944.0625510336463,-3156.224432128769,3203.1438946796093,6020.3407528270973,5089.4802436861864,-2296.4872666724814,2296.4872666724814,-5089.4802436861864,10440.570992524179,0.0
643204.59901257406,4137374.0504322448,-22500.0,4546.0861007079893,-804.14413325730709,-3255.7320877611214,-1540.5048812893324,-528.83703916468596,1072.897592252714,4308.3022547494329,4511.6126710499711,-3205.6422388140463,3205.6422388140463,-4511.6126710499711,7465.4293416325045,0.0
648204.59901257406,4137374.0504322448,-22500.0,3000.3839345470087,-1669.5111477024016,-3319.0887875567555,-306.64047931394958,866.31036451412388,-89.87992415111249,3688.4664153784743,3461.9130039261086,-3681.722487241645,3681.722487241645,-3461.9130039261086,6391.5566611903396,0.0
653204.59901257406,4137374.0504322448,-22500.0,1546.6132165930067,-2185.2810854014365,-2932.6338052062083,532.23656378375495,1418.4769385748032,-628.47572863998869,3431.4372723403467,2300.7878144094111,-3641.0610916148134,3641.0610916148134,-2300.7878144094111,6021.9866442743942,0.0
658204.59901257406,4137374.0504322448,-22500.0,397.41043473898515,-2348.8960880326249,-2398.2643842163543,1001.5382086904433,1509.8197607585705,-813.37671413266094,3169.2640988138837,1286.5245308038548,-3285.5878954601849,3285.5878954601849,-1286.5245308038548,5683.0166326921108,0.0
663204.59901257406,4137374.0504322448,-22500.0,-410.49711729896291,-2277.0069502154693,-1881.7875926496722,1204.4640089738248,1389.7894693697774,-817.38261137581253,2862.9559109951697,511.28090832754469,-2807.4545073196541,2807.4545073196541,-511.28090832754469,5237.6169795429068,0.0
668204.59901257406,4137374.0504322448,-22500.0,-925.90997213408912,-2080.944863871096,-1446.4940014786077,1240.4608079927132,1194.9129099392287,-740.19630402893665,2539.9177471241424,-30.80023339678587,-2323.150432330096,2323.150432330096,30.80023339678587,4721.5305868655323,0.0
673204.59901257406,4137374.0504322448,-22500.0,-1220.655951971351,-1836.5116999115037,-1103.0310491371406,1183.0164577654152,991.41865431598205,-635.33282045097633,2226.144668137335,-383.09492686685326,-1887.5218444664752,1887.5218444664752,383.09492686685326,4189.6578074745003,0.0
678204.59901257406,4137374.0504322448,-22500.0,-1361.298980581209,-1587.4778889139102,-840.9722106300128,1080.1724666304465,807.2561854002463,-529.27773275611605,1936.9268662586103,-594.72855570252523,-1518.8709580713025,1518.8709580713025,594.72855570252523,3680.4401691809562,0.0
683204.59901257406,4137374.0504322448,-22500.0,-1400.3341169431608,-1355.861202298516,-644.25727820625343,960.8723954095916,651.29098762757917,-433.58332318623656,1678.9242379956772,-708.0709741573055,-1217.2544732327128,1217.2544732327128,708.0709741573055,3214.4622149722418,0.0
688204.59901257406,4137374.0504322448,-22500.0,-1375.872393550683,-1150.7118567858131,-497.51027103470022,841.29290427034698,523.69865360377116,-352.04160362647787,1453.4114732867679,-755.68188828278699,-975.09299463669277,975.09299463669277,755.68188828278699,2799.8161980139053,0.0
693204.59901257406,4137374.0504322448,-22500.0,-1314.1932247584652,-974.02671519353134,-388.04141196734741,729.65879143503037,421.22578891512433,-284.7218555882157,1258.7410799819404,-761.05099833121199,-782.60167931054752,782.60167931054752,761.05099833121199,2437.1715538166072,0.0
698204.59901257406,4137374.0504322448,-22500.0,-1232.7502021805142,-824.32265997558477,-306.05972258154753,629.50885772666379,339.68600695230316,-230.12752678155036,1091.9135515056651,-740.46005134581105,-630.27470507557973,630.27470507557973,740.46005134581105,2123.3026363087142,0.0
703204.59901257406,4137374.0504322448,-22500.0,-1142.7632261285505,-698.64617015545571,-244.26377589754446,541.76637778463396,275.04192720837881,-186.28118488657384,949.48562820828215,-704.8729099893261,-509.83959914031124,509.83959914031124,704.8729099893261,1853.2556736057481,0.0
708204.59901257406,4137374.0504322448,-22500.0,-1051.2045085280531,-593.63732448029759,-197.30249985852799,465.9931039497211,223.80181247767055,-151.22873503112515,828.05814018075137,-661.49722544435735,-414.48213334774408,414.48213334774408,661.49722544435735,1621.5857067042878,0.0
713204.59901257406,4137374.0504322448,-22500.0,-962.22391995141697,-506.05031390556343,-161.28508846365401,401.11737447478703,183.10224676947882,-123.24259045259397,724.50954118650793,-614.95917035866319,-338.75583004715901,338.75583004715901,614.95917035866319,1423.0057837508077,0.0
718204.59901257406,4137374.0504322448,-22500.0,-878.13529871246237,-432.97686188536557,-133.38825256797287,345.84014386499757,150.66116399974305,-100.87798889681179,636.08634877950567,-568.14518591141541,-278.38010179350454,278.38010179350454,568.14518591141541,1252.6916883042861,0.0
723204.59901257406,4137374.0504322448,-22500.0,-800.08330850834591,-371.91565712854077,-111.56037984680019,298.85004546131114,124.68812885180279,-82.963452725575934,560.41799070780371,-522.78774756412622,-230.02162479116637,230.02162479116637,522.78774756412622,1106.3952517270272,0.0
523204.59901257406,4142374.0504322448,-22500.0,-1251.6584551916876,212.75220209925124,-48.203686163325884,-450.167355602805,77.245325690339058,-121.93478925778136,740.70186401478043,-923.08965019167999,345.09718483365117,-345.09718483365117,923.08965019167999,1458.3040055778549,0.0
528204.59901257406,4142374.0504322448,-22500.0,-1410.6381042928654,261.59157765033859,-58.285115785774849,-532.60750694848207,98.99580358282202,-151.34044593044513,849.28060307050498,-1040.7219762486459,404.11323808629845,-404.11323808629845,1040.7219762486459,1672.5362427828488,0.0
533204.59901257406,4142374.0504322448,-22500.0,-1593.1407839156702,323.16591623850979,-72.134842580435105,-633.31415063270845,127.73696073668798,-189.19746556868472,978.50407250433864,-1175.4264639951546,474.97784707185178,-474.97784707185178,1175.4264639951546,1927.3372948316578,0.0
538204.59901257406,4142374.0504322448,-22500.0,-1802.2210241259806,401.16526005823636,-91.470083235670643,-756.83478200811271,166.01298296096448,-238.27432915407226,1133.0644582476575,-1329.1666681992078,560.16464238103572,-560.16464238103572,1329.1666681992078,2231.8048878619584,0.0
543204.59901257406,4142374.0504322448,-22500.0,-2040.7389563823926,500.40186466762401,-118.87274825968376,-908.85979426605661,217.393289015569,-302.32144003548922,1318.8378891030432,-1503.5598850581582,662.52549912556606,-662.52549912556606,1503.5598850581582,2597.2530266621138,0.0
548204.59901257406,4142374.0504322448,-22500.0,-2310.8104717780302,627.12232514142727,-158.25884771954728,-1096.4336968485777,286.91444480433591,-386.41828167601182,1543.1840091050974,-1699.338268713359,785.18698104056875,-785.18698104056875,1699.338268713359,3037.7158761432129,0.0
553204.59901257406,4142374.0504322448,-22500.0,-2612.8175781133746,789.35407986011342,-215.61807655214574,-1328.1161030773833,381.71407727096823,-497.41862171736102,1815.3027264822035,-1915.3974239975298,931.25132221886292,-931.25132221886292,1915.3974239975298,3570.501158300799,0.0
558204.59901257406,4142374.0504322448,-22500.0,-2943.6839573810171,997.21918438416276,-300.18252249815913,-1613.9812507244105,511.92948816323167,-644.48840383874392,2146.6393990690185,-2147.1561737601128,1103.1114122130116,-1103.1114122130116,2147.1561737601128,4216.7325532366212,0.0
563204.59901257406,4142374.0504322448,-22500.0,-3293.9304084109622,1263.0400536437289,-426.27450612085784,-1965.2332992086438,691.94188191067622,-839.68637412283147,2551.3040492236141,-2383.7716946849387,1301.0209906407504,-1301.0209906407504,2383.7716946849387,5001.7420724481899,0.0
568204.59901257406,4142374.0504322448,-22500.0,-3642.7168278720956,1600.8264344067973,-616.21078969439031,-2393.0146133935864,942.02609959582162,-1098.4502707408681,3046.4261267442921,-2603.4657246585193,1520.2521232664367,-1520.2521232664367,2603.4657246585193,5955.0419957346148,0.0
573204.59901257406,4142374.0504322448,-22500.0,-3949.5373482016835,2024.2082187589472,-904.78830642860407,-2905.5899207118769,1290.3479529301621,-1439.7038129176792,3652.2605879524604,-2765.7282723629105,1745.5829952522984,-1745.5829952522984,2765.7282723629105,7109.3288340210238,0.0
578204.59901257406,4142374.0504322448,-22500.0,-4140.2720632287865,2540.702322000287,-1345.9360284915772,-3502.2365143979646,1774.8663299708539,-1885.1007507934783,4391.5979115555174,-2798.3425148189508,1940.7312576519498,-1940.7312576519498,2798.3425148189508,8497.3727236017621,0.0
583204.59901257406,4142374.0504322448,-22500.0,-4083.6437159815473,3137.4078838595638,-2021.5799291200869,-4159.9169077608321,2443.4443574629313,-2456.5593497179275,5287.1801506543788,-2575.915591042753,2028.1532476626603,-2028.1532476626603,2575.915591042753,10143.980015643381,0.0
588204.59901257406,4142374.0504322448,-22500.0,-3552.685369573745,3746.4901288780479,-3049.6862815958111,-4802.2508304362655,3346.1796602127588,-3169.3801877093551,6353.1181512719158,-1886.0446457128523,1850.7542883160818,-1850.7542883160818,1886.0446457128523,12045.38449846828,0.0
593204.59901257406,4142374.0504322448,-22500.0,-2174.6850973118576,4163.9023875574103,-4575.2662668521461,-5222.9951455694509,4498.1866634288417,-4006.3508583505945,7569.0652129170157,-389.04553199044585,1103.9957346714905,-1103.9957346714905,389.04553199044585,14116.481891932699,0.0
598204.59901257406,4142374.0504322448,-22500.0,553.69252760230972,3877.9775941842963,-6678.960251075312,-4913.0837231440273,5736.2578615052507,-4801.845447524408,8817.2289587080577,2353.6041262497565,-747.07415980498058,747.07415980498058,-2353.6041262497565,16078.046368844718,0.0
603204.59901257406,4142374.0504322448,-22500.0,4810.0085322993691,1864.6974448288861,-9000.0815073919639,-2856.3861635448798,6261.8223098754515,-4807.5801310076968,9821.7587461279181,6431.9497871587482,-4345.6178047626454,4345.6178047626454,-6431.9497871587482,17405.062612511814,0.0
608204.59901257406,4142374.0504322448,-22500.0,8816.9867988432852,-2815.228942599977,-9841.4979962710659,1729.2023549831933,3808.9744429511056,-1842.0144976222321,10619.447696269275,10038.024294326937,-9200.3410325680779,9200.3410325680779,-10038.024294326937,18415.872858453396,0.0
613204.59901257406,4142374.0504322448,-22500.0,8332.3992883814881,-7705.0833696395448,-6434.4680807063387,5710.3848923767355,-4046.1722319458327,6267.8012174933538,13097.858264257087,8918.0192043677071,-11109.725735166548,11109.725735166548,-8918.0192043677071,22735.000251935689,0.0
618204.59901257406,4142374.0504322448,-22500.0,4779.0706601121137,-6966.8630146003989,-379.66159674778942,3009.8359535770205,-12757.428180969639,14290.765022087049,16523.445375717871,4199.8503368858383,-6544.9309604968803,6544.9309604968803,-4199.8503368858383,28761.048872196156,0.0
623204.59901257406,4142374.0504322448,-22500.0,4355.9163196614327,-2524.9274665784155,2906.0362925808536,-2555.5475959824776,-14745.861373455544,14779.571693105532,16409.070521560116,2430.1788439421389,-1086.6753904124023,1086.6753904124023,-2430.1788439421389,28581.590627330934,0.0
628204.59901257406,4142374.0504322448,-22500.0,5446.5577134446821,611.27310995204812,3002.5987809402632,-5080.2052051816281,-11813.938850417771,10908.62188758571,13408.588343035684,2954.2103423778499,1293.5235928652182,-1293.5235928652182,-2954.2103423778499,23375.414724531696,0.0
633204.59901257406,4142374.0504322448,-22500.0,5954.5153992211699,1860.7992751759348,1516.5893255122687,-5186.4275918237527,-7838.2063382222204,7039.3093222628131,9922.2062049732631,3730.9728716399873,1373.6327630809042,-1373.6327630809042,-3730.9728716399873,17351.756454366794,0.0
638204.59901257406,4142374.0504322448,-22500.0,5827.2375025099163,1735.6806542456766,-342.83456033827247,-4279.7591834666609,-4331.2040053872552,4152.1255890827515,6981.454174267833,4273.7843757528872,249.90497815070034,-249.90497815070034,-4273.7843757528872,12280.268334970608,0.0
643204.59901257406,4142374.0504322448,-22500.0,5140.3051657300357,858.57542587794796,-1730.9326428752324,-3023.8831386772504,-1777.8915844024846,2179.9697201563263,4886.2844187145483,4304.5170990988991,-1118.5611458871776,1118.5611458871776,-4304.5170990988991,8646.5070742761782,0.0
648204.59901257406,4142374.0504322448,-22500.0,4064.7091638120946,-149.27624995479377,-2397.1134876899432,-1811.0592007728401,-198.29870081231638,933.67088018105221,3657.1260875582948,3815.7492791430732,-2122.9752500301665,2122.9752500301665,-3815.7492791430732,6430.4713836456876,0.0
653204.59901257406,4142374.0504322448,-22500.0,2872.348488513338,-932.80706128790894,-2498.2005664029812,-843.31369344816403,631.75228970774958,209.72459859915094,3027.3543655514995,3032.7522199755781,-2612.0966983202857,2612.0966983202857,-3032.7522199755781,5251.0822483482698,0.0
658204.59901257406,4142374.0504322448,-22500.0,1779.8758701967474,-1403.0576215268977,-2284.3640729654521,-165.8246655809574,979.07819626468586,-170.9705934021656,2653.3668906048706,2192.5248400336645,-2690.5097807315874,2690.5097807315874,-2192.5248400336645,4610.7621918851992,0.0
663204.59901257406,4142374.0504322448,-22500.0,892.68658351338468,-1607.7068635270568,-1946.7636239083974,259.92894256726652,1053.9540374164842,-342.95085236349837,2364.2705591343229,1440.9450298654642,-2520.680514258222,2520.680514258222,-1440.9450298654642,4167.7400304454241,0.0
668204.59901257406,4142374.0504322448,-22500.0,230.58496553058578,-1630.8248841594732,-1594.7937214017998,498.08147842077079,993.53073053958985,-396.91889254267778,2105.49817342802,836.11296262237192,-2234.3396827961519,2234.3396827961519,-836.11296262237192,3776.8599520643334,0.0
673204.59901257406,4142374.0504322448,-22500.0,-231.36469944206499,-1547.3279441134382,-1278.5219869440289,609.18081596979903,877.44360037679792,-389.48864149084528,1865.3087331645011,382.4330064769091,-1915.3535797082268,1915.3535797082268,-382.4330064769091,3400.243791647747,0.0
678204.59901257406,4142374.0504322448,-22500.0,-533.64326987966217,-1410.8276219002003,-1014.1971070025338,640.38083048164049,747.82004303578856,-353.83779090330387,1644.0271526642121,59.772311591150924,-1609.0788612093011,1609.0788612093011,-59.772311591150924,3037.9169218551997,0.0
683204.59901257406,4142374.0504322448,-22500.0,-716.82249673149408,-1255.2506750250207,-801.72660988848736,624.84300041491895,624.75124580639749,-308.26099608130374,1443.6558079566173,-159.12931833945788,-1335.9719855882377,1335.9719855882377,159.12931833945788,2697.7789409979664,0.0
688204.59901257406,4142374.0504322448,-22500.0,-815.27120633706772,-1100.1017939395711,-634.51076405084257,584.38459756040731,516.32075909289131,-262.15155461652944,1265.1097738692822,-300.29072331239286,-1102.3300839671522,1102.3300839671522,300.29072331239286,2386.1229761326722,0.0
693204.59901257406,4142374.0504322448,-22500.0,-855.69418705754049,-955.46054412356045,-504.30595393617648,532.63153181710413,424.51761362273697,-219.84506033017627,1107.9581920359476,-385.37911165124257,-907.24612866049915,907.24612866049915,385.37911165124257,2105.8957985094171,0.0
698204.59901257406,4142374.0504322448,-22500.0,-857.78611765761582,-825.69669469584994,-403.33547498487428,477.68568358300922,348.50858960721172,-182.9474844326198,970.8201612459294,-431.18759673438183,-746.65327867083226,746.65327867083226,431.18759673438183,1857.283597040213,0.0
703204.59901257406,4142374.0504322448,-22500.0,-835.57138544726217,-711.94091560195864,-325.02469058561257,424.09423889812348,286.35362329650326,-151.68066605221424,851.80763090156995,-450.18011496486469,-615.4924965024893,615.4924965024893,450.18011496486469,1638.7034088951052,0.0
708204.59901257406,4142374.0504322448,-22500.0,-798.7768436431536,-613.61617665551478,-264.10876419176731,374.1986275074056,235.85071478325929,-125.62729113495958,748.85151805224632,-451.34617614119247,-508.77294368169066,508.77294368169066,451.34617614119247,1447.623449326411,0.0
713204.59901257406,4142374.0504322448,-22500.0,-754.00277165443902,-529.3454619040732,-216.49487108484652,329.01942142476469,194.91917524797918,-104.12700119055407,659.91063762662907,-441.03881259485354,-422.02946608910406,422.02946608910406,441.03881259485354,1281.1329154209941,0.0
718204.59901257406,4142374.0504322448,-22500.0,-705.63226679312095,-457.46186223439503,-179.05192439640996,288.81585729989399,161.74523401886975,-86.474987597863773,583.08477106329872,-423.67552038880564,-351.46440606438233,351.46440606438233,423.67552038880564,1136.2873615274502,0.0
523204.59901257406,4147374.0504322448,-22500.0,-1184.7600467134546,294.26673546344409,-85.592902315536591,-429.47345708318966,105.97968004344517,-117.08439171973991,722.13003937859787,-867.60563510618294,378.31534274029855,-378.31534274029855,867.60563510618294,1421.7460667474149,0.0
528204.59901257406,4147374.0504322448,-22500.0,-1324.3250440211584,356.26066120464742,-105.4776379366924,-504.74255024262044,133.86327093355601,-144.50795611238408,824.63786498408706,-968.66084951232813,439.18073163980523,-439.18073163980523,968.66084951232813,1624.3024937325924,0.0
533204.59901257406,4147374.0504322448,-22500.0,-1481.2772504053708,433.10982900132797,-132.07421608002068,-595.53804322571659,170.17604447177959,-179.49022440463511,945.66927751531477,-1081.4406949738927,510.94066437636877,-510.94066437636877,1081.4406949738927,1863.3979704902586,0.0
538204.59901257406,4147374.0504322448,-22500.0,-1656.5590039368169,528.64968746217676,-168.06784909305043,-705.24919014127693,217.77712813712583,-224.35632348601985,1089.0979036009808,-1206.0370725590137,595.2994548684984,-595.2994548684984,1206.0370725590137,2146.5811849332299,0.0
543204.59901257406,4147374.0504322448,-22500.0,-1850.1527884599473,647.65803350829208,-217.33271886750882,-837.87339918796363,280.57243898917551,-282.17298260844518,1259.6350343315103,-1341.5079424148771,693.89020456497497,-693.89020456497497,1341.5079424148771,2482.9567294612393,0.0
548204.59901257406,4147374.0504322448,-22500.0,-2060.260999624199,795.97630649853352,-285.49229819711633,-997.96334727734677,363.90037666477929,-356.95570423601345,1462.9703820545758,-1485.0934491368996,807.92418585725886,-807.92418585725886,1485.0934491368996,2883.3795738839349,0.0
553204.59901257406,4147374.0504322448,-22500.0,-2281.97618838882,980.51628299298204,-380.74642377755555,-1190.3891885809708,475.0360142375348,-453.88839797759675,1705.8911822873029,-1630.9575418569987,937.51654606436637,-937.51654606436637,1630.9575418569987,3360.5443185330396,0.0
558204.59901257406,4147374.0504322448,-22500.0,-2505.1648440904846,1208.9752706376796,-515.07712796075214,-1419.7362257039142,623.81099415124675,-579.49566654923672,1996.3227175486143,-1768.1992623918786,1080.4394801367816,-1080.4394801367816,1768.1992623918786,3928.821357571328,0.0
563204.59901257406,4147374.0504322448,-22500.0,-2711.1683137634532,1488.9062357241748,-705.96477722998543,-1689.020569545921,823.285473552236,-741.62889969904018,2343.1789128396576,-1877.7693030461608,1229.8827652397833,-1229.8827652397833,1877.7693030461608,4603.5739410076358,0.0
568204.59901257406,4147374.0504322448,-22500.0,-2867.7907203387144,1825.4388159673015,-978.70629767223897,-1997.1719386542095,1090.2448979576925,-948.97512132548786,2755.815325370344,-1927.8146318548481,1370.5226144920418,-1370.5226144920418,1927.8146318548481,5399.477593586661,1.0
573204.59901257406,4147374.0504322448,-22500.0,-2921.9595211728938,2216.2859535481475,-1369.2055526541678,-2334.3433514540407,1444.9085978406745,-1209.526418501795,3242.7234383569239,-1866.9345005648047,1471.7831518460798,-1471.7831518460798,1866.9345005648047,6327.0067347315371,0.0
578204.59901257406,4147374.0504322448,-22500.0,-2789.664506614632,2641.4185018032986,-1926.3159746763865,-2673.4424602980848,1908.3186654013537,-1526.9728093762797,3808.8397929764701,-1615.1609421599924,1476.6548937980274,-1476.6548937980274,1615.1609421599924,7385.6494124424335,0.0
583204.59901257406,4147374.0504322448,-22500.0,-2344.1886990396802,3042.5520471241816,-2710.4138847457034,-2955.0990159877324,2493.6745852673562,-1893.0494406906812,4450.3609934681499,-1054.1474614292476,1284.2255821799365,-1284.2255821799365,1054.1474614292476,8551.4504236776047,0.0
588204.59901257406,4147374.0504322448,-22500.0,-1409.5878254876893,3284.4113968543234,-3777.9940636400429,-3061.504369427048,3182.4202407208322,-2271.4451855025368,5145.3890159969596,-24.500899984952071,726.37205507819749,-726.37205507819749,24.500899984952071,9755.7580596868702,0.0
593204.59901257406,4147374.0504322448,-22500.0,212.11865862663888,3090.4138991535497,-5123.9872877889675,-2775.3807218981719,3862.8605935531778,-2561.430602536584,5840.5724105674317,1639.8053385600592,-446.75834645017721,446.75834645017721,-1639.8053385600592,10857.804291138966,0.0
598204.59901257406,4147374.0504322448,-22500.0,2590.5407300304614,1979.6717493551976,-6517.2285959641767,-1747.1085228182974,4186.8566554086065,-2512.0348068130111,6453.6992182209924,3950.079404021732,-2500.2674911868703,2500.2674911868703,-3950.079404021732,11662.693920471587,0.0
603204.59901257406,4147374.0504322448,-22500.0,5228.2176100652641,-596.3517897372127,-7161.9289113418999,369.46328213244556,3325.2727765818631,-1564.8331097288424,7004.2726586266954,6314.6736934575674,-5344.3630686711658,5344.3630686711658,-6314.6736934575674,12253.289680570037,0.0
608204.59901257406,4147374.0504322448,-22500.0,6525.1545400036648,-4367.7650523113434,-5501.8559782326474,3183.2113823431114,-18.606609437969432,1131.9697888494857,8075.1313523038561,7008.4350003296177,-7630.774798012596,7630.774798012596,-7008.4350003296177,14017.959602783962,0.0
613204.59901257406,4147374.0504322448,-22500.0,4940.0691199967177,-6825.9638484717407,-634.20039418167062,4517.441762318258,-6083.1298715982202,5625.0760924924307,10542.89461641589,4393.2049882480478,-6601.5264639531197,6601.5264639531197,-4393.2049882480478,18638.045052171656,0.0
618204.59901257406,4147374.0504322448,-22500.0,2361.6950229729341,-5167.3519516116658,4826.5825416116495,2292.8878409519293,-11691.825620597259,9510.4205210204618,13097.424699482181,521.29921918617276,-1793.7105560457917,1793.7105560457917,-521.29921918617276,23356.628267540193,0.0
623204.59901257406,4147374.0504322448,-22500.0,1995.6826051818866,-1122.3361646866456,7088.5492848798685,-1570.1852965810435,-13194.003222600284,10252.444336143923,13542.305360389222,-829.88574201634083,2763.5529250985301,-2763.5529250985301,829.88574201634083,24196.721734724386,0.0
628204.59901257406,4147374.0504322448,-22500.0,3276.2677399090844,1885.7401663861999,6155.1319679274729,-4058.8159837209028,-11165.1220216046,8542.876583557967,11918.761098968722,191.42745930783212,4432.2416461242956,-4432.2416461242956,-191.42745930783212,21329.159264229555,0.0
633204.59901257406,4147374.0504322448,-22500.0,4458.1265023424075,3043.3707642158206,3918.7709054279112,-4739.9173079136526,-7973.2601231693088,6208.6164906977965,9480.1388853717599,1725.0713449454192,3908.5536096278151,-3908.5536096278151,-1725.0713449454192,17035.394104335031,0.0
638204.59901257406,4147374.0504322448,-22500.0,4976.9518752459016,2906.899743062826,1628.6445089043025,-4345.6218412451417,-4986.0889483174806,4144.7607556082294,7113.181159115331,2890.1796067849277,2429.3428286721041,-2429.3428286721041,-2890.1796067849277,12872.606866310798,0.0
643204.59901257406,4147374.0504322448,-22500.0,4858.0282545379241,2097.7754249897284,-143.03678867163893,-3475.8734346098499,-2670.42581412659,2563.1958559032423,5193.8429591457207,3463.5095660234838,807.79051754922625,-807.79051754922625,-3463.5095660234838,9467.887668482992,0.0
648204.59901257406,4147374.0504322448,-22500.0,4271.502558157099,1099.0681004712844,-1236.9151781181367,-2497.1067137378536,-1087.1526835444308,1448.2386829659333,3835.1515352377473,3478.6648914325851,-508.6686872545522,508.6686872545522,-3478.6648914325851,6974.091254192268,0.0
653204.59901257406,4147374.0504322448,-22500.0,3436.1913918874757,212.4288294120235,-1746.5061753715386,-1614.700097921522,-119.3776811166248,715.451720084822,2976.8789069177869,3104.664154412756,-1367.2682236880007,1367.2682236880007,-3104.664154412756,5306.7794273761156,0.0
658204.59901257406,4147374.0504322448,-22500.0,2547.782510886012,-437.8177852636511,-1859.1312166596529,-915.16464665438502,404.45243590233446,265.10934601752263,2441.4276577808328,2539.0804112974101,-1805.6807787960634,1805.6807787960634,-2539.0804112974101,4260.319145714524,0.0
663204.59901257406,4147374.0504322448,-22500.0,1735.0492401836123,-845.19667678803023,-1749.2940349532219,-408.71723697031632,641.8052911994439,7.6894948337203211,2080.5154023535979,1935.1383880358671,-1937.5882758514317,1937.5882758514317,-1935.1383880358671,3603.5633945554391,0.0
668204.59901257406,4147374.0504322448,-22500.0,1058.9228048941754,-1056.4376574480493,-1540.2138048974421,-68.154389669177476,710.7611242765845,-126.19743473607288,1811.1857766049525,1382.9671911444152,-1879.3448940678277,1879.3448940678277,-1382.9671911444152,3155.5336250747782,0.0
673204.59901257406,4147374.0504322448,-22500.0,532.70062891125508,-1129.7212010370517,-1305.1695440914445,145.10471936620345,689.78409186664339,-185.40755652982403,1592.2774975799646,921.65595538703974,-1720.6851708796994,1720.6851708796994,-921.65595538703974,2809.4552708560618,0.0
678204.59901257406,4147374.0504322448,-22500.0,143.70217070062543,-1115.587295565557,-1081.7154511941576,267.63132550420221,626.74231439424295,-202.04066590166579,1404.8894285392375,558.50191528483697,-1520.9787117050748,1520.9787117050748,-558.50191528483697,2514.8378674792757,0.0
683204.59901257406,4147374.0504322448,-22500.0,-131.25664576742392,-1051.5633654140302,-885.65831768712883,328.97132537522373,548.81224475524857,-196.07630941428246,1240.6811534259782,284.70393970243299,-1315.2978683729953,1315.2978683729953,-284.70393970243299,2251.6729296107796,0.0
688204.59901257406,4147374.0504322448,-22500.0,-316.98154547146186,-962.98922831888694,-721.03739120616217,350.97587824291128,470.2962847064012,-179.38003905593601,1095.7691647420813,85.338090154528345,-1122.1182830915534,1122.1182830915534,-85.338090154528345,2013.1882036250356,0.0
693204.59901257406,4147374.0504322448,-22500.0,-435.71214185944893,-865.79277328187277,-586.24872388441747,348.90925309152379,397.96769976867461,-158.6763417904354,967.93043319870208,-55.272487569007012,-949.6510130538154,949.6510130538154,55.272487569007012,1797.2905633608862,0.0
698204.59901257406,4147374.0504322448,-22500.0,-505.68494105047432,-769.32658555979253,-477.44380288349697,333.00259956217667,334.43226624756784,-137.56858113259071,855.4721235997464,-151.12913657151904,-800.24732486067069,800.24732486067069,151.12913657151904,1603.0310019327185,0.0
703204.59901257406,4147374.0504322448,-22500.0,-541.08024957586963,-678.63775707976106,-390.25649790604848,309.88504991563661,280.12631358785205,-117.83413763287977,756.84609817316198,-213.75746915098102,-673.18840276048616,673.18840276048616,213.75746915098102,1429.4039359254143,0.0
708204.59901257406,4147374.0504322448,-22500.0,-552.54844842704222,-596.09179180501746,-320.59061598569735,283.71548951505605,234.45187746552833,-100.22110629836611,670.55889171012427,-252.20175552446182,-566.33832146396412,566.33832146396412,252.20175552446182,1275.0868005432192,0.0
713204.59901257406,4147374.0504322448,-22500.0,-547.89702707428603,-522.46154612899795,-264.91569517295409,257.01010739146204,196.39464926545341,-84.922802542572185,595.18081817809343,-273.34574651254542,-477.06794444534643,477.06794444534643,273.34574651254542,1138.5007098488552,0.0
718204.59901257406,4147374.0504322448,-22500.0,-532.74496364389188,-457.62369413470259,-220.32253212239269,231.21848932658079,164.84287549616067,-71.85209673581501,529.3736406830825,-282.32136285971268,-402.73598866924721,402.73598866924721,282.32136285971268,1017.9393728801422,0.0
523204.59901257406,4152374.0504322448,-22500.0,-1094.5250003980123,359.4468253956253,-129.20493676376663,-401.16658030188546,129.67534676243596,-110.35254504296063,694.4122292625068,-791.53529348660607,391.23086659773401,-391.23086659773401,791.53529348660607,1367.93781031602,0.0
528204.59901257406,4152374.0504322448,-22500.0,-1210.4766844966493,429.52790972877881,-159.60568899711461,-467.43123221364999,161.85656707025259,-135.21825740727596,788.84988563241041,-872.27886764768425,448.82301126721643,-448.82301126721643,872.27886764768425,1555.0253476004052,0.0
533204.59901257406,4152374.0504322448,-22500.0,-1337.0517598995232,514.83490194368153,-199.52146990497482,-546.03503146808055,203.15729359526676,-166.56147624898185,899.21346460906523,-958.8460120678717,514.93697280838092,-514.93697280838092,958.8460120678717,1773.6969488474028,0.0
538204.59901257406,4152374.0504322448,-22500.0,-1473.1430199360066,618.69650565592713,-252.39028302584552,-639.13097075017117,256.41667518315001,-206.20491347148999,1028.4587292861906,-1049.5242644054711,590.11842093036239,-590.11842093036239,1049.5242644054711,2029.7342375069404,0.0
543204.59901257406,4152374.0504322448,-22500.0,-1616.0837199698547,744.95529582640506,-322.99180241347926,-748.97033297335872,325.3819199657878,-256.4612665585513,1180.037809506782,-1141.0399537247581,674.31717776852031,-674.31717776852031,1141.0399537247581,2329.7871483290978,0.0
548204.59901257406,4152374.0504322448,-22500.0,-1760.7093463796036,897.81525011704491,-417.9747306645711,-877.63910440655161,414.96039082047798,-320.20908489040295,1357.9172573516917,-1227.6768774617608,766.31760249977287,-766.31760249977287,1227.6768774617608,2681.2892285559565,0.0
553204.59901257406,4152374.0504322448,-22500.0,-1897.958607911529,1081.4152092985992,-546.55976117460352,-1026.5334831750909,531.48198182151918,-400.91314052898355,1566.529606335265,-1299.9745498486793,862.77713868478418,-862.77713868478418,1299.9745498486793,3092.1557671287428,0.0
558204.59901257406,4152374.0504322448,-22500.0,-2012.8438803305723,1298.8769583426574,-721.42572313851235,-1195.3869883716977,682.88961443552682,-502.49939413544303,1810.5703256925078,-1342.8585188409129,956.64079565911209,-956.64079565911209,1342.8585188409129,3570.0873829327002,0.0
563204.59901257406,4152374.0504322448,-22500.0,-2081.629262432436,1550.3800484749629,-959.69731378273127,-1380.5532216466706,878.65598869091343,-628.90801990108503,2094.4769334337198,-1333.0756491131478,1034.5938663037791,-1034.5938663037791,1333.0756491131478,4121.18932449562,0.0
568204.59901257406,4152374.0504322448,-22500.0,-2068.1781066760304,1829.4998192540129,-1283.7162303771445,-1572.1039695325735,1128.9800030146846,-782.99863726031538,2421.3800648204801,-1235.9533055752099,1073.1162260244855,-1073.1162260244855,1235.9533055752099,4747.4647325333663,0.0
573204.59901257406,4152374.0504322448,-22500.0,-1919.8660688550776,2116.5705437997653,-1720.6903896601061,-1749.1469803078492,1442.3224779190543,-964.23848444508235,2791.3225180011327,-1001.9818784070085,1032.7229493119933,-1032.7229493119933,1001.9818784070085,5442.5727120379488,0.0
578204.59901257406,4152374.0504322448,-22500.0,-1564.6593545595399,2367.2719958979492,-2298.9481436114247,-1872.720063457077,1819.3823385891792,-1164.2376706600394,3198.562686896948,-565.02384924587864,850.48923809696589,-850.48923809696589,565.02384924587864,6185.2381038944322,0.0
583204.59901257406,4152374.0504322448,-22500.0,-913.97582165493782,2494.5284576496188,-3035.528969015912,-1876.0726625208563,2239.8492071917049,-1358.6742697218137,3628.0906552212773,152.82187772587935,433.0411413262803,-433.0411413262803,-152.82187772587935,6930.5864882263104,0.0
588204.59901257406,4152374.0504322448,-22500.0,117.10880563679709,2344.4448906721718,-3903.9909776280638,-1654.4250628286413,2635.4210565705389,-1493.4295559988454,4053.3067273743131,1217.3729111943424,-341.29364296347831,341.29364296347831,-1217.3729111943424,7604.2032233725313,0.0
593204.59901257406,4152374.0504322448,-22500.0,1547.5235417101505,1680.1760267227019,-4763.2576751729275,-1064.749772929249,2840.1896938304335,-1462.2345796656232,4443.8406674421894,2613.7045379382416,-1585.3066640089874,1585.3066640089874,-2613.7045379382416,8121.623093126992,0.0
598204.59901257406,4152374.0504322448,-22500.0,3190.7397109762865,230.0907506581762,-5233.3538058848444,28.739656892329339,2519.3385748956589,-1077.4110986946814,4812.411300200647,4097.6721698468009,-3272.1226361122253,3272.1226361122253,-4097.6721698468009,8510.5619720030263,0.0
603204.59901257406,4152374.0504322448,-22500.0,4465.3522394213533,-2063.9774050748374,-4589.3409977127676,1583.6075044963882,1143.2195364345932,-66.48865657415071,5344.9116562279278,5000.9695869381085,-4946.9110696821717,4946.9110696821717,-5000.9695869381085,9258.2353344905168,0.0
608204.59901257406,4152374.0504322448,-22500.0,4476.9110027984361,-4515.7954861899307,-2017.057721251552,3052.2393641432727,-1750.4462995345666,1780.6482833449752,6470.2771344633165,4335.7809797079335,-5460.1483382132319,5460.1483382132319,-4335.7809797079335,11412.708943950216,0.0
613204.59901257406,4152374.0504322448,-22500.0,2943.4013499638995,-5501.5135975889189,2329.1547279185834,3329.9040612750923,-5771.4429703806809,4189.5281322092269,8312.9587391729219,1818.219176218839,-3557.2716803363824,3557.2716803363824,-1818.219176218839,15056.193432706816,0.0
618204.59901257406,4152374.0504322448,-22500.0,1181.4684079139281,-3895.0954816975145,6472.3223723279689,1774.2118369750447,-9207.4944215587529,6170.1376405322198,10021.422436174411,-1003.6653877751176,336.72770894917863,-336.72770894917863,1003.6653877751176,18324.254034742971,0.0
623204.59901257406,4152374.0504322448,-22500.0,792.33788199461276,-773.26965252481148,8238.4653163334278,-723.6324662935076,-10404.656430228735,6817.0393148822268,10569.521587678413,-2131.9653074192011,3882.6114898404294,-3882.6114898404294,2131.9653074192011,19365.343851824495,0.0
628204.59901257406,4152374.0504322448,-22500.0,1711.2286842868843,1869.4975883733432,7472.8252751157906,-2728.9283763058188,-9393.9591659119578,6198.1488197319377,9825.0034493969033,-1404.9935865326968,5412.5627299511725,-5412.5627299511725,1404.9935865326968,18028.92798260336,0.0
633204.59901257406,4152374.0504322448,-22500.0,2923.9362223441849,3167.103448474224,5405.734798926761,-3671.6079096803078,-7287.1452279524747,4964.12330508797,8326.0443190382975,83.294252951497128,5090.6535791122351,-5090.6535791122351,-83.294252951497128,15332.956581054768,0.0
638204.59901257406,4152374.0504322448,-22500.0,3769.2557755967118,3304.3697531247421,3139.7551435411006,-3736.2468746787981,-5037.9994512867224,3645.5048183051417,6635.1870953173138,1459.3276629992617,3790.6169589509827,-3790.6169589509827,-1459.3276629992617,12292.81090615936,0.0
643204.59901257406,4152374.0504322448,-22500.0,4076.5189431731678,2749.1627691553749,1247.5517664526128,-3284.8050870273282,-3121.5581466813128,2498.1024629422946,5094.5989208150504,2367.3899026939807,2235.0383187307361,-2235.0383187307361,-2367.3899026939807,9502.8975802545701,0.0
648204.59901257406,4152374.0504322448,-22500.0,3915.2878122386032,1912.3753028777514,-81.705545612669766,-2614.3970845231079,-1685.6223711210009,1603.6097110492051,3863.72611120892,2762.5891422829313,846.77561837614883,-846.77561837614883,-2762.5891422829313,7216.700915807126,0.0
653204.59901257406,4152374.0504322448,-22500.0,3440.7902885928552,1071.2786871356182,-876.18044866859748,-1920.0927947999839,-709.27524091879991,957.81962831486931,2976.3059068340522,2746.968744643184,-193.86351883445877,193.86351883445877,-2746.968744643184,5485.8787049001467,0.0
658204.59901257406,4152374.0504322448,-22500.0,2814.4034287985401,370.90999202556003,-1259.5219186864913,-1307.6170518631282,-101.55248279550392,519.65316932172937,2365.2934019696881,2469.7169294762421,-866.71044079102478,866.71044079102478,-2469.7169294762421,4252.9229586048414,0.0
663204.59901257406,4152374.0504322448,-22500.0,2162.0624570960022,-142.40487076626937,-1370.5418066985051,-817.88637591151166,241.7495584825032,238.37266953115324,1940.6577065023084,2066.7934531512628,-1233.142600090611,1233.142600090611,-2066.7934531512628,3409.8710969814124,0.0
668204.59901257406,4152374.0504322448,-22500.0,1562.287887788068,-479.39706438686744,-1323.7079983409442,-452.71230381027613,410.65690036691723,67.512663189838364,1636.1081248044247,1635.5035531528363,-1378.7200487089847,1378.7200487089847,-1635.5035531528363,2838.9500301162334,0.0
673204.59901257406,4152374.0504322448,-22500.0,1052.7115973439654,-674.7590578994575,-1198.8875988039899,-195.11617817693084,472.5611422510699,-29.796081329074603,1407.6572771998212,1233.2411325749458,-1382.0726236102319,1382.0726236102319,-1233.2411325749458,2440.123116251335,0.0
678204.59901257406,4152374.0504322448,-22500.0,643.05476852453251,-767.29919369645393,-1045.5677412682096,-22.265898848407364,473.47398328914915,-80.329443650320641,1227.6445420654252,886.91226045907956,-1303.5352527314919,1303.5352527314919,-886.91226045907956,2143.2387040054073,0.0
683204.59901257406,4152374.0504322448,-22500.0,327.23797973557839,-790.76306125551184,-891.32359469228868,87.761621566678656,442.75464460821286,-102.37719317864838,1079.6620849087599,603.99172544913768,-1184.5395826976087,1184.5395826976087,-603.99172544913768,1906.0611101774298,0.0
688204.59901257406,4152374.0504322448,-22500.0,92.052237977511155,-771.07162720938004,-749.68819458035762,153.24043061024986,398.10095740829377,-107.8720259172358,954.3060842166766,381.34911543330031,-1051.2332808315894,1051.2332808315894,-381.34911543330031,1705.8041209875162,0.0
693204.59901257406,4152374.0504322448,-22500.0,-77.591621315248517,-726.64815702982617,-625.95916548344519,188.24220827623856,349.59353360601335,-104.31423701981197,846.15160098561512,211.10105741334746,-918.85159828739188,918.85159828739188,-211.10105741334746,1530.9383338435223,0.0
698204.59901257406,4152374.0504322448,-22500.0,-195.93116765087879,-669.860450717606,-520.9938084998837,203.06621823781725,302.58810020474692,-96.261998591240712,751.89863321381279,84.017664421206234,-795.44168978761422,795.44168978761422,-84.017664421206234,1375.6902992585519,0.0
703204.59901257406,4152374.0504322448,-22500.0,-275.19846626430848,-608.6107879657651,-433.49474029954609,204.98727794894555,259.63500438572044,-86.390065772432578,669.34861309981966,-8.7311551754846732,-684.60172196721055,684.60172196721055,8.7311551754846732,1236.9743818402058,0.0
708204.59901257406,4152374.0504322448,-22500.0,-325.34051688414536,-547.69391658029974,-361.29778254572699,199.0065749160961,221.69038883552204,-76.201993518107372,596.87914675395598,-74.828448446318703,-587.33304534556021,587.33304534556021,74.828448446318703,1112.8692123124449,0.0
713204.59901257406,4152374.0504322448,-22500.0,-354.1647549622308,-489.83178696075686,-302.05004167183665,188.48464398375845,188.85157599489909,-66.491582169402648,533.18835844561522,-120.60730900738352,-503.22315934484925,503.22315934484925,120.60730900738352,1001.9278754663059,0.0
523204.59901257406,4157374.0504322448,-22500.0,-987.72408786695428,406.25092532573558,-175.19032437730007,-367.26022444690739,147.61261361784355,-102.19955401568149,659.20407338957466,-701.0057273354372,385.47214974445239,-385.47214974445239,701.0057273354372,1299.9901331065084,0.0
528204.59901257406,4157374.0504322448,-22500.0,-1078.1623519181762,479.2283193098375,-215.53251346983043,-423.48979868285738,182.14832161409231,-124.14535322035555,744.18744399694049,-759.82150468751001,435.66479408918667,-435.66479408918667,759.82150468751001,1468.9654014215482,0.0
533204.59901257406,4157374.0504322448,-22500.0,-1172.6833486947176,566.22206155941285,-267.58944944831148,-488.77729620503942,225.77341529938772,-151.40844898602444,842.28555454880359,-818.80308107161784,491.12075583890089,-491.12075583890089,818.80308107161784,1664.1215749044277,0.0
538204.59901257406,4157374.0504322448,-22500.0,-1268.5210131046747,669.573074306335,-335.16883827737632,-564.12809862792551,281.02437937440118,-185.31062982325435,955.57013113231312,-874.81279118466296,551.12161953600457,-551.12161953600457,874.81279118466296,1889.4719356405878,0.0
543204.59901257406,4157374.0504322448,-22500.0,-1361.0378764598158,791.5919885135437,-423.35051549128076,-650.24333839509143,351.09865435135009,-227.43657706019837,1086.3582317120449,-922.90242505003971,613.90756786591419,-613.90756786591419,922.90242505003971,2149.2927914958805,0.0
548204.59901257406,4157374.0504322448,-22500.0,-1442.8492658365706,934.14452927693651,-538.85754078215007,-747.13639326207158,439.94051346725394,-279.60784852579781,1237.190333860342,-955.50992140210019,675.99647611227374,-675.99647611227374,955.50992140210019,2447.8419801404825,0.0
553204.59901257406,4157374.0504322448,-22500.0,-1502.6375049408584,1097.864250702761,-690.45322269585949,-853.48418104692962,552.23596010451888,-343.76295672674746,1410.6964977198959,-961.38944498825356,731.14097358991478,-731.14097358991478,961.38944498825356,2788.8225080442348,0.0
558204.59901257406,4157374.0504322448,-22500.0,-1523.6384096012389,1280.7379217624439,-889.25047217781901,-965.57060596411327,693.18075762081912,-421.65048435846364,1609.1608348649399,-924.28000440279448,768.78119979590883,-768.78119979590883,924.28000440279448,3174.4424615675634,0.0
563204.59901257406,4157374.0504322448,-22500.0,-1481.9050278840994,1475.6744872695756,-1148.6525570784711,-1075.6338738307527,867.75420523540618,-514.17276534767097,1833.7139202417325,-821.45397878763799,771.85759243044333,-771.85759243044333,821.45397878763799,3603.8682168644809,0.0
568204.59901257406,4157374.0504322448,-22500.0,-1344.7668369897665,1666.5206866592418,-1483.2987316789952,-1169.4189990416783,1078.9996184325635,-620.11563349311439,2083.3150750116733,-622.62265161782739,713.97487533001595,-713.97487533001595,622.62265161782739,4070.8616126891252,0.0
573204.59901257406,4157374.0504322448,-22500.0,-1070.5846310967131,1821.9227725468929,-1905.7140065316055,-1222.8451431973317,1324.4261997568497,-733.86752960831211,2353.5546213205607,-290.40078670483376,556.34665308977708,-556.34665308977708,290.40078670483376,4560.5476204858523,0.0
578204.59901257406,4157374.0504322448,-22500.0,-612.25511345927077,1886.7991602921568,-2418.1590259049462,-1198.1415221474117,1589.0865311308278,-841.61388550026822,2635.4335226811331,215.03547736756985,246.13641598890672,-246.13641598890672,-215.03547736756985,5045.983058720979,0.0
583204.59901257406,4157374.0504322448,-22500.0,70.706746915334278,1772.9019923603441,-2995.3638733144348,-1041.0558303847258,1833.3027648198727,-915.53208559564996,2915.3565500240279,921.96738562963878,-279.42047429438361,279.42047429438361,-921.96738562963878,5487.5779179949368,0.0
588204.59901257406,4157374.0504322448,-22500.0,983.56260274429246,1355.1587510670527,-3552.3296461420246,-683.72022756818751,1973.269354817304,-906.08299507052732,3180.2104024025607,1815.4848737816251,-1073.2230825988995,1073.2230825988995,-1815.4848737816251,5845.2554922004347,0.0
593204.59901257406,4157374.0504322448,-22500.0,2043.0226881316555,492.75653455748954,-3894.9931402969314,-63.70612963487882,1856.8287887153654,-734.58685036239626,3436.5413927777472,2779.8879166221805,-2125.144862516092,2125.144862516092,-2779.8879166221805,6129.0863261943632,0.0
598204.59901257406,4157374.0504322448,-22500.0,3007.7045934358753,-886.96437965051973,-3674.9417206084686,822.56377821073386,1252.189472413135,-294.36510387673189,3754.7401657836353,3525.5500712979624,-3258.4118338250887,3258.4118338250887,-3525.5500712979624,6526.0055560429437,0.0
603204.59901257406,4157374.0504322448,-22500.0,3463.1632607805591,-2607.1098967668022,-2434.8780271845603,1820.9437568473622,-97.021921748336226,518.03520627791295,4309.3826207647135,3578.9052825331405,-4007.982622418212,4007.982622418212,-3578.9052825331405,7513.7871760065427,0.0
608204.59901257406,4157374.0504322448,-22500.0,3024.2050972558145,-4050.3164362695984,98.456905390829576,2534.4731448790126,-2270.7522645035142,1711.0463943099951,5277.9597304532163,2515.2493880629572,-3665.4793898081498,3665.4793898081498,-2515.2493880629572,9507.7450622572615,0.0
613204.59901257406,4157374.0504322448,-22500.0,1799.8960387999534,-4318.0378372556579,3495.3516459768107,2448.7487155640906,-4872.4914278006218,3070.4516253734737,6564.5292841168803,488.96158910660961,-1772.9794025910733,1772.9794025910733,-488.96158910660961,12144.286387878501,0.0
618204.59901257406,4157374.0504322448,-22500.0,594.66976937186814,-2987.3089325076662,6500.5832180568123,1374.1419857298852,-7018.5130244388747,4167.9613859639076,7701.6859113565279,-1517.2858862408223,1171.8138742821045,-1171.8138742821045,1517.2858862408223,14379.154822668546,0.0
623204.59901257406,4157374.0504322448,-22500.0,239.51369188269882,-688.5311677090815,7904.054811252664,-254.72311416314753,-7926.0582775981029,4637.0842366120314,8187.1428647458688,-2433.3978863500979,3851.7816441774739,-3851.7816441774739,2433.3978863500979,15312.169459681658,0.0
628204.59901257406,4157374.0504322448,-22500.0,808.27327733232323,1454.2220457297858,7501.590106686217,-1735.2972485384303,-7503.9350142600269,4439.5947925487244,7886.0168073966834,-2047.4859153591935,5243.4053726031516,-5243.4053726031516,2047.4859153591935,14764.368517018289,0.0
633204.59901257406,4157374.0504322448,-22500.0,1782.428517349028,2752.9069059747312,5947.2817484022908,-2644.3099923802197,-6230.2273937270993,3803.2709016356807,7010.659215325888,-907.9573106943335,5248.9778918376151,-5248.9778918376151,907.9573106943335,13159.525442949576,0.0
638204.59901257406,4157374.0504322448,-22500.0,2651.2424984422159,3147.227444997724,4026.853791832129,-2945.9493497571998,-4667.6796131053761,2998.0716731708044,5873.0640936720683,348.64798944623294,4344.346638506403,-4344.346638506403,-348.64798944623294,11074.663343630593,0.0
643204.59901257406,4157374.0504322448,-22500.0,3166.5008556817452,2893.7695150053023,2262.5349395972589,-2802.37139620587,-3195.5953149972729,2212.4799797757869,4722.0205756926916,1343.1173295746653,3067.728267812849,-3067.728267812849,-1343.1173295746653,8954.4379192941433,0.0
648204.59901257406,4157374.0504322448,-22500.0,3294.912571703383,2297.8375713889968,889.51527833495845,-2408.260330260292,-1991.9890093216156,1542.5981123544504,3709.6525386773856,1947.5627072409193,1800.2173235868945,-1800.2173235868945,-1947.5627072409193,7055.8427033126554,0.0
653204.59901257406,4157374.0504322448,-22500.0,3114.4363110194381,1599.7159441006163,-50.544416114736919,-1919.847437782407,-1098.7858289518149,1019.2374028773027,2905.7376125510737,2186.4552958435052,744.32808754801772,-744.32808754801772,-2186.4552958435052,5489.2990496285138,0.0
658204.59901257406,4157374.0504322448,-22500.0,2738.5405590041946,948.98784152686153,-617.17521960994372,-1438.716506241494,-485.57537443714739,635.90471527351224,2304.5264848813999,2151.700504568822,-32.379081563696445,32.379081563696445,-2151.700504568822,4271.3999180088695,0.0
663204.59901257406,4157374.0504322448,-22500.0,2272.4449471950024,416.83331858052532,-905.29834155320339,-1018.4576121809611,-93.849637178277916,369.29864359946998,1861.5938792049146,1947.2351114930182,-543.44623732892001,543.44623732892001,-1947.2351114930182,3366.2663146841232,0.0
668204.59901257406,4157374.0504322448,-22500.0,1794.1446144589372,21.023750609251302,-1007.2920521217058,-678.69211479051887,137.4272812551267,192.00725939024699,1534.966006565448,1660.2838148950691,-839.19837078302692,839.19837078302692,-1660.2838148950691,2714.122122747252,0.0
673204.59901257406,4157374.0504322448,-22500.0,1351.7824428523556,-250.04085743908706,-996.82044657665256,-418.8697162600867,260.0418325313949,79.048742298898873,1291.648113182016,1352.0760985438551,-978.05559043535186,978.05559043535186,-1352.0760985438551,2250.2050197549029,0.0
678204.59901257406,4157374.0504322448,-22500.0,969.1528160235307,-419.9772674605718,-925.91874290358646,-228.67790587396371,313.21633948245227,10.348558591082355,1106.5038835832395,1059.5519597003367,-1011.938907498305,1011.938907498305,-1059.5519597003367,1916.7514273109555,0.0
683204.59901257406,4157374.0504322448,-22500.0,653.41532546145186,-514.21688003417978,-828.17689201374037,-94.616916810491219,324.5069316505589,-29.022412338822974,961.44374880991631,801.31608992054169,-981.16586098711116,981.16586098711116,-801.31608992054169,1669.0628063871543,0.0
688204.59901257406,4157374.0504322448,-22500.0,401.93898748791628,-555.15399439861073,-723.60926735213411,-3.5306621711250981,312.22290623394105,-49.593622167418893,844.19789746129527,583.94140620280632,-914.42165040796044,914.42165040796044,-583.94140620280632,1476.3446513272247,0.0
693204.59901257406,4157374.0504322448,-22500.0,207.26485294329677,-560.54538634221478,-623.13178271700849,55.856678515424342,287.9802714339607,-58.508399244867931,746.78291574209891,407.00975670549155,-830.79964316917562,830.79964316917562,-407.00975670549155,1319.1997520798607,0.0
698204.59901257406,4157374.0504322448,-22500.0,60.250985355213679,-543.56233480686228,-531.97612163864665,92.531243687987015,258.83229422918424,-60.467270703158221,664.08872670944811,266.58493479921913,-742.26935114510752,742.26935114510752,-266.58493479921913,1186.1120597576464,0.0
703204.59901257406,4157374.0504322448,-22500.0,-48.16152974382787,-513.51637338342618,-452.04055967109593,113.32912166811487,228.85730075411954,-58.48429803367798,592.81259569959491,157.3639764469215,-655.86161406691122,655.86161406691122,-157.3639764469215,1070.4253078544393,0.0
708204.59901257406,4157374.0504322448,-22500.0,-126.09312410053401,-476.73647933364293,-383.3983432609615,123.28625757572291,200.26229680806765,-54.445211208207972,530.74651099964171,73.885296309077177,-575.35413707737007,575.35413707737007,-73.885296309077177,968.25681501866541,0.0
713204.59901257406,4157374.0504322448,-22500.0,-180.41391191073083,-437.36907455020361,-325.21586213192711,126.02586468570752,174.11614839540056,-49.498908582197942,476.3382486308098,11.131104646490826,-502.47599166612929,502.47599166612929,-11.131104646490826,877.23147908847375,0.0
528204.59901257406,4162374.0504322448,-22500.0,-936.39578752134969,505.49896363858693,-268.51947159063712,-375.76897489486333,194.62864348696218,-111.9815126063687,693.11871234547459,-639.54059815876565,403.93497904585536,-403.93497904585536,639.54059815876565,1370.7466586245098,0.0
533204.59901257406,4162374.0504322448,-22500.0,-999.94497850625794,588.27499446975571,-330.1761731323387,-427.67348191902948,238.13622685550018,-135.0289198095517,778.25195390182876,-672.12536042688271,445.62442214619136,-445.62442214619136,672.12536042688271,1540.9150081201021,0.0
538204.59901257406,4162374.0504322448,-22500.0,-1058.0701134280948,683.78190577203361,-408.5823241375258,-485.61997875375664,292.14578623628387,-163.12101524611847,875.1078329519122,-696.0703238325782,487.18595069960764,-487.18595069960764,696.0703238325782,1734.2752440121596,0.0
543204.59901257406,4162374.0504322448,-22500.0,-1105.0481373684831,792.58729399639799,-508.47856087634858,-549.11070494260775,359.07187820255166,-197.20985970715208,985.23916179376033,-705.60401389652634,525.48397165712504,-525.48397165712504,705.60401389652634,1953.0556307909803,0.0
548204.59901257406,4162374.0504322448,-22500.0,-1132.6092381401361,914.12337303787911,-635.74940183530259,-616.67824676128441,441.63310806322971,-238.24022954291664,1110.3014143595065,-692.60271583751739,555.42256956907511,-555.42256956907511,692.60271583751739,2198.9201420618333,0.0
553204.59901257406,4162374.0504322448,-22500.0,-1129.1487948432698,1045.7191976019753,-797.43466857403587,-685.26170914497447,542.62740538320793,-286.95622485456443,1251.5475807760977,-645.92946226324887,569.03946724513219,-569.03946724513219,645.92946226324887,2472.3724775984033,0.0
558204.59901257406,4162374.0504322448,-22500.0,-1078.9360654077843,1181.0658556565727,-1001.4142692620259,-749.29373360197985,664.40175450271261,-343.52752476229637,1409.1925723065644,-550.83600492363917,554.33051106577591,-554.33051106577591,550.83600492363917,2771.8562728897086,0.0
563204.59901257406,4162374.0504322448,-22500.0,-961.60929842817995,1307.8958414143133,-1255.3876830161419,-799.43988364903248,807.76583561186931,-406.87712776543492,1582.0552476141211,-388.75167302301543,493.88966374085317,-493.88966374085317,388.75167302301543,3092.4983032515502,0.0
568204.59901257406,4162374.0504322448,-22500.0,-752.59504906955885,1404.706193628452,-1564.4549449005858,-821.01950250343612,969.94677704704645,-473.54641213817234,1767.1513137985178,-138.14942722903018,363.72106197422966,-363.72106197422966,138.14942722903018,3424.5789262597168,0.0
573204.59901257406,4162374.0504322448,-22500.0,-425.67178446994257,1436.6517404614258,-1926.1379755979676,-792.38412338802561,1141.0056503410956,-535.90831811488965,1959.287546194538,222.21024597077945,133.17350871692145,-133.17350871692145,-222.21024597077945,3752.2458397262026,0.0
578204.59901257406,4162374.0504322448,-22500.0,40.255428588908181,1351.6256611517388,-2321.1277473942005,-684.09575422258126,1298.039245156142,-579.6053901649027,2151.4289472982632,705.47610393279979,-231.89365345457045,231.89365345457045,-705.47610393279979,4054.1316532606761,0.0
583204.59901257406,4162374.0504322448,-22500.0,647.31371656923648,1079.6577207884779,-2697.9003915025428,-460.85081537228632,1396.8247603846778,-580.39974992874738,2337.5435615489755,1301.3661753333886,-758.71076219405074,758.71076219405074,-1301.3661753333886,4310.251084774266,0.0
588204.59901257406,4162374.0504322448,-22500.0,1355.5001116207864,542.81246631066415,-2951.2006185642349,-89.844969975356008,1362.1893945749107,-501.45760781682378,2521.1311531435085,1951.0623757890928,-1443.8679529974527,1443.8679529974527,-1951.0623757890928,4524.7579274082673,0.0
593204.59901257406,4162374.0504322448,-22500.0,2053.5546250363432,-311.88651602915184,-2901.9644527697478,439.06760900010823,1082.9270521697915,-293.84163725415476,2732.7015594443301,2516.3782246034998,-2211.0569182500512,2211.0569182500512,-2516.3782246034998,4777.3659348211277,0.0
598204.59901257406,4162374.0504322448,-22500.0,2543.8468575280303,-1444.1252589587045,-2304.5022858838979,1078.0541954798916,425.98162291375348,94.233632617929089,3048.6069436068119,2765.6522333061152,-2858.1408029257923,2858.1408029257923,-2765.6522333061152,5283.7478225628784,0.0
603204.59901257406,4162374.0504322448,-22500.0,2587.988085457544,-2629.8575968142982,-930.57734883117826,1681.7799805628458,-706.69748767228816,691.95665752957177,3571.9492293114081,2428.576042502878,-3039.5970025647707,3039.5970025647707,-2428.576042502878,6327.3846027650297,0.0
608204.59901257406,4162374.0504322448,-22500.0,2058.9232421879583,-3433.2683058427529,1235.3502313697024,2007.5241550212986,-2269.9194108360443,1463.7362696528551,4340.240918041497,1371.8974025742261,-2378.4166451756641,2378.4166451756641,-1371.8974025742261,7965.701223572165,0.0
613204.59901257406,4162374.0504322448,-22500.0,1135.2248768172863,-3381.0907870548367,3788.8448993128018,1817.5158987559162,-3978.4768586852119,2276.091147959246,5237.4981591567612,-173.75813597588871,-753.04555005508382,753.04555005508382,173.75813597588871,9849.1675128012976,0.0
618204.59901257406,4162374.0504322448,-22500.0,298.51429962193816,-2324.8405228340766,5962.6382795689096,1063.1556297829445,-5364.2814208071059,2926.5127416772334,6010.8467031299224,-1606.4857665399752,1446.1091319437189,-1446.1091319437189,1606.4857665399752,11403.30929208041,0.0
623204.59901257406,4162374.0504322448,-22500.0,3.15012050402391,-639.55776852407814,7067.6614941822118,-26.966422527583219,-6031.2608766670246,3247.365173546109,6399.8907531002387,-2329.5522622966273,3459.2611555265485,-3459.2611555265485,2329.5522622966273,12160.224726017723,0.0
628204.59901257406,4162374.0504322448,-22500.0,337.16735996240487,1030.296012705036,6926.2553962473839,-1088.8005932681453,-5889.4786525099425,3198.9125186943338,6302.6184691290782,-2167.3676890508314,4658.1694977466186,-4658.1694977466186,2167.3676890508314,11981.161960650736,0.0
633204.59901257406,4162374.0504322448,-22500.0,1045.1717411804696,2201.5123068807416,5861.4978564521807,-1849.1123803146454,-5141.9868584870092,2864.629223032503,5797.6576740103474,-1378.9733926126191,4880.0707941039464,-4880.0707941039464,1378.9733926126191,11039.113544444821,0.0
638204.59901257406,4162374.0504322448,-22500.0,1790.8366307512774,2729.9430958582379,4373.2422161481263,-2220.6862908205576,-4098.9250203836627,2377.4338647834211,5049.7349365095588,-369.38567793444827,4345.1216585505554,-4345.1216585505554,369.38567793444827,9646.4373031544164,0.0
643204.59901257406,4162374.0504322448,-22500.0,2345.9951476486049,2717.8779768700651,2872.1806129566612,-2255.7689264432388,-3021.4278708344636,1855.0204106777478,4220.7672856512399,546.72179733493499,3402.5327319095877,-3402.5327319095877,-546.72179733493499,8098.7290782335103,0.0
648204.59901257406,4162374.0504322448,-22500.0,2625.3831606356821,2359.6623715411897,1595.3906360326441,-2063.1842159951111,-2067.7765890511951,1374.2220850612825,3430.9268103323661,1211.2664310748887,2354.331081924121,-2354.331081924121,-1211.2664310748887,6605.9752497216905,0.0
653204.59901257406,4162374.0504322448,-22500.0,2644.8034894975408,1840.7688010350287,630.80908001912144,-1751.3147423169889,-1304.6925980428657,972.36867951206705,2753.3118484420356,1591.6298992549421,1395.343575302493,-1395.343575302493,-1591.6298992549421,5287.5518872403909,0.0
658204.59901257406,4162374.0504322448,-22500.0,2469.2246443411382,1296.503031958094,-28.220268451873785,-1403.0086881883567,-738.51736013156517,658.66761569963091,2211.018107673332,1727.2729040779432,619.28332736941309,-619.28332736941309,-1727.2729040779432,4192.5965167863706,0.0
663204.59901257406,4162374.0504322448,-22500.0,2174.7142806318529,806.79983608424686,-434.13914545783609,-1070.8164681573262,-344.16094199194356,426.19886747554585,1789.0177588341949,1685.6361905105869,48.169802220971974,-48.169802220971974,-1685.6361905105869,3324.1335467468011,0.0
668204.59901257406,4162374.0504322448,-22500.0,1827.250557836019,407.31685758552129,-652.08319064384659,-781.85690612812755,-85.313984127451079,261.01511033881036,1464.3074946893703,1534.4939837741531,-336.80451221557007,336.80451221557007,-1534.4939837741531,2659.0272789812784,0.0
673204.59901257406,4162374.0504322448,-22500.0,1474.7030410549028,104.67385182444265,-741.91017034025185,-545.57112399563266,73.96965166660533,147.8026840738774,1216.0358139463465,1328.7839053774669,-571.72285904635282,571.72285904635282,-1328.7839053774669,2162.1844862737166,0.0
678204.59901257406,4162374.0504322448,-22500.0,1146.8243454922579,-110.27344137348162,-751.07869622010105,-360.89660063418938,164.02747579197521,72.77638205674323,1025.9922579729891,1107.1537435311993,-695.35160072349083,695.35160072349083,-1107.1537435311993,1795.8593736316952,0.0
683204.59901257406,4162374.0504322448,-22500.0,858.88018124511768,-253.14728929072962,-713.79833782021956,-221.58483686829399,208.18702528925769,24.762237680621777,879.03195671851222,893.61834764329285,-741.8406770610701,741.8406770610701,-893.61834764329285,1525.4005304859832,0.0
688204.59901257406,4162374.0504322448,-22500.0,616.10424000197543,-340.55228008897319,-653.01407428272398,-119.59160978150776,223.28969284051942,-4.7187973157853556,763.34281374473801,701.07874462202062,-738.17382743477856,738.17382743477856,-701.07874462202062,1322.3439565127135,0.0
693204.59901257406,4162374.0504322448,-22500.0,417.5884799937661,-387.35647470584667,-583.17525840075336,-46.959562198347349,220.93514179222748,-21.815074638992961,670.22885531168845,534.90850349069069,-704.18379039635283,704.18379039635283,-534.90850349069069,1165.3549362673236,0.0
698204.59901257406,4162374.0504322448,-22500.0,259.16258169597927,-405.69679598710252,-512.80545577935936,3.3038146917705604,208.81092568894138,-30.839323533531047,593.55881653547772,395.86388973706119,-653.66792569006645,653.66792569006645,-395.86388973706119,1039.6018366348292,0.0
703204.59901257406,4162374.0504322448,-22500.0,135.29542775010694,-404.91093319163065,-446.52930191004504,36.940811623373683,191.83618948171207,-34.740353383532295,529.11970482120364,282.16321718338867,-595.77992608607951,595.77992608607951,-282.16321718338867,935.33790335275398,0.0
708204.59901257406,4162374.0504322448,-22500.0,40.233449455857802,-391.88504924460904,-386.53120656021702,58.466164484008011,173.04570668870286,-35.492515095353028,474.03957098112778,190.84499572053997,-536.31073317132689,536.31073317132689,-190.84499572053997,846.37836134998577,0.0
528204.59901257406,4167374.0504322448,-22500.0,-793.25226003078535,510.35186431964456,-314.74887987859961,-326.87957553626831,199.79113468040259,-99.371429289748704,638.11521776447557,-518.83368284971107,358.68937042059298,-358.68937042059298,518.83368284971107,1264.9462868426931,0.0
533204.59901257406,4167374.0504322448,-22500.0,-828.98270818472167,584.39663660093959,-382.64765193364229,-366.18159744416494,241.17201224182702,-118.32330074556481,710.47892358325328,-528.12153642716112,385.40700231878014,-385.40700231878014,528.12153642716112,1410.0980679455533,0.0
538204.59901257406,4167374.0504322448,-22500.0,-854.43786893924164,666.84715443776668,-467.12523987108193,-408.17433934921553,291.41563836676249,-140.89496201252081,791.82896518241989,-524.91035151146923,407.85703719930376,-407.85703719930376,524.91035151146923,1572.0794675636682,0.0
543204.59901257406,4167374.0504322448,-22500.0,-863.66909735638922,756.66306446403485,-572.06674358511043,-451.56650499091438,352.08298342997233,-167.53810005174046,883.3601830766836,-503.42396190647997,422.065008154042,-422.065008154042,503.42396190647997,1751.5359108823377,0.0
548204.59901257406,4167374.0504322448,-22500.0,-848.69504679997499,851.23069737840149,-701.8698799940737,-494.03165920478091,424.65530117189309,-198.54315973190029,985.67802723143586,-456.09110545438085,422.18443430131737,-422.18443430131737,456.09110545438085,1948.2750735986522,0.0
553204.59901257406,4167374.0504322448,-22500.0,-799.15816841633443,945.41498332521803,-861.10594242418449,-531.7063849105848,510.17635852339822,-233.8286402426682,1098.5049885553703,-373.33176070562189,399.87524969834072,-399.87524969834072,373.33176070562189,2160.7543057277367,0.0
558204.59901257406,4167374.0504322448,-22500.0,-702.21901135203086,1030.2189876785544,-1053.7217584976725,-558.5380820605418,608.5896596211403,-272.58533909956446,1220.8165032466095,-243.64253536923394,343.66544638352269,-343.66544638352269,243.64253536923394,2385.4242109311072,0.0
563204.59901257406,4167374.0504322448,-22500.0,-543.03530838694167,1091.0210905274969,-1281.4229967565022,-565.52190208031857,717.58669334205035,-312.70667371721714,1350.6821968178942,-54.355722804439282,238.53015227961276,-238.53015227961276,54.355722804439282,2616.0194186804956,0.0
568204.59901257406,4167374.0504322448,-22500.0,-306.42656907374572,1105.5423798347786,-1540.6980572842588,-539.99040560976391,830.72777756422909,-349.93313681890652,1485.1130371248919,206.29089153445722,66.21078815823158,-66.21078815823158,-206.29089153445722,2843.1297382397183,0.0
573204.59901257406,4167374.0504322448,-22500.0,19.364454376125131,1042.1316463766248,-1817.7778833232476,-465.36472723649013,934.59534940391632,-376.6744595360837,1620.4004018998967,544.81789331514165,-192.71381215856704,192.71381215856704,-544.81789331514165,3054.9259285234089,0.0
578204.59901257406,4167374.0504322448,-22500.0,435.6942307412474,859.84021045846112,-2080.9052268309765,-322.20230886621079,1004.9269017712738,-380.6044345997222,1753.6949600734738,954.749589177247,-553.29674198030614,553.29674198030614,-954.749589177247,3241.0449460424011,0.0
583204.59901257406,4167374.0504322448,-22500.0,922.59561241484028,513.24181495934624,-2270.1641672606902,-91.972490860019974,1002.3244799043827,-343.43976606468925,1887.072845836637,1404.7548548914738,-1014.8978203366605,1014.8978203366605,-1404.7548548914738,3403.5283372347412,0.0
588204.59901257406,4167374.0504322448,-22500.0,1425.2608336889234,-33.309261473269089,-2287.8734987630942,234.53811169049547,869.66748365687215,-240.90454676384397,2035.2329266246686,1824.3217264346113,-1542.224942983762,1542.224942983762,-1824.3217264346113,3579.6780948497308,0.0
593204.59901257406,4167374.0504322448,-22500.0,1844.5763458237759,-777.204219748524,-1998.431173948901,642.91010999206844,536.05418225290248,-45.711785266751107,2234.4989411213128,2094.4831913276848,-2040.9968975278662,2040.9968975278662,-2094.4831913276848,3871.9124729725495,0.0
598204.59901257406,4167374.0504322448,-22500.0,2046.8983693162902,-1636.6493304283067,-1254.5646221274092,1077.3225491646986,-65.040088890953072,264.0493515859431,2540.5707523900855,2060.6431876033084,-2341.6117809261914,2341.6117809261914,-2060.6431876033084,4441.0160784673171,0.0
603204.59901257406,4167374.0504322448,-22500.0,1912.7366467677973,-2418.4705462806801,32.000398053530162,1430.5175907356711,-957.29291027223906,689.98241440676907,2997.2599563592457,1589.7417172871847,-2221.0282394135647,2221.0282394135647,-1589.7417172871847,5400.7396504535391,0.0
608204.59901257406,4167374.0504322448,-22500.0,1424.6964988650186,-2842.1777304624402,1784.3535162047069,1562.4049972911566,-2071.2724373598307,1196.1670156109162,3589.1569454035957,672.76430025395302,-1495.8355360138139,1495.8355360138139,-672.76430025395302,6685.1724388941566,0.0
613204.59901257406,4167374.0504322448,-22500.0,739.48398657435359,-2660.811272408208,3690.772739319807,1361.4587006389829,-3219.1777457659318,1702.858881327948,4225.5476391875454,-489.18664488076024,-169.43166275323424,169.43166275323424,489.18664488076024,8042.6845230696508,0.0
618204.59901257406,4167374.0504322448,-22500.0,149.02549035687878,-1831.3781588178988,5279.3150509375346,822.78007312147622,-4142.2967187917675,2106.4806138813578,4765.5364214078973,-1525.2523023494746,1480.1747231202439,-1480.1747231202439,1525.2523023494746,9147.556793920141,0.0
623204.59901257406,4167374.0504322448,-22500.0,-86.04251785706488,-584.63687292155691,6143.3790870899038,74.820446691407881,-4627.3662502844363,2322.9573792590904,5067.0197619209612,-2088.0752697326911,2998.3159078054373,-2998.3159078054373,2088.0752697326911,9740.7416756198472,0.0
628204.59901257406,4167374.0504322448,-22500.0,105.86940150535571,697.69675934175791,6148.4302857328566,-682.93622803100789,-4607.9820386451674,2324.8253771525024,5058.9769622633112,-2049.4416561328685,3993.2763480183762,-3993.2763480183762,2049.4416561328685,9725.6451952185216,0.0
633204.59901257406,4167374.0504322448,-22500.0,599.29129494957806,1691.2995823208305,5449.9387859299495,-1280.5507413262312,-4171.5296572974803,2144.5340912301299,4767.0550092390431,-1528.6622467033724,4313.9047138175174,-4313.9047138175174,1528.6622467033724,9172.0783232822414,0.0
638204.59901257406,4167374.0504322448,-22500.0,1186.5596170346666,2249.3059745574164,4350.6673903208584,-1636.9335121593494,-3486.0727305260593,1848.3370312500624,4277.3049171154125,-769.27163564742409,4046.6712719236348,-4046.6712719236348,769.27163564742409,8248.0596266766788,0.0
643204.59901257406,4167374.0504322448,-22500.0,1692.3211391793395,2389.9743517890656,3144.8086486367288,-1756.1918455992802,-2718.7868118775586,1505.4065897633297,3690.0587762400201,-1.1212385043838822,3399.7574821003309,-3399.7574821003309,1.1212385043838822,7140.0360538214827,0.0
648204.59901257406,4167374.0504322448,-22500.0,2021.8457502910464,2221.6178756783511,2036.8776946444571,-1691.8816316245782,-1990.8820025638913,1168.9687656854692,3091.5012406195319,628.48905584196234,2589.7860297075731,-2589.7860297075731,-628.48905584196234,6002.1185657131882,0.0
653204.59901257406,4167374.0504322448,-22500.0,2155.0325124258243,1873.1390458038441,1130.9655078279443,-1511.8107738444155,-1369.1691744585994,871.05324095786511,2543.8223074218413,1059.4929301608072,1781.3278266256698,-1781.3278266256698,-1059.4929301608072,4938.519310513163,0.0
658204.59901257406,4167374.0504322448,-22500.0,2119.1480509895405,1453.953248498781,454.3901313124781,-1276.3494843088311,-876.96947532152581,625.43557790832483,2079.6637819419893,1294.1519139200757,1072.619713029175,-1072.619713029175,-1294.1519139200757,4006.5317621063987,0.0
663204.59901257406,4167374.0504322448,-22500.0,1961.8216732486292,1039.7431090801169,-11.488289515607208,-1029.6701625719775,-510.03246771697206,433.43805632332612,1700.9853689775246,1367.8873173889476,505.87482954060465,-505.87482954060465,-1367.8873173889476,3227.7225028670114,0.0
668204.59901257406,4167374.0504322448,-22500.0,1732.3244410630557,673.60581797373254,-305.9340387760638,-799.18327433510285,-250.29244568182853,289.47624933367433,1397.3316920347283,1326.8519197483902,85.456043068078202,-85.456043068078202,-1326.8519197483902,2600.1280757207246,0.0
673204.59901257406,4167374.0504322448,-22500.0,1471.714624767809,373.76530294863363,-472.32768608241645,-598.7857708116743,-75.281973976085581,185.14062342436256,1157.0637258855054,1214.4939136706025,-205.10389210813577,205.10389210813577,-1214.4939136706025,2108.3537896944345,0.0
678204.59901257406,4167374.0504322448,-22500.0,1209.5630949443612,142.38077369230842,-549.46378165536998,-433.07114603008881,36.518281602285285,111.70154788402961,968.66709258759204,1065.5154041040266,-390.65623377560428,390.65623377560428,-1065.5154041040266,1730.8313096446113,0.0
683204.59901257406,4167374.0504322448,-22500.0,964.51271050823141,-27.14549702504933,-568.23996543762962,-301.05624697951271,103.27143165101178,61.381192007719342,821.324776111343,904.59246668548326,-496.83611822583362,496.83611822583362,-904.59246668548326,1444.5796083856574,0.0
688204.59901257406,4167374.0504322448,-22500.0,746.50804471591869,-145.09058194948858,-551.42256861358646,-198.93070587793846,139.163401313474,27.823063348492536,705.56230506390034,747.53921969441956,-546.24013767054964,546.24013767054964,-747.53921969441956,1228.1295557611543,0.0
693204.59901257406,4167374.0504322448,-22500.0,559.3566592780877,-222.34810319792479,-514.81780879642258,-121.84018708803806,154.69461205530385,6.1151094216414483,613.60368173121537,603.34892951774668,-557.05467304469857,557.05467304469857,-603.34892951774668,1063.1516600983448,0.0
698204.59901257406,4167374.0504322448,-22500.0,402.9647326663187,-268.84403128347282,-468.85156440467358,-64.912935820741495,157.33006528659988,-7.3930498771252893,539.40119718068536,476.2494046974831,-543.04082517877976,543.04082517877976,-476.2494046974831,935.11027081909833,0.0
703204.59901257406,4167374.0504322448,-22500.0,275.03016852615229,-292.89671969905322,-420.06153344242455,-23.770201413545848,152.20587594889003,-15.337526186944043,478.44242170929607,367.40343776731572,-514.13578740446189,514.13578740446189,-367.40343776731572,833.18312263330097,0.0
528204.59901257406,4172374.0504322448,-22500.0,-655.29581743672406,497.08227915620239,-351.60587713776204,-279.00516279571485,198.56451824349881,-86.865650699503988,581.57577188560958,-403.6801670768246,305.08760070929742,-305.08760070929742,403.6801670768246,1155.7688064506319,0.0
533204.59901257406,4172374.0504322448,-22500.0,-667.63439348706481,559.47632902129249,-422.1373944627984,-307.06907620093131,236.34817278170553,-102.03082830603348,642.42094542318068,-393.92042086928979,317.24738014684777,-317.24738014684777,393.92042086928979,1277.0352809534675,0.0
538204.59901257406,4172374.0504322448,-22500.0,-666.78726130556311,625.91577078063358,-507.86923339814166,-335.25413852130208,281.11625053470522,-119.61821481411549,710.46449799482957,-369.6372701605062,321.9641356332404,-321.9641356332404,369.6372701605062,1409.7058511259493,0.0
543204.59901257406,4172374.0504322448,-22500.0,-647.25616150161636,694.1176996440563,-611.52419232754028,-361.85318490539191,333.63523281953843,-139.71875678718112,785.80047088578203,-325.68031385588898,314.99771129943855,-314.99771129943855,325.68031385588898,1553.3461979858239,0.0
548204.59901257406,4172374.0504322448,-22500.0,-602.16349539742396,760.07533649764684,-735.72087378475487,-384.2137536191276,394.31575942675698,-162.18626452588737,867.9478090883083,-255.78166737774637,290.56794990153031,-290.56794990153031,255.78166737774637,1706.6454446590931,0.0
553204.59901257406,4172374.0504322448,-22500.0,-523.28496027578365,817.28031163812989,-882.39805195378574,-398.39568538938084,462.81138285926636,-186.44629973707708,956.12699115614441,-152.71272066439494,241.06278550921311,-241.06278550921311,152.71272066439494,1867.0745798515047,0.0
558204.59901257406,4172374.0504322448,-22500.0,-401.43920190751629,855.76024062821239,-1051.7647689355215,-398.79413735444382,537.3649185623409,-211.20413857276057,1049.1053803447635,-8.8493416735067854,156.92310664696492,-156.92310664696492,8.8493416735067854,2030.5658510064595,0.0
563204.59901257406,4172374.0504322448,-22500.0,-227.53105248939588,861.0436488177628,-1240.5204423289085,-377.81730492425208,613.800723987075,-234.02330369306631,1145.1359004096698,182.54085171090401,26.985402694313009,-26.985402694313009,-182.54085171090401,2191.4135395168337,0.0
568204.59901257406,4172374.0504322448,-22500.0,5.3344650110499021,813.37581729819306,-1439.0436122088936,-325.81615494972965,684.07319006087573,-250.76309502960891,1242.2119047728781,424.85456058419697,-160.22287622710283,160.22287622710283,-424.85456058419697,2342.8593295192723,0.0
573204.59901257406,4172374.0504322448,-22500.0,298.19755792050194,687.8948073591522,-1627.329723224052,-231.63596085175973,734.37485771316199,-254.91791061583095,1338.9641892415664,714.07598292228624,-413.47000221249471,413.47000221249471,-714.07598292228624,2479.3216523182791,0.0
578204.59901257406,4172374.0504322448,-22500.0,640.78006335992779,457.06280157594762,-1769.8666865277091,-84.381566751489473,743.07313413970246,-237.02114146901897,1436.7219365852579,1032.8307301365223,-733.11792742996909,733.11792742996909,-1032.8307301365223,2601.9679272986627,0.0
583204.59901257406,4172374.0504322448,-22500.0,1004.7644754293378,97.286575502508441,-1810.7239436305738,122.84688816420112,679.30861957141042,-184.48995540016185,1543.1876742320342,1343.2546082727149,-1101.9943648621538,1101.9943648621538,-1343.2546082727149,2729.6552476050665,0.0
588204.59901257406,4172374.0504322448,-22500.0,1338.2632517034726,-398.25594057498353,-1672.2619977541572,386.68074190966394,504.02590918827076,-82.582204847002544,1676.9382749710178,1581.4707032898125,-1473.5392939268565,1473.5392939268565,-1581.4707032898125,2913.9472694268347,0.0
593204.59901257406,4172374.0504322448,-22500.0,1566.9720944867047,-1000.4804447043318,-1263.8270538060085,685.225406743701,176.2552170839937,82.633285870708562,1868.3485099227155,1659.8612653360706,-1761.6076751883411,1761.6076751883411,-1659.8612653360706,3243.3783499657975,0.0
598204.59901257406,4172374.0504322448,-22500.0,1610.002263497453,-1624.7259615961716,-508.35168834241131,971.01429177231796,-332.4972089385829,318.61897764856161,2149.1205167332846,1486.1524997424117,-1842.2773861313713,1842.2773861313713,-1486.1524997424117,3807.7500136583867,0.0
603204.59901257406,4172374.0504322448,-22500.0,1415.330513564109,-2126.0290022692311,610.6363125401017,1172.0361862629034,-1016.1069326418575,618.65387056134671,2529.8589999942315,1005.0163756822703,-1582.217524952775,1582.217524952775,-1005.0163756822703,4628.128095984328,0.0
608204.59901257406,4172374.0504322448,-22500.0,1004.994459158085,-2330.4900513091789,1997.3143913937342,1208.8693944898905,-1812.4773364935836,955.33387378967905,2982.3043464488201,251.28262435899518,-900.06532126949196,900.06532126949196,-251.28262435899518,5618.6576486580616,0.0
613204.59901257406,4172374.0504322448,-22500.0,497.87227834664367,-2108.8716237255931,3426.9712906989125,1028.4523568673533,-2600.6906259624848,1281.0388776072023,3442.6635649650607,-621.8741932751027,161.84561580082163,-161.84561580082163,621.8741932751027,6610.9708029131043,0.0
618204.59901257406,4172374.0504322448,-22500.0,74.684965366640569,-1457.7584435792644,4603.4900865343243,638.26565681358227,-3231.7611411317594,1539.6474048839341,3829.2678768148771,-1381.7066317665074,1410.6779666815771,-1410.6779666815771,1381.7066317665074,7412.9501402462893,0.0
623204.59901257406,4172374.0504322448,-22500.0,-108.88383560760917,-523.96469275821755,5278.3049801783973,114.22960522440449,-3584.8451692704934,1686.2088733194767,4061.1195096737083,-1818.1035511613013,2564.4876762738081,-2564.4876762738081,1818.1035511613013,7873.357903370631,0.0
628204.59901257406,4172374.0504322448,-22500.0,-0.35723888124161141,458.55687085495532,5354.7377543026078,-429.08182301348307,-3614.6384269981445,1703.3035868631609,4089.902341474798,-1841.3502993801712,3373.8134005493448,-3373.8134005493448,1841.3502993801712,7926.9304749639932,0.0
633204.59901257406,4172374.0504322448,-22500.0,338.17174225646755,1274.5086436996585,4906.566931209305,-886.20181073843389,-3359.2474831490667,1604.1178081414371,3920.7154699732578,-1505.1054947521004,3718.3565336828888,-3718.3565336828888,1505.1054947521004,7600.81054119283,0.0
638204.59901257406,4172374.0504322448,-22500.0,781.35363233801206,1801.4161264521538,4114.2854554448859,-1194.8509780330494,-2910.2811969410131,1422.4986385900004,3598.6768533931322,-952.94206865336446,3622.0549170704576,-3622.0549170704576,952.94206865336446,6986.4243758025214,0.0
643204.59901257406,4172374.0504322448,-22500.0,1205.2002917329958,2020.4872678171641,3178.377299348509,-1342.170697076333,-2371.455856571994,1198.3500414680641,3184.8828997559763,-342.34367857336883,3202.5827094973397,-3202.5827094973397,342.34367857336883,6199.1751679674398,0.0
648204.59901257406,4172374.0504322448,-22500.0,1526.3819681021773,1984.3342673314805,2259.4091936795671,-1350.9530809177461,-1828.6923897597871,966.27416523075442,2738.1816792953587,206.99862394849333,2605.5889068385768,-2605.5889068385768,-206.99862394849333,5346.2081549613877,0.0
653204.59901257406,4172374.0504322448,-22500.0,1710.2892380301623,1775.3348081446234,1456.736954456974,-1260.4810003801979,-1338.1979223249798,750.3032149047815,2306.4118703133217,629.58946753049008,1958.2092961912006,-1958.2092961912006,-629.58946753049008,4509.617989882543,0.0
658204.59901257406,4172374.0504322448,-22500.0,1760.2971536176581,1474.6608246388455,813.82101215995328,-1111.4299905961882,-927.74782937814643,563.59612451319128,1921.7352399674799,906.86655089313058,1349.0769436304515,-1349.0769436304515,-906.86655089313058,3742.6077922772211,0.0
663204.59901257406,4172374.0504322448,-22500.0,1701.5598236441026,1146.367887761246,334.58467051495944,-937.48109588360171,-604.01132269131131,410.74488846333452,1594.8818907175782,1050.9968038246491,827.43688595342246,-827.43688595342246,-1050.9968038246491,3073.091566156771,0.0
668204.59901257406,4172374.0504322448,-22500.0,1567.0357605491213,833.13618170527025,0.47818406368871891,-762.49153139875557,-360.80086384305002,290.76217844911872,1323.037200602909,1089.1601011941834,411.59320507544965,-411.59320507544965,-1089.1601011941834,2510.115601982659,0.0
673204.59901257406,4172374.0504322448,-22500.0,1388.3484454650868,558.60746116743644,-216.34820230659764,-601.02619100411198,-185.77183980170824,199.68907608768302,1100.5777348314873,1052.1883179141907,99.651311494577669,-99.651311494577669,-1052.1883179141907,2050.337188274284,0.0
678204.59901257406,4172374.0504322448,-22500.0,1191.2296553118731,332.28611172665984,-344.69264949910519,-460.36488138511578,-64.913665386524826,132.4512989482493,921.03170064721326,968.00518485686598,-121.14335056593694,121.14335056593694,-968.00518485686598,1683.3177492586269,0.0
683204.59901257406,4172374.0504322448,-22500.0,994.21647680731553,154.57856359366798,-409.96579401546916,-342.78487677534611,14.911102890974602,83.984772058494187,777.48607481641602,858.80700236366772,-267.73809818756638,267.73809818756638,-858.80700236366772,1395.3398937348104,0.0
688204.59901257406,4172374.0504322448,-22500.0,809.20044875740939,20.868792573189477,-432.57958077248458,-247.52419925676514,64.823966171445633,49.805084330811439,663.18951971173431,740.60295147016154,-357.20499281968591,357.20499281968591,-740.60295147016154,1171.9277324662255,0.0
693204.59901257406,4172374.0504322448,-22500.0,642.7702806177582,-75.637468910129371,-427.8983094438405,-172.23408912611322,93.643397449957661,26.215605846526884,572.04180521293279,623.96399621242881,-404.66112606717275,404.66112606717275,-623.96399621242881,999.40444992613436,0.0
698204.59901257406,4172374.0504322448,-22500.0,497.69639283463925,-142.15583683486881,-406.92113624018964,-113.93989745327502,108.04573172399949,10.31124335680326,498.86046953240157,515.20860999777665,-422.49027374466777,422.49027374466777,-515.20860999777665,865.77906834108262,0.0
703204.59901257406,4172374.0504322448,-22500.0,374.23547845364362,-185.37224661876067,-377.19310319405832,-69.614849234934013,112.91141841806601,-0.11489893123039868,439.45315495326776,417.5964202564233,-420.30680381382632,420.30680381382632,-417.5964202564233,761.1568837149689,0.0
533204.59901257406,4177374.0504322448,-22500.0,-521.2304598143146,519.00073898380197,-447.50331312117316,-252.3208854207638,225.39582369227276,-86.701363617843981,577.44403686860335,-274.26852504868395,247.02689371515257,-247.02689371515257,274.26852504868395,1146.1706932445206,0.0
538204.59901257406,4177374.0504322448,-22500.0,-500.75211954533307,568.49625261082406,-530.23047132635293,-269.15533986667941,263.76104990141818,-99.977446565676232,633.73689315232593,-235.19247818775287,236.7372631413543,-236.7372631413543,235.19247818775287,1252.5617435838772,0.0
543204.59901257406,4177374.0504322448,-22500.0,-461.27333168494783,615.07250721588593,-627.38249057916914,-282.49069593844479,307.33697066533432,-114.58033049866877,694.49265911853558,-177.01934776803861,212.94280987539511,-212.94280987539511,177.01934776803861,1364.9508271175059,0.0
548204.59901257406,4177374.0504322448,-22500.0,-397.43376500492792,654.03432473745306,-739.83387865687553,-289.73550567540309,355.72174028608043,-130.11099067778986,759.15733571201611,-95.133184949483109,170.53918539714266,-170.53918539714266,95.133184949483109,1481.5421711520528,0.0
553204.59901257406,4177374.0504322448,-22500.0,-303.41870163968287,678.51997839385558,-867.18269819085072,-287.33746869061787,407.62291651065067,-145.76110016250107,826.93891713878691,15.157461482566156,103.33689996018146,-103.33689996018146,-15.157461482566156,1599.6541234840943,0.0
558204.59901257406,4177374.0504322448,-22500.0,-173.6096490249742,678.95905430282403,-1006.673535159284,-270.63295138863333,460.30262211313203,-160.09862979202197,896.79116376804075,157.81971092574327,4.3389683964914525,-4.3389683964914525,-157.81971092574327,1715.7365227137141,0.0
563204.59901257406,4177374.0504322448,-22500.0,-3.7982305347230318,642.70192528509756,-1151.5890713895039,-233.83427665778819,508.81087071157697,-170.78962902212851,967.5955332304909,334.68868969527927,-133.45492440016,133.45492440016,-334.68868969527927,1825.7976206064227,0.0
568204.59901257406,4177374.0504322448,-22500.0,206.82888137634063,554.17132551469433,-1289.029147387731,-170.32364240525288,545.01639635204674,-174.27468086904884,1038.6855501361929,543.24392759672082,-315.35892379823514,315.35892379823514,-543.24392759672082,1926.7150708994661,0.0
573204.59901257406,4177374.0504322448,-22500.0,452.82463810048375,396.13503814459051,-1397.192583490254,-73.512529475262838,556.55844244871639,-165.46654791943425,1110.9477163465313,773.4808318532032,-541.99529055392031,541.99529055392031,-773.4808318532032,2019.2205054642852,1.0
578204.59901257406,4177374.0504322448,-22500.0,718.96703843613818,152.95746722652876,-1442.7355508311355,61.408684698857563,526.06618500179366,-137.6170766828177,1188.6939619610816,1004.1733787212981,-804.64775774552868,804.64775774552868,-1004.1733787212981,2113.4692484534803,0.0
583204.59901257406,4177374.0504322448,-22500.0,977.06782008755022,-183.25966586576584,-1379.6221707235502,234.56483116483386,431.34815860366854,-82.613356320310217,1282.01587943964,1199.650246252357,-1079.200186233016,1079.200186233016,-1199.650246252357,2236.8660853482534,0.0
588204.59901257406,4177374.0504322448,-22500.0,1185.2537299281155,-603.34982760023161,-1152.0562320622967,437.43018235818442,247.67039334448486,7.9337103471791881,1407.9485755324304,1309.5177510443946,-1320.2248388285316,1320.2248388285316,-1309.5177510443946,2438.7474007440933,0.0
593204.59901257406,4177374.0504322448,-22500.0,1293.0538418517299,-1070.2193626508424,-704.97166707645613,648.77619881654618,-46.590887876649504,140.46561648122525,1587.0641971559526,1275.0890703441078,-1459.0309400766596,1459.0309400766596,-1275.0890703441078,2779.0316891932339,0.0
598204.59901257406,4177374.0504322448,-22500.0,1255.4125277430328,-1511.655363361109,-4.5530096573636571,832.87076051335464,-460.36756943393112,316.10776636976379,1833.5209734748216,1046.0625318333243,-1411.7191820972205,1411.7191820972205,-1046.0625318333243,3295.2172587824548,0.0
603204.59901257406,4177374.0504322448,-22500.0,1054.9302639558093,-1825.6073026944471,933.88498798108071,943.36203022369239,-978.1943786079413,526.94706836686032,2143.2913756845956,606.72856541708859,-1102.653341698996,1102.653341698996,-606.72856541708859,3970.9473555082236,0.0
608204.59901257406,4177374.0504322448,-22500.0,723.46219548835029,-1905.7375167846599,2022.8194938017925,935.33399073668045,-1551.9102722744678,753.82457709669143,2489.5326785909538,1.6830133520539334,-501.30306433217407,501.30306433217407,-1.6830133520539334,4732.3494832543074,0.0
613204.59901257406,4177374.0504322448,-22500.0,346.65486406723073,-1684.2265749754094,3103.9412845798201,783.42032554034154,-2103.6532331818066,968.00456256013592,2828.7455458254444,-657.9328338150126,343.66711463402282,-343.66711463402282,657.9328338150126,5468.3302049084859,0.0
618204.59901257406,4177374.0504322448,-22500.0,38.93039957955444,-1171.2526022945576,3987.1829753738784,497.27819187574516,-2544.5365692011228,1137.7869971953712,3111.7821895374527,-1222.9128809210802,1298.866334593095,-1298.866334593095,1222.9128809210802,6061.268403883917,0.0
623204.59901257406,4177374.0504322448,-22500.0,-103.50840037549438,-462.9801508910769,4515.7046271038171,123.52686090846181,-2803.2169972251145,1238.0192833210956,3290.7247480396964,-1561.8996625046777,2183.9072258078741,-2183.9072258078741,1561.8996625046777,6418.9507306999913,0.0
628204.59901257406,4177374.0504322448,-22500.0,-43.504659101737026,292.62887390466091,4621.2436243096054,-269.44800593495012,-2849.4609097890225,1257.8455183874739,3332.6860317878459,-1612.8292293427821,2836.378865345956,-2836.378865345956,1612.8292293427821,6497.3765407249211,0.0
633204.59901257406,4177374.0504322448,-22500.0,188.04454978368335,952.05518604781446,4338.0269377609638,-615.47955438337885,-2699.8492989180609,1202.713327648692,3235.1794063217653,-1398.6948520127353,3165.9916579761812,-3165.9916579761812,1398.6948520127353,6305.8924966703999,0.0
638204.59901257406,4177374.0504322448,-22500.0,515.72173534194178,1420.9338254007371,3773.6639743288974,-869.90361065000832,-2405.0489434420051,1090.3495975017763,3021.9914808094195,-1003.9156225255147,3170.0962461671616,-3170.0962461671616,1003.9156225255147,5895.1180966746233,0.0
643204.59901257406,4177374.0504322448,-22500.0,855.2707521297873,1668.3267657046686,3061.5676823207114,-1016.2880460169996,-2028.765977106892,943.75087546901466,2730.2670209938319,-533.1244205928765,2912.5747596325909,-2912.5747596325909,533.1244205928765,5336.3379194369027,0.0
648204.59901257406,4177374.0504322448,-22500.0,1140.8275034128164,1714.749182611778,2321.1049181848662,-1061.9094714548062,-1629.5252508981027,784.77847238999652,2399.2758270012509,-76.720608284309492,2487.4988363684975,-2487.4988363684975,76.720608284309492,4702.1451915720481,0.0
653204.59901257406,4177374.0504322448,-22500.0,1335.9186487589277,1609.2282473793155,1637.0967339808767,-1028.0563876037384,-1250.6508030249581,630.31946656784817,2063.8538609170628,305.95565999336964,1987.5311943647359,-1987.5311943647359,-305.95565999336964,4053.7659298044246,0.0
658204.59901257406,4177374.0504322448,-22500.0,1431.4082815614975,1408.1883995796036,1056.7163970831377,-940.62160963548797,-918.04957498077852,491.12551536097408,1751.3055592897306,587.82055165517136,1485.6680439269783,-1485.6680439269783,-587.82055165517136,3435.6870022072862,0.0
663204.59901257406,4177374.0504322448,-22500.0,1437.1598825008414,1161.7586257448602,596.40935764021162,-823.64002419202518,-642.79451773901621,372.45180272040125,1476.0747923323556,766.64801882395818,1029.5493747760781,-1029.5493747760781,-766.64801882395818,2875.5978893512379,0.0
668204.59901257406,4177374.0504322448,-22500.0,1372.8503745552052,907.63446848920171,252.09274014683493,-696.08255089488932,-425.53004070563799,275.49304033064215,1239.8944491903446,855.34514919003641,643.77638567326653,-643.77638567326653,-855.34514919003641,2387.182516866641,0.0
673204.59901257406,4177374.0504322448,-22500.0,1260.7541664198,670.2709750052752,8.5549503481670559,-571.08635409455019,-260.77614496703774,198.90320736854341,1040.6445017478795,873.52879344222447,335.71450520154787,-335.71450520154787,-873.52879344222447,1973.854706434541,0.0
678204.59901257406,4177374.0504322448,-22500.0,1121.2508706484052,462.91764705770134,-153.60177413792997,-456.58145970214036,-140.26673568502108,140.03887020415632,875.19301085186589,841.71383623118868,101.74334880765588,-101.74334880765588,-841.71383623118868,1632.3075522691177,0.0
683204.59901257406,4177374.0504322448,-22500.0,970.69824422904776,290.63123317229838,-253.63658941149816,-356.48537320306491,-55.15346085521282,95.822490501411423,739.57658959060404,778.05007539435042,-67.566089801524924,67.566089801524924,-778.05007539435042,1355.3719883012602,0.0
688204.59901257406,4177374.0504322448,-22500.0,820.93456688990102,153.18034805835396,-308.44042878432043,-271.95380426365728,2.7500441268450371,63.262494978894381,629.40825656031257,696.97486019247083,-183.80097227088538,183.80097227088538,-696.97486019247083,1134.0859388747638,0.0
693204.59901257406,4177374.0504322448,-22500.0,679.69623840872487,47.363765909733551,-331.71899032387296,-202.4373012280617,40.406426569010513,39.716238212013678,540.32338531236405,609.06269326333518,-258.46547590163522,258.46547590163522,-609.06269326333518,959.07259733241358,0.0
698204.59901257406,4177374.0504322448,-22500.0,551.42631521805447,-31.355553297628703,-333.99549187782696,-146.4684272344609,63.41574689535507,22.985626321868914,468.29924249228986,521.4932596107526,-301.80932878505001,301.80932878505001,-521.4932596107526,821.40222304109727,0.0
533204.59901257406,4182374.0504322448,-22500.0,-392.76634619194698,468.33239566026657,-459.04617685620087,-203.16711012231372,210.07450006783901,-72.696843332706777,516.66852467382762,-171.69517473947806,179.33972679790762,-179.33972679790762,171.69517473947806,1020.9220656744631,0.0
538204.59901257406,4182374.0504322448,-22500.0,-358.88581915071268,501.52333802427421,-535.43767596256157,-211.11452509243128,241.76859351686238,-82.379388463777246,562.26371874020379,-123.59065686487452,157.43230703194712,-157.43230703194712,123.59065686487452,1104.5746920921831,0.0
543204.59901257406,4182374.0504322448,-22500.0,-307.21778386565342,528.31279349519946,-622.35882590034794,-214.53709342703826,276.46446022437465,-92.539098686954461,610.4372113709137,-58.32145558810506,121.62582238225932,-121.62582238225932,58.32145558810506,1190.703316857963,0.0
548204.59901257406,4182374.0504322448,-22500.0,-233.99573152710215,543.92400508233561,-719.203509664737,-211.139798491514,313.22311231443047,-102.66227258928784,660.6718244455277,27.060973981172864,67.840291521122438,-67.840291521122438,-27.060973981172864,1277.5074359499947,0.0
553204.59901257406,4182374.0504322448,-22500.0,-135.65216309926063,541.91035992388629,-823.7786092690659,-197.98800970886535,350.22247283731178,-111.8844668377816,712.32403502491763,134.95523396847258,-8.4129870765210413,8.4129870765210413,-134.95523396847258,1362.7192306747206,0.0
558204.59901257406,4182374.0504322448,-22500.0,-9.5323492141190531,513.97548080877698,-931.3589400902332,-171.51186985669759,384.33843459668566,-118.84783738039512,764.7506598130343,266.37952378985091,-111.52868592263626,111.52868592263626,-266.37952378985091,1443.9022341768114,0.0
563204.59901257406,4182374.0504322448,-22500.0,144.98957607791343,450.08433554963761,-1033.4296012413511,-127.66756377661095,410.62834693054623,-121.53708437036674,817.62453412997854,419.71632063202628,-244.83184733390183,244.83184733390183,-419.71632063202628,1519.2431523678474,0.0
568204.59901257406,4182374.0504322448,-22500.0,324.94501530016987,339.1554371493491,-1116.1816033998525,-62.373817012977256,421.77524172041399,-117.12198265514992,871.55020734292509,588.99675765605673,-408.92735134895099,408.92735134895099,-588.99675765605673,1589.222582956809,0.0
573204.59901257406,4182374.0504322448,-22500.0,521.8571217519135,170.73648286537971,-1159.0321284581983,27.629281498618486,407.6449173706053,-101.86755658363816,929.07038404226682,761.85911951706555,-599.22223547519332,599.22223547519332,-761.85911951706555,1659.6008996858493,0.0
578204.59901257406,4182374.0504322448,-22500.0,719.88848158045801,-61.902165846070588,-1133.7975718833836,143.36986280699804,355.25265011843948,-71.217757220492203,995.94987588057734,917.66087661321842,-802.69335880922074,802.69335880922074,-917.66087661321842,1745.6552315804804,0.0
583204.59901257406,4182374.0504322448,-22500.0,894.9473955541946,-357.03308953736439,-1005.6440363374694,281.67795240616528,249.61121020768775,-20.2044041936831,1082.0565666169728,1026.7670114931814,-994.49926174253835,994.49926174253835,-1026.7670114931814,1875.5755102244623,0.0
588204.59901257406,4182374.0504322448,-22500.0,1016.1960920743962,-698.56931673384736,-737.39078528826394,432.97009868620268,76.044193393372396,55.65447191040991,1200.3493847038894,1052.6468173281444,-1135.93189269032,1135.93189269032,-1052.6468173281444,2087.3544759352912,0.0
593204.59901257406,4182374.0504322448,-22500.0,1051.5837876611931,-1050.8159099843749,-298.63427587524149,579.61166970899433,-175.60830401075384,158.8864201453955,1362.5720443875341,958.61375096271729,-1176.2489567975369,1176.2489567975369,-958.61375096271729,2414.0562173463313,0.0
598204.59901257406,4182374.0504322448,-22500.0,978.08423215667358,-1357.3999781488503,320.3006069488963,696.24633797556976,-505.15836760019221,288.19116612693585,1572.656475633841,719.98942084017017,-1061.312555394823,1061.312555394823,-719.98942084017017,2863.960072819938,0.0
603204.59901257406,4182374.0504322448,-22500.0,794.59448013798863,-1548.7024708947977,1092.9531648303978,753.59287423142257,-896.2261752283722,436.73431021246955,1821.7313985479934,339.39031057907403,-750.25963636019867,750.25963636019867,-339.39031057907403,3410.668740495154,0.0
608204.59901257406,4182374.0504322448,-22500.0,531.58997901066527,-1559.9134741104015,1947.5083853495594,726.16477703763928,-1313.4842738665081,591.56734651672605,2088.0734341451739,-141.62471784006618,-236.64780125228424,236.64780125228424,141.62471784006618,3997.644051545165,0.0
613204.59901257406,4182374.0504322448,-22500.0,249.65142934527964,-1355.5835711296049,2772.9860578309253,601.96662641602961,-1706.3588666260321,735.11207329191689,2342.1738083471273,-643.7904445332199,435.67024708116287,-435.67024708116287,643.7904445332199,4551.1321326175284,0.0
618204.59901257406,4182374.0504322448,-22500.0,22.815236628088048,-949.26206817467346,3444.6631363507604,389.70349151715641,-2020.2003964507483,848.88056498343497,2553.5074884039909,-1069.4277994702074,1173.8505172836331,-1173.8505172836331,1069.4277994702074,4996.7277140412461,0.0
623204.59901257406,4182374.0504322448,-22500.0,-87.722069619614771,-405.51859060099019,3860.8031545719446,118.87890787624697,-2211.4480971428297,918.29757067860874,2692.8013869102742,-1334.0465990754262,1859.3290648779373,-1859.3290648779373,1334.0465990754262,5276.1608829001443,0.0
628204.59901257406,4182374.0504322448,-22500.0,-55.888724805228129,179.42941565452651,3973.3053237426334,-168.36137053960005,-2259.9485174796323,936.57099223260047,2737.3853797284323,-1394.6296169611544,2384.0993626740374,-2384.0993626740374,1394.6296169611544,5359.5047802325425,0.0
633204.59901257406,4182374.0504322448,-22500.0,102.99376038783328,708.86764809395515,3797.2226883538419,-429.85107782054433,-2172.6769782755764,905.90163618123654,2682.3737898932768,-1259.9175827716822,2681.9276309835668,-2681.9276309835668,1259.9175827716822,5248.7364725830448,0.0
638204.59901257406,4182374.0504322448,-22500.0,343.28208142991974,1112.5527864272642,3397.1756920739049,-634.39343633518138,-1978.1339287300425,835.78032698629659,2540.3156169272497,-979.7956243878964,2740.447852588989,-2740.447852588989,979.7956243878964,4972.3748034099171,0.0
643204.59901257406,4182374.0504322448,-22500.0,608.70532651026508,1358.7814657619499,2861.1612521646857,-766.93699226059221,-1715.492338356345,739.55032048965245,2333.9387637661703,-622.90072219635317,2592.8944320967375,-2592.8944320967375,622.90072219635317,4574.7279352656396,0.0
648204.59901257406,4182374.0504322448,-22500.0,850.01663417848954,1451.2169933628859,2275.2428534758978,-827.63364111671956,-1423.8511483717516,630.86832665163922,2089.2388926411422,-254.82971338475568,2298.4984423897959,-2298.4984423897959,254.82971338475568,4104.4747003758284,0.0
653204.59901257406,4182374.0504322448,-22500.0,1034.7104819308236,1416.9980624095297,1707.3452011505278,-827.18851170155096,-1135.0403844989944,521.20134639350056,1830.8620983921405,75.423068713071189,1922.3252809145856,-1922.3252809145856,-75.423068713071189,3605.9473405195467,0.0
658204.59901257406,4182374.0504322448,-22500.0,1148.6488845617009,1293.394482770063,1201.436574849726,-781.36357120981643,-870.70624834756563,418.6846550698632,1580.0376185352327,339.67762253171418,1521.0965296056315,-1521.0965296056315,-339.67762253171418,3114.2817005542679,0.0
663204.59901257406,4182374.0504322448,-22500.0,1192.5300850208312,1117.4720282679771,779.21132432728041,-706.51758661371139,-642.64547676692052,328.0834509405625,1351.6990531433291,528.21329418880919,1136.4598419267941,-1136.4598419267941,-528.21329418880919,2653.9631682682725,0.0
668204.59901257406,4182374.0504322448,-22500.0,1176.4597348376676,920.10902026932183,445.45524204493938,-616.85348999419216,-454.86510513797697,251.39091733343767,1150.5450570999992,644.43065126850104,794.10665810132889,-794.10665810132889,-644.43065126850104,2239.6258007482593,0.0
673204.59901257406,4182374.0504322448,-22500.0,1114.8505239816338,723.7702586086167,194.15027252826155,-523.22771963768241,-306.11750879153959,188.64601026311141,976.29275007311571,699.2099579861657,506.25005010990157,-506.25005010990157,-699.2099579861657,1877.9623837228708,0.0
678204.59901257406,4182374.0504322448,-22500.0,1022.6694325694839,542.74822060375561,13.683197533200532,-433.04396304518752,-192.17085051797602,138.70521726794175,827.75985127254967,706.3704148776477,275.34991379682356,-275.34991379682356,-706.3704148776477,1569.9156833996346,0.0
683204.59901257406,4182374.0504322448,-22500.0,913.19520252208781,384.64121389924816,-109.42081734174648,-350.73765216267697,-107.51486421693519,99.847405053043161,702.9907722478082,679.64222682468403,97.752256599631835,-97.752256599631835,-679.64222682468403,1312.6733434572618,0.0
688204.59901257406,4182374.0504322448,-22500.0,797.01103776657658,252.19082428938765,-188.19711861669296,-278.47881474658357,-46.475748816246139,70.187076322604241,599.39754325975593,631.0036260668553,-33.389237548962512,33.389237548962512,-631.0036260668553,1101.2571267888302,0.0
693204.59901257406,4182374.0504322448,-22500.0,681.83020060757053,144.98168722418086,-234.05728780573097,-216.86907584546967,-3.8466556547154349,47.922571952814515,514.09021591918133,570.01910554627682,-126.06353913573682,126.06353913573682,-570.01910554627682,929.67776920209155,0.0
698204.59901257406,4182374.0504322448,-22500.0,572.78836773584464,60.790924236300938,-256.35832168460325,-165.52482842489982,24.825833628002957,31.46214078006814,444.16935595467794,503.80328134686079,-188.13085226923189,188.13085226923189,-503.80328134686079,791.7136158485506,0.0
538204.59901257406,4187374.0504322448,-22500.0,-241.35985192212331,430.80110193113165,-525.89632266488752,-161.51238558705828,217.25139492204849,-66.997195672128797,496.60378589585144,-34.605063061170668,87.356797263352618,-87.356797263352618,34.605063061170668,968.2963906119013,0.0
543204.59901257406,4187374.0504322448,-22500.0,-183.77028547412746,440.72470223988699,-600.38258893343459,-157.95310779206474,243.71861750930816,-73.689410600504203,534.40354740349676,32.167218980269702,44.120547294410564,-44.120547294410564,-32.167218980269702,1033.1037184587517,0.0
548204.59901257406,4187374.0504322448,-22500.0,-108.21062341297781,437.56887381747384,-679.85846463864709,-147.62128010420079,270.1716972357695,-79.754510311214304,573.18058021754098,114.89795490851554,-15.260583335745082,15.260583335745082,-114.89795490851554,1096.6365867311652,0.0
553204.59901257406,4187374.0504322448,-22500.0,-12.958406361547883,415.77016277091332,-760.96309286046096,-128.25748692723576,294.59066922098754,-84.378864612392988,612.55364294772789,214.16256973134008,-93.616302988624483,93.616302988624483,-214.16256973134008,1157.360996484718,0.0
558204.59901257406,4187374.0504322448,-22500.0,102.46088976011534,368.70065330994646,-837.9498128436386,-97.323702870830914,313.8826728773376,-86.384383059018248,652.36203301436058,328.89642191333053,-193.0836622362134,193.0836622362134,-328.89642191333053,1214.1852958323359,0.0
563204.59901257406,4187374.0504322448,-22500.0,236.38677392992662,289.05854188572101,-901.8229047859196,-52.234312175048586,323.57646212597319,-84.144468695816911,693.02393044591327,455.4191856886647,-314.16704798998114,314.16704798998114,-455.4191856886647,1267.4323493096497,0.0
568204.59901257406,4187374.0504322448,-22500.0,383.94393826230964,169.76967190857596,-939.48023595780933,9.2036450147587718,317.56653862705605,-75.528273824385735,736.10245745508826,586.27888168473794,-454.36263530356052,454.36263530356052,-586.27888168473794,1320.5129650417432,0.0
573204.59901257406,4187374.0504322448,-22500.0,535.95206593202272,5.6166374894747042,-933.15620672062289,88.076244525267995,288.03939369529036,-57.918303311325168,785.03289885116465,709.13210022176247,-606.36932497256964,606.36932497256964,-709.13210022176247,1382.3054117173697,0.0
578204.59901257406,4187374.0504322448,-22500.0,678.22085646676771,-204.26489669548801,-860.68299461026845,183.35590643229327,225.79148921462877,-28.36728424385139,845.7177695032716,806.11559896372933,-756.12969423747745,756.12969423747745,-806.11559896372933,1469.3864882085477,0.0
583204.59901257406,4187374.0504322448,-22500.0,791.88005734348985,-453.1479609544657,-697.30848910392081,290.69956646640617,121.20936789327591,16.02901618928194,926.30946320044302,854.44698705744622,-881.32079492387925,881.32079492387925,-854.44698705744622,1605.5721567940136,0.0
588204.59901257406,4187374.0504322448,-22500.0,855.55424582782166,-723.39425066833564,-419.86335783612941,401.35448358913351,-33.839679784873731,77.48462670884588,1035.3702073721608,829.17049646312671,-951.39758674739028,951.39758674739028,-829.17049646312671,1815.5737574680177,0.0
593204.59901257406,4187374.0504322448,-22500.0,849.98795579691784,-984.47308275527791,-13.653370471262379,501.73225671366407,-243.16626567120727,156.61942328126935,1178.4108122190189,708.73302194265125,-930.63184878592483,930.63184878592483,-708.73302194265125,2113.7576885438325,0.0
598204.59901257406,4187374.0504322448,-22500.0,764.84920693468746,-1194.3841347485964,518.72379597138945,574.38383482800248,-502.90070373204111,251.46257351225134,1354.3249407261085,483.08288645510629,-785.30025327448629,785.30025327448629,-483.08288645510629,2495.1801866317555,0.0
603204.59901257406,4187374.0504322448,-22500.0,605.84009651475765,-1306.3484950766342,1149.3247999498344,600.94243355286847,-798.72590809178166,356.71353877240773,1553.7251870751923,162.15315688665683,-494.69700319708681,494.69700319708681,-162.15315688665683,2934.2392478910579,0.0
608204.59901257406,4187374.0504322448,-22500.0,398.61705419622115,-1280.8232141607082,1821.9522072821371,566.87620170232788,-1105.3276327468793,463.72862555446227,1760.0703424341154,-219.3211115840528,-62.987832553521855,62.987832553521855,219.3211115840528,3389.4342618581268,0.0
613204.59901257406,4187374.0504322448,-22500.0,185.86630899051937,-1099.5869857892528,2458.5480550523371,466.7184714133063,-1389.4558741497633,561.59407033106504,1953.2482873697859,-605.00284563094249,473.61556095265462,-473.61556095265462,605.00284563094249,3811.1494245294953,0.0
618204.59901257406,4187374.0504322448,-22500.0,16.482059583841902,-775.70599499815978,2975.5696413237665,307.50490603378455,-1616.6256767201244,639.23648613582805,2113.8269395971897,-929.66337901729094,1049.8526687313408,-1049.8526687313408,929.66337901729094,4150.9649976528563,0.0
623204.59901257406,4187374.0504322448,-22500.0,-69.608168087517441,-353.4746304810983,3305.4043845176861,108.38305856781155,-1759.4708019727238,687.96151462288788,2223.4215911271613,-1137.5902538026758,1585.944776414146,-1585.944776414146,1137.5902538026758,4370.9381693295909,0.0
628204.59901257406,4187374.0504322448,-22500.0,-54.074230650554,102.98039746692277,3413.9787245874204,-103.94859915439294,-1804.4555650418249,703.4695678320021,2266.0752827038905,-1198.7310133271249,2008.6216049597369,-2008.6216049597369,1198.7310133271249,4450.4463121266454,0.0
633204.59901257406,4187374.0504322448,-22500.0,55.636016284625853,527.59206216394296,3307.0788162636441,-302.15112873195358,-1754.2281635409347,686.57221268401463,2236.5460928404354,-1115.3159861198023,2269.6237190388756,-2269.6237190388756,1115.3159861198023,4388.5536601107178,0.0
638204.59901257406,4187374.0504322448,-22500.0,231.61898417839933,868.79718858770275,3023.8977150253913,-464.60730916124669,-1625.0899265444054,642.4490356615438,2141.4026937315934,-917.0570191556908,2354.3377195140142,-2354.3377195140142,917.0570191556908,4201.5719861895896,0.0
643204.59901257406,4187374.0504322448,-22500.0,436.48837143155561,1098.5259893575246,2622.4501989924188,-579.01522445855983,-1441.291752854077,578.92283224849098,1994.6979614057698,-648.85219273316625,2279.0014787803107,-2279.0014787803107,648.85219273316625,3917.3179704726722,0.0
648204.59901257406,4187374.0504322448,-22500.0,634.49422922720896,1212.471780220548,2163.8017729116445,-642.67812081865839,-1228.7573989432281,504.50882881677569,1813.6553972308741,-357.2955953253263,2080.2622093879991,-2080.2622093879991,357.2955953253263,3568.3845941420386,0.0
653204.59901257406,4187374.0504322448,-22500.0,798.94780858683339,1224.2734439351093,1700.3214926432363,-660.39538113158562,-1010.2571562628542,426.85822153717066,1615.5058811660044,-80.786313848192663,1802.7352940749429,-1802.7352940749429,80.786313848192663,3186.3895055616003,0.0
658204.59901257406,4187374.0504322448,-22500.0,914.93768305683477,1157.4896124407701,1269.8071054577917,-641.38127122222159,-802.82854202640851,351.87103797498031,1415.8981334723437,155.08665266131879,1488.861274333133,-1488.861274333133,-155.08665266131879,2798.1867175901361,0.0
663204.59901257406,4187374.0504322448,-22500.0,978.37206913149737,1038.3804225844694,894.68992741149395,-596.37979525988601,-617.22469849661809,283.44539411873257,1228.0275402807167,337.67571196799508,1172.8547345118543,-1172.8547345118543,-337.67571196799508,2424.124605685362,0.0
668204.59901257406,4187374.0504322448,-22500.0,993.09277464784782,890.93598593767501,584.38748308352388,-535.5812837816427,-458.68612992330839,223.66490010994684,1058.7467889535783,464.74646843975574,878.52584543308808,-878.52584543308808,-464.74646843975574,2077.886342114919,0.0
673204.59901257406,4187374.0504322448,-22500.0,967.56675807985232,734.3068367656183,338.93040517067504,-467.45655741413924,-328.31017166638088,173.20318466490735,908.85910898156772,541.01926116740151,619.80251014141868,-619.80251014141868,-541.01926116740151,1767.303179570921,0.0
678204.59901257406,4187374.0504322448,-22500.0,912.06442697913678,582.1052355398715,152.56800492464097,-398.34150003554555,-224.4889333411833,131.77387731607308,778.08561542918073,574.92912940203655,402.65454638501541,-402.65454638501541,-574.92912940203655,1495.5980367844541,0.0
683204.59901257406,4187374.0504322448,-22500.0,836.68135472051051,442.86545027297689,16.694114629965693,-332.51359249119344,-144.12705857700507,98.526698525910177,665.69739252240765,576.14516464296412,227.42438582714868,-227.42438582714868,-576.14516464296412,1262.6864562641506,0.0
688204.59901257406,4187374.0504322448,-22500.0,750.19593257613462,321.04726156895947,-78.097984469955904,-272.52287244810333,-83.536500513967809,72.348816991074486,570.36448997934349,553.95673177749427,90.966803005607488,-90.966803005607488,-553.95673177749427,1066.3236393588195,0.0
693204.59901257406,4187374.0504322448,-22500.0,659.5852914995105,218.16227221699361,-140.75541053258846,-219.60691444480716,-39.018774623589366,52.069143315861417,490.32885687678692,516.40309456683326,-11.666272514764103,11.666272514764103,-516.40309456683326,903.01413338436942,0.0
543204.59901257406,4192374.0504322443,-22500.0,-87.890267236779721,357.19816534596049,-565.77829108106653,-111.97231685160193,211.14341909497622,-57.900796366131523,466.71714743882404,97.75987223187829,-18.592299649714647,18.592299649714647,-97.75987223187829,893.16155210111106,0.0
548204.59901257406,4192374.0504322443,-22500.0,-14.841046796983177,339.98079088698489,-627.797152432183,-97.587801908324465,228.91245467367187,-61.030410727577525,496.68451820725238,173.86477863445759,-78.980981378413006,78.980981378413006,-173.86477863445759,939.18596646969297,0.0
553204.59901257406,4192374.0504322443,-22500.0,72.792498180726511,304.65066694591377,-686.69215138943025,-75.322262835850211,243.23231213762114,-62.507372559222894,527.01910154332131,261.09466138473186,-154.42549542625909,154.42549542625909,-261.09466138473186,982.50043383729894,0.0
558204.59901257406,4192374.0504322443,-22500.0,174.05942627528933,246.28892495815796,-736.4530273409415,-43.502188833890216,251.29103426237495,-61.368128055638586,558.01354987971888,357.11059296749278,-245.32066247330837,245.32066247330837,-357.11059296749278,1023.3244441812598,0.0
563204.59901257406,4192374.0504322443,-22500.0,286.07190480795003,160.03955523442087,-768.50710829887078,-0.64799660455479358,249.3011875672442,-56.361225789393465,590.66202638313348,457.27734714621141,-350.2585444667962,350.2585444667962,-457.27734714621141,1063.7513970287582,0.0
568204.59901257406,4192374.0504322443,-22500.0,403.35187713781676,42.002155677258507,-771.35274281822194,54.149904757486553,232.43429162198126,-45.946264998219839,627.08677824234792,553.98789025986378,-465.0045620130428,465.0045620130428,-553.98789025986378,1109.1318410963909,0.0
573204.59901257406,4192374.0504322443,-22500.0,517.33651314250801,-109.4042278107067,-730.58720432404607,120.6986702426709,194.93741059378959,-28.354809354769042,670.92629139909207,636.2007251076086,-581.34499600475988,581.34499600475988,-636.2007251076086,1169.498022501527,0.0
578204.59901257406,4192374.0504322443,-22500.0,616.34692406094075,-291.62977959977667,-629.68965956376701,197.04461288666187,130.56112434493539,-1.7495362106435777,727.36380143577298,689.53791860666979,-686.07650606817128,686.07650606817128,-689.53791860666979,1259.8578273939931,0.0
583204.59901257406,4192374.0504322443,-22500.0,686.42364204535374,-495.98038591597197,-451.97754087004125,278.80304722655552,33.432718403761221,35.484929302397319,802.35342715083652,697.4015727812365,-760.63361384079701,760.63361384079701,-697.4015727812365,1397.5640763366541,0.0
588204.59901257406,4192374.0504322443,-22500.0,713.40989358755382,-705.98702056357433,-184.04246359472884,358.70610036064005,-100.55385427534472,84.309515938860741,900.85491725108,643.53891502001795,-782.05460009788715,782.05460009788715,-643.53891502001795,1596.3072553534528,0.0
593204.59901257406,4192374.0504322443,-22500.0,686.38720880176766,-897.10549262571112,179.43904767202133,426.70547073863753,-271.92640806997116,144.49824451155715,1024.6005568191661,516.17246847243848,-725.99984771951483,725.99984771951483,-516.17246847243848,1859.6746647999857,0.0
598204.59901257406,4192374.0504322443,-22500.0,601.95106932111082,-1038.8402832100287,630.40119799948616,470.98208073654689,-475.77641623528075,214.12646889309895,1170.4488652105388,313.10692886033235,-572.11747743003946,572.11747743003946,-313.10692886033235,2178.1598536901051,0.0
603204.59901257406,4192374.0504322443,-22500.0,467.97141621270987,-1099.9625396792947,1143.4237792762492,480.02664458612537,-700.53782452326391,289.27830219048013,1330.0946149463389,46.248919676068539,-311.04219773219643,311.04219773219643,-46.248919676068539,2530.2480205092447,0.0
608204.59901257406,4192374.0504322443,-22500.0,304.88285842517803,-1056.2903476458046,1675.4964760799855,445.51998932761035,-928.2243757679845,364.19471953833011,1491.2530980896227,-256.74908464773785,49.055852597516463,-49.055852597516463,256.74908464773785,2885.8827929785148,0.0
613204.59901257406,4192374.0504322443,-22500.0,142.86068555970868,-898.82548713628512,2171.3155091538056,365.18746754702562,-1136.6777286438141,431.99424640927293,1640.1011340926309,-555.71397286048602,479.41082665434658,-479.41082665434658,555.71397286048602,3211.1663030627396,0.0
618204.59901257406,4192374.0504322443,-22500.0,14.817620054263971,-638.8928915154662,2573.8527550910885,244.46548331237159,-1303.6305454090682,485.88659709461569,1764.0494367026949,-806.27117147335719,933.62995311007592,-933.62995311007592,806.27117147335719,3473.7997977807718,0.0
623204.59901257406,4192374.0504322443,-22500.0,-52.60162015668427,-307.45816980768501,2837.1966340642202,96.055825162890855,-1411.4582427723694,520.55236103931509,1851.272817302246,-970.86440362201711,1356.9074813009261,-1356.9074813009261,970.86440362201711,3648.4318437455986,0.0
628204.59901257406,4192374.0504322443,-22500.0,-46.417449900168236,51.792680310780661,2936.9976555597232,-62.71319270227999,-1450.9670910023183,533.22988397272775,1890.2218205259026,-1028.2744818879612,1698.6100858646244,-1698.6100858646244,1028.2744818879612,3720.6438808047051,0.0
633204.59901257406,4192374.0504322443,-22500.0,29.929735486473138,393.0651708697074,2874.6384358449068,-213.80281653872603,-1422.8748513609833,524.14074527079504,1876.0571683079656,-977.89220601681791,1923.5318967547792,-1923.5318967547792,977.89220601681791,3688.5064591755031,0.0
638204.59901257406,4192374.0504322443,-22500.0,159.17933550602439,678.63993015427127,2674.1397603603559,-342.21760454614349,-1336.6499212172441,496.15957576199764,1812.1521954144116,-837.56227912695067,2017.8615062873205,-2017.8615062873205,837.56227912695067,3561.4581029907204,0.0
643204.59901257406,4192374.0504322443,-22500.0,316.45097301608234,885.23850221632858,2373.9130003467326,-438.40428179733772,-1207.4511396535256,453.9285783039706,1707.3078263541986,-636.7350925920075,1988.6255628562287,-1988.6255628562287,636.7350925920075,3357.1634541142321,0.0
648204.59901257406,4192374.0504322443,-22500.0,476.17710497047676,1005.4022392491993,2016.9838027794344,-498.85707381178895,-1052.4567162740573,402.77588654786848,1573.0050164256886,-408.17031540882954,1858.1762362876971,-1858.1762362876971,408.17031540882954,3097.5218570788115,0.0
653204.59901257406,4192374.0504322443,-22500.0,617.41232368696524,1044.8557468506763,1642.8331500008753,-525.23745736273111,-887.72717573359034,347.76721213707066,1421.273826296589,-181.06551496976169,1656.6458426245308,-1656.6458426245308,181.06551496976169,2804.9364415182599,0.0
658204.59901257406,4192374.0504322443,-22500.0,726.50513490398964,1017.850684457405,1282.4408728208148,-522.69885226439317,-726.21563353561351,293.07972354347339,1263.4035741806483,22.950980747445669,1415.0154557233018,-1415.0154557233018,-22.950980747445669,2499.5496724418449,0.0
663204.59901257406,4192374.0504322443,-22500.0,797.34483690686261,942.36727265577838,956.56952923329527,-498.09422762984957,-576.98249270946678,241.72928617401223,1109.6858079610492,190.95888391563949,1160.2823334236709,-1160.2823334236709,-190.95888391563949,2197.6617249185833,0.0
668204.59901257406,4192374.0504322443,-22500.0,830.02942602190035,836.33284969953252,676.42671681120828,-458.50890693497234,-445.33046673228466,195.57836878416086,967.97719497888988,317.83903198451895,913.03021229084925,-913.03021229084925,-317.83903198451895,1911.197365142951,0.0
673204.59901257406,4192374.0504322443,-22500.0,828.87496219466288,715.25592182162882,445.61188036455235,-410.29224777231326,-333.46793883618579,155.51382624690544,840.39504166389941,404.33649885896119,686.95704013703948,-686.95704013703948,-404.33649885896119,1647.9157231772094,0.0
678204.59901257406,4192374.0504322443,-22500.0,800.45053958466247,591.15700420089672,262.4430224490813,-358.5698117947864,-241.36251470664595,121.69415449550226,726.86299854580932,454.91226795073572,489.64666241296339,-489.64666241296339,-454.91226795073572,1412.0448337313821,0.0
683204.59901257406,4192374.0504322443,-22500.0,752.00712819262901,472.43856938886688,122.08872500567996,-307.11929837944325,-167.55760080785117,93.795163728970294,627.25366182546281,475.87678832987234,323.91675279194175,-323.91675279194175,-475.87678832987234,1205.0760971152411,0.0
688204.59901257406,4192374.0504322443,-22500.0,690.41590845142116,364.30857174825508,18.241145156804002,-258.47468771454209,-109.83868260576091,71.21677779887024,541.04467260116746,474.01013648700985,189.26819393000309,-189.26819393000309,-474.01013648700985,1026.547492441191,0.0
548204.59901257406,4197374.0504322443,-22500.0,51.83087144123791,253.85643525910535,-568.33233769777166,-59.09719358396292,190.91063081154815,-45.990750736555079,430.65660893063989,209.75406264591345,-125.07826417337105,125.07826417337105,-209.75406264591345,804.14763290617111,0.0
553204.59901257406,4197374.0504322443,-22500.0,129.53544144624817,210.28898992142553,-607.46616101670156,-36.191437010696383,197.47399620586819,-45.418351516247725,454.54086844105825,283.65420100913093,-194.38920005956965,194.38920005956965,-283.65420100913093,835.71570623768525,0.0
558204.59901257406,4197374.0504322443,-22500.0,215.65169571277215,146.74061910019577,-634.33823474366034,-5.6946122332387352,197.433007536807,-42.432514965097297,479.57305560915813,361.19683320624733,-274.11534875125301,274.11534875125301,-361.19683320624733,866.80819821621299,0.0
563204.59901257406,4197374.0504322443,-22500.0,306.82189600565607,60.333554125405122,-641.31787440024152,33.096077443795686,187.72812739268412,-36.104450543345607,507.1055754739242,437.56190474923432,-361.72349732741606,361.72349732741606,-437.56190474923432,900.75380078548051,0.0
568204.59901257406,4197374.0504322443,-22500.0,397.75468603997859,-50.534415127733936,-618.85110833505064,80.288834952157785,164.692637206726,-25.355613673125678,539.44428162670408,505.75527976411468,-452.26961467711669,452.26961467711669,-505.75527976411468,943.79253608685099,0.0
573204.59901257406,4197374.0504322443,-22500.0,481.1067181230581,-185.15298486591553,-555.80003406884964,135.03002139841152,124.2442345363721,-9.0275508214462299,579.93668077463974,556.55411107021894,-537.7429569814575,537.7429569814575,-556.55411107021894,1005.503741556023,0.0
578204.59901257406,4197374.0504322443,-22500.0,547.78312692982195,-339.28798571769732,-440.38514942617695,195.1045138257808,62.299481336540886,13.984282453036144,632.65761597323171,578.95042414458476,-606.67746616754312,606.67746616754312,-578.95042414458476,1097.7817025806155,0.0
583204.59901257406,4197374.0504322443,-22500.0,587.87538307364252,-504.04249609267026,-261.92861423101596,256.60001946486477,-24.535739219328281,44.521859436660669,701.52057578296819,561.34018020136023,-644.37396718244599,644.37396718244599,-561.34018020136023,1231.7341921919008,0.0
588204.59901257406,4197374.0504322443,-22500.0,592.37264971360105,-665.22427819276663,-13.451983797815652,313.78845978627243,-138.00602071985179,82.888655390095693,788.95882596244405,493.61040932894122,-634.13142377909367,634.13142377909367,-493.61040932894122,1413.5190382662963,0.0
593204.59901257406,4197374.0504322443,-22500.0,555.55036105734087,-803.79418506531715,305.13182327554171,359.41152802847034,-277.09561165219333,128.54575571222489,894.68304843743476,370.01104209895459,-559.78400612121925,559.78400612121925,-370.01104209895459,1641.4151386588749,0.0
598204.59901257406,4197374.0504322443,-22500.0,477.55727550571623,-897.92169667433609,683.95115601291593,385.52235044398577,-437.03677727270821,179.858289173565,1015.0439048078118,192.25776028228915,-409.48257652110374,409.48257652110374,-192.25776028228915,1905.3457354517127,0.0
603204.59901257406,4197374.0504322443,-22500.0,366.31571261087555,-926.79476594335358,1101.3891181785659,384.89308744081268,-608.83563538625401,234.00011000488524,1143.2146872113958,-28.164791178974326,-180.04535943128641,180.04535943128641,28.164791178974326,2188.2454579984615,0.0
608204.59901257406,4197374.0504322443,-22500.0,237.67702625102066,-875.60254596963557,1524.8432862609277,352.75395384073789,-779.7211600430104,287.11959603658465,1270.1527460468328,-269.75158283501071,119.46800384276879,-119.46800384276879,269.75158283501071,2468.368188624122,0.0
613204.59901257406,4197374.0504322443,-22500.0,113.11983757890476,-740.28146635898929,1914.7677680112906,288.37148589982667,-934.71898537155005,334.80933115222678,1386.2698444931402,-503.66198392178626,466.61237876907796,-466.61237876907796,503.66198392178626,2722.1862747217056,0.0
618204.59901257406,4197374.0504322443,-22500.0,15.197597966205892,-530.19521373252087,2231.5484720775571,195.8644808561165,-1059.1489356468396,372.81492916500497,1483.3313660082026,-699.18136267173566,828.01703975749081,-828.01703975749081,699.18136267173566,2927.6773815383599,0.0
623204.59901257406,4197374.0504322443,-22500.0,-37.943949607389044,-267.36248842711302,2443.4011509788652,83.826011868173367,-1141.4064258482126,397.80643480460174,1553.564257269556,-830.48520526129471,1165.324996638888,-1165.324996638888,830.48520526129471,3067.5167827793703,0.0
628204.59901257406,4197374.0504322443,-22500.0,-37.025500516180138,17.86383383046811,2532.7443322689105,-36.249553598712652,-1175.1669049681677,407.98247571483603,1588.3162043800623,-882.41436272502256,1442.9414419860461,-1442.9414419860461,882.41436272502256,3131.4744487888452,0.0
633204.59901257406,4197374.0504322443,-22500.0,16.548012635717374,293.27186440771754,2498.9612380999652,-152.25352247440679,-1160.3230107832164,403.3257409810937,1583.3928925902667,-853.25645134457602,1635.0456231997655,-1635.0456231997655,853.25645134457602,3117.4424321357483,0.0
638204.59901257406,4197374.0504322443,-22500.0,111.96932866429421,531.20786748260423,2356.9170139834646,-253.72287173458955,-1102.4490271086913,385.45499327351666,1540.4703785278959,-753.80721123387411,1729.6708066875508,-1729.6708066875508,753.80721123387411,3030.920052278334,0.0
643204.59901257406,4197374.0504322443,-22500.0,232.58840632598478,712.99210390114922,2132.2195757727022,-333.41936954287115,-1011.1265796303853,357.16119769070423,1465.1407344809395,-603.49763807794193,1728.9898796624991,-1728.9898796624991,603.49763807794193,2883.2592897068571,0.0
648204.59901257406,4197374.0504322443,-22500.0,360.23393604988968,830.46160347698833,1855.1410720624206,-387.92381322655518,-897.77970586835545,321.80075211729581,1365.1250765796153,-425.28147382446946,1646.4329707547397,-1646.4329707547397,425.28147382446946,2689.2671447458547,0.0
653204.59901257406,4197374.0504322443,-22500.0,478.885476764636,884.9320257812808,1555.073071257596,-417.32676246139988,-773.66506458384401,282.72212952110584,1248.856576532211,-240.97772221426339,1502.1506143612739,-1502.1506143612739,240.97772221426339,2464.8002364029885,0.0
658204.59901257406,4197374.0504322443,-22500.0,576.90942970937567,884.57885945231385,1256.6732058163002,-424.34283895625606,-648.4316486459112,242.84384097053055,1124.4833573005374,-68.117219638115898,1318.3981133035977,-1318.3981133035977,68.117219638115898,2224.81345612217,0.0
663204.59901257406,4197374.0504322443,-22500.0,647.76366610250443,841.35262286296324,978.00512749084294,-413.22719336159389,-529.37613263490232,204.42447233598318,999.51496171876522,81.446940589493124,1115.9154282033389,-1115.9154282033389,-81.446940589493124,1982.0767301483968,0.0
668204.59901257406,4197374.0504322443,-22500.0,689.53592840489262,768.25485422913107,730.35269261926464,-388.78690511628474,-421.30177844540015,169.00467927125737,880.99552982344051,201.4766076588507,911.72399527332459,-911.72399527332459,-201.4766076588507,1746.5574975651373,0.0
673204.59901257406,4197374.0504322443,-22500.0,703.83838459046319,677.38705576471182,519.11812584663232,-355.64394062436514,-326.78546063865315,137.46947097992938,772.8865687496484,290.38488346338369,718.25329558489375,-718.25329558489375,-290.38488346338369,1525.3357752782986,0.0
678204.59901257406,4197374.0504322443,-22500.0,694.52092866946077,578.83698793529106,345.22097925971605,-317.78618353676239,-246.64964094755967,110.17472153346252,675.25123184723623,349.90400412456216,543.44615763274123,-543.44615763274123,-349.90400412456216,1322.8710939266759,0.0
683204.59901257406,4197374.0504322443,-22500.0,666.51130158219769,480.26158902141418,206.5620206141831,-278.36845517100102,-180.48173113897641,87.092655641041034,588.02583884937997,383.76988007203317,391.43585181452272,-391.43585181452272,-383.76988007203317,1141.4541851265592,0.0
553204.59901257406,4202374.0504322443,-22500.0,164.31003704359517,132.53559769177991,-528.16386338365282,-8.0499663102395544,157.78921719008846,-32.265720729588274,393.64028923689546,288.6861602638424,-217.50569475668749,217.50569475668749,-288.6861602638424,713.87836542797095,0.0
558204.59901257406,4202374.0504322443,-22500.0,235.80158227511942,68.217932728560839,-536.68279375245004,19.900910346612584,152.21005288095961,-28.323920561658817,414.74049177209258,349.32368439316485,-285.1711268359428,285.1711268359428,-349.32368439316485,739.67186409438898,0.0
563204.59901257406,4202374.0504322443,-22500.0,308.42050235153295,-14.177602458635093,-524.87385788952486,53.889460159102306,137.81533870920495,-21.592899051230784,439.03074678837874,405.36572863068272,-356.02438486567632,356.02438486567632,-405.36572863068272,771.0930342415412,0.0
568204.59901257406,4202374.0504322443,-22500.0,377.46738771765246,-114.71737462532224,-485.12711860475099,93.569868668068608,111.90947436129315,-11.337331067339333,468.71135339508032,450.78863548216538,-425.08374531304929,425.08374531304929,-450.78863548216538,814.35554745874231,0.0
573204.59901257406,4202374.0504322443,-22500.0,436.9777443157476,-231.40403562223781,-409.15296657340002,137.81837371689397,71.686949518601182,3.1801710881435068,506.56671476237011,478.24446089527368,-485.13448937745562,485.13448937745562,-478.24446089527368,877.55929550851602,0.0
578204.59901257406,4202374.0504322443,-22500.0,480.14178790064653,-359.42453168880155,-288.88515017910294,184.50871707258125,14.582357017158987,22.596708130749622,555.52164231395204,479.6154808609723,-526.70404080987873,526.70404080987873,-479.6154808609723,969.12938102197541,0.0
583204.59901257406,4202374.0504322443,-22500.0,500.15528486485408,-490.58075444721101,-117.89117491550554,230.37085879758882,-61.21959686130586,47.306791792797583,617.88464901498378,447.07183164110324,-538.53754258511094,538.53754258511094,-447.07183164110324,1095.2789238068976,0.0
588204.59901257406,4202374.0504322443,-22500.0,491.51600601672169,-613.19408436772949,106.76746410981097,271.02729701461811,-156.14732033368438,77.291820157278465,694.50307976335557,374.64659239397264,-508.77629433136389,508.77629433136389,-374.64659239397264,1257.6864730736627,0.0
593204.59901257406,4202374.0504322443,-22500.0,451.6156503572592,-712.80699141202786,382.49309612603463,301.3036417713767,-268.58105028226902,111.95099273227532,784.15204284937442,260.15283232207508,-426.92214441506638,426.92214441506638,-260.15283232207508,1452.4847451142807,0.0
598204.59901257406,4202374.0504322443,-22500.0,382.25933804375711,-773.9056256307158,699.44637552542122,315.86916508458086,-394.34528439300055,149.98145969635257,883.36245319937655,107.01429234297461,-286.41568003374562,286.41568003374562,-107.01429234297461,1670.5898695050178,0.0
603204.59901257406,4202374.0504322443,-22500.0,290.56400106132043,-782.60938452244511,1039.8753735862547,310.16859471198308,-526.57918842677748,189.36480766508197,986.71427283863795,-74.634211204142844,-87.304357516471612,87.304357516471612,74.634211204142844,1898.8000049922675,0.0
608204.59901257406,4202374.0504322443,-22500.0,188.67596711943895,-729.8535130086085,1379.1343020195161,281.47458008524609,-656.18162603897576,227.50681668486183,1087.5581694081689,-268.24737053431301,161.83605026985489,-161.83605026985489,268.24737053431301,2121.3056407796616,0.0
613204.59901257406,4202374.0504322443,-22500.0,92.018289165713384,-614.18738269320659,1688.6568130706078,229.77198601926079,-772.89071261456866,261.54019802584071,1179.1879937092078,-452.94278924398793,443.62235554441531,-443.62235554441531,452.94278924398793,2321.523448958179,0.0
618204.59901257406,4202374.0504322443,-22500.0,16.304897765525933,-443.17886201627647,1940.477941106549,158.15787629005374,-866.84302943439673,288.74568950849465,1256.2230882876909,-607.11524172931615,733.76638172543733,-733.76638172543733,607.11524172931615,2484.141184412907,0.0
623204.59901257406,4202374.0504322443,-22500.0,-25.875880189496346,-232.72859778274835,2112.2041036194778,72.550514187664916,-930.24326976226996,306.99433310366783,1313.430449011609,-712.68417911492645,1004.9663762427239,-1004.9663762427239,712.68417911492645,2597.0794386449825,0.0
628204.59901257406,4202374.0504322443,-22500.0,-27.819342941977865,-4.3062793424182644,2191.0010374086455,-19.272728858457025,-958.68304365367271,315.09285182331627,1344.0665818051859,-758.68873655065568,1231.7983138882773,-1231.7983138882773,758.68873655065568,2652.9759833227913,0.0
633204.59901257406,4202374.0504322443,-22500.0,10.087772244148667,219.10390385539139,2175.4384270140326,-109.04835318349545,-951.74006002599378,312.93909566962634,1344.6270773101501,-743.11946429994111,1395.1824715553366,-1395.1824715553366,743.11946429994111,2649.8688058771154,0.0
638204.59901257406,4202374.0504322443,-22500.0,80.99878559866184,417.11787983731432,2074.7917351727901,-189.41415741513933,-912.7339043369816,301.45616357579422,1315.905424870449,-672.54198904333612,1485.1721302481694,-1485.1721302481694,672.54198904333612,2590.9670206102833,0.0
643204.59901257406,4202374.0504322443,-22500.0,173.68479547698618,574.99609951900311,1906.2739960749084,-254.94722536068318,-847.79185228768893,282.34447022566786,1261.5100466656656,-559.87256492376264,1501.4916923466662,-1501.4916923466662,559.87256492376264,2483.650250114677,0.0
648204.59901257406,4202374.0504322443,-22500.0,275.24259296331616,685.01300389013147,1691.2297195397584,-302.6527169853,-764.55831032397066,257.73685981099601,1186.6870487648073,-421.20720937131216,1452.0534617933545,-1452.0534617933545,421.20720937131216,2338.0091025392103,0.0
653204.59901257406,4202374.0504322443,-22500.0,373.59411629321721,746.18503183530834,1451.4022827417743,-331.90606871940565,-670.91251338797304,229.85185092652259,1097.3855356651441,-272.699824612268,1350.2397146892934,-1350.2397146892934,272.699824612268,2165.2923341704186,0.0
658204.59901257406,4202374.0504322443,-22500.0,459.22219879485067,762.84484514165536,1206.065405328804,-343.99950028855233,-573.95988762730678,200.71568355655813,999.53070860315927,-128.20350309665321,1211.8730636288105,-1211.8730636288105,128.20350309665321,1976.5520048828482,0.0
663204.59901257406,4202374.0504322443,-22500.0,525.96705934758813,742.70635617537755,970.35016660294434,-341.50013152836027,-479.41749834089626,171.98739312590948,898.60496760881028,2.0330365307966076,1052.6040017761093,-1052.6040017761093,-2.0330365307966076,1781.6591035467627,0.0
668204.59901257406,4202374.0504322443,-22500.0,571.0099256830174,694.97212218216578,754.70061732270062,-327.60314689533681,-391.38189822636542,144.88637911149746,799.80286527178055,111.68611488532486,886.09766726651799,-886.09766726651799,-111.68611488532486,1588.7315897619667,0.0
673204.59901257406,4202374.0504322443,-22500.0,594.32090902056996,628.82424736147027,565.16465340252455,-305.59885570768688,-312.38942470607259,120.20034331316613,707.98672972134955,197.97108864201982,723.08243256939647,-723.08243256939647,-197.97108864201982,1403.926657523145,0.0
678204.59901257406,4202374.0504322443,-22500.0,597.86404269570198,552.42586342902518,404.16726782179205,-278.50364539281452,-243.65446559782586,98.344000794455013,624.42179790869454,260.87450315301902,571.11611364365467,-571.11611364365467,-260.87450315301902,1231.503809503195,0.0
558204.59901257406,4207374.0504322443,-22500.0,241.20624514361356,8.0017561874409164,-446.58085400951614,36.420873859836426,114.9631933366521,-17.964663857864711,361.28071722471083,327.68479031969008,-283.47868144808746,283.47868144808746,-327.68479031969008,637.01442532959709,0.0
563204.59901257406,4207374.0504322443,-22500.0,298.01893766133315,-67.968069509996567,-421.40340143040714,65.535003818440956,98.077401097728611,-11.379643670650578,383.45285492172553,367.06368607451265,-339.1393102280378,339.1393102280378,-367.06368607451265,668.06343144525147,0.0
568204.59901257406,4207374.0504322443,-22500.0,349.46518562247542,-156.91720307823331,-370.76638531174484,98.342691543000754,71.502790062302395,-2.0325317539623367,411.17266277674747,394.92890706804559,-389.98688937300693,389.98688937300693,-394.92890706804559,712.28171090582521,0.0
573204.59901257406,4207374.0504322443,-22500.0,390.88217437449686,-256.24887508210651,-288.7045291415613,133.67710069064842,33.369576085628523,10.53215784371239,446.57527009849139,405.62813900662246,-429.84457052399597,429.84457052399597,-405.62813900662246,775.8628450109394,0.0
578204.59901257406,4207374.0504322443,-22500.0,417.32258778045394,-361.21430616120108,-169.92266300867502,169.65830199102888,-17.860100364972844,26.661935490608037,491.58972000625374,393.35554982689263,-451.14884455685075,451.14884455685075,-393.35554982689263,864.17313651816971,0.0
583204.59901257406,4207374.0504322443,-22500.0,424.25170831389789,-464.68737574588681,-10.871507196837287,203.65667348242695,-83.03157089085235,46.502492021888649,547.39351643383645,353.01044969262614,-445.48678142323467,445.48678142323467,-353.01044969262614,980.08833694947009,0.0
588204.59901257406,4207374.0504322443,-22500.0,408.48223476448089,-557.32636408399912,188.96902359754401,232.38865268274284,-161.88748622882571,69.894789453254546,613.93001111007209,281.33163714133843,-404.59712485809553,404.59712485809553,-281.33163714133843,1122.9324339455882,0.0
593204.59901257406,4207374.0504322443,-22500.0,369.20430544574208,-628.29141170540038,425.82148994335262,252.19075910589356,-252.68441966427608,96.283272398261943,689.64682419072278,178.14069148058445,-321.82177350879118,321.82177350879118,-178.14069148058445,1288.3099375415065,0.0
598204.59901257406,4207374.0504322443,-22500.0,308.85265754537176,-666.59195219070193,690.7078509147035,259.48488210220478,-351.94818527068168,124.66337078435737,771.51241014378684,47.391782058924207,-193.8284006367191,193.8284006367191,-47.391782058924207,1468.5731161281501,0.0
603204.59901257406,4207374.0504322443,-22500.0,233.48129050004496,-662.95290390541049,969.32253592167319,251.38915153090156,-454.49215617637662,153.59812537097895,855.29432253768164,-102.36223849146158,-22.231357589465262,22.231357589465262,102.36223849146158,1653.6092407945628,0.0
608204.59901257406,4207374.0504322443,-22500.0,152.35524350643416,-611.85160940151718,1243.0107443106133,226.35857283969247,-553.79059881172873,181.32449503634095,936.08887888867196,-258.43986012894851,185.39862720111245,-185.39862720111245,258.43986012894851,1831.8370652724138,0.0
613204.59901257406,4207374.0504322443,-22500.0,76.657039013754385,-513.18543730936165,1490.9200902863861,184.68677638625064,-642.71429425498309,205.94830134898834,1009.1782318666319,-405.57812007357637,415.62171297364029,-415.62171297364029,405.57812007357637,1991.3951995955438,0.0
618204.59901257406,4207374.0504322443,-22500.0,17.506467163856609,-373.00509088453373,1693.0111636385504,128.69985059310986,-714.51909559893568,225.69862124090065,1071.1081194249921,-528.3491122785141,650.55519456079935,-650.55519456079935,528.3491122785141,2121.4464384081666,0.0
623204.59901257406,4207374.0504322443,-22500.0,-16.214517327931837,-202.95736329440356,1833.2518167082526,62.541526523287786,-763.87224879411008,239.18759368498147,1118.2272433015055,-613.88383643099667,870.46418923816202,-870.46418923816202,613.88383643099667,2213.4159555045439,0.0
628204.59901257406,4207374.0504322443,-22500.0,-19.607979532604947,-18.47815970349987,1902.1693001178116,-8.4294319410609475,-787.66050923048715,245.61271589967302,1145.0631646287077,-654.16199841652326,1056.9193947267306,-1056.9193947267306,654.16199841652326,2261.9327023193291,0.0
633204.59901257406,4207374.0504322443,-22500.0,7.4291767120357051,163.80538027928594,1898.0957028531398,-78.483857495397075,-785.37824600229897,244.85289521328269,1148.7798105884872,-647.23429553991468,1195.7006264993404,-1195.7006264993404,647.23429553991468,2265.2888516618618,0.0
638204.59901257406,4207374.0504322443,-22500.0,60.511885133699515,328.75989784043759,1826.8550540563842,-142.39084536419469,-759.02040601812121,237.44009695577702,1129.729171789749,-597.10262815138685,1278.7138026666703,-1278.7138026666703,597.10262815138685,2225.3463650109056,0.0
643204.59901257406,4207374.0504322443,-22500.0,131.99962045962877,464.8465714610885,1700.1194739710918,-196.102880168349,-712.55118192846919,224.42402249891944,1090.2766561976,-512.42306718462169,1304.544370259739,-1304.544370259739,512.42306718462169,2146.9543986106742,0.0
648204.59901257406,4207374.0504322443,-22500.0,212.70725874402808,565.23253263696313,1533.0047661631509,-237.12995278428153,-651.1256030299146,207.17354732869561,1034.0254498295626,-404.52201050162864,1277.7167955794293,-1277.7167955794293,404.52201050162864,2037.0496360145082,0.0
653204.59901257406,4207374.0504322443,-22500.0,293.59575885094193,627.86018657255408,1341.5624185115901,-264.58229289599461,-580.26930117025813,187.16569340036915,965.20208698793022,-285.31012198856905,1207.0676524564756,-1207.0676524564756,285.31012198856905,1903.6466676362882,0.0
658204.59901257406,4207374.0504322443,-22500.0,367.06724583113584,654.70394276671095,1140.695470768796,-278.9488568406465,-505.18469277489652,165.80477600023099,888.14578643837956,-165.56665228140787,1103.7724267375006,-1103.7724267375006,165.56665228140787,1754.9055282628813,0.0
663204.59901257406,4207374.0504322443,-22500.0,427.69513351481095,650.58007639802554,942.7768432342092,-281.72334181081578,-430.27649343405153,144.29596183527067,806.94301573212931,-53.841718078612359,979.50172431223405,-979.50172431223405,53.841718078612359,1598.3988869693699,0.0
668204.59901257406,4207374.0504322443,-22500.0,472.40790080280942,621.86433406259971,757.00701954467229,-274.98944480624402,-358.91412726072616,123.57890681838242,725.31280139277635,43.996782058558665,845.00753810623019,-845.00753810623019,-43.996782058558665,1440.6304648161156,0.0
673204.59901257406,4207374.0504322443,-22500.0,500.26250469297321,575.37213575743158,589.38181931864153,-261.04823022618172,-293.39488399531285,104.31330474848241,647.07605812356508,124.69531990133459,709.24831526207936,-709.24831526207936,-124.69531990133459,1286.7961127142114,0.0
563204.59901257406,4212374.0504322443,-22500.0,280.6494703469304,-105.2695570011678,-331.50178631437547,70.8895227027228,66.915463466267241,-4.3304921625254771,337.82642286846703,326.89925493447669,-315.59292283641838,315.59292283641838,-326.89925493447669,585.87195514369296,0.0
568204.59901257406,4212374.0504322443,-22500.0,318.2726415076807,-182.57339306275637,-274.82346282109228,97.692684853326568,41.059759615437578,3.9461024602470256,363.86090831648227,341.62125955754703,-351.51980327657071,351.51980327657071,-341.62125955754703,630.73508027321236,0.0
573204.59901257406,4212374.0504322443,-22500.0,346.22506879607772,-266.03463245420943,-191.43312535823566,125.66917073681476,5.989786259587099,14.633239620845311,396.78603166438961,340.69691785376205,-375.79087982522134,375.79087982522134,-340.69691785376205,693.22113490635445,0.0
578204.59901257406,4212374.0504322443,-22500.0,361.0020779297393,-351.30151575727211,-78.029220858746456,153.23408896382571,-39.157023186320288,27.904006436621465,437.76114104909789,320.08702494833358,-382.51258920426108,382.51258920426108,-320.08702494833358,776.36490645379467,0.0
583204.59901257406,4212374.0504322443,-22500.0,359.67459165049223,-432.39760314069576,67.04841234476244,178.32315094736757,-94.652966203230903,43.772730213040965,487.23160429870916,276.60178605811421,-365.51014800841864,365.51014800841864,-276.60178605811421,880.99997971439518,0.0
588204.59901257406,4212374.0504322443,-22500.0,340.54108211632501,-501.98283250272709,242.95774283948103,198.50065897955702,-159.9218232945785,62.034057762849521,544.67951367102648,208.69208871394289,-319.12481555137583,319.12481555137583,-208.69208871394289,1005.3873985663949,0.0
593204.59901257406,4212374.0504322443,-22500.0,303.77880755217615,-551.98867077186446,445.58874701758714,211.18031252920593,-233.3227282213804,82.214553157728133,608.53640381166508,117.23772336236956,-239.25616058175521,239.25616058175521,-117.23772336236956,1145.3406170022961,0.0
598204.59901257406,4212374.0504322443,-22500.0,251.92202709571282,-574.63366583514608,667.12058366517704,213.95482238198196,-312.04457524485537,103.55311456467038,676.26240455802144,6.1292053496384611,-124.49844212524826,124.49844212524826,-6.1292053496384611,1294.6284148433629,0.0
603204.59901257406,4212374.0504322443,-22500.0,189.97290938229435,-563.70746814089557,896.13858951492068,204.99510850407017,-392.17854456912221,125.02548033893831,744.5758038640937,-117.58866375239984,22.882666726623114,-22.882666726623114,117.58866375239984,1445.5210571437867,0.0
608204.59901257406,4212374.0504322443,-22500.0,124.9979912244426,-515.88063808535207,1118.4707524478547,183.44323694304731,-469.01004440777672,145.4214002130162,809.84298063419055,-244.19290298887765,196.44012611160545,-196.44012611160545,244.19290298887765,1589.4587662052593,0.0
613204.59901257406,4212374.0504322443,-22500.0,65.187002628766194,-431.70864529143739,1318.7355003501709,149.7004572472579,-537.52022444239265,163.4707546166762,868.74071214654782,-362.41861128857852,385.76608738035213,-385.76608738035213,362.41861128857852,1717.8392827623779,0.0
618204.59901257406,4212374.0504322443,-22500.0,18.523533477976478,-316.00854469587227,1482.3714692829283,105.51814250931618,-593.02258670475976,177.99983054406314,919.157550042705,-461.09325509840369,577.54649802345807,-577.54649802345807,461.09325509840369,1822.8681305570606,0.0
623204.59901257406,4212374.0504322443,-22500.0,-8.6272760703889357,-177.42393404332049,1597.7302530522177,53.84206382686488,-631.80714495052155,188.08728766982446,958.37275478189201,-530.91735154544813,757.3121649889913,-757.3121649889913,530.91735154544813,1898.3578894037475,0.0
628204.59901257406,4212374.0504322443,-22500.0,-12.648037025857931,-27.219852950973117,1657.744084520562,-1.5732332230701596,-651.64716359699048,193.18550687925563,981.79853650144685,-565.95399795432752,911.51969956953269,-911.51969956953269,565.95399795432752,1940.3393572455707,0.0
633204.59901257406,4212374.0504322443,-22500.0,6.7802196720325583,122.41699762855852,1660.7767582640274,-56.695806545644018,-652.05394686948773,193.18086777885981,987.22343516368414,-564.45560922045308,1029.4747915392763,-1029.4747915392763,564.45560922045308,1947.3745866622423,0.0
638204.59901257406,4212374.0504322443,-22500.0,46.821566261715475,260.15997796195211,1610.4979563206837,-107.77038142112035,-634.23367268963318,188.38228275404202,974.78995115792316,-528.85626498553029,1104.6600205136481,-1104.6600205136481,528.85626498553029,1920.5255014181357,0.0
643204.59901257406,4212374.0504322443,-22500.0,102.22780908383731,376.9997584642457,1514.8936447869764,-151.77414909526905,-600.78064159980465,179.44622369742322,946.07275090163819,-465.005680092955,1135.2215953616169,-1135.2215953616169,465.005680092955,1863.0105741290924,0.0
648204.59901257406,4212374.0504322443,-22500.0,166.43070247472519,467.10879093482345,1384.729662227287,-186.69358779514118,-555.20096599086526,167.26050340815175,903.57300112171254,-380.91445155323652,1123.6194327995504,-1123.6194327995504,380.91445155323652,1779.6409163307587,0.0
653204.59901257406,4212374.0504322443,-22500.0,232.68443265464964,528.04141413236573,1231.8643282302669,-211.59883430122269,-501.38556481188465,152.81499154616131,850.31598017991894,-285.3589743967317,1075.6542074591193,-1075.6542074591193,285.3589743967317,1676.159714981475,0.0
658204.59901257406,4212374.0504322443,-22500.0,295.01157597461787,560.37278034722556,1067.7525716256994,-226.54413531099547,-443.13633118096055,137.08426033602902,789.49781101503936,-186.65151575459566,999.18600716828109,-999.18600716828109,186.65151575459566,1558.6005624094098,0.0
663204.59901257406,4212374.0504322443,-22500.0,348.81381395288474,566.9803180582461,902.35670120235295,-232.35365376892815,-383.81301442929953,120.93878310831748,724.20424536396331,-91.766267278791645,902.85040862033975,-902.85040862033975,91.766267278791645,1432.7516724136717,0.0
668204.59901257406,4212374.0504322443,-22500.0,391.12385434157306,552.19036368512843,743.53204634990016,-230.35926938547718,-326.12451036930241,105.09084739555126,657.23675988539571,-5.8792873904270095,794.99174340276591,-794.99174340276591,5.8792873904270095,1303.7703596477954,0.0
573204.59901257406,4217374.0504322443,-22500.0,304.79020005248657,-265.55959728211184,-113.98774876061964,115.77228927442933,-13.128655882869037,16.600311971188447,354.8608525306874,284.01439896140607,-325.20805855600099,325.20805855600099,-284.01439896140607,624.5264322976011,0.0
578204.59901257406,4217374.0504322443,-22500.0,311.59187140599175,-334.3569209964611,-8.1359364319171643,136.80038962861522,-52.448122894739754,27.457265767261557,391.83024007510897,258.77302413363316,-321.74127977553076,321.74127977553076,-258.77302413363316,701.34992627248528,0.0
583204.59901257406,4217374.0504322443,-22500.0,305.27964115938471,-397.59276506095955,122.47165485202217,155.24249174569172,-99.430351846056681,40.13329120693566,435.3896350972496,215.08276571617961,-297.81035674244373,297.81035674244373,-215.08276571617961,794.63851861125409,0.0
588204.59901257406,4217374.0504322443,-22500.0,285.08006113568939,-449.5645992762976,276.29594971051887,169.30321758893714,-153.38566370493919,54.422552402122477,484.8256475757658,152.44265073248235,-249.60475419953471,249.60475419953471,-152.44265073248235,902.30323971868097,0.0
593204.59901257406,4217374.0504322443,-22500.0,251.67083442512345,-484.2893203150503,449.3434213366823,177.15731835129532,-212.8667506566515,69.93847519838009,538.69635600193669,72.226508923429094,-174.70347629233015,174.70347629233015,-72.226508923429094,1020.6487896605702,0.0
598204.59901257406,4217374.0504322443,-22500.0,207.43162693187631,-496.2526579072138,634.97960061897209,177.18005484144504,-275.63410033740217,86.10946510277968,594.92088340922965,-22.010207235902598,-72.818327466494239,72.818327466494239,22.010207235902598,1144.6782386135408,0.0
603204.59901257406,4217374.0504322443,-22500.0,156.42989165152511,-481.29003045959251,824.13787322138637,168.20831130391966,-338.7403978935082,102.20255401585759,650.95920775027196,-124.54179197369933,53.622841346282627,-53.622841346282627,124.54179197369933,1268.4715758295342,0.0
608204.59901257406,4217374.0504322443,-22500.0,104.06930655770471,-437.43408992692514,1005.9968048794965,149.78372295953957,-398.75109114772062,117.37816083521888,704.10464229008051,-227.89288753105259,199.23721086227019,-199.23721086227019,227.89288753105259,1385.6425420515507,0.0
613204.59901257406,4217374.0504322443,-22500.0,56.408343131022441,-365.52433287689928,1169.0932162806992,122.31953845890058,-452.08780830627063,130.77226682718836,752.03334706033922,-323.66786327052284,355.93603415843279,-355.93603415843279,323.66786327052284,1489.8706281345453,0.0
618204.59901257406,4217374.0504322443,-22500.0,19.257045155369269,-269.39394956646208,1302.708042921884,87.140481049146942,-495.44456543959217,141.59407988874153,793.6007297591724,-403.66895386913507,513.700092421156,-513.700092421156,403.66895386913507,1575.4665554099313,0.0
623204.59901257406,4217374.0504322443,-22500.0,-2.7571574400790912,-155.53607558043299,1398.262016625552,46.370448528509677,-526.20002967882658,149.22150203060642,826.53697354038252,-461.08158243252058,661.78105433011058,-661.78105433011058,461.08158243252058,1637.8985636112861,0.0
628204.59901257406,4217374.0504322443,-22500.0,-6.9339715981484771,-32.286043460917085,1450.4262073466814,2.6810136643137121,-542.74195240526535,153.27559857241599,846.94663314984609,-491.46194106984734,790.09817128476561,-790.09817128476561,491.46194106984734,1674.1977062783892,0.0
633204.59901257406,4217374.0504322443,-22500.0,7.121262820853473,91.312900161853648,1457.7104741403089,-41.050027202158951,-544.63664587469077,153.65897641564098,853.18110573651325,-493.30376155910193,890.53506672180492,-890.53506672180492,493.30376155910193,1683.1734950998577,0.0
638204.59901257406,4217374.0504322443,-22500.0,37.559066746320028,206.7105863137935,1422.427610244755,-82.098177638216825,-532.61547419565318,150.55187733932286,845.28919168938626,-468.0756068780679,957.86790847696466,-957.86790847696466,468.0756068780679,1665.4110396057081,0.0
643204.59901257406,4217374.0504322443,-22500.0,80.739979083124027,306.86848285322901,1350.0891999033795,-118.19852001692182,-508.39480581509912,144.36995500932608,824.3335671597215,-419.76280268558327,990.1652971457379,-990.1652971457379,419.76280268558327,1623.0652671160328,0.0
648204.59901257406,4217374.0504322443,-22500.0,131.93936659214617,386.91773152518874,1248.4131081489159,-147.74716070496262,-474.38083382457751,135.69527670780067,792.06825902014236,-354.06528410206164,988.64180702196836,-988.64180702196836,354.06528410206164,1559.5029776573131,0.0
653204.59901257406,4217374.0504322443,-22500.0,186.12193921395485,444.39102671063353,1126.1824664269886,-169.87799529351327,-433.32824357554097,125.19628995294988,750.67502791959555,-277.46040404228063,957.07680898148226,-957.07680898148226,277.46040404228063,1478.8662486125752,0.0
658204.59901257406,4217374.0504322443,-22500.0,238.62463824249392,479.06998746873893,992.17907262149481,-184.42540441385358,-388.01761846433578,113.55172256822959,702.52062630063369,-196.32804053152921,900.98311824845291,-900.98311824845291,196.32804053152921,1385.6305910343888,0.0
583204.59901257406,4222374.0504322443,-22500.0,259.7134144408804,-362.6814995495958,160.72366634583025,134.71773983379722,-99.719151559633133,36.187242880784531,390.38714046908768,165.85068002966895,-241.09892595629364,241.09892595629364,-165.85068002966895,718.69887044059033,0.0
588204.59901257406,4222374.0504322443,-22500.0,239.7995433882945,-401.2533615726249,294.70774527260443,144.41395274657367,-144.33911498964082,47.407335549060953,432.86511295667543,109.05208426320738,-193.39254332131006,193.39254332131006,-109.05208426320738,811.58725505768621,0.0
593204.59901257406,4222374.0504322443,-22500.0,209.9821326264142,-424.86700192601086,442.46455622872759,149.01387591520341,-192.70028166451749,59.407895249485279,478.37981588453579,39.131973488090686,-124.41307804323426,124.41307804323426,-39.131973488090686,911.7445098087876,0.0
598204.59901257406,4222374.0504322443,-22500.0,172.38135867066154,-429.60827001341562,598.45351610572789,147.41715352020123,-243.03332169049884,71.761158245353116,525.24637883373271,-40.788004432627368,-34.492626027853738,34.492626027853738,40.788004432627368,1015.1917103460156,0.0
603204.59901257406,4222374.0504322443,-22500.0,130.27648339522258,-412.6834405868737,755.48153893550261,138.88425814762832,-293.10969888983618,83.939630032695646,571.49626454001384,-126.08651243819639,74.027042975687436,-74.027042975687436,126.08651243819639,1117.3753912943162,0.0
608204.59901257406,4222374.0504322443,-22500.0,87.81694775451912,-372.97144975912926,905.23668694992807,123.1882475190972,-340.40564361327904,95.354620070699411,615.10374985560645,-210.99180145579564,196.70034915946709,-196.70034915946709,210.99180145579564,1213.4857028368635,0.0
613204.59901257406,4222374.0504322443,-22500.0,49.529282229218182,-311.39689379938966,1039.0902952646927,100.71225872109876,-382.33864601907311,105.4102247025416,654.4841881806567,-289.18611343645387,327.21060664681295,-327.21060664681295,289.18611343645387,1298.8216007216531,0.0
618204.59901257406,4222374.0504322443,-22500.0,19.69540092844872,-231.01533995579061,1149.0554509547837,72.464031174816597,-416.54361200296677,113.56529216126997,689.20071299308813,-354.58027158294453,457.9408985042777,-457.9408985042777,354.58027158294453,1369.1734314707173,0.0
623204.59901257406,4222374.0504322443,-22500.0,1.7244650596089002,-136.76003249940169,1228.7333759992498,39.99515714528583,-441.14172826263228,119.39313017788265,717.06506715340799,-402.11563333550362,580.80936600972188,-580.80936600972188,402.11563333550362,1421.1766646459098,0.0
628204.59901257406,4222374.0504322443,-22500.0,-2.3469713776113146,-34.877382810192501,1274.0656630187862,5.2339732391667146,-454.95194954388916,122.6280280872613,734.82925444682576,-428.43058925192031,688.22301056558535,-688.22301056558535,428.43058925192031,1452.5851450229613,0.0
633204.59901257406,4222374.0504322443,-22500.0,7.881777241979913,67.843067342744931,1283.7459079817481,-29.737967433946626,-457.60524703314354,123.19002661145615,741.32179914602352,-432.25407490952017,773.96589615150083,-773.96589615150083,432.25407490952017,1462.421411546482,0.0
638204.59901257406,4222374.0504322443,-22500.0,31.19641599511656,164.89092652508853,1259.2256108234687,-62.923235602066093,-449.5443989240303,121.18440965882928,736.55049055407653,-414.45700375451406,833.8551743506016,-833.8551743506016,414.45700375451406,1450.98628954585,0.0
643204.59901257406,4222374.0504322443,-22500.0,65.049256745259981,250.75296981119794,1204.3404406535794,-92.616459435526849,-431.91675627176181,116.8774856860926,721.2407121320515,-377.77536002615659,866.05850694557364,-866.05850694557364,377.77536002615659,1419.7337627400348,0.0
648204.59901257406,4222374.0504322443,-22500.0,106.01914581259705,321.40866749392347,1124.6614638964702,-117.54988338809142,-406.38865091094317,110.65496338885997,696.63418540461214,-326.29159113679833,871.05063197989011,-871.05063197989011,326.29159113679833,1371.0401707009753,0.0
598204.59901257406,4227374.0504322443,-22500.0,144.53869569413837,-372.97393628079647,560.25992662965018,123.2534197395691,-214.18574144874555,59.978682055976847,465.37418547030722,-52.901886899424134,-6.2561439541231039,6.2561439541231039,52.901886899424134,903.13753886178358,0.0
603204.59901257406,4227374.0504322443,-22500.0,109.65861852047264,-355.39366665838577,691.28886785937436,115.37542708620947,-254.21859577219675,69.281240406887619,503.77634285563016,-124.16334469204875,87.013802132032652,-87.013802132032652,124.16334469204875,987.9972215785981,0.0
608204.59901257406,4227374.0504322443,-22500.0,75.013716290871528,-319.71276553955818,815.41108964979685,102.01970871727892,-291.81397502207449,77.956847696744546,539.82151766095387,-194.35070387936761,190.80834384580871,-190.80834384580871,194.35070387936761,1067.4066020212697,0.0
613204.59901257406,4227374.0504322443,-22500.0,44.018505745091616,-266.83851839739691,926.06895362417652,83.523613839343895,-325.0863907407317,85.589050747452774,572.50097066317062,-258.6652882894619,300.16778816504274,-300.16778816504274,258.6652882894619,1137.8287376490316,0.0
618204.59901257406,4227374.0504322443,-22500.0,19.866271380075123,-199.2144910020755,1017.2435078804328,60.658716018759733,-352.3216297016167,91.802137795879105,601.86793581432823,-312.5319202796054,409.24503204606788,-409.24503204606788,312.5319202796054,1196.1096091682489,0.0
623204.59901257406,4227374.0504322443,-22500.0,5.0997382042292241,-120.62843869481503,1084.1062165616972,34.572464088666415,-372.15504619252278,96.2990997142212,625.5622588280221,-352.15019184114118,511.89435281273785,-511.89435281273785,352.15019184114118,1239.7197924091067,0.0
628204.59901257406,4227374.0504322443,-22500.0,1.2701215935838517,-35.816802662393386,1123.5362812470121,6.6753066808769601,-383.71173482248378,98.891217050464348,641.0200491084762,-374.95133018235708,602.33270676231155,-602.33270676231155,374.95133018235708,1266.9414568242942,0.0
633204.59901257406,4227374.0504322443,-22500.0,8.7517064225857162,50.066548622536132,1134.4127320738701,-21.508187321241266,-386.68482165879038,99.514391277796193,647.44002771707005,-379.87521325316641,675.75767542408619,-675.75767542408619,379.87521325316641,1276.9752663422155,0.0
603204.59901257406,4017374.0504322448,-27500.0,28.990699310300471,172.6790999065816,1010.2456358038178,75.571579860181274,425.33784219730569,135.49754615841888,625.4202583440034,-332.77290703483789,700.56825789231027,-700.56825789231027,332.77290703483789,1232.484821519057,0.0
608204.59901257406,4017374.0504322448,-27500.0,5.4344510620345501,98.438684897292475,1041.7635414954329,46.246606224105811,437.1792085148316,138.92791759413936,633.73536394699249,-354.90520171977755,662.8465731420614,-662.8465731420614,354.90520171977755,1249.9276288741221,0.0
613204.59901257406,4017374.0504322448,-27500.0,-8.6907130181293244,17.605544092776295,1048.9202987799929,14.542239460288812,440.11903931622805,139.84011091225355,633.66074313472291,-361.35481288848041,604.65519292370197,-604.65519292370197,361.35481288848041,1251.47641807337,0.0
618204.59901257406,4017374.0504322448,-27500.0,-11.936996791196416,-65.41037368815573,1029.7347037893037,-17.980406309754763,433.46682563076445,138.04354777463698,624.95539679894102,-350.73454478192821,528.16573684699574,-528.16573684699574,350.73454478192821,1236.4584543708506,0.0
623204.59901257406,4017374.0504322448,-27500.0,-3.9058897069302292,-145.72350805951825,983.98671460033358,-49.598589858872117,417.13442591048818,133.50993448349095,608.04852863927397,-323.06174059712885,437.08828785286175,-437.08828785286175,323.06174059712885,1205.0528206435256,0.0
628204.59901257406,4017374.0504322448,-27500.0,14.636757383335601,-218.48429533611329,913.35648378529754,-78.598151916178082,391.68311472139288,126.38609329587587,584.3591642859692,-279.84962331937345,336.35989385853509,-336.35989385853509,279.84962331937345,1158.3349625894136,0.0
633204.59901257406,4017374.0504322448,-27500.0,41.821569045086292,-279.41579576753668,821.31776230620198,-103.45224394627847,358.29028482982329,116.9857977978135,555.76393475446218,-223.98420921876394,231.64668275399626,-231.64668275399626,223.98420921876394,1098.2332139060859,0.0
638204.59901257406,4017374.0504322448,-27500.0,74.909173277568073,-325.28086011689595,712.7918237574055,-122.97844754853655,318.63749358587842,105.76087442420265,523.22594108836154,-159.39869114022511,128.73894999262288,-128.73894999262288,159.39869114022511,1027.3995838344379,0.0
643204.59901257406,4017374.0504322448,-27500.0,110.65385560737272,-354.19703604462569,593.61840440167873,-136.44752074750238,274.73731437980337,93.256038958752853,487.62485274017706,-90.602237141132065,32.943902128404112,-32.943902128404112,90.602237141132065,949.01113934696696,0.0
648204.59901257406,4017374.0504322448,-27500.0,145.72582593231616,-365.75006843359586,469.93737527949355,-143.62743743653948,228.7288525967239,80.055013428477224,450.26771218850035,-22.151379282123585,-51.420522862289886,51.420522862289886,22.151379282123585,866.52959803789292,0.0
653204.59901257406,4017374.0504322448,-27500.0,177.11208435239706,-360.90171482687555,347.5862894831003,-144.76032867726587,182.67544439343479,66.726667016905935,412.61815112776071,41.841253469929256,-121.35534312461584,121.35534312461584,-41.841253469929256,783.44879652582893,0.0
658204.59901257406,4017374.0504322448,-27500.0,202.42761281169791,-341.72932622885492,231.60631742864985,-140.48313140098134,138.39487620780622,53.779033582347758,376.07620282037414,98.082305699173446,-175.30060157319201,175.30060157319201,-98.082305699173446,703.05613077191049,0.0
593204.59901257406,4022374.0504322448,-27500.0,117.44005805150167,340.49684709522143,970.85523662826631,150.80432321063938,436.76162210709907,147.76640123743277,659.9496489436998,-267.53507768916319,798.03739051536786,-798.03739051536786,267.53507768916319,1300.6454076764851,0.0
598204.59901257406,4022374.0504322448,-27500.0,74.365243956384134,283.43968356477262,1056.6127790468149,126.31546851795143,470.16134960526136,157.80688067569679,688.86321532334318,-323.69152844333087,807.65026634762569,-807.65026634762569,323.69152844333087,1357.1471638494907,0.0
603204.59901257406,4022374.0504322448,-27500.0,36.087191763277552,210.2908439965889,1123.2897779497976,95.77748330339881,496.08310219787739,165.59551188377904,709.84384909308937,-368.61203576174591,792.93005270781043,-792.93005270781043,368.61203576174591,1398.7358995937764,0.0
608204.59901257406,4022374.0504322448,-27500.0,6.2087870475177782,123.83100704845928,1165.0703669818085,60.259093878585595,512.41993823835537,170.53056605776973,721.49505809818368,-397.89992122707275,752.24584843847265,-752.24584843847265,397.89992122707275,1422.7276694719799,0.0
613204.59901257406,4022374.0504322448,-27500.0,-12.191804718057561,28.410735195424518,1177.2805604171301,21.381172487276537,517.48393128012458,172.12994899312608,722.83210890975352,-408.05394853716609,685.94562462120746,-685.94562462120746,408.05394853716609,1427.1423245815315,0.0
618204.59901257406,4022374.0504322448,-27500.0,-17.054795341057261,-70.35099594504797,1157.0750843244202,-18.790926112193649,510.24359557126263,170.09691547477749,713.4845277748376,-397.03992303409302,596.58132885082671,-596.58132885082671,397.03992303409302,1410.9638501937218,0.0
623204.59901257406,4022374.0504322448,-27500.0,-7.7281051254770929,-166.11377984297752,1103.955878943314,-57.937525984361862,490.50281649966018,164.36972781277183,693.98153883471628,-364.70929731788669,488.82667259481184,-488.82667259481184,364.70929731788669,1374.3257304080905,0.0
628204.59901257406,4022374.0504322448,-27500.0,14.845348914339692,-252.53572036124606,1020.0008903917376,-93.733042687079077,458.98116781550976,155.14441478097035,666.05723580734423,-312.95756520026197,369.06150440430821,-369.06150440430821,312.95756520026197,1318.5866540364141,0.0
633204.59901257406,4022374.0504322448,-27500.0,48.202154609038892,-324.0411932648326,909.72983368067025,-124.11107737784795,417.27076127790298,142.86383223888029,631.85976080237162,-245.5635606172896,244.67176905742051,-244.67176905742051,245.5635606172896,1246.2746678105379,0.0
638204.59901257406,4022374.0504322448,-27500.0,88.693296400671926,-376.48883220436284,779.61273906431597,-147.49748040485238,367.67132331465262,128.17334269789839,592.69738096064555,-167.72429058673558,123.18630869827207,-123.18630869827207,167.72429058673558,1160.9028672491313,0.0
643204.59901257406,4022374.0504322448,-27500.0,132.01291568595462,-407.60983518130143,637.30862709734924,-162.9678433262302,312.93139971730432,111.85038662801729,549.91579471765601,-85.374018396315577,11.413976858880034,-11.413976858880034,85.374018396315577,1066.6814861451512,0.0
648204.59901257406,4022374.0504322448,-27500.0,173.80772789160349,-417.14252682344721,490.78053590137256,-170.30383364005965,255.94381429112715,94.720700983229349,505.29491168413159,-4.4261702187526737,-85.259393257019454,85.259393257019454,4.4261702187526737,968.16863942818486,0.0
653204.59901257406,4022374.0504322448,-27500.0,210.24111237692838,-406.6621128762946,347.45272154669738,-169.94616260911036,199.45068804083039,77.576190968682255,460.7425530035564,69.913098403150755,-163.29979774643368,163.29979774643368,-69.913098403150755,869.90759393950873,0.0
658204.59901257406,4022374.0504322448,-27500.0,238.4096813432437,-379.17247491353146,213.54707756344834,-162.86455541802729,145.80474117041777,61.107153349031123,418.02863040601159,133.64342900352483,-221.13947656664533,221.13947656664533,-133.64342900352483,776.08832491616829,0.0
663204.59901257406,4022374.0504322448,-27500.0,256.55780739783523,-338.56727264394715,93.6797885025114,-150.37895268500546,96.816008086619405,45.857233843944698,378.6081452780611,184.22184479863137,-259.00819600584344,259.00819600584344,-184.22184479863137,690.25385877133829,0.0
668204.59901257406,4022374.0504322448,-27500.0,264.08915805637173,-289.07491939784455,-9.2675805395093143,-133.96977650916756,53.691451675988802,32.203616430630568,343.50675726122779,220.57093881111558,-278.56467820340663,278.56467820340663,-220.57093881111558,615.05469808958696,0.0
583204.59901257406,4027374.0504322448,-27500.0,248.68875123114009,463.50323996888517,811.73233123126261,217.41268896013079,401.0850189100488,146.7656151110989,650.62387102808827,-126.85917007028507,785.57394113202008,-785.57394113202008,126.85917007028507,1285.9672373865417,0.0
588204.59901257406,4027374.0504322448,-27500.0,199.61967751806282,443.44359854114981,937.91503317303943,206.14621296823225,453.31725900627248,163.3837956390598,699.81861193533734,-203.97736157724717,848.38386615329,-848.38386615329,203.97736157724717,1380.9601461230777,0.0
593204.59901257406,4027374.0504322448,-27500.0,146.68819914998696,402.61534006208529,1058.1407734308973,186.53667626072121,502.64163294769952,178.98561313609332,744.05531052205879,-280.29682125324865,891.90122267026391,-891.90122267026391,280.29682125324865,1466.6227604402372,0.0
598204.59901257406,4027374.0504322448,-27500.0,93.943861515137328,340.09708595403606,1164.7774611827986,158.3394344680419,546.11034746082487,192.67993653270997,781.0636490739073,-350.18753324255107,910.44882989443681,-910.44882989443681,350.18753324255107,1538.7089562410956,0.0
603204.59901257406,4027374.0504322448,-27500.0,46.099339030461209,256.84359780824053,1249.6774465566798,122.01570954847554,580.61454722604776,203.53339443360014,808.64050579118157,-407.50486848275216,899.44961385109366,-899.44961385109366,407.50486848275216,1593.0507584322004,0.0
608204.59901257406,4027374.0504322448,-27500.0,7.9881107209082876,155.99912759638298,1305.0285247817101,78.836787904780095,603.19814282937307,210.66221099816769,824.86031370562034,-446.30087424975125,856.24236064254762,-856.24236064254762,446.30087424975125,1625.9492695159759,0.0
613204.59901257406,4027374.0504322448,-27500.0,-16.131710628829765,42.914136936316211,1324.3646486861226,30.881705319058167,611.42467652670666,213.33862219959553,828.32391881100284,-461.6794021774964,780.77538350496445,-780.77538350496445,461.6794021774964,1634.5914752843621,0.0
618204.59901257406,4027374.0504322448,-27500.0,-23.305888829871208,-75.215442043686252,1303.5774443833989,-19.097935555325545,603.74177629305098,211.09632068851386,818.45225664377597,-450.64557960384968,676.00470125195466,-676.00470125195466,450.64557960384968,1617.4418288227002,0.0
623204.59901257406,4027374.0504322448,-27500.0,-12.482583497686912,-190.09083473585926,1241.7102828276709,-67.946648568277638,579.76661333382492,203.8131291914998,795.86463275735878,-412.75606072660798,547.84434600300733,-547.84434600300733,412.75606072660798,1574.5313069971114,0.0
628204.59901257406,4027374.0504322448,-27500.0,15.180217781469956,-293.33391998653548,1141.3360078136116,-112.47180846673122,540.42351238979813,191.75153295798867,762.65647838684333,-350.39224099997,404.6116244929874,-404.6116244929874,350.39224099997,1507.585583308944,0.0
633204.59901257406,4027374.0504322448,-27500.0,56.402389619875272,-377.60122852782388,1008.392157322093,-149.84308590574335,487.88996515864847,175.54473209693137,721.39054109108406,-268.55223837738123,256.03152981368561,-256.03152981368561,268.55223837738123,1419.9555956044428,0.0
638204.59901257406,4027374.0504322448,-27500.0,106.26847466304243,-437.55276723915875,851.47357230553143,-177.943658780937,425.34975967481824,156.12734800146424,673.90737163585447,-174.17724627118349,111.98764205094646,-111.98764205094646,174.17724627118349,1316.3501896728235,0.0
643204.59901257406,4027374.0504322448,-27500.0,159.00834181402809,-470.46940020209672,680.7203226149885,-195.60159569855892,356.59969953935189,134.62363763474747,622.18216531263374,-75.152601942355901,-18.721400707032434,18.721400707032434,75.152601942355901,1202.4118081844872,0.0
648204.59901257406,4027374.0504322448,-27500.0,208.88832756018695,-476.4038751047421,506.53604507985125,-202.65981024943204,285.58986226180923,112.21528781752279,568.63406917496866,20.792968506981651,-129.36646122066031,129.36646122066031,-20.792968506981651,1084.2020157601869,0.0
653204.59901257406,4027374.0504322448,-27500.0,251.01224735563741,-457.875267048296,338.39748827791794,-199.88492351339767,215.98814742808679,90.014345634253019,515.75931301906337,107.05492664797779,-215.84235088129131,215.84235088129131,-107.05492664797779,967.67205864146183,0.0
658204.59901257406,4027374.0504322448,-27500.0,281.87693076145257,-419.22510198976414,183.96399605159777,-188.75255270640508,150.84363976124644,68.962716460248458,465.79415038072892,178.81178627490345,-276.74415394203493,276.74415394203493,-178.81178627490345,858.17562172035616,0.0
663204.59901257406,4027374.0504322448,-27500.0,299.61129284814047,-365.8131226125019,48.594689898944758,-171.16835475267018,92.389947790681333,49.770675078833754,420.48237428927905,233.30065330074035,-313.03541109251034,313.03541109251034,-233.30065330074035,760.05050653450223,0.0
668204.59901257406,4027374.0504322448,-27500.0,303.91585369400707,-303.23067973952476,-64.728055645089725,-149.18626394052635,41.992734324053444,32.896487634563826,380.93286026081347,269.73641470474939,-327.45369785177439,327.45369785177439,-269.73641470474939,676.27399678002519,0.0
673204.59901257406,4027374.0504322448,-27500.0,295.78293553880496,-236.66330965930126,-155.1538266063944,-124.77144026950441,0.21563436531479252,18.560748792816533,347.56785725183829,288.97273041198736,-323.81927957803424,323.81927957803424,-288.97273041198736,608.20956242415104,0.0
678204.59901257406,4027374.0504322448,-27500.0,277.10265807845491,-170.46764069733121,-223.52245286219141,-99.633679695649704,-33.036630029345631,6.7842223195629066,320.16993320174879,293.02937133754796,-306.38568808959991,306.38568808959991,-293.02937133754796,555.51946703899443,0.0
573204.59901257406,4032374.0504322448,-27500.0,386.34888819588633,501.06648545369217,566.95246418492343,256.73385201527742,323.23414272961065,131.5317423919015,598.06086363798579,54.152421436837642,655.78401996793855,-655.78401996793855,-54.152421436837642,1186.5710813669059,0.0
578204.59901257406,4032374.0504322448,-27500.0,351.53971519617835,525.02792411896201,704.5713916423523,263.55953651979513,384.9375995920912,152.59153834563824,660.79928142979747,-19.781247532771943,757.83570779669935,-757.83570779669935,19.781247532771943,1309.3248137764574,0.0
583204.59901257406,4032374.0504322448,-27500.0,304.81169307996237,531.74820575417061,851.67652206024195,262.70689542309833,449.88651231859239,174.53160280201635,724.01540426969314,-104.33795779928727,853.38703613758025,-853.38703613758025,104.33795779928727,1431.70753506548,0.0
588204.59901257406,4032374.0504322448,-27500.0,248.11987073034291,516.75590005404547,1002.4490492620482,252.48841826662115,515.59557141858068,196.53721166982535,784.93512666552863,-195.76275869171855,935.28556895574707,-935.28556895574707,195.76275869171855,1549.342166770585,0.0
593204.59901257406,4032374.0504322448,-27500.0,184.96564723200245,476.45490985109853,1149.0210266228767,231.60187635364159,578.80321346390986,217.55811782143718,840.67421695866665,-288.53924602801987,995.67615972060764,-995.67615972060764,288.53924602801987,1657.1148745865223,0.0
598204.59901257406,4032374.0504322448,-27500.0,120.33508995238378,408.90112945279009,1281.7838151777273,199.42016361475618,635.60739515115085,236.35325562310652,888.21775214429124,-375.60023732457449,1026.8038760728587,-1026.8038760728587,375.60023732457449,1749.448511318963,0.0
603204.59901257406,4032374.0504322448,-27500.0,60.327676294036635,314.55907632286545,1390.1004210376441,156.26679884319768,681.75096931180099,251.58022254760164,924.57795492443734,-448.9011871205397,1022.0778848270514,-1022.0778848270514,448.9011871205397,1820.7152421415981,0.0
608204.59901257406,4032374.0504322448,-27500.0,11.448822444971615,196.85848882289326,1463.4361142388761,103.61206129709433,713.05970539671705,261.9299735502176,947.07684330174789,-500.36663250527852,977.26506366204728,-977.26506366204728,500.36663250527852,1865.7816207520746,0.0
613204.59901257406,4032374.0504322448,-27500.0,-20.370716067656605,62.346288415526068,1492.7900512478179,44.116916729336992,725.98654107087418,266.2924698934919,953.70469858428055,-523.10750632721295,891.57401033092799,-891.57401033092799,523.10750632721295,1880.620446291309,0.0
618204.59901257406,4032374.0504322448,-27500.0,-30.857830988532584,-79.722190098988293,1472.1934404308986,-18.529203955872187,718.17557796595759,263.92747079889944,943.54391832602937,-512.69213106492919,768.34558717278799,-768.34558717278799,512.69213106492919,1862.9034959864607,0.0
623204.59901257406,4032374.0504322448,-27500.0,-18.327454575460678,-218.38986088104531,1399.9382461034711,-79.988187290834162,688.9227068849857,254.60394098784505,917.26970651965485,-468.16676687757945,615.09037343989894,-615.09037343989894,468.16676687757945,1812.4569291298812,0.0
628204.59901257406,4032374.0504322448,-27500.0,15.80728949697632,-342.46924203468677,1279.2092922550614,-135.82183563259841,639.41605256031471,238.6740316688107,877.41364678012133,-392.52867163304774,442.75225778689929,-442.75225778689929,392.52867163304774,1731.4851544469188,0.0
633204.59901257406,4032374.0504322448,-27500.0,67.130290559200148,-442.18201818845483,1117.8858914736827,-182.1033538836902,572.6693307308002,217.05532748480979,827.16566543106353,-292.45977798428078,264.27342342759619,-264.27342342759619,292.45977798428078,1624.4816005351074,0.0
638204.59901257406,4032374.0504322448,-27500.0,128.94061138245104,-510.58717954202149,927.5117013331087,-215.95621887137875,493.14809833220528,191.12145971810924,769.15388009152866,-177.337512356871,92.760053974143375,-92.760053974143375,177.337512356871,1497.83865138638,0.0
643204.59901257406,4032374.0504322448,-27500.0,193.42387278507121,-544.46030372017174,721.64453119582606,-235.89869613276693,406.16109298749694,162.521052554362,706.22541890650973,-57.745833865797081,-60.335626399866882,60.335626399866882,57.745833865797081,1359.2099573583596,0.0
648204.59901257406,4032374.0504322448,-27500.0,252.97380771949355,-544.44543791534159,513.97474842162387,-241.92635904110981,317.15521597853518,132.96535936388332,641.6750638096313,56.145052829530059,-186.60719755497286,186.60719755497286,-56.145052829530059,1216.7397930130576,0.0
653204.59901257406,4032374.0504322448,-27500.0,301.33893576391466,-514.51375793192915,316.63029486682791,-235.33945766827404,231.06585700324121,104.02924181854539,578.78028572295216,155.95252189629255,-281.39966778894154,281.39966778894154,-155.95252189629255,1078.2780566723325,0.0
658204.59901257406,4032374.0504322448,-27500.0,334.35693543421837,-460.94157546332764,138.98637077608515,-218.38561964999894,151.84149252131246,77.001378358249184,520.35645310560471,235.94344465742628,-343.78142975665634,343.78142975665634,-235.94344465742628,950.66692428198235,0.0
663204.59901257406,4032374.0504322448,-27500.0,350.18981942752208,-391.10540996482609,-12.881612879951241,-193.82181611260569,82.200122972792585,52.802289424381179,468.44862206527904,293.29691170952503,-375.92818419312914,375.92818419312914,-293.29691170952503,839.13579738657563,0.0
668204.59901257406,4032374.0504322448,-27500.0,349.11875423559468,-312.37130510603032,-136.14426756254036,-164.49598623304749,23.610177284985678,31.969850602077351,424.1629715009563,327.84729578499162,-382.17335358297771,382.17335358297771,-327.84729578499162,746.81965607434381,0.0
673204.59901257406,4032374.0504322448,-27500.0,333.04878414106406,-231.26137705255505,-230.72919227484815,-133.01845422295938,-23.558251041843096,14.697663334401552,387.64895863028988,341.48863783606049,-367.98828093425317,367.98828093425317,-341.48863783606049,674.46709834441981,0.0
678204.59901257406,4032374.0504322448,-27500.0,304.89718710135531,-152.96634884360952,-298.60500527147036,-101.55400869424503,-59.784819261601967,0.90537723217044497,358.24067551541293,337.44405102741979,-339.09219393119275,339.09219393119275,-337.44405102741979,620.50352816933071,0.0
683204.59901257406,4032374.0504322448,-27500.0,268.00972124144874,-81.178750363422864,-343.02479918091717,-71.73147564481097,-86.121609389787821,-9.6794138149615776,334.73016977454688,319.56729050726176,-300.79974231506321,300.79974231506321,-319.56729050726176,581.59588250638546,0.0
568204.59901257406,4037374.0504322448,-27500.0,479.55795635883601,501.38909213652511,416.8123505825381,281.80184996088497,280.47692858686918,127.32192723795364,584.8904967108906,173.436623521125,556.63026923279949,-556.63026923279949,-173.436623521125,1155.1267478960149,0.0
573204.59901257406,4037374.0504322448,-27500.0,460.48005353239785,551.75092982189551,554.98974014339547,301.07249348481008,347.70356741591178,151.96287684584803,654.55772688604873,108.82801543052381,677.51613477001695,-677.51613477001695,-108.82801543052381,1296.6060727589631,0.0
578204.59901257406,4037374.0504322448,-27500.0,425.62321354192596,589.25923559460125,711.59330466590961,313.84704921235516,422.29421209433161,178.92239742311486,728.9446422831694,27.39181882998389,801.04852787917184,-801.04852787917184,-27.39181882998389,1444.0795325606662,0.0
583204.59901257406,4037374.0504322448,-27500.0,374.95812975436991,607.77883107489447,882.8761027026211,317.60241408079003,502.40860785452861,207.53196493235677,805.65867420966549,-69.146800648651777,920.23225579043037,-920.23225579043037,69.146800648651777,1593.4532866397037,0.0
588204.59901257406,4037374.0504322448,-27500.0,310.22013815140161,601.0951941394718,1062.4054502518625,309.85400086779583,585.10385971436256,236.76436294926657,881.13440741136822,-176.85046689049426,1026.2147925077277,-1026.2147925077277,176.85046689049426,1739.3807037615989,0.0
593204.59901257406,4037374.0504322448,-27500.0,235.26347372878311,563.7829561548624,1240.8524048222839,288.50770798835907,666.27685829003372,265.22068231154537,951.53665388205184,-289.3060062907191,1108.8037000599493,-1108.8037000599493,289.3060062907191,1875.3720187374304,0.0
598204.59901257406,4037374.0504322448,-27500.0,156.12840415322489,492.301443874249,1406.2105402254929,252.29071806709337,740.78019316384894,291.17319946901642,1012.8305464078784,-397.73509550332415,1157.4527828175221,-1157.4527828175221,397.73509550332415,1994.0975892410902,0.0
603204.59901257406,4037374.0504322448,-27500.0,80.669948595141349,386.15777272316149,1544.6172827626419,201.19760304474354,802.77501684925198,312.6831504635594,1060.9376441323459,-491.63648494252925,1162.7115144430941,-1162.7115144430941,491.63648494252925,2087.9307700301679,0.0
608204.59901257406,4037374.0504322448,-27500.0,17.659662535460505,248.86285893319962,1641.8282611533966,136.84649305274939,846.33392728477565,327.79643970709805,1092.102626436,-560.02039328724607,1117.9612670641268,-1117.9612670641268,560.02039328724607,2149.701478718328,0.0
613204.59901257406,4037374.0504322448,-27500.0,-24.589683866006411,88.349500741822723,1685.2393586524079,62.622028594832045,866.24855606033736,334.80201734227899,1103.4062596194767,-593.13676033594481,1021.1071471858817,-1021.1071471858817,593.13676033594481,2173.5962187215546,0.0
618204.59901257406,4037374.0504322448,-27500.0,-39.84275668036976,-83.439663659040733,1666.1199851698716,-16.501167535752497,858.91004955873802,332.51151144102852,1093.3796206149404,-584.38858892143696,875.76548456994544,-875.76548456994544,584.38858892143696,2156.0651398065656,0.0
623204.59901257406,4037374.0504322448,-27500.0,-25.405329082656227,-251.91057837110867,1581.5396379662579,-94.494409115334719,823.06512664325544,320.49896021986439,1062.6835998787351,-531.9530464737511,691.49886438253839,-691.49886438253839,531.9530464737511,2096.5556883477257,0.0
628204.59901257406,4037374.0504322448,-27500.0,17.019898180789873,-401.95399635439321,1435.4241334463029,-165.10535844053283,760.23450227456726,299.23501564077287,1014.3948720012877,-439.59984205589626,482.84337116961387,-482.84337116961387,439.59984205589626,1997.8915657112166,0.0
633204.59901257406,4037374.0504322448,-27500.0,81.417359818849945,-520.39669610132819,1238.3437099489408,-222.81062244594241,674.64347597721985,270.06905076964676,952.63918276374875,-316.36455438228938,267.22016821088926,-267.22016821088926,316.36455438228938,1866.1766452471775,0.0
638204.59901257406,4037374.0504322448,-27500.0,158.53512965699656,-598.14281507607791,1005.9839099094892,-263.65839404379881,572.64284156686097,235.05167744193488,881.20160249700473,-175.07089855503017,62.193916102306517,-62.193916102306517,175.07089855503017,1710.2080464291082,0.0
643204.59901257406,4037374.0504322448,-27500.0,237.67312291862834,-631.44113529905701,756.65861889733958,-285.78897263044598,461.75064111604115,196.63618961013037,804.16325254028618,-30.074480582493578,-117.2245559028969,117.2245559028969,30.074480582493578,1540.5025947742504,0.0
648204.59901257406,4037374.0504322448,-27500.0,308.67264834741309,-621.99724672857224,508.5080344973336,-289.52173728064179,349.55282371065834,157.33119581035888,726.03173465635177,105.15697291251887,-260.56346447214344,260.56346447214344,-105.15697291251887,1368.1204471836559,0.0
653204.59901257406,4037374.0504322448,-27500.0,363.56918006667848,-576.01897586794428,277.06697585189443,-277.03107113815577,242.72296701353298,119.38444186641965,651.12019865234197,220.0062069433194,-362.76165724368457,362.76165724368457,-220.0062069433194,1203.4790569716197,0.0
658204.59901257406,4037374.0504322448,-27500.0,397.54555828714723,-502.58337471600692,73.690870802269501,-251.74686090311172,146.35371771954382,84.559515145276109,582.94242874364511,307.81080080168334,-423.90396483856324,423.90396483856324,-307.81080080168334,1055.2904568109166,0.0
663204.59901257406,4037374.0504322448,-27500.0,409.09376578398843,-411.82747723690261,-94.998634835366261,-217.66298909812591,63.674900027665743,54.031518208776603,523.80577356618835,366.02661278824291,-448.11520262427484,448.11520262427484,-366.02661278824291,929.67456103616189,0.0
668204.59901257406,4037374.0504322448,-27500.0,399.5346173566885,-313.39207151858199,-226.78493638146071,-178.71788424818396,-3.8793778387446403,28.393662597291748,474.6345474241939,395.64023396196814,-442.05613559104216,442.05613559104216,-395.64023396196814,829.50474451652667,0.0
673204.59901257406,4037374.0504322448,-27500.0,372.17213274640807,-215.36356864537666,-322.95649597953684,-138.34825801497982,-56.363537939102066,7.7433836442992989,435.04984291944822,400.1589078853475,-413.43691415295962,413.43691415295962,-400.1589078853475,754.17699104936366,0.0
678204.59901257406,4037374.0504322448,-27500.0,331.36363842705219,-123.76284718663315,-387.17855103742426,-99.245530769695677,-94.901120101945551,-8.1909112321530326,403.69494671233309,384.50450832235458,-369.82505608525616,369.82505608525616,-384.50450832235458,700.0966516376385,0.0
683204.59901257406,4037374.0504322448,-27500.0,281.71050508592811,-42.490653035690592,-424.40843640367444,-63.290611025964935,-121.26026000591348,-19.916371428141908,378.71116978466267,354.04713597180591,-317.86171721626363,317.86171721626363,-354.04713597180591,661.92439484092426,0.0
688204.59901257406,4037374.0504322448,-27500.0,227.47299370382706,26.423454308744592,-440.01549786071706,-31.615111514620562,-137.49255763678335,-28.058368260440986,358.20320128749051,313.896796766156,-262.87132549036158,262.87132549036158,-313.896796766156,634.09673775460988,0.0
693204.59901257406,4037374.0504322448,-27500.0,172.22606261235342,82.421853838581399,-439.16325661006817,-4.7328688075326708,-145.66527224121538,-33.270401556646178,340.55878602741018,268.47293466321116,-208.77742024940085,208.77742024940085,-268.47293466321116,611.95567963509654,0.0
563204.59901257406,4042374.0504322448,-27500.0,556.66586249402633,460.57159495007522,248.91900909879783,291.48764097913892,222.42839538994136,116.80584997969257,559.58879945091962,290.08126704426769,417.28282395881178,-417.28282395881178,-290.08126704426769,1092.023951926263,0.0
568204.59901257406,4042374.0504322448,-27500.0,560.87146393569412,533.59481663849567,374.80501783348461,323.51141525267241,290.16035877971558,143.77273730150299,633.84328926684259,244.99040165333514,545.58013106167436,-545.58013106167436,-244.99040165333514,1245.6774406862633,0.0
573204.59901257406,4042374.0504322448,-27500.0,547.97689797844953,600.92871876976369,526.15508121913763,351.63208681258061,369.183834770918,174.6401869183446,715.19324686746063,179.16091658501574,686.4072207734996,-686.4072207734996,-179.16091658501574,1412.4025864948628,0.0
578204.59901257406,4042374.0504322448,-27500.0,515.49720396429655,655.92597824439781,702.36954854371197,372.8505813818669,458.87215576748969,209.10098882245887,803.17446154003653,91.487508671205319,834.52530598063856,-834.52530598063856,-91.487508671205319,1589.1875892574092,0.0
583204.59901257406,4042374.0504322448,-27500.0,462.37375354783467,690.70634413664243,900.15993390891947,383.72186379553904,557.3850832423185,246.42063120232476,895.91190104363955,-17.08026695884729,981.97080984909167,-981.97080984909167,17.08026695884729,1771.389664685254,0.0
588204.59901257406,4042374.0504322448,-27500.0,389.73059540812096,696.79411544293032,1112.7539819090555,380.64743588273052,661.35964898584461,285.33885728580276,989.33848665218363,-142.76283479680114,1117.995151250497,-1117.995151250497,142.76283479680114,1952.5807040005832,0.0
593204.59901257406,4042374.0504322448,-27500.0,301.53329087140526,666.20796178979992,1329.3563003921186,360.34604134194609,765.7214359335054,324.01463214264413,1078.4024022247106,-278.36912117480767,1229.5247768513186,-1229.5247768513186,278.36912117480767,2124.583162809849,0.0
598204.59901257406,4042374.0504322448,-27500.0,204.91471972359327,592.97730031929086,1535.1527621078424,320.48519960287456,863.73189147911842,360.05220297646565,1157.6757459132029,-413.17746750385788,1302.3208434734811,-1302.3208434734811,413.17746750385788,2277.7901511647697,0.0
603204.59901257406,4042374.0504322448,-27500.0,109.89682266283249,474.89515321803344,1712.1571775656612,260.3911513610667,947.38669691019709,390.64471658434007,1221.5568612330248,-533.56433399419757,1322.8983994551834,-1322.8983994551834,533.56433399419757,2401.8405317381939,0.0
608204.59901257406,4042374.0504322448,-27500.0,28.302190540424238,315.12219497451127,1841.0874221390895,181.68069076215346,1008.23084956796,412.85470925349557,1264.7373144879798,-624.56540923544912,1281.0361201238234,-1281.0361201238234,624.56540923544912,2486.6599607504363,0.0
613204.59901257406,4042374.0504322448,-27500.0,-28.154126943778298,123.10550097321392,1904.199913051631,88.604678541752776,1038.5525873548763,424.0169024949675,1282.9301214500299,-672.30995042760787,1172.4101553377518,-1172.4101553377518,672.30995042760787,2523.7844501141576,0.0
618204.59901257406,4042374.0504322448,-27500.0,-50.292640836487244,-85.722692261286653,1888.6361078332393,-12.101764337760395,1032.7700135287739,422.20119828747238,1273.7694364699091,-666.91466143374805,1000.6262442440411,-1000.6262442440411,666.91466143374805,2507.7658249365677,0.0
623204.59901257406,4042374.0504322448,-27500.0,-33.797765233072425,-291.75538123029139,1789.469831529766,-111.96874990079931,988.68495853336583,406.62968084537926,1237.7632851545068,-605.08425738863866,777.86352128837598,-777.86352128837598,605.08425738863866,2437.3617756682283,0.0
628204.59901257406,4042374.0504322448,-27500.0,19.326511203692778,-474.34151491031531,1611.5035580688168,-202.0632370924765,908.22827564987745,377.92666875049588,1178.6885309200225,-491.54300486354634,523.62097779121052,-523.62097779121052,491.54300486354634,2316.2018386646409,0.0
633204.59901257406,4042374.0504322448,-27500.0,100.78381687444144,-615.51178656098136,1369.0748613738649,-274.50072632293956,797.4022494895122,338.10607105132505,1102.0527127122673,-338.65564810181951,261.63157619495149,-261.63157619495149,338.65564810181951,2152.6861367061433,0.0
638204.59901257406,4042374.0504322448,-27500.0,197.62514295065628,-703.24977123990823,1083.7659641116111,-323.79056193979721,665.37619373347206,290.28157606355757,1013.357053502443,-164.18881358947289,15.700463257458296,-15.700463257458296,164.18881358947289,1959.1075176245572,0.0
643204.59901257406,4042374.0504322448,-27500.0,295.03138484350632,-733.33959507163433,780.57581836156737,-347.6342000365018,522.939871996134,238.16052925053043,918.46216125594435,12.17589807453345,-194.36949442051167,194.36949442051167,-12.17589807453345,1750.1168086368887,0.0
648204.59901257406,4042374.0504322448,-27500.0,379.35439719147683,-709.34453075673377,483.69194693163399,-346.99061399971225,380.7624785745893,185.46588872344759,823.57011080001257,172.50688931090082,-355.62749300998138,355.62749300998138,-172.50688931090082,1540.8976519302057,0.0
653204.59901257406,4042374.0504322448,-27500.0,440.51214551238155,-640.92400328091082,212.98071385382062,-325.46985825543698,247.89853262124615,135.42772696933304,734.35764823102045,303.43828187016049,-462.99079489627843,462.99079489627843,-303.43828187016049,1345.3380346861359,0.0
658204.59901257406,4042374.0504322448,-27500.0,473.18213412640421,-541.20557305105319,-18.051819238717499,-288.31712694930121,130.85684600929906,90.451056347011345,655.13417103297797,397.52966653964825,-518.48630149898577,518.48630149898577,-397.52966653964825,1174.4124619773049,0.0
663204.59901257406,4042374.0504322448,-27500.0,476.7372922378915,-424.0692457823597,-202.67543573958349,-241.31746289132596,33.320702065594674,51.995714227530854,588.31863809350057,453.1447723444798,-529.30678572473448,529.30678572473448,-453.1447723444798,1034.8765944447962,0.0
668204.59901257406,4042374.0504322448,-27500.0,454.26230183940959,-301.99952957848018,-340.07096522077592,-189.88648964580611,-43.593220090412728,20.637843758465927,534.31685702132233,473.26555841500021,-505.45221301822119,505.45221301822119,-473.26555841500021,928.45897502275591,0.0
673204.59901257406,4042374.0504322448,-27500.0,411.15028055792118,-184.80736642394368,-433.7577140818147,-138.48485684727524,-100.75082085223633,-3.7523732425439098,491.83202625731627,463.82702112260483,-457.59968843882518,457.59968843882518,-463.82702112260483,852.00164367942625,0.0
678204.59901257406,4042374.0504322448,-27500.0,353.72331495631903,-79.196008733954727,-489.86379510091905,-90.366556606997676,-140.31075948443336,-21.78777963298538,458.51848399295523,432.0831744821453,-395.56238791166345,395.56238791166345,-432.0831744821453,798.90373016643071,0.0
683204.59901257406,4042374.0504322448,-27500.0,288.15072199723403,11.048886359028897,-515.61771694365973,-47.589507567633177,-165.09019118977429,-34.35100420197476,431.73503962181144,385.31627956576028,-327.41898198959109,327.41898198959109,-385.31627956576028,761.41919391240162,0.0
688204.59901257406,4042374.0504322448,-27500.0,219.76182310556413,84.517418374814127,-518.23919297063992,-11.187986924247184,-178.07166584311977,-42.422310935500086,409.12965586025985,329.99915944368877,-259.21176473510013,259.21176473510013,-329.99915944368877,732.68513855538242,0.0
693204.59901257406,4042374.0504322448,-27500.0,152.72300460099402,141.51448057271651,-504.2498209817935,18.585274955335873,-182.07304966042201,-46.959069479818119,388.92815662744732,271.37693892854105,-195.0345950137646,195.0345950137646,-271.37693892854105,707.71999833626069,0.0
698204.59901257406,4042374.0504322448,-27500.0,89.987114370370278,183.43432627089985,-479.13458584208979,42.013138455798106,-179.56254002747903,-48.823401227677316,369.96803180441225,213.36496623571972,-137.33359759918633,137.33359759918633,-213.36496623571972,683.47324539022225,0.0
558204.59901257406,4047374.0504322448,-27500.0,603.37386414231889,379.36961336315943,80.335384850299931,282.46806397552496,153.76269113089074,100.29780791664882,523.37880379756382,387.73614844956631,250.24166221040394,-250.24166221040394,-387.73614844956631,1002.7881438423599,0.0
563204.59901257406,4047374.0504322448,-27500.0,635.38056935099075,466.8052521715004,182.27371914328566,325.49916031590635,216.34484367232426,127.81103104789692,599.07355269146751,370.07228011117502,372.09044825029162,-372.09044825029162,-370.07228011117502,1159.7134274341445,0.0
568204.59901257406,4047374.0504322448,-27500.0,652.42682194727638,557.14019071150642,313.11064790353697,368.34526206879531,293.1190825914087,160.67622406041568,684.35783134026337,331.4119867815578,514.90499838700975,-514.90499838700975,-331.4119867815578,1336.4512139814583,0.0
573204.59901257406,4047374.0504322448,-27500.0,649.84332932966424,644.72516493379158,475.70435550302932,408.13599390504947,385.0306675233266,199.13434024017454,779.16788498169069,267.79571973085535,676.53846665843628,-676.53846665843628,-267.79571973085535,1531.8157207891086,0.0
578204.59901257406,4047374.0504322448,-27500.0,623.49007683685409,721.74563693528808,670.97760832497522,441.08405103423314,492.02289192191199,243.03497154767544,883.11253938325444,176.4771590321555,851.94359471379403,-851.94359471379403,-176.4771590321555,1742.91230950985,0.0
583204.59901257406,4047374.0504322448,-27500.0,570.67755454833491,778.32951116738025,896.73752750015547,462.57775005191252,612.51895364556947,291.65377217599109,994.79394720349433,56.991550232181396,1032.4467134381985,-1032.4467134381985,-56.991550232181396,1964.6911406479574,0.0
588204.59901257406,4047374.0504322448,-27500.0,491.29077177758586,803.16301014441149,1146.408532208349,467.49747731554561,742.88868631076048,343.5102968922435,1110.1672479099809,-87.637292462572532,1205.3456298685878,-1205.3456298685878,87.637292462572532,2189.6019957423573,0.0
593204.59901257406,4047374.0504322448,-27500.0,388.91744142057331,784.78297434051365,1407.9587650060496,450.81713492992679,877.02493045298093,396.23038958279227,1222.8946259104271,-249.80546518203698,1354.1552342738005,-1354.1552342738005,249.80546518203698,2407.4729294018675,0.0
598204.59901257406,4047374.0504322448,-27500.0,271.64120299197845,713.60647337841601,1663.4542127166144,408.50452496244151,1006.2166667392388,446.51865169077041,1325.6894239819385,-416.75406146896376,1459.8481614152745,-1459.8481614152745,416.75406146896376,2605.7772825884986,0.0
603204.59901257406,4047374.0504322448,-27500.0,152.04714455760416,584.51893341013499,1889.7561210371043,338.63235228293576,1119.531133673737,490.31219378304985,1410.8255184246584,-571.00426361191558,1503.3106889663368,-1503.3106889663368,571.00426361191558,2770.4335683018603,0.0
608204.59901257406,4047374.0504322448,-27500.0,46.013163000121715,399.50641847582779,2060.793798298751,242.47685390676696,1204.8740236270366,523.1704937954006,1470.7456335782229,-692.22185773080787,1468.9151555081446,-1468.9151555081446,692.22185773080787,2887.216345256144,0.0
613204.59901257406,4047374.0504322448,-27500.0,-29.884878363305091,169.48583437390269,2151.4856613872776,125.25221271409555,1250.7394138939685,540.90013427128338,1499.0902226521694,-760.59580739385888,1348.6024456643474,-1348.6024456643474,760.59580739385888,2943.6995923804511,0.0
618204.59901257406,4047374.0504322448,-27500.0,-62.015879986494603,-85.629086387961763,2142.7598310047229,-3.9074105149699081,1248.4039967085862,540.32698742127548,1492.0301302912039,-761.22070681212176,1145.3439340550137,-1145.3439340550137,761.22070681212176,2931.4505596745112,0.0
623204.59901257406,4047374.0504322448,-27500.0,-43.436152299624474,-339.27722873314116,2026.4271874945814,-132.97331542819367,1194.0368146355599,520.03372379205189,1449.6642633302704,-688.31268283635461,874.60946794525273,-874.60946794525273,688.31268283635461,2847.9942894710612,0.0
628204.59901257406,4047374.0504322448,-27500.0,23.598698826723417,-562.87705199338188,1808.2659026963333,-248.99078887166621,1090.0423616631151,480.83189078970906,1376.6688722251663,-547.73568865495497,562.81445124124423,-562.81445124124423,547.73568865495497,2697.989650583349,0.0
633204.59901257406,4047374.0504322448,-27500.0,127.49546505880525,-731.59063325811394,1507.9639919061885,-340.52621638213355,945.07463161054466,425.77801416108821,1280.6012159649688,-356.6295666867145,242.71087658408157,-242.71087658408157,356.6295666867145,2493.1793388476226,0.0
638204.59901257406,4047374.0504322448,-27500.0,249.86586565558392,-829.41543798927171,1155.6005658489717,-399.86054045505688,772.58012011320534,359.68291395053217,1169.537483171503,-139.9484498847925,-53.063087256258576,53.063087256258576,139.9484498847925,2251.0098639640205,0.0
643204.59901257406,4047374.0504322448,-27500.0,369.94507241236084,-851.91951655246635,785.67292354141898,-424.23737605077207,588.26665219860581,288.24245372801431,1051.9569630800654,75.024981164395811,-298.23517224626266,298.23517224626266,-75.024981164395811,1992.2039610021582,0.0
648204.59901257406,4047374.0504322448,-27500.0,469.31543026957559,-805.87342231939999,430.59910181771056,-415.83595115903307,407.28224339254456,217.0501302636772,936.44506970732891,264.32229612001782,-477.01902200506942,477.01902200506942,-264.32229612001782,1737.8322588914541,0.0
653204.59901257406,4047374.0504322448,-27500.0,535.38330112101107,-706.27092170683682,115.64080160076496,-380.63186615685396,241.92112889046555,150.77029110255395,830.44128093503014,411.32840458295288,-585.15124274938489,585.15124274938489,-411.32840458295288,1506.4354291388465,0.0
658204.59901257406,4047374.0504322448,-27500.0,562.76919044553881,-572.07511637582968,-143.63095802449601,-326.6604959499453,100.35885871780363,92.651616105673966,739.05617509206263,508.32500035579073,-628.14569702425911,628.14569702425911,-508.32500035579073,1311.5133761769662,0.0
663204.59901257406,4047374.0504322448,-27500.0,552.70241012629356,-422.15968487918832,-341.28820175262319,-262.28075028620816,-13.512670523277331,44.419871611127213,664.44820143573656,555.70827997222648,-617.93040980910394,617.93040980910394,-555.70827997222648,1159.6328241260278,0.0
668204.59901257406,4047374.0504322448,-27500.0,511.14284508378648,-272.4217413768996,-479.18779459147044,-194.86316256424175,-99.430753732692224,6.4660786587712371,605.91971906547076,559.7505426301725,-569.19640253293187,569.19640253293187,-559.7505426301725,1049.7007886952938,0.0
673204.59901257406,4047374.0504322448,-27500.0,446.51541973969842,-134.3753453799772,-564.33051734718276,-130.0685404535721,-159.69875845256894,-21.80419365847898,560.7138067663692,529.92924409740158,-496.4256143907873,496.4256143907873,-529.92924409740158,974.25281456911091,0.0
678204.59901257406,4047374.0504322448,-27500.0,367.72812743136251,-15.003289618374012,-606.29074980148607,-71.661296430904542,-198.08114412461407,-41.587807108756586,525.19027713485821,476.58807620932834,-412.0083101817857,412.0083101817857,-476.58807620932834,922.69203950714245,0.0
683204.59901257406,4047374.0504322448,-27500.0,282.80236439230714,82.590001449455571,-615.20348146960089,-21.690709368611198,-218.88548128789094,-54.351910906539665,495.88369490598927,409.30038796649706,-325.41177253861429,325.41177253861429,-409.30038796649706,884.83238060756491,0.0
688204.59901257406,4047374.0504322448,-27500.0,198.1512767647757,158.17964092276068,-600.45426816146494,19.142725640886219,-226.32066723463618,-61.590691814443112,470.10697033539839,335.97445920640394,-243.12466873481279,243.12466873481279,-335.97445920640394,853.01242181211148,0.0
693204.59901257406,4047374.0504322448,-27500.0,118.37462194214734,213.40390383986244,-569.99808819510986,51.077809858143837,-224.12220603442213,-64.673871934142866,446.09192115470836,262.55284961049773,-169.05221578459822,169.05221578459822,-262.55284961049773,822.49677663266721,0.0
698204.59901257406,4047374.0504322448,-27500.0,46.386827121351814,250.91015733328749,-530.14028872561892,74.925826095839966,-215.38732351648292,-64.770838162727827,422.85208416021726,193.10029670719481,-105.09529572365042,105.09529572365042,-193.10029670719481,790.9099762235777,0.0
703204.59901257406,4047374.0504322448,-27500.0,-16.287151162639994,273.72591022451815,-485.60496247301074,91.783917391086973,-202.55096492706937,-62.82817503966897,399.95382376622035,130.09442821740259,-51.738544068502286,51.738544068502286,-130.09442821740259,757.43904566170409,0.0
553204.59901257406,4052374.0504322448,-27500.0,608.17504775198552,265.51411282797591,-71.321594271047275,253.87852252519147,80.981309768322504,78.952099777363216,480.64494891295607,451.37207870026123,73.431994627851708,-73.431994627851708,-451.37207870026123,898.1745162716569,0.0
558204.59901257406,4052374.0504322448,-27500.0,667.73630537762335,356.05085790233721,-1.2182541777072229,304.16251306965984,133.19687707049047,104.96802361173357,553.60949249240446,464.50400702195009,175.41647743670242,-175.41647743670242,-464.50400702195009,1048.2496368445377,0.0
563204.59901257406,4052374.0504322448,-27500.0,717.88301551602387,457.52738131036773,96.797168314943292,358.4273656247417,200.79631541419025,137.35738380465403,638.2761064348357,460.42574234091018,303.33108630076384,-303.33108630076384,-460.42574234091018,1223.3410436006636,0.0
568204.59901257406,4052374.0504322448,-27500.0,752.81958559653856,566.62254311474499,228.37530400384694,414.60690293991928,286.27368393978509,176.99391767397316,735.37975686255447,433.22273838382307,458.63728851617668,-458.63728851617668,-433.22273838382307,1424.5583045072565,0.0
573204.59901257406,4052374.0504322448,-27500.0,766.10949331556787,677.53002013346133,398.52842996431724,469.44696068101399,391.63925469387942,224.51917675941786,845.23649441475175,376.91917415206638,640.55872669950998,-640.55872669950998,-376.91917415206638,1651.6003188837724,0.0
578204.59901257406,4052374.0504322448,-27500.0,751.39531458000738,781.45404381819571,610.47008688026449,518.32159936068297,517.84467007216347,280.11914894403913,967.6819830023793,286.43956030718221,844.91061538038787,-844.91061538038787,-286.43956030718221,1902.1090554971811,0.0
583204.59901257406,4052374.0504322448,-27500.0,703.55766907128748,866.42339672184164,864.02792314346766,555.2138768774663,664.02888845271264,343.23905921446089,1101.6968985962853,159.01261629153987,1062.8723613114137,-1062.8723613114137,-159.01261629153987,2170.9582148014738,0.0
588204.59901257406,4052374.0504322448,-27500.0,620.29731091778297,917.72809447034342,1153.7423168478319,572.993853121239,826.65055330369046,412.26451579659431,1243.6584181937301,-4.0561501664952857,1280.0120796184956,-1280.0120796184956,4.0561501664952857,2449.5936640474233,0.0
593204.59901257406,4052374.0504322448,-27500.0,503.94448101157889,919.31446459374206,1466.9777890053801,564.13238484984572,998.66927818437046,484.23266786939087,1386.2071278566059,-195.52424004950365,1476.0462357706078,-1476.0462357706078,195.52424004950365,2725.6153652726844,0.0
598204.59901257406,4052374.0504322448,-27500.0,363.03981062331542,856.37248591881519,1782.6481916258788,521.93335277684082,1169.0527828599584,554.6760019529778,1519.7339097592321,-400.82124283275346,1625.9322955504381,-1625.9322955504381,400.82124283275346,2982.84797591192,0.0
603204.59901257406,4052374.0504322448,-27500.0,212.9805889040567,719.05175201096722,2071.4070968042961,442.23389837633891,1322.9909503110132,617.73731384846565,1633.5829832777849,-597.92968280362891,1702.8360802411444,-1702.8360802411444,597.92968280362891,3202.2024229287044,0.0
608204.59901257406,4052374.0504322448,-27500.0,74.911967220229201,506.679489055891,2298.1664761362608,325.27453500788067,1443.1788871693927,666.67988081551982,1716.9375087452722,-759.3838604887568,1683.0913928766204,-1683.0913928766204,759.3838604887568,3363.5216629630731,0.0
613204.59901257406,4052374.0504322448,-27500.0,-27.672826975546535,231.20696902811738,2427.3900054066262,177.17725135295072,1512.3377221939174,694.84506150988091,1760.2772149650709,-856.83171995398357,1552.4730653984482,-1552.4730653984482,856.83171995398357,3448.4170683167827,0.0
618204.59901257406,4052374.0504322448,-27500.0,-74.369314909274777,-81.817402423546994,2430.6062346803965,10.303171742590557,1516.6929682785365,696.94597771936424,1757.379806950019,-867.65138110937562,1312.0729519313772,-1312.0729519313772,867.65138110937562,3443.7156159828423,0.0
623204.59901257406,4052374.0504322448,-27500.0,-53.932589165898619,-396.14257837940801,2294.2625038130673,-158.08873072512026,1449.56515099851,670.38991250942036,1707.4571510128787,-781.84485678554984,981.38395958053729,-981.38395958053729,781.84485678554984,3344.7411088880349,0.0
628204.59901257406,4052374.0504322448,-27500.0,31.321833138274595,-671.69122069928346,2025.1065278860101,-308.91419784968207,1313.8397045980296,616.19024140413876,1616.3314918914703,-606.55354837366554,596.54816345580048,-596.54816345580048,606.55354837366554,3157.445537785783,0.0
633204.59901257406,4052374.0504322448,-27500.0,164.96751235336734,-873.63890688263291,1650.5073902067049,-425.30732630936689,1122.1812196378187,539.06388751958059,1494.6102347349511,-365.85627209523938,203.38194667994054,-203.38194667994054,365.85627209523938,2898.5009222964204,0.0
638204.59901257406,4052374.0504322448,-27500.0,320.48421188110319,-980.5204749125503,1212.9785740413622,-496.28812160612426,894.65435254954093,446.59010838910689,1354.3178375884186,-95.323008769456578,-152.81815977941437,152.81815977941437,95.323008769456578,2593.1228697597608,0.0
643204.59901257406,4052374.0504322448,-27500.0,468.4308633889255,-988.32091417455342,760.63616067890064,-518.74385347758221,654.46365960668629,347.67048325687517,1207.852193767272,166.81093095385435,-437.05943262949461,437.05943262949461,-166.81093095385435,2271.088311346658,0.0
648204.59901257406,4052374.0504322448,-27500.0,583.90569160244263,-909.3126355522603,337.07631383723412,-497.14276719361959,423.30421276471844,250.81066076859472,1067.164572648596,388.46387377317023,-630.61774708761266,630.61774708761266,-388.46387377317023,1961.9429074704535,0.0
653204.59901257406,4052374.0504322448,-27500.0,651.56928511646606,-766.73559547658124,-25.966804897839808,-441.37163437978597,217.81264279504859,162.75889689310591,941.88563354298299,549.46545947975039,-731.72946892407447,731.72946892407447,-549.46545947975039,1690.3278648870285,0.0
658204.59901257406,4052374.0504322448,-27500.0,667.01481227624879,-587.89010163793466,-311.51023492302551,-363.74671987999943,47.937353501594501,87.818210928049965,837.68763139607086,642.99579692863415,-751.9248057306221,751.9248057306221,-642.99579692863415,1472.0376701708105,0.0
663204.59901257406,4052374.0504322448,-27500.0,634.99050644903821,-398.13209110067095,-516.13995420168692,-276.2709560592034,-82.840076578093786,27.836691492795488,755.68617274435769,673.40330885114076,-710.28513839401762,710.28513839401762,-673.40330885114076,1311.4555600545589,0.0
668204.59901257406,4052374.0504322448,-27500.0,565.97868934232906,-217.17521134222525,-646.38246216592631,-188.80264819107489,-176.0709431360126,-17.329229336707748,693.14689193899449,652.16859923412119,-627.90107860640421,627.90107860640421,-652.16859923412119,1201.800856179349,0.0
673204.59901257406,4052374.0504322448,-27500.0,472.65027245118159,-57.834443089233382,-714.43108046104544,-108.27223333582435,-236.47203983059205,-49.152610008898158,645.19674302470366,593.75155732785709,-523.89599742428243,523.89599742428243,-593.75155732785709,1129.1492769927238,0.0
678204.59901257406,4052374.0504322448,-27500.0,367.14589753808582,73.445112221131964,-734.47609876678246,-38.723198812279875,-270.21088001344725,-69.794957867385435,606.70037317357082,512.39205886663842,-413.34679654351982,413.34679654351982,-512.39205886663842,1078.3633188334395,0.0
683204.59901257406,4052374.0504322448,-27500.0,259.48787274843284,175.14079911733754,-720.17427729358656,18.171747914478324,-283.63524374606919,-81.606819323107118,573.50690687200449,420.20062709380193,-306.76053483136093,306.76053483136093,-420.20062709380193,1037.4422143326649,0.0
688204.59901257406,4052374.0504322448,-27500.0,156.98467224824967,248.99122491205486,-683.25772189483757,62.428980717059083,-282.49746704313316,-86.802914475512353,542.8582020628877,326.38158851048792,-210.52213518324763,210.52213518324763,-326.38158851048792,998.84707669985744,0.0
693204.59901257406,4052374.0504322448,-27500.0,64.309221940820649,298.53926619395332,-633.01805469774138,95.108278540265033,-271.58902847648068,-87.291039202003162,513.23467744452194,237.23179285410779,-127.77981074461783,127.77981074461783,-237.23179285410779,958.81625360037117,0.0
698204.59901257406,4052374.0504322448,-27500.0,-16.067868666915622,328.04535592413714,-576.34372730734435,117.79862188688193,-254.65633469960346,-84.612362017153842,483.99378490731317,156.55820420780859,-59.403164072772142,59.403164072772142,-156.55820420780859,916.09165451414822,0.0
703204.59901257406,4052374.0504322448,-27500.0,-83.326927312978953,341.77799037621696,-518.04175978477576,132.25751965763834,-234.47910968804146,-79.950696123357616,455.0197990794469,86.248701713627696,-4.8191823729860488,4.8191823729860488,-86.248701713627696,870.8100708874972,0.0
553204.59901257406,4057374.0504322448,-27500.0,646.97733788948301,214.27011672819251,-155.77012224605656,260.11260212592089,49.341990213481409,77.175083379868269,504.0402869864177,512.47807228409636,-21.166891981969883,21.166891981969883,-512.47807228409636,927.19222576991911,0.0
558204.59901257406,4057374.0504322448,-27500.0,726.94527590109817,312.54440421549896,-97.053304284944758,320.20240303969439,102.0555109930726,106.47878016211136,583.06230719434359,543.87911483481423,77.294994601546733,-77.294994601546733,-543.87911483481423,1088.3820806453577,0.0
563204.59901257406,4057374.0504322448,-27500.0,799.86769758582886,426.97261828977037,-8.3980826823192523,387.24114099167355,172.96716382946721,143.95876226463676,676.44830623449161,558.72194052160967,206.60242204369075,-206.60242204369075,-558.72194052160967,1280.5851119786289,0.0
568204.59901257406,4057374.0504322448,-27500.0,858.70893263433493,555.13087419416274,117.93613384018275,459.33942223185562,265.87039782164004,191.07640849656556,785.65505256478127,549.402760085198,370.30729474568005,-370.30729474568005,-549.402760085198,1506.4739279063124,0.0
573204.59901257406,4057374.0504322448,-27500.0,895.0302353427121,691.62258447658053,289.68100464921241,533.05555686088462,384.30910328957452,249.11979175320474,911.69703524783517,507.52103651454644,569.81152303989631,-569.81152303989631,-507.52103651454644,1767.2569538423411,0.0
578204.59901257406,4057374.0504322448,-27500.0,899.67747069814902,827.14519221147145,513.24958010740431,602.99735942734446,530.86091096599762,318.90057622856671,1054.9778465618451,424.90140456751942,802.77549012224199,-802.77549012224199,-424.90140456751942,2061.7867977417245,0.0
583204.59901257406,4057374.0504322448,-27500.0,864.12026021383485,947.80465226024194,791.73245380267917,661.57860973936943,706.09717068949135,400.32879784757364,1214.998840516638,295.31021171792315,1061.2289069776102,-1061.2289069776102,-295.31021171792315,2385.4871743498347,0.0
588204.59901257406,4057374.0504322448,-27500.0,782.54362635511154,1035.1104213173419,1122.215453537141,699.13549841429131,907.25059115798786,491.88486745138528,1388.8268610621694,116.9017334430124,1329.7218343021968,-1329.7218343021968,-116.9017334430124,2729.2180290130318,0.0
593204.59901257406,4057374.0504322448,-27500.0,654.56786858769522,1067.2234348830748,1492.7270621547636,704.66125599781276,1126.7663645430489,590.06559324989996,1568.6146546306741,-104.84655503349541,1584.1658600552405,-1584.1658600552405,104.84655503349541,3078.3245297021431,0.0
598204.59901257406,4057374.0504322448,-27500.0,488.07765226969224,1022.0243438000573,1879.579768828364,667.39754844899107,1351.1269729139301,688.96302963760695,1742.1439580189785,-354.3945258731153,1792.33125917848,-1792.33125917848,354.3945258731153,3412.2708976908666,0.0
603204.59901257406,4057374.0504322448,-27500.0,301.1152622604568,882.22497534370859,2246.3892070973666,579.34268352860772,1560.5657681404471,780.21338477420863,1894.8221884145103,-604.81637218524884,1917.0682161898344,-1917.0682161898344,604.81637218524884,3705.3504210832248,0.0
608204.59901257406,4057374.0504322448,-27500.0,121.39913541126992,641.94481831286998,2546.3841302517044,438.36446365173907,1730.4129972615569,853.59397779342362,2011.1330352395184,-819.45268923624167,1922.9295588493953,-1922.9295588493953,819.45268923624167,3928.9765954845616,0.0
613204.59901257406,4057374.0504322448,-27500.0,-17.836575441530012,312.93734656695301,2729.2425939119698,251.05343067801601,1834.6003182797915,898.44871543445549,2076.7162235504502,-957.77226043165331,1785.6515486711064,-1785.6515486711064,957.77226043165331,4055.7443544327089,0.0
618204.59901257406,4057374.0504322448,-27500.0,-85.843082527218016,-72.442333805887145,2752.2243181567815,33.994398559764633,1851.1521794918815,905.85571669069543,2081.4118280116863,-985.25583284319657,1502.068991994207,-1502.068991994207,985.25583284319657,4064.8602378596438,0.0
623204.59901257406,4057374.0504322448,-27500.0,-64.265710480627902,-464.42204312142917,2592.923995608548,-187.8214246000118,1768.3725071556967,871.03462915875161,2022.6627843676306,-884.74722986728375,1096.3406105785659,-1096.3406105785659,884.74722986728375,3947.719792754333,0.0
628204.59901257406,4057374.0504322448,-27500.0,45.022230421819785,-806.03917388997286,2258.763640472469,-385.81118109359966,1589.4541116272112,795.13827486917035,1907.6966974337286,-664.62066485995467,618.3883005093561,-618.3883005093561,664.62066485995467,3711.8059663169392,0.0
633204.59901257406,4057374.0504322448,-27500.0,218.40348103395104,-1047.7223628279769,1788.2946221582542,-534.6327470619749,1333.2348604913316,685.57971350628168,1751.7174232199129,-359.18717586970888,133.2391276916963,-133.2391276916963,359.18717586970888,3381.2134729348431,0.0
638204.59901257406,4057374.0504322448,-27500.0,416.9905082657047,-1160.5026732953065,1242.4931999194739,-618.4828299754995,1030.2179486251946,554.55221552366947,1572.9262471585077,-19.947292562265062,-295.45216358842765,295.45216358842765,19.947292562265062,2993.1137331765544,0.0
643204.59901257406,4057374.0504322448,-27500.0,598.55530696729295,-1142.20260637927,689.17539601432532,-634.29933125835237,715.21248498517002,416.22276934945302,1389.7012921190785,298.94340138102427,-621.02513495631035,621.02513495631035,-298.94340138102427,2591.0334132556659,0.0
648204.59901257406,4057374.0504322448,-27500.0,729.50309883371926,-1014.5008923436923,186.98182982057125,-590.80982878145142,419.50891660376021,283.6690017564818,1218.7265192785535,554.6665379854187,-822.40418778476101,822.40418778476101,-554.6665379854187,2216.7523600338332,0.0
653204.59901257406,4057374.0504322448,-27500.0,792.02726257899894,-813.36556610313403,-225.12864658768765,-504.39000747879993,165.39443912033019,166.62692958257654,1072.1422555072816,723.80166598979554,-903.52400126999487,903.52400126999487,-723.80166598979554,1902.5210927972946,0.0
658204.59901257406,4057374.0504322448,-27500.0,784.80146495734607,-577.81153335964325,-530.55418370822088,-393.87673532334264,-35.729142424431444,70.581176534790515,955.3706186428999,802.85164005148954,-885.9739947487451,885.9739947487451,-802.85164005148954,1664.831006166992,0.0
663204.59901257406,4057374.0504322448,-27500.0,718.82281134492325,-341.22551933359898,-731.39519614874064,-276.29710892907809,-182.11597418258967,-2.9219479630463123,867.00800580119903,803.26276086765927,-799.35139455142291,799.35139455142291,-803.26276086765927,1501.7270213269076,0.0
668204.59901257406,4057374.0504322448,-27500.0,611.4194049011079,-127.03964718088035,-841.8015609215455,-164.46399891243368,-278.76846143929623,-55.24078986870974,800.95823253343906,744.42429749061046,-673.10308619264003,673.10308619264003,-744.42429749061046,1396.4886038346956,0.0
673204.59901257406,4057374.0504322448,-27500.0,480.92467383418972,51.729291398062323,-881.3375035524283,-66.371739746470752,-334.27130682494959,-89.422692691565246,749.63075360354708,647.47025076722605,-531.56962618089608,531.56962618089608,-647.47025076722605,1326.8560641708018,0.0
678204.59901257406,4057374.0504322448,-27500.0,343.20765364407168,190.60692029454125,-870.02797533950547,14.213842572009479,-358.24162144648636,-109.16695311762625,706.48678026572327,531.19988632793411,-392.13592528962545,392.13592528962545,-531.19988632793411,1273.7176915908672,0.0
683204.59901257406,4057374.0504322448,-27500.0,210.11698743425276,290.96367093615174,-825.46691566469485,76.641061346966566,-359.68631052462524,-118.11216674648679,667.10128134586989,410.16884621622887,-265.50764412787737,265.50764412787737,-410.16884621622887,1224.7381049097976,0.0
688204.59901257406,4057374.0504322448,-27500.0,89.319926376563799,357.48066904742393,-761.62260223848682,122.21660264149929,-346.17885422017628,-119.44117930180765,629.06192260356227,294.36762244021486,-157.0360343312592,157.0360343312592,-294.36762244021486,1173.7751320191012,0.0
693204.59901257406,4057374.0504322448,-27500.0,-15.086604279206318,396.21918170103385,-688.74598361114533,153.25716290099015,-323.6174097085152,-115.7264524403252,591.39158659613315,189.79328859794592,-68.305636654968879,68.305636654968879,-189.79328859794592,1118.8231487307303,0.0
698204.59901257406,4057374.0504322448,-27500.0,-101.68186655749416,413.36194616617382,-613.84997052353606,172.42157026267989,-296.32195503502459,-108.92638440196197,553.95566038391348,99.369349767662811,1.4476079783126252,-1.4476079783126252,-99.369349767662811,1060.1274598783687,0.0
703204.59901257406,4057374.0504322448,-27500.0,-170.84130941846939,414.51284898384887,-541.39176448425417,182.2992628252612,-267.28664701622949,-100.45935397963385,517.02483456300649,23.879581583441094,54.251984652581768,-54.251984652581768,-23.879581583441094,998.91418532058674,0.0
708204.59901257406,4057374.0504322448,-27500.0,-224.00917428843877,404.39037294143952,-473.94947768254212,185.19356580661187,-238.47219359746029,-91.306377533609648,481.00513734294856,-37.243586302861104,92.657700149914433,-92.657700149914433,37.243586302861104,936.66409016180637,0.0
548204.59901257406,4062374.0504322448,-27500.0,570.64517673179091,60.026861402738959,-267.33933088049258,197.54941308604225,-26.661836685830625,47.069296516272892,458.46663255020133,505.98522844283991,-194.56216974748409,194.56216974748409,-505.98522844283991,817.08066056508926,0.0
553204.59901257406,4062374.0504322448,-27500.0,670.99432531528294,141.73382906358972,-247.36955607423988,256.68261139027317,7.862544136131115,71.039965445179817,527.91757887990411,566.77558138683844,-134.38036517143314,134.38036517143314,-566.77558138683844,954.18542257542811,0.0
558204.59901257406,4062374.0504322448,-27500.0,774.16983498360605,244.23091170849452,-205.23712328609184,326.69925908108098,58.450478784380323,103.16747435964902,611.94842925045464,620.53939503120148,-45.618178271590068,45.618178271590068,-620.53939503120148,1123.2500098482824,0.0
563204.59901257406,4062374.0504322448,-27500.0,874.48638746068173,368.71372084026137,-132.54210259065951,407.53205212144144,129.8945466644324,145.54470665365608,713.1213075677897,660.16053162691583,78.316233598356916,-78.316233598356916,-660.16053162691583,1329.7035901735005,0.0
568204.59901257406,4062374.0504322448,-27500.0,963.90024314447328,514.33860496651323,-19.332848435008383,497.84671118244887,227.61526047683387,200.46156685907326,833.91277597442115,676.42229321643106,243.6406525745989,-243.6406525745989,-676.42229321643106,1578.4677761987916,0.0
573204.59901257406,4062374.0504322448,-27500.0,1031.9437260231596,676.95929993762945,145.3041209525706,594.39996945434177,357.23798875660918,270.19191338127683,976.44606542697682,658.25758331820032,454.87003435408985,-454.87003435408985,-658.25758331820032,1873.1281005929702,0.0
578204.59901257406,4062374.0504322448,-27500.0,1066.2045058810052,847.64121407935068,371.92569627263163,691.32614215600381,523.77500015869293,356.61127730806118,1142.2041835038608,593.66372985971873,712.81297147534167,-712.81297147534167,-593.66372985971873,2214.7670788921305,0.0
583204.59901257406,4062374.0504322448,-27500.0,1053.6779120581959,1011.2243205023509,668.40061604472385,779.50448983075296,730.28370143542531,460.5978578315524,1331.6786958584744,471.5984600097554,1011.8966502578473,-1011.8966502578473,-471.5984600097554,2600.4289545774704,0.0
588204.59901257406,4062374.0504322448,-27500.0,983.30779903371069,1145.48636586322,1036.3829693390746,846.29756847497276,975.94368270594873,581.20579319414992,1543.0355206723154,285.10736394879177,1337.1073546949924,-1337.1073546949924,-285.10736394879177,3021.3107438725483,0.0
593204.59901257406,4062374.0504322448,-27500.0,849.80151898495069,1221.776685987473,1466.7439205645396,876.08971858735492,1253.6785521759336,714.67928555252365,1768.6972616381422,35.625657121204881,1661.3131084834245,-1661.3131084834245,-35.625657121204881,3460.9511283611046,0.0
598204.59901257406,4062374.0504322448,-27500.0,658.26838595222171,1208.2050530186568,1934.7758104763132,852.13357340112543,1547.7918146367642,853.51937473369117,1993.9131668973723,-262.23783334189204,1944.3639091733376,-1944.3639091733376,262.23783334189204,3893.970538178392,0.0
603204.59901257406,4062374.0504322448,-27500.0,428.32867608714923,1076.2582517604485,2396.9565159093081,760.06894844347664,1832.5605029247306,986.0005277908308,2199.0401282578341,-577.10314173530992,2135.8889682065083,-2135.8889682065083,577.10314173530992,4286.2091661988406,0.0
608204.59901257406,4062374.0504322448,-27500.0,195.33014747476452,810.66018564409171,2791.9949740138491,592.9331354733896,2073.1445347952808,1096.6800175066035,2361.869983201118,-861.05242229910345,2183.5545345027786,-2183.5545345027786,861.05242229910345,4597.2383026466568,0.0
613204.59901257406,4062374.0504322448,-27500.0,5.9362055147643504,420.22242538842727,3048.9833225918355,356.49257976167127,2230.1570577193147,1168.4132982312099,2460.6286453242546,-1056.4852418860992,2047.0141625986421,-2047.0141625986421,1056.4852418860992,4786.0045159968076,0.0
618204.59901257406,4062374.0504322448,-27500.0,-93.314508109827216,-55.099913888017717,3103.5437696452145,72.561467110955718,2268.2091567595744,1185.9494818773544,2478.6402882456414,-1110.5500043980585,1714.4587576322426,-1714.4587576322426,1110.5500043980585,4819.3376480370862,0.0
623204.59901257406,4062374.0504322448,-27500.0,-72.204221534988363,-546.73393096770087,2918.5740235553535,-222.41454358843839,2166.651546164353,1140.3637096756372,2409.9204392454267,-993.87515817707003,1214.8737616975775,-1214.8737616975775,993.87515817707003,4681.5434568793044,0.0
628204.59901257406,4062374.0504322448,-27500.0,68.998971598738578,-972.60172583257236,2501.2513287175666,-484.88194373425785,1928.366934204824,1032.6708654951406,2263.3098705280413,-715.54968210580512,617.82318772519159,-617.82318772519159,715.54968210580512,4381.7362723624574,0.0
633204.59901257406,4062374.0504322448,-27500.0,295.81318464660239,-1260.9828253405196,1906.6110269288417,-675.98472433029917,1581.854047453965,874.74389976538123,2061.0243625875796,-325.19542751041899,17.023108472692826,-17.023108472692826,325.19542751041899,3955.3983234560965,0.0
638204.59901257406,4062374.0504322448,-27500.0,550.1967242731962,-1372.6299060233202,1223.4711599484708,-772.71893615927843,1174.4400585354847,686.65791688653871,1831.1547500649192,101.37394349304995,-496.93369423743491,496.93369423743491,-101.37394349304995,3458.5538716752162,0.0
643204.59901257406,4062374.0504322448,-27500.0,770.92099506984914,-1310.2045243075202,548.33152133804572,-773.19717197192699,759.1748993592231,491.40181380191621,1601.3821392778982,486.71116022987439,-862.06265322698641,862.06265322698641,-486.71116022987439,2955.9952451402269,0.0
648204.59901257406,4062374.0504322448,-27500.0,913.09416371010161,-1111.4610475144736,-40.324559818905954,-694.06991978467852,381.38269124545008,309.27676249228455,1394.9503079216151,774.25033391850002,-1057.1416464401416,1057.1416464401416,-774.25033391850002,2507.0912055798726,0.0
653204.59901257406,4062374.0504322448,-27500.0,957.98576842465843,-831.87298962612363,-496.68696470023502,-562.47923589214179,70.263181003287912,154.1686297676988,1226.295666579751,939.11878781667519,-1097.6706369202402,1097.6706369202402,-939.11878781667519,2152.4175495765217,0.0
658204.59901257406,4062374.0504322448,-27500.0,911.38560775331439,-526.43643177281456,-808.45400847582698,-407.04417487318858,-162.658211840007,32.548267744705889,1098.5908893703609,985.77410671037217,-1021.5565855614217,1021.5565855614217,-985.77410671037217,1904.3576383654911,0.0
663204.59901257406,4062374.0504322448,-27500.0,794.81968899037747,-237.67414685846862,-988.1840202725175,-251.39675584115241,-319.96568405675322,-55.352331368801003,1005.4116595936855,937.66861416094559,-873.26348089480018,873.26348089480018,-937.66861416094559,1747.0652332851496,0.0
668204.59901257406,4062374.0504322448,-27500.0,635.48754868489618,8.4775314195130527,-1061.7302241513275,-111.40866014242035,-412.7661979736834,-113.36364086408781,935.75648078159372,825.60985667823911,-692.4067624794659,692.4067624794659,-825.60985667823911,1648.92140542175,0.0
673204.59901257406,4062374.0504322448,-27500.0,458.73431075454505,201.04157259740816,-1058.4847339638272,4.6434221495399903,-455.54776977377213,-147.2255572207761,879.14159531967766,679.05181070498259,-508.35398415598905,508.35398415598905,-679.05181070498259,1579.131494432391,0.0
678204.59901257406,4062374.0504322448,-27500.0,284.15217188583404,339.76028019687971,-1005.2492854645642,94.361736391784916,-462.62106880906987,-162.99063452077417,828.24066411452804,521.48973610897031,-339.53440972046786,339.53440972046786,-521.48973610897031,1516.9128310866195,0.0
683204.59901257406,4062374.0504322448,-27500.0,124.63037184808059,430.62157870211166,-923.46747005328848,159.13825831744188,-446.22574750702074,-166.08938828565098,779.0869392680122,369.17977022962327,-195.30017943479743,195.30017943479743,-369.17977022962327,1451.8802819321904,0.0
688204.59901257406,4062374.0504322448,-27500.0,-12.865202909062095,482.32788617921148,-828.73090344858736,202.35527032848901,-415.87879891415815,-160.92983122945361,730.14624389342987,231.82553678710181,-78.59244025205723,78.59244025205723,-231.82553678710181,1380.7201691773321,0.0
693204.59901257406,4062374.0504322448,-27500.0,-125.82491984973208,503.98765102679948,-731.47904191645478,228.10594531925895,-378.45950846224565,-150.84075959956854,681.27853210561443,114.07742108373085,11.586391149914583,-11.586391149914583,-114.07742108373085,1303.8765984641027,0.0
698204.59901257406,4062374.0504322448,-27500.0,-214.68909876839012,503.85173351477806,-638.1284074459428,240.41414488572465,-338.6326143724678,-138.19333185229502,632.97624241189612,17.123091717154619,78.286486573810933,-78.286486573810933,-17.123091717154619,1223.338260245406,0.0
703204.59901257406,4062374.0504322448,-27500.0,-281.60394705971999,488.78035536957867,-552.20457971445501,242.83480781740531,-299.36139790395328,-124.58915172165827,585.91130616926512,-59.971940215329539,125.34823205247667,-125.34823205247667,59.971940215329539,1141.4216267517627,0.0
708204.59901257406,4062374.0504322448,-27500.0,-329.51987360748211,464.14940654615305,-475.29056819177436,238.30416365777708,-262.38281081138587,-111.05152577302758,540.70817162615299,-119.2726571909092,156.64892565004837,-156.64892565004837,119.2726571909092,1060.2021757583789,0.0
713204.59901257406,4062374.0504322448,-27500.0,-361.60110290178983,433.98253758966479,-407.74447036858703,229.13412812415712,-228.59468508671708,-98.190618352616255,497.85595926612217,-163.30789279003062,175.70956863384788,-175.70956863384788,163.30789279003062,981.30800744536862,0.0
543204.59901257406,4067374.0504322448,-27500.0,445.65839392574628,-86.789661685137887,-330.34249658059059,123.40003360458583,-88.04401914077981,17.477348251600791,424.05634536369723,446.67462072130803,-326.88252663333918,326.88252663333918,-446.67462072130803,738.09403610017625,0.0
548204.59901257406,4067374.0504322448,-27500.0,552.97866539898723,-30.932653699457159,-342.42063230840358,175.05753821165396,-72.083922912519128,34.641881442434141,482.50487003417356,525.44397781500857,-306.45554577577053,306.45554577577053,-525.44397781500857,846.57469822982853,0.0
553204.59901257406,4067374.0504322448,-27500.0,672.11152822625377,45.711710402941932,-341.91849906740208,239.5783568377777,-44.023730182780021,59.006907308411847,553.88505947551005,607.04045302198449,-264.28630845607938,264.28630845607938,-607.04045302198449,983.22123248919559,0.0
558204.59901257406,4067374.0504322448,-27500.0,800.13243318110551,147.04311843453314,-321.7238452592261,318.62946056163565,0.93263109536743527,92.946340543946306,641.37920962270005,686.60360548331414,-192.79521747101927,192.79521747101927,-686.60360548331414,1155.3156996670884,0.0
563204.59901257406,4067374.0504322448,-27500.0,931.68444984068094,276.30228829953421,-272.37528141628496,413.24313699777917,68.847461557899564,139.3686812135976,748.57930533796252,756.74029134344983,-83.215524534259714,83.215524534259714,-756.74029134344983,1370.7979630422612,0.0
568204.59901257406,4067374.0504322448,-27500.0,1058.2776220018388,435.00392135149599,-181.87562859177268,523.17982917990525,167.0386847522112,201.67166494105606,879.29839581411568,807.02946426985159,73.773441858956915,-73.773441858956915,-807.02946426985159,1637.6732246910747,0.0
573204.59901257406,4067374.0504322448,-27500.0,1167.7699557511617,621.35352551382994,-35.948860155126063,646.03405713678058,303.77458708774077,283.54988683250025,1037.266869675432,823.85107345531742,286.72268338233101,-286.72268338233101,-823.85107345531742,1963.0561385029764,0.0
578204.59901257406,4067374.0504322448,-27500.0,1244.3737819743872,828.13687119331541,180.87517627594329,776.1025022050618,487.46193992430864,388.56211091815214,1225.739834069997,790.92280566881846,561.11921046625616,-561.11921046625616,-790.92280566881846,2351.7191848583007,0.0
583204.59901257406,4067374.0504322448,-27500.0,1269.7047468317257,1040.2847820598718,482.84742495171366,903.1564282213626,725.06911214756724,519.35149002925868,1447.0266877829238,691.07875629300736,895.91774589796876,-895.91774589796876,-691.07875629300736,2804.0294288610603,0.0
588204.59901257406,4067374.0504322448,-27500.0,1225.4964290306878,1232.7036134224013,878.75262024634162,1011.4659087654102,1019.5475040225876,676.43125825243487,1701.2313940368961,509.87291230959244,1278.9850347171609,-1278.9850347171609,-509.87291230959244,3313.248356281108,0.0
593204.59901257406,4067374.0504322448,-27500.0,1098.4978580408263,1369.5421432982457,1365.6052234266037,1079.7173118670928,1366.2044451871329,856.5462575071507,1982.1938713943018,241.3716988990775,1682.1817284977167,-1682.1817284977167,-241.3716988990775,3862.4297018595912,0.0
598204.59901257406,4067374.0504322448,-27500.0,887.46914417821301,1406.6824904085963,1920.8759618127494,1082.7474222291803,1748.4484007284643,1050.8341574886324,2273.3308399368193,-104.26595022199228,2057.8519778499613,-2057.8519778499613,104.26595022199228,4421.5725163472634,0.0
603204.59901257406,4067374.0504322448,-27500.0,610.85039004916075,1299.4775560719529,2495.3876405680894,996.0730630715401,2134.171370228064,1243.3744616600861,2548.9595538119693,-493.35156561278552,2339.7662281464886,-2339.7662281464886,493.35156561278552,4946.3142727285112,0.0
608204.59901257406,4067374.0504322448,-27500.0,311.64187069266097,1016.7492231688007,3011.0723338577041,803.59073574275976,2475.0721583660902,1411.1263455120595,2777.5825285407818,-865.41792261064734,2452.2411519955176,-2452.2411519955176,865.41792261064734,5379.9969124751906,0.0
613204.59901257406,4067374.0504322448,-27500.0,54.297258137873769,558.91908450932192,3369.1756292005271,507.1757378339525,2711.8429770919479,1526.4636817265716,2926.1179579422223,-1139.7040430192944,2329.7169011750048,-2329.7169011750048,1139.7040430192944,5660.9866870501755,0.0
618204.59901257406,4067374.0504322448,-27500.0,-90.724705480576134,-26.965202360086941,3472.7562014953733,134.37086514707761,2787.0673539161339,1562.9990264037683,2967.0451783211702,-1235.3105534462247,1943.8833364805332,-1943.8833364805332,1235.3105534462247,5735.8318204257057,0.0
623204.59901257406,4067374.0504322448,-27500.0,-73.259675206758715,-646.51457382476076,3260.2579697768083,-261.49873385598045,2663.913235267748,1503.8018371306721,2887.8210187480395,-1101.9568827091528,1327.3622595484733,-1327.3622595484733,1101.9568827091528,5575.9025946965621,0.0
628204.59901257406,4067374.0504322448,-27500.0,110.58021960845527,-1179.8458051087105,2736.3311576348906,-612.86576248620224,2343.2364352481618,1348.8737441244443,2698.8229762007272,-747.79806506298087,577.7905278600565,-577.7905278600565,747.79806506298087,5191.5008554617207,0.0
633204.59901257406,4067374.0504322448,-27500.0,409.63645169224367,-1521.3929938621898,1980.6537169186925,-858.81244407785368,1868.9520297279091,1117.6300546061132,2433.1585274682652,-245.72297117333494,-167.57158942707485,167.57158942707485,245.72297117333494,4636.0124516074147,0.0
638204.59901257406,4067374.0504322448,-27500.0,735.62030822452789,-1617.9877775722423,1124.6655739853172,-965.50674664883502,1316.1488474686905,843.9963003757963,2135.1396716158233,290.69619323610152,-778.19055324733256,778.19055324733256,-290.69619323610152,3995.9911101614471,0.0
643204.59901257406,4067374.0504322448,-27500.0,998.93848729910712,-1483.3068473753513,306.72787821612536,-935.01165231291634,766.98104564621997,566.06569551464202,1847.1895255951815,749.86367034387581,-1172.7689513330761,1172.7689513330761,-749.86367034387581,3369.7200174159934,0.0
648204.59901257406,4067374.0504322448,-27500.0,1140.9589704308469,-1182.5418974080512,-369.60386502253391,-798.75325609113304,287.04646169511386,315.56237224654103,1601.2657866977622,1058.7984960467661,-1335.6708824053189,1335.6708824053189,-1058.7984960467661,2841.2478810656839,0.0
653204.59901257406,4067374.0504322448,-27500.0,1146.3931422175274,-800.59750492381534,-854.85199740777023,-601.65935248230937,-87.092304539206253,111.75744881618243,1412.3278071612401,1196.2494006617842,-1304.375508718432,1304.375508718432,-1196.2494006617842,2456.9289177183223,0.0
658204.59901257406,4067374.0504322448,-27500.0,1035.442614480773,-413.11775781124891,-1148.6369408605558,-386.58301313906821,-347.29012450484515,-38.989673991345093,1277.0634416154699,1182.9432698811788,-1142.2922416046385,1142.2922416046385,-1182.9432698811788,2213.6241928242143,0.0
663204.59901257406,4067374.0504322448,-27500.0,846.44515420329014,-71.305383443364178,-1281.5521667623277,-185.09545231298983,-505.19785969499264,-139.93912039514862,1180.4090013759092,1061.4874650606987,-913.66030298838064,913.66030298838064,-1061.4874650606987,2070.2686845600292,0.0
668204.59901257406,4067374.0504322448,-27500.0,619.86424291485105,199.72035602972485,-1296.1855088091493,-15.249866938519965,-582.05464509428964,-199.60056722349458,1105.3462835194034,878.04233210587347,-668.98849413690857,668.98849413690857,-878.04233210587347,1977.2099147320985,0.0
673204.59901257406,4067374.0504322448,-27500.0,388.68981313010835,394.91332483568084,-1233.9037713505761,116.227128001293,-600.8322426212543,-228.09940858489145,1039.3185865968126,671.26526805952028,-440.87497105393334,440.87497105393334,-671.26526805952028,1898.3768434793287,0.0
678204.59901257406,4067374.0504322448,-27500.0,175.14241369477688,521.35948012297001,-1128.3447558001042,210.17571918400202,-581.75993627960111,-234.9043490548552,975.5241294195605,468.31398382247266,-246.1546171651523,246.1546171651523,-468.31398382247266,1815.4968868792178,0.0
683204.59901257406,4067374.0504322448,-27500.0,-8.614037428523087,591.62513765722019,-1003.7835807112486,271.49333318085269,-540.60228366784781,-227.77915078654266,911.45540033044222,285.3456999229677,-90.403980509724335,90.403980509724335,-285.3456999229677,1722.854784581735,0.0
688204.59901257406,4067374.0504322448,-27500.0,-158.05259715463421,619.36647519818575,-876.09672943500357,306.59231713577628,-488.60497606749595,-212.54786589602909,847.00509858411203,129.97176430031357,27.622757257340716,-27.622757257340716,-129.97176430031357,1621.2564907357337,0.0
693204.59901257406,4067374.0504322448,-27500.0,-273.63319089093159,616.96561540778237,-754.67514395193291,321.86419085789669,-433.21237482396589,-193.28739853038559,783.08367332904413,4.0422216746925201,112.60442695481828,-112.60442695481828,-4.0422216746925201,1514.0194096478208,0.0
698204.59901257406,4067374.0504322448,-27500.0,-358.61039168493369,594.57241224599579,-644.37150921482873,322.91544539352998,-378.99451076822305,-172.68109244442772,720.83230043271044,-94.006431387508997,170.43995792367537,-170.43995792367537,94.006431387508997,1404.8641277187712,0.0
703204.59901257406,4067374.0504322448,-27500.0,-417.47833730596233,559.96200909921163,-547.10073568444216,314.29769643586127,-328.50234296748505,-152.38419834323221,661.255173636422,-167.45433086223835,206.9842053824396,-206.9842053824396,167.45433086223835,1296.997245804914,0.0
708204.59901257406,4067374.0504322448,-27500.0,-454.98989687671894,518.78968138480627,-463.01480721600819,299.51255261416799,-282.9510833829134,-133.33668887104486,605.09748783960583,-220.19938897831912,227.43272452863829,-227.43272452863829,220.19938897831912,1192.8293584490571,0.0
713204.59901257406,4067374.0504322448,-27500.0,-475.60707913203083,474.98719858996077,-391.30031244832855,281.14357960657537,-242.72054853684173,-116.00465905985079,552.84870879835944,-256.11463558535854,236.10115028471071,-236.10115028471071,256.11463558535854,1093.9872310423002,0.0
543204.59901257406,4072374.0504322448,-27500.0,386.73166218132258,-182.91895281892062,-381.46017539806206,85.017391299341327,-131.28830533382776,0.74337896708659579,453.26720298030023,428.05185454849044,-422.76717771685202,422.76717771685202,-428.05185454849044,785.08876138895403,0.0
548204.59901257406,4072374.0504322448,-27500.0,504.68211415375316,-139.57646760878214,-411.55756006295627,136.86944605187674,-124.2872753786549,16.144156475020555,512.47329337777558,521.7169971810323,-424.16635932889517,424.16635932889517,-521.7169971810323,889.68146248914138,0.0
553204.59901257406,4072374.0504322448,-27500.0,640.61386783237538,-74.318037626010934,-433.34887161603274,204.18012277868112,-106.00951449200024,39.344315886414613,584.75030633411586,624.10775234597224,-406.32133057985686,406.32133057985686,-624.10775234597224,1022.0235202371857,0.0
558204.59901257406,4072374.0504322448,-27500.0,793.01698373887893,18.463785416542706,-439.89166736793783,289.87037764434223,-71.020153401972806,73.337410012501351,673.90845384926172,731.32892212603042,-360.61405154527876,360.61405154527876,-731.32892212603042,1191.1893579659607,0.0
563204.59901257406,4072374.0504322448,-27500.0,957.72177438159599,144.4052530753095,-421.29224885562326,396.53189347086914,-12.058624669417165,121.98236083207038,784.59620904770679,836.52783008484994,-276.31557097784304,276.31557097784304,-836.52783008484994,1407.9599294159354,0.0
568204.59901257406,4072374.0504322448,-27500.0,1126.7710329695078,308.11760646555229,-364.09112900986878,525.70602129462782,80.201144547102587,190.06569079264662,922.20047532684703,928.93902905034565,-140.89926900500251,140.89926900500251,-928.93902905034565,1684.2787310856613,0.0
573204.59901257406,4072374.0504322448,-27500.0,1287.2729490423981,511.40511903716572,-250.97644687882246,676.75090042569809,217.11633907267449,283.20438801627773,1092.5769026944238,993.08273215775625,58.883830392727475,-58.883830392727475,-993.08273215775625,2032.2048289779607,0.0
578204.59901257406,4072374.0504322448,-27500.0,1420.6140353463354,750.57652066290041,-61.30213083788712,845.22852888910529,411.4695856664934,407.44444151708001,1301.6116903568065,1008.5713454947648,334.69609844580157,-334.69609844580157,-1008.5713454947648,2462.1954730113257,0.0
583204.59901257406,4072374.0504322448,-27500.0,1502.7089911111918,1012.8610676235382,226.8597682641693,1020.8682733199963,675.86177637343576,568.35484379399168,1554.6400333715046,951.2680231712759,692.56047320523294,-692.56047320523294,-951.2680231712759,2980.4798343478465,0.0
588204.59901257406,4072374.0504322448,-27500.0,1506.3025194362392,1272.399335136528,632.18708742407603,1185.4403521358811,1019.580863588695,769.391082878828,1855.1919727626646,796.82701433571344,1126.7435796998768,-1126.7435796998768,-796.82701433571344,3585.3051051287675,0.0
593204.59901257406,4072374.0504322448,-27500.0,1406.5066591131263,1487.1279087924768,1162.2111534814553,1311.3491322292546,1443.514407278738,1009.3695257475622,2200.4601922956535,527.68237311424878,1611.9389607136598,-1611.9389607136598,-527.68237311424878,4262.058047839866,0.0
598204.59901257406,4072374.0504322448,-27500.0,1190.3650692974311,1599.106608276644,1801.9211673613893,1362.4117463819343,1933.1857618627375,1279.1660983691986,2573.8119297710041,143.91284962447276,2095.5802249587568,-2095.5802249587568,-143.91284962447276,4977.86343490329,0.0
603204.59901257406,4072374.0504322448,-27500.0,869.60807008208576,1542.0224933256777,2500.7935625908235,1298.8475053394782,2451.2492476538159,1558.3474462711365,2943.1882031817568,-323.57642326850782,2494.4797233553795,-2494.4797233553795,323.57642326850782,5677.3276829193255,0.0
608204.59901257406,4072374.0504322448,-27500.0,492.3389268216855,1259.4289379098932,3163.8505575195022,1088.2511699552774,2932.8860211056785,1813.3764941387126,3264.7321293018654,-802.86461607751448,2702.4687478344813,-2702.4687478344813,802.86461607751448,6282.4966562341524,0.0
613204.59901257406,4072374.0504322448,-27500.0,144.88411834942431,733.45451342976469,3656.5737983905842,722.08937345224081,3289.8006404312046,1999.9607672093132,3488.3498856477281,-1183.5714677380722,2615.7649014728104,-2615.7649014728104,1183.5714677380722,6701.1410057900121,0.0
618204.59901257406,4072374.0504322448,-27500.0,-66.772428284691955,14.501470139854462,3833.948683094924,232.25956863859281,3428.483409331986,2071.9685716859371,3568.409681577742,-1342.6734140942785,2175.9855492778615,-2175.9855492778615,1342.6734140942785,6846.3980272209265,0.0
623204.59901257406,4072374.0504322448,-27500.0,-58.802108059224793,-768.57237278646301,3593.8666983517965,-303.49311243250759,3282.5015802359389,1996.6505161435421,3479.8298934837694,-1194.1258494707536,1415.0312219365487,-1415.0312219365487,1194.1258494707536,6665.7236496465321,0.0
628204.59901257406,4072374.0504322448,-27500.0,182.28840646842824,-1438.4450646337566,2933.4143900762047,-778.41036224223797,2846.3864909155241,1770.5297149618946,3233.6186051309614,-740.98364994485974,470.56637958757233,-470.56637958757233,740.98364994485974,6168.6823191583117,0.0
633204.59901257406,4072374.0504322448,-27500.0,579.3220836904311,-1836.9048557579886,1969.5651297843522,-1094.5670905217698,2189.1354794542467,1426.0729840921949,2880.1219862238731,-92.035702388677066,-452.98570597275062,452.98570597275062,92.035702388677066,5437.499921837627,0.0
638204.59901257406,4072374.0504322448,-27500.0,995.26439840082048,-1892.494844219694,899.92787960857936,-1201.8173754413842,1432.8781869199561,1022.399440931386,2490.9933033412699,579.47085485771572,-1165.447310933647,1165.447310933647,-579.47085485771572,4609.7220346162503,0.0
643204.59901257406,4072374.0504322448,-27500.0,1298.273671314595,-1642.4485413473897,-76.433175077498376,-1112.7406028466396,706.81373472385087,624.09075558638165,2132.3552740643809,1112.1964895559065,-1563.3859406130166,1563.3859406130166,-1112.1964895559065,3837.1579580179878,0.0
648204.59901257406,4072374.0504322448,-27500.0,1415.4823823861357,-1198.5517924891667,-827.11009620713094,-886.42209804834681,104.89600017055831,280.76133283556476,1846.4998287617641,1416.6164462289562,-1649.8333693251247,1649.8333693251247,-1416.6164462289562,3236.0341642866347,0.0
653204.59901257406,4072374.0504322448,-27500.0,1345.2612298382303,-688.72076879265705,-1308.2557971763833,-596.75807349135243,-331.31098671547522,17.581736592528632,1643.2261696076432,1486.8368623925398,-1501.9590697078456,1501.9590697078456,-1486.8368623925398,2846.3196771237003,0.0
658204.59901257406,4072374.0504322448,-27500.0,1134.6052217803881,-212.59381890556455,-1544.9048160276909,-306.12388893565856,-604.86442663618038,-162.50417005907403,1504.9838745732641,1373.7916659712441,-1220.9259953973165,1220.9259953973165,-1373.7916659712441,2626.9670738353389,0.0
663204.59901257406,4072374.0504322448,-27500.0,846.86946880809171,174.11590135151712,-1596.0943001321173,-53.901042967087108,-744.50773807817643,-270.59929628274762,1404.1735721158866,1148.4709918007331,-894.59552434794352,894.59552434794352,-1148.4709918007331,2499.8826044542448,0.0
668204.59901257406,4072374.0504322448,-27500.0,538.39607831203011,453.84181246865109,-1526.1112397995239,142.64581927405729,-787.14667408775574,-323.5214593522374,1318.4462128846515,875.4574706620275,-582.2071038122657,582.2071038122657,-875.4574706620275,2400.7118871781877,0.0
673204.59901257406,4072374.0504322448,-27500.0,248.49617599171717,633.31588244150828,-1388.8807066569912,281.8486160520128,-766.95781310455175,-338.11833998330445,1235.5457661061737,601.37195521817898,-315.03781912312843,315.03781912312843,-601.37195521817898,2295.8367555026643,0.0
678204.59901257406,4072374.0504322448,-27500.0,-0.97997790510420879,730.66913933679791,-1223.1428675114337,370.61066217965453,-710.79112724771812,-328.46147457021408,1151.1533440929095,353.94814517134557,-103.91604654568867,103.91604654568867,-353.94814517134557,2174.8681728223378,0.0
683204.59901257406,4072374.0504322448,-27500.0,-201.67989771852751,766.74807193047241,-1053.5909841292148,419.15384319726411,-637.55316991480061,-305.05796302327462,1065.2843414481722,146.02198706849265,52.569837807262459,-52.569837807262459,-146.02198706849265,2039.2573126617497,0.0
688204.59901257406,4072374.0504322448,-27500.0,-353.94773793752671,760.51389400937285,-894.19295630674583,437.87120889241578,-559.43091396882289,-275.12986258603013,979.65414349657817,-19.447166598712428,161.75834332127147,-161.75834332127147,19.447166598712428,1894.6991085428283,0.0
693204.59901257406,4072374.0504322448,-27500.0,-462.8322802761632,727.25648100863532,-751.64104006348418,435.80857230370685,-483.61905970971083,-243.29643163841573,896.2511707900178,-145.13052119817101,232.90640016502741,-232.90640016502741,145.13052119817101,1747.3310653885262,0.0
698204.59901257406,4072374.0504322448,-27500.0,-535.32605764152368,678.38154985445135,-628.12627136718663,420.16484394362681,-413.9101492443865,-212.29669817227403,816.72870938299627,-236.34291750204059,275.01459884653855,-275.01459884653855,236.34291750204059,1602.2240620758641,0.0
703204.59901257406,4072374.0504322448,-27500.0,-578.69841373796089,621.91075397014481,-523.29739609288947,396.33062005652357,-351.93234301016491,-183.59981056233778,742.23944671024606,-299.1933131222284,295.85625253278118,-295.85625253278118,299.1933131222284,1463.0123975433505,0.0
708204.59901257406,4072374.0504322448,-27500.0,-599.61913165367037,563.19941635880843,-435.52859039254679,368.15609271720865,-298.02446995085518,-157.86401764825888,673.46817913083521,-339.56811802813706,301.69623155166869,-301.69623155166869,339.56811802813706,1332.0055098845733,0.0
713204.59901257406,4072374.0504322448,-27500.0,-603.78814764724098,505.63249043932063,-362.68449416866605,338.27880110281347,-251.81556418352372,-135.25808190514203,610.71696347186685,-362.65527539981906,297.35664226310598,-297.35664226310598,362.65527539981906,1210.4588413884683,0.0
718204.59901257406,4072374.0504322448,-27500.0,-595.85612515580283,451.20522054769702,-302.55032134168528,308.42990193337391,-212.58896517909599,-115.67466276914092,553.94272425165229,-372.78652833539866,286.42568181514673,-286.42568181514673,372.78652833539866,1098.8585861178942,0.0
538204.59901257406,4077374.0504322448,-27500.0,193.20069829181676,-298.01768283389805,-373.08354583483936,-3.4566206900765728,-167.33409230497975,-27.975136411395432,440.3741183844628,291.65816453783145,-478.59944937087005,478.59944937087005,-291.65816453783145,771.25207454904614,0.0
543204.59901257406,4077374.0504322448,-27500.0,294.26757665292473,-288.1420136354854,-420.31759447989367,31.219954371443251,-177.12181230208492,-21.4518048377391,491.32286997315651,381.29416373593369,-513.59702356291825,513.59702356291825,-381.29416373593369,854.88024441873722,0.0
548204.59901257406,4077374.0504322448,-27500.0,417.76193160637087,-262.84347535364242,-468.44882829885853,79.613373510115494,-181.48811851074453,-9.5663739514913537,551.73942219050991,486.54707888356643,-540.41986731911993,540.41986731911993,-486.54707888356643,956.22424468319514,0.0
553204.59901257406,4077374.0504322448,-27500.0,565.74435584153764,-216.22147710114302,-513.81037235565464,145.57491328913474,-176.49218371347919,10.259274418960272,624.60829574371382,607.23443307737602,-552.63344303488839,552.63344303488839,-607.23443307737602,1082.4072066999054,0.0
558204.59901257406,4077374.0504322448,-27500.0,738.85832615009917,-141.12860798654259,-550.35805907803797,233.48554133439765,-156.3772611800199,41.608110886095297,714.01173165898399,741.2296008614386,-541.24383002855791,541.24383002855791,-741.2296008614386,1243.3785577852007,0.0
563204.59901257406,4077374.0504322448,-27500.0,935.19080812296625,-29.472770019608408,-568.70185635714142,347.92547888313305,-112.98630914510498,89.340243037695217,825.36894423448302,883.31933920610493,-494.21045788669937,494.21045788669937,-883.31933920610493,1452.2905810831439,0.0
568204.59901257406,4077374.0504322448,-27500.0,1148.7251225714615,126.93208438969305,-555.00458000716844,492.96965314060742,-35.165139922510306,159.84084164795985,965.57371401590967,1023.7593111061038,-396.25607527814384,396.25607527814384,-1023.7593111061038,1725.368876146877,0.0
573204.59901257406,4077374.0504322448,-27500.0,1367.46077930607,334.6228629162984,-489.97364084220283,670.91137772378067,91.6645070536361,261.13600714705063,1142.9314345706869,1146.685864791599,-229.38711711188967,229.38711711188967,-1146.685864791599,2081.0050869640181,0.0
578204.59901257406,4077374.0504322448,-27500.0,1571.5206649484539,595.45013352031242,-348.44326220499954,880.20260498124651,285.40361655283255,402.67982172151892,1366.8337454166083,1228.819567737452,25.223736676778458,-25.223736676778458,-1228.819567737452,2537.8408692796952,0.0
583204.59901257406,4077374.0504322448,-27500.0,1731.9949575035637,901.92991498045114,-100.45731592362763,1112.4813448538073,566.03471770492433,594.49512591778557,1647.1876832015298,1239.3446099176213,383.10751874059991,-383.10751874059991,-1239.3446099176213,3111.5648629473844,0.0
588204.59901257406,4077374.0504322448,-27500.0,1811.8804016318438,1231.0823861015099,284.73503457166231,1348.8415194178424,952.33949431012115,845.2241750116666,1993.2262575007762,1142.4337725541552,849.18660358141415,-849.18660358141415,-1142.4337725541552,3809.991607532369,0.0
593204.59901257406,4077374.0504322448,-27500.0,1771.1460131241456,1537.8759166967495,829.96869991534822,1556.1489658504099,1455.4947387965758,1158.5985778032273,2408.7318436947257,904.43527897240301,1406.8315717918053,-1406.8315717918053,-904.43527897240301,4626.0019419842365,0.0
598204.59901257406,4077374.0504322448,-27500.0,1578.1911692815088,1751.2953363693623,1535.2285405486502,1685.3442371665412,2068.7648622991428,1528.0479784393528,2880.7333987951156,507.66211847610941,2004.4822534988566,-2004.4822534988566,-507.66211847610941,5528.4565358726713,0.0
603204.59901257406,4077374.0504322448,-27500.0,1228.6786128489966,1778.7470152916367,2357.0435894615052,1675.1973540779945,2753.9593977043969,1929.9418056300256,3372.1519263284267,-29.128428867090861,2544.5420320468183,-2544.5420320468183,29.128428867090861,6452.6936399493798,0.0
608204.59901257406,4077374.0504322448,-27500.0,768.17817945110107,1526.6470172895467,3188.1181344123747,1466.0406502910355,3428.8125796135905,2317.6711226146749,3823.9024450358233,-628.80242356630788,2884.701207777046,-2884.701207777046,628.80242356630788,7295.0259706805218,0.0
613204.59901257406,4077374.0504322448,-27500.0,306.07905523816567,942.43771777202562,3852.1250065941354,1026.1869401729443,3965.0062623367576,2621.3619193176091,4161.0223614007273,-1147.1530673975776,2866.2869278184426,-2866.2869278184426,1147.1530673975776,7919.11905761663,0.0
618204.59901257406,4077374.0504322448,-27500.0,-1.0179635497184605,69.347864997681683,4135.8505813766551,385.43199839079688,4210.707594827355,2759.848680365641,4307.7336036188399,-1400.2949711496992,2378.6980535652388,-2378.6980535652388,1400.2949711496992,8183.2145157166651,0.0
623204.59901257406,4077374.0504322448,-27500.0,-12.705450321722452,-920.3235465613518,3870.9772870560814,-344.70969881313505,4044.942461609035,2668.358569229154,4214.9208646530051,-1241.5892259622092,1442.1551190616306,-1442.1551190616306,1241.5892259622092,7990.0458699946585,0.0
628204.59901257406,4077374.0504322448,-27500.0,305.5580295316858,-1761.6345102679809,3036.7261418994199,-992.50464050970425,3445.6255241090962,2333.1843537928444,3891.1131852081458,-659.4639479756006,250.79420988387346,-250.79420988387346,659.4639479756006,7342.6854755606437,0.0
633204.59901257406,4077374.0504322448,-27500.0,835.33704493265816,-2213.1836328489007,1807.1330344843236,-1396.0245408387118,2523.4321715680971,1809.9974644601725,3414.5868384900918,181.0876647514641,-885.85957999567006,885.85957999567006,-181.0876647514641,6371.1465215726985,0.0
638204.59901257406,4077374.0504322448,-27500.0,1359.4052102343753,-2181.2101057114146,483.44455338485056,-1480.7739772180014,1482.4656045952524,1205.7144217427929,2904.4101267581691,1011.0193525774625,-1688.6480214484732,1688.6480214484732,-1011.0193525774625,5300.9924489468358,0.0
643204.59901257406,4077374.0504322448,-27500.0,1684.0285824669486,-1751.7534784239979,-649.40158170908512,-1285.184835873257,528.52422285420153,632.58567836510292,2464.923455155099,1598.2756034960858,-2034.8338979771875,2034.8338979771875,-1598.2756034960858,4369.8963855394732,0.0
648204.59901257406,4077374.0504322448,-27500.0,1728.3540436215367,-1114.5545100979839,-1433.0362042350985,-920.1643837592195,-207.76613840647011,167.3211685141064,2146.6493461804889,1844.8419435281378,-1973.773866774837,1973.773866774837,-1844.8419435281378,3727.2618476063903,0.0
653204.59901257406,4077374.0504322448,-27500.0,1525.9067059557658,-456.47259438196033,-1850.4041974512938,-505.23888732459261,-689.67803007942064,-161.727839582272,1940.0403655917562,1784.4145020734206,-1650.4024657178168,1650.4024657178168,-1784.4145020734206,3371.5685967032246,0.0
658204.59901257406,4077374.0504322448,-27500.0,1169.5757858699867,101.15214102062326,-1973.2483924261446,-126.43218421079804,-947.09291578514274,-363.28892591076703,1801.8857206860316,1519.2097933253274,-1216.8575065735447,1216.8575065735447,-1519.2097933253274,3190.4700741375532,0.0
663204.59901257406,4077374.0504322448,-27500.0,756.1194449533217,509.36984240881827,-1900.7298350186545,173.30006702186006,-1038.1015887468848,-464.36004573155697,1690.8538850701702,1157.8296832368947,-783.54454760309522,783.54454760309522,-1157.8296832368947,3067.1199197383626,0.0
668204.59901257406,4077374.0504322448,-27500.0,356.93363575967186,769.42273136306278,-1721.0663978013304,384.22044597078627,-1021.607179105072,-495.47326569916015,1583.5042824503473,782.5358312280282,-410.57277691964919,410.57277691964919,-782.5358312280282,2936.5513536140857,0.0
673204.59901257406,4077374.0504322448,-27500.0,12.485046741428492,907.11436736116639,-1497.7193757732377,515.42987023947296,-944.72114768247286,-482.92989587266482,1471.889631750877,442.51134652550093,-119.54586614742701,119.54586614742701,-442.51134652550093,2778.6764738436864,0.0
678204.59901257406,4077374.0504322448,-27500.0,-261.44092588114808,954.85638228625191,-1269.9946298059331,583.51884661633983,-840.19679046624026,-446.31690894665809,1356.3403289050391,160.08429511660825,90.765205299426782,-90.765205299426782,-160.08429511660825,2596.0410533935037,0.0
683204.59901257406,4077374.0504322448,-27500.0,-464.74445379026133,942.30834959317599,-1058.9658920048178,605.82258956266742,-728.51622355307666,-398.83164474013779,1240.1512650922525,-59.907155153523178,232.17173767607201,-232.17173767607201,59.907155153523178,2398.6905159635717,0.0
688204.59901257406,4077374.0504322448,-27500.0,-605.46799880157278,892.92633380155621,-873.79862122911811,597.28983585078709,-621.23459446849995,-348.64829012819501,1126.8744894779172,-222.15105243780857,319.54126357807326,-319.54126357807326,222.15105243780857,2197.0173642667432,0.0
693204.59901257406,4077374.0504322448,-27500.0,-694.74383542237933,823.66532708230272,-716.69444082218581,569.53988378687018,-524.04184408453716,-300.40197034985584,1019.293173549058,-335.44753326716091,366.96562129376957,-366.96562129376957,335.44753326716091,1999.2257731777991,0.0
698204.59901257406,4077374.0504322448,-27500.0,-743.89676525775474,745.980667868571,-586.2104209634773,530.99916353438039,-439.06365639456942,-256.41615427834745,919.21090368280636,-409.53344735989515,386.22690178653681,-386.22690178653681,409.53344735989515,1810.8853587185811,0.0
703204.59901257406,4077374.0504322448,-27500.0,-763.03940095359769,667.15645521469298,-479.28863401086335,487.45965943640601,-366.42436382646366,-217.60030583915722,827.57127327958949,-453.46762719615327,386.49015348520055,-386.49015348520055,453.46762719615327,1635.2962886935625,0.0
708204.59901257406,4077374.0504322448,-27500.0,-760.563255804032,591.52018107671165,-392.3951106104393,442.71185973100114,-305.23117827826718,-184.05445227317236,744.64183200941068,-474.96765347580242,374.55044371616771,-374.55044371616771,474.96765347580242,1474.0508707239649,0.0
713204.59901257406,4077374.0504322448,-27500.0,-743.10795484704306,521.40656710509074,-322.10431735848493,399.10654919976503,-254.15926215757898,-155.45378183768207,670.17098335960156,-480.26615281633406,355.26859955910413,-355.26859955910413,480.26615281633406,1327.5617780489456,0.0
718204.59901257406,4077374.0504322448,-27500.0,-715.75077068717724,457.86397212374641,-265.36009021713812,358.0002804393236,-211.77874113913987,-131.28132554222037,603.55876590794844,-474.21824872797117,332.01892245370823,-332.01892245370823,474.21824872797117,1195.4824403292919,0.0
538204.59901257406,4082374.0504322448,-27500.0,68.392208739850219,-386.62536186622702,-383.40878307182675,-65.934451882582806,-202.50170900419283,-51.177679078424305,485.8867741933488,210.13278359157684,-534.9140644788971,534.9140644788971,-210.13278359157684,865.38990863447316,0.0
543204.59901257406,4082374.0504322448,-27500.0,163.53140114588902,-396.83571323768058,-441.96960195069829,-39.699927369046812,-222.91242750616166,-49.611847967964501,540.46916832171962,300.80143809870793,-591.34191191040509,591.34191191040509,-300.80143809870793,953.53915067187825,0.0
548204.59901257406,4082374.0504322448,-27500.0,284.92933513046574,-394.77564262523487,-506.28321453572391,0.39221648575735701,-240.64899512739854,-43.4279454752985,603.7859507182676,411.79619146356526,-645.45743989762855,645.45743989762855,-411.79619146356526,1056.0847993347118,0.0
553204.59901257406,4082374.0504322448,-27500.0,436.8280339286141,-374.18559482563938,-574.18886258744726,59.125456968361824,-252.15927714437956,-29.880688534525927,678.40376234036012,545.02179956584757,-691.73850436198643,691.73850436198643,-545.02179956584757,1178.7309840513308,0.0
558204.59901257406,4082374.0504322448,-27500.0,622.68136067412615,-326.88928305686289,-641.33161831059817,142.37450673369341,-251.8608779258104,-4.9511530640950845,768.07651229485941,700.9113556041317,-721.77364412560507,721.77364412560507,-700.9113556041317,1330.4130020671137,0.0
563204.59901257406,4082374.0504322448,-27500.0,843.95394124727761,-242.73388803566061,-699.9784449144895,256.9692208762259,-231.28831320195098,37.113084857619654,878.246639744297,877.137223191359,-723.3550791048317,723.3550791048317,-877.137223191359,1524.5829810238656,0.0
568204.59901257406,4082374.0504322448,-27500.0,1098.2782296147811,-110.01873572915926,-737.46909361421228,410.16571421279446,-178.06008332166766,104.31982465028827,1016.5964866166424,1066.7643068617981,-679.65253646580538,679.65253646580538,-1066.7643068617981,1780.2812558768364,0.0
573204.59901257406,4082374.0504322448,-27500.0,1376.8836959484372,83.137177545914724,-734.41829349016427,608.42923564343494,-74.802663436578399,207.41695749950438,1193.5121808903568,1255.8570246009515,-568.8787537228302,568.8787537228302,-1255.8570246009515,2122.317408418392,0.0
578204.59901257406,4082374.0504322448,-27500.0,1661.4356049163096,345.84922160810072,-663.07968375467476,855.13217284494738,101.61209097524015,360.11537166087049,1422.2794379331895,1420.8300904184225,-365.20977178554153,365.20977178554153,-1420.8300904184225,2579.8120283360581,0.0
583204.59901257406,4082374.0504322448,-27500.0,1920.9105206173203,679.191807445064,-486.81847780942104,1146.73467740455,379.77976724711061,578.62062996760108,1718.9083644380482,1526.3837670562934,-42.192538792639652,42.192538792639652,-1526.3837670562934,3182.5515857895716,0.0
588204.59901257406,4082374.0504322448,-27500.0,2110.0159224416188,1068.0484955905276,-162.46349170211863,1467.2006116484199,791.133752917896,879.76213316978226,2101.3403921156396,1525.7744591592082,419.68677906613527,-419.68677906613527,-1525.7744591592082,3954.7255504919822,0.0
593204.59901257406,4082374.0504322448,-27500.0,2171.9228091286573,1470.4778405986367,351.70079003522972,1781.0596519455278,1363.0323862149071,1276.7051952539503,2584.9657396805032,1366.3612734956444,1019.5866744141251,-1019.5866744141251,-1366.3612734956444,4905.3170652243307,0.0
598204.59901257406,4082374.0504322448,-27500.0,2049.4420998813293,1807.2990178378814,1078.8725118915304,2027.0747802092542,2105.25549219708,1771.1185756782686,3167.3950362239589,1004.4160424274852,1716.6093613039507,-1716.6093613039507,-1004.4160424274852,6014.2933696847758,0.0
603204.59901257406,4082374.0504322448,-27500.0,1709.0042430837225,1958.9844043717803,1995.2538810501117,2117.3014699236373,2988.5355814906497,2341.2562424914177,3811.4999265251263,432.64234112490362,2407.4462912571371,-2407.4462912571371,-432.64234112490362,7215.018401840839,0.0
608204.59901257406,4082374.0504322448,-27500.0,1177.8546788476795,1783.1071149303559,2993.5796230684446,1950.1989321432973,3918.063714198749,2927.7210798520323,4442.0818602794161,-281.49109691289686,2913.7970943091809,-2913.7970943091809,281.49109691289686,8377.5607309872175,0.0
613204.59901257406,4082374.0504322448,-27500.0,581.28735517370762,1168.7167719099041,3856.884448395765,1448.2475663336556,4715.4946346837987,3424.1596438648871,4949.8001053489561,-963.75211386520368,3004.9984747451863,-3004.9984747451863,963.75211386520368,9305.7500304862242,0.0
618204.59901257406,4082374.0504322448,-27500.0,142.2929525599906,129.18428899066438,4282.4304789365442,620.87389911191269,5138.0232269073458,3688.0787086731402,5209.5571260971801,-1348.7907975285227,2485.6014918624232,-2485.6014918624232,1348.7907975285227,9769.2201159698579,0.0
623204.59901257406,4082374.0504322448,-27500.0,94.523064963643407,-1114.6190777300521,3998.0857961391948,-378.41626525960413,4964.6240293464971,3588.4822796659691,5126.2386094298026,-1190.0779060976777,1341.1873493632095,-1341.1873493632095,1190.0779060976777,9586.7545576445737,0.0
628204.59901257406,4082374.0504322448,-27500.0,517.06676241341438,-2165.014601376226,2946.0914832830708,-1269.0041146715737,4132.8702903575231,3083.0618157019403,4697.3746617365887,-441.20865999629757,-156.17556980594125,156.17556980594125,441.20865999629757,8739.9345422300867,0.0
633204.59901257406,4082374.0504322448,-27500.0,1225.0278640009799,-2648.014360922662,1388.320091055549,-1774.5915359531596,2824.1494858102092,2270.0322536485,4047.7086870554813,643.77530536920654,-1531.0847973704419,1531.0847973704419,-643.77530536920654,7440.3618132269348,0.0
638204.59901257406,4082374.0504322448,-27500.0,1866.8494507243868,-2447.9012142134693,-212.36775941729755,-1785.739393884498,1389.243075339393,1351.7210691727084,3380.9145449641028,1640.6097771428588,-2374.3567972975188,2374.3567972975188,-1640.6097771428588,6070.4763601768809,0.0
643204.59901257406,4082374.0504322448,-27500.0,2162.4405738772211,-1749.5030108851929,-1457.4488940140775,-1402.5035469513166,157.64888143021676,528.20879564225356,2861.2492720779383,2223.0913915576052,-2564.3069928295258,2564.3069928295258,-2223.0913915576052,5001.6462614811235,0.0
648204.59901257406,4082374.0504322448,-27500.0,2047.5386603555603,-868.25396254695022,-2184.4047291505008,-831.93728971113273,-701.71982792946676,-86.565100789430687,2531.9187952441116,2313.9468113641638,-2250.9336819307359,2250.9336819307359,-2313.9468113641638,4387.1999446137515,0.0
653204.59901257406,4082374.0504322448,-27500.0,1631.7296024503646,-61.370520606680145,-2443.7648329417316,-260.25415843586063,-1183.9026290376837,-473.98217269280616,2335.1091285771936,2031.2631369862618,-1685.5731282643253,1685.5731282643253,-2031.2631369862618,4108.6776898690932,0.0
658204.59901257406,4082374.0504322448,-27500.0,1078.4705548528002,544.57809513445818,-2381.6663614864538,205.91876114610008,-1373.214367557616,-672.79306371696134,2191.9735083236133,1554.7590019590948,-1077.7368096659779,1077.7368096659779,-1554.7590019590948,3956.503059036012,0.0
663204.59901257406,4082374.0504322448,-27500.0,520.88862621353519,929.49520003881833,-2144.6006068301094,533.10615960613188,-1372.6226672202324,-739.26569428643086,2054.4258428124699,1033.5212687798792,-547.27683080236181,547.27683080236181,-1033.5212687798792,3798.7713095547356,0.0
668204.59901257406,4082374.0504322448,-27500.0,36.572583540883024,1128.5114069963156,-1839.368695196931,731.28891690858359,-1267.4886741590926,-724.36656822493899,1906.5885854883866,557.96780373690342,-138.70336950042937,138.70336950042937,-557.96780373690342,3593.7798976932954,0.0
673204.59901257406,4082374.0504322448,-27500.0,-343.8345197771805,1192.9502859401275,-1530.0178380131254,827.96839703241164,-1116.4146872940344,-665.96399645512463,1749.4986054195356,168.22614977391919,148.00161534392436,-148.00161534392436,-168.22614977391919,3345.7174220641023,0.0
678204.59901257406,4082374.0504322448,-27500.0,-619.07812718180048,1170.2574181611276,-1248.6705813625276,852.91579981837924,-954.74561814154572,-588.96052228870906,1589.6239617362362,-127.69266017827138,332.447563284647,-332.447563284647,127.69266017827138,3072.7473847306196,0.0
683204.59901257406,4082374.0504322448,-27500.0,-802.39940262448749,1097.0716246889765,-1007.5789036591038,831.47479788927296,-801.36853458987912,-508.2109858091776,1433.4695001299533,-338.30761801819426,439.12736047858493,-439.12736047858493,338.30761801819426,2792.9072553820665,0.0
688204.59901257406,4082374.0504322448,-27500.0,-911.96581632305845,998.87250602044196,-808.17141081364923,782.76688516477316,-664.82984216985687,-431.70872578682832,1285.8014941978279,-478.53705818856088,490.50650744297934,-490.50650744297934,478.53705818856088,2519.7180693328851,0.0
693204.59901257406,4082374.0504322448,-27500.0,-965.74880693849957,892.06344739845383,-646.77203533124271,720.13603079453162,-547.74466917004429,-363.14813457547115,1149.4693228632402,-564.15977296936649,504.6444031483216,-504.6444031483216,564.15977296936649,2261.8245053562382,0.0
698204.59901257406,4082374.0504322448,-27500.0,-979.28091479701482,786.47134748823657,-517.83351871430636,652.34095663599521,-449.62856749468438,-303.72081938405375,1025.7615130067556,-609.26905831492741,495.00980699480306,-495.00980699480306,609.26905831492741,2023.9404520480168,0.0
703204.59901257406,4082374.0504322448,-27500.0,-965.01438183879918,687.48843988902343,-415.59152772259381,584.80083315659419,-368.57862347907303,-253.27275172491858,914.84484671412667,-625.41129145834111,471.15689031876991,-471.15689031876991,625.41129145834111,1807.9939757184279,0.0
708204.59901257406,4082374.0504322448,-27500.0,-932.4595029293298,597.67708059933136,-334.81122197041657,520.63954955556449,-302.20846393310688,-211.0058244020926,816.15689810122285,-621.56280236446491,439.60868880609178,-439.60868880609178,621.56280236446491,1614.1076463341117,0.0
713204.59901257406,4082374.0504322448,-27500.0,-888.62599451689164,517.88002384915114,-271.04683336894243,461.4698665408759,-248.12825663431988,-175.87797154594676,728.73560238106427,-604.45524627811676,404.6685467879081,-404.6685467879081,604.45524627811676,1441.3191194526814,0.0
718204.59901257406,4082374.0504322448,-27500.0,-838.53595445607664,447.95474120666972,-220.66466200531863,407.95089777810671,-204.16650048236559,-146.81852592510418,651.47660345870872,-579.00384406632986,369.07606219232753,-369.07606219232753,579.00384406632986,1288.0837040546955,0.0
723204.59901257406,4082374.0504322448,-27500.0,-785.69332910420951,387.23768243969857,-180.76212521474807,360.16505533340631,-168.44962495074648,-122.83304998698719,583.2809102245418,-548.71730775675314,334.4989105817528,-334.4989105817528,548.71730775675314,1152.5979967905225,0.0
533204.59901257406,4087374.0504322448,-27500.0,-146.96940438248609,-432.69495318235056,-319.52594087057525,-146.41489113918843,-204.45083116664691,-72.002362874051812,487.28624458861714,33.495609852180309,-500.95914346610562,500.95914346610562,-33.495609852180309,894.2701070120122,0.0
538204.59901257406,4087374.0504322448,-27500.0,-88.862426337084244,-468.58119648019527,-375.98386406761483,-141.74689112468258,-233.68191512749019,-78.691017049558681,541.11704468714015,98.184692725886805,-570.70329900081356,570.70329900081356,-98.184692725886805,984.00501833966632,0.0
543204.59901257406,4087374.0504322448,-27500.0,-8.1358753203919605,-501.07463181448691,-442.16406306151009,-128.47576237633268,-265.12901402779517,-83.893279322001277,602.01359961029561,182.55557738212659,-646.85969563647029,646.85969563647029,-182.55557738212659,1083.9116246192652,0.0
548204.59901257406,4087374.0504322448,-27500.0,101.01171121704202,-526.15132239328625,-518.66522149509069,-102.59230063842281,-297.37158465179039,-85.954976868081772,671.28392717605038,290.76885252036556,-727.49220239449824,727.49220239449824,-290.76885252036556,1196.0216805273717,0.0
553204.59901257406,4087374.0504322448,-27500.0,245.05536426334075,-537.9087585289866,-605.19432806042516,-58.678967892465089,-327.69400302584586,-82.227163070700797,750.79362948189771,427.03287793796784,-808.77384207881323,808.77384207881323,-427.03287793796784,1323.7385557612099,0.0
558204.59901257406,4087374.0504322448,-27500.0,430.62872714348862,-528.01422145274285,-699.769631628458,10.380988524980918,-351.33050007043397,-68.576620041816298,843.35588187027315,594.91206581893834,-884.01564854999856,884.01564854999856,-594.91206581893834,1472.9987212488654,0.0
563204.59901257406,4087374.0504322448,-27500.0,663.46921468760445,-485.20989380953,-797.47559210167037,113.57680186284541,-360.37859812355941,-38.712903086283006,953.36396558339311,796.09069382179018,-942.40183565747725,942.40183565747725,-796.09069382179018,1654.13824437275,0.0
568204.59901257406,4087374.0504322448,-27500.0,946.54210268243457,-395.13306493953991,-888.63590710606979,261.61627738677169,-342.32139790964845,16.682441258436025,1087.7394390758814,1028.3602277128095,-967.51671100791077,967.51671100791077,-1028.3602277128095,1884.4974873762162,0.0
573204.59901257406,4087374.0504322448,-27500.0,1277.0413736990472,-240.94410459551912,-956.34801765356599,466.07570497886951,-278.18616102340587,110.97525536539476,1257.191728228423,1282.6272017226524,-935.97577318000697,935.97577318000697,-1282.6272017226524,2191.2241238443607,0.0
578204.59901257406,4087374.0504322448,-27500.0,1642.0925686903181,-5.5920038431392491,-973.58139539440606,737.26912445522498,-140.59296751916492,262.5527679548681,1477.6285863019521,1538.9464759342861,-816.90845631993648,816.90845631993648,-1538.9464759342861,2612.7656331356925,0.0
583204.59901257406,4087374.0504322448,-27500.0,2013.4259414186779,323.08272198754327,-900.62421719862709,1080.0297409228608,107.58533014348576,495.27975863372706,1771.4153090090977,1762.1367008503876,-573.73394564115677,573.73394564115677,-1762.1367008503876,3196.8368591240182,0.0
588204.59901257406,4087374.0504322448,-27500.0,2342.2881809266978,743.03520717430649,-684.73612646236677,1486.5186725694548,512.40382582339919,837.4962187744909,2168.0737103388042,1898.6471993185664,-170.57383441826335,170.57383441826335,-1898.6471993185664,3993.1721038585033,0.0
593204.59901257406,4087374.0504322448,-27500.0,2557.6367800449857,1223.6469198435043,-265.48437394247173,1925.5664715018038,1123.0635796975962,1317.9258241710413,2701.4360105939886,1878.1588183870226,413.57734023530213,-413.57734023530213,-1878.1588183870226,5040.4574746564786,0.0
598204.59901257406,4087374.0504322448,-27500.0,2573.2804263360586,1687.6099910182807,408.8947164569031,2329.5588157093302,1976.8676782588163,1956.0501112792813,3391.4449376771063,1625.7903705380056,1160.0524347944026,-1160.0524347944026,-1625.7903705380056,6346.5145563746773,0.0
603204.59901257406,4087374.0504322448,-27500.0,2312.5237367303821,1995.6811877930293,1347.8235095694238,2583.6314216563846,3069.7677510842718,2743.9857344169818,4212.6145673617684,1092.8157055971005,1975.446986797815,-1975.446986797815,-1092.8157055971005,7859.8437507717827,0.0
608204.59901257406,4087374.0504322448,-27500.0,1759.13746900001,1951.5707230843186,2464.667693006098,2529.7363107505798,4310.2376906581903,3618.3184631434333,5078.3612597087977,311.95279412996251,2657.1037507876758,-2657.1037507876758,-311.95279412996251,9434.0684542781019,0.0
613204.59901257406,4087374.0504322448,-27500.0,1030.4188606478508,1359.1934385732113,3517.6811435003933,2009.5401770222522,5468.7334520857312,4428.3412255479316,5836.6448401801454,-533.39426696850887,2893.8046371948872,-2893.8046371948872,533.39426696850887,10800.876733523883,0.0
618204.59901257406,4087374.0504322448,-27500.0,422.61049583758768,162.67321506510885,4103.1924565471309,970.31479463217045,6170.6636244789916,4928.7053062034902,6285.0967468960025,-1084.4015300802816,2366.3061108014867,-2366.3061108014867,1084.4015300802816,11593.175214900233,0.0
623204.59901257406,4087374.0504322448,-27500.0,315.6641323103371,-1376.0799421746347,3800.5200537659653,-395.41572511244158,6016.9035797976649,4850.4526729093941,6242.0884707016166,-939.87033870750349,985.82993105812932,-985.82993105812932,939.87033870750349,11474.522999999072,0.0
628204.59901257406,4087374.0504322448,-27500.0,879.19853460840432,-2663.9401435027289,2485.7217255813198,-1624.9207251062767,4853.2769732022061,4073.1745297385874,5673.3355995132852,20.2277090936484,-871.42780298785783,871.42780298785783,-20.2277090936484,10369.42276127241,0.0
633204.59901257406,4087374.0504322448,-27500.0,1819.7072568655337,-3118.0700131337003,555.37945503405342,-2231.6166917209425,2983.4218304500632,2775.8924428349096,4783.2416115662554,1399.9222804161172,-2470.1918752926385,2470.1918752926385,-1399.9222804161172,8633.1677191285416,0.0
638204.59901257406,4087374.0504322448,-27500.0,2558.7810269775405,-2617.7818767791086,-1285.0407962271611,-2062.1007070050864,1024.3764902486471,1361.9526994016437,3929.6115949881623,2525.575584377651,-3224.348672088186,3224.348672088186,-2525.575584377651,6933.2629282367116,0.0
643204.59901257406,4087374.0504322448,-27500.0,2710.9146363039458,-1541.1366226131979,-2511.965660359705,-1360.8352604952838,-503.86436961169608,194.51724661502436,3359.9774047327173,2966.3727180524638,-3079.1006543492376,3079.1006543492376,-2966.3727180524638,5823.2683320556062,0.0
648204.59901257406,4087374.0504322448,-27500.0,2295.8806706337245,-389.57859687795684,-3022.6168306887248,-506.73414300510655,-1420.1520740327871,-575.88623273132544,3057.0174363963019,2741.7845293837927,-2380.0093926175596,2380.0093926175596,-2741.7845293837927,5341.9214130820892,0.0
653204.59901257406,4087374.0504322448,-27500.0,1566.5558937808901,521.86775035114033,-2998.7164539055434,232.5317663011464,-1810.8973976732361,-980.3853950570483,2872.6107953122801,2124.2933123792086,-1521.4027650682474,1521.4027650682474,-2124.2933123792086,5149.6058070993495,0.0
658204.59901257406,4087374.0504322448,-27500.0,776.70838413188949,1104.0443526782663,-2682.636799249206,753.44551118717561,-1854.7864307458162,-1123.5265957886854,2700.0206411779518,1389.6713748958605,-751.60510204161528,751.60510204161528,-1389.6713748958605,4968.3874321230487,0.0
663204.59901257406,4087374.0504322448,-27500.0,81.73242387407258,1398.3896487646941,-2258.7642982588936,1059.6446711174472,-1711.8933866176171,-1109.0472144070591,2504.2996747152424,711.33917346793157,-166.25799779398574,166.25799779398574,-711.33917346793157,4704.8510530000176,0.0
668204.59901257406,4087374.0504322448,-27500.0,-456.74648518945605,1487.4926989476996,-1833.8844168937858,1198.0919257007149,-1490.8855203190703,-1013.5689297677839,2288.0457547040278,164.20096585223041,230.58535245979618,-230.58535245979618,-164.20096585223041,4364.8750368961291,0.0
673204.59901257406,4087374.0504322448,-27500.0,-834.8739524674221,1449.0709416516836,-1457.1200189639671,1221.8578178607015,-1254.3609521970195,-885.70837785437027,2064.3418023926365,-238.47267644708876,472.71804459389494,-472.71804459389494,238.47267644708876,3982.0392191746278,0.0
678204.59901257406,4087374.0504322448,-27500.0,-1075.3878179079181,1341.3262698369201,-1143.858815174068,1175.1326156047126,-1033.5401262204671,-753.06998974176975,1845.3692021470447,-512.84383129132402,601.61231427514622,-601.61231427514622,512.84383129132402,3588.2503451839602,0.0
683204.59901257406,4087374.0504322448,-27500.0,-1208.7701994103293,1202.8269811074711,-892.79935385047224,1089.9582281235755,-841.08376616951284,-629.58352344168952,1639.406155156192,-684.85991979078244,653.70208119638278,-653.70208119638278,684.85991979078244,3206.0816332191957,0.0
688204.59901257406,4087374.0504322448,-27500.0,-1264.0586421822945,1056.9642711826116,-695.86020619686997,987.63864292064591,-679.75694717173599,-521.05627844150581,1450.9698724899765,-780.49217740072527,656.88647332627875,-656.88647332627875,780.49217740072527,2848.9907677096076,0.0
693204.59901257406,4087374.0504322448,-27500.0,-1265.3642786837449,916.74547235355578,-543.24349479979378,881.38443906238956,-547.61367288345753,-428.84422361417609,1281.7918433242185,-821.84048357897154,630.94690574345668,-630.94690574345668,821.84048357897154,2523.604621734994,0.0
698204.59901257406,4087374.0504322448,-27500.0,-1231.2491832764993,788.58989776158023,-425.7070039349951,778.81137897748033,-440.85121720600341,-352.08734895005318,1131.7941105401837,-826.20788044489495,589.19875004615574,-589.19875004615574,826.20788044489495,2232.0248102076766,0.0
703204.59901257406,4087374.0504322448,-27500.0,-1175.3206090834042,674.98087093986692,-335.39055649254561,683.89070534745645,-355.26685153647452,-288.98676035281164,999.85650016250861,-806.46914166673605,540.23926581887326,-540.23926581887326,806.46914166673605,1973.6191058209754,0.0
708204.59901257406,4087374.0504322448,-27500.0,-1107.1905930949242,576.18477835399153,-265.95652016370519,598.32823413908443,-286.9275900492554,-237.48586259640314,884.3502364455494,-771.86626256113675,489.39547783234127,-489.39547783234127,771.86626256113675,1746.2459393069619,0.0
713204.59901257406,4087374.0504322448,-27500.0,-1033.4424537687671,491.31911928759519,-212.44874326285634,522.49362259420263,-232.42863942880444,-195.60780313259284,783.48627766018365,-728.85260587047753,439.81190470430226,-439.81190470430226,728.85260587047753,1547.059145943786,0.0
718204.59901257406,4087374.0504322448,-27500.0,-958.44551532936987,418.98315310842327,-171.05930035150087,456.01465356491371,-188.94441771098957,-161.59840674920892,695.50657400356317,-681.82176372944014,393.21652905759055,-393.21652905759055,681.82176372944014,1372.9911349914084,0.0
723204.59901257406,4087374.0504322448,-27500.0,-884.99346108923692,357.61530229477557,-138.89182366398995,398.14548025981628,-154.18721107792635,-133.96795074690596,618.77498892298968,-633.68602620951901,350.4421437949195,-350.4421437949195,633.68602620951901,1221.0291885860574,0.0
528204.59901257406,4092374.0504322448,-27500.0,-332.2550475724874,-432.82131811362325,-245.9415964721953,-206.08148082735553,-189.20970347831505,-84.261546395077602,487.51785680405931,-127.86631405613034,-429.76105324411196,429.76105324411196,127.86631405613034,918.88963410297094,0.0
533204.59901257406,4092374.0504322448,-27500.0,-312.40726605604755,-482.78916745390808,-292.72054125692893,-219.57366117776135,-220.96012077374536,-96.684923323305625,542.92135613237281,-93.529106144234419,-499.11647709188367,499.11647709188367,93.529106144234419,1016.3861832451261,0.0
538204.59901257406,4092374.0504322448,-27500.0,-276.85082709532026,-536.02748764547061,-349.52481279024067,-229.87026289491112,-257.67540299435183,-110.11634129556278,605.40008225687916,-43.976360805003139,-579.25327540765443,579.25327540765443,43.976360805003139,1124.6716909112336,0.0
543204.59901257406,4092374.0504322448,-27500.0,-220.11420271386498,-590.92506708901362,-418.26526279358933,-234.38509795331919,-299.49607811912534,-123.94947085539816,675.81517180750507,25.341871404002518,-670.84412031596923,670.84412031596923,-25.341871404002518,1244.6070751127058,0.0
548204.59901257406,4092374.0504322448,-27500.0,-135.32515255490497,-644.61377480852138,-500.88786954883801,-229.30398819486675,-346.00653751390763,-136.98479962732216,755.14705316336642,119.92069237990614,-773.80506060088351,773.80506060088351,-119.92069237990614,1377.1403103617756,0.0
553204.59901257406,4092374.0504322448,-27500.0,-14.128695618218053,-692.3708613059548,-599.05195121235749,-209.12883229165996,-395.75652569741351,-147.04915774101067,844.59039260781526,246.10522142144009,-886.6511351965637,886.6511351965637,-246.10522142144009,1523.5686108232121,0.0
558204.59901257406,4092374.0504322448,-27500.0,153.14603581206202,-726.84427099806794,-713.5125732865248,-166.13337806067841,-445.48447081980856,-150.41166273098142,945.77335913249499,410.69835246061115,-1005.504358800104,1005.504358800104,-410.69835246061115,1686.1914038031011,0.0
563204.59901257406,4092374.0504322448,-27500.0,376.82436285057184,-737.14467196796727,-843.02497360559494,-89.798172920033309,-488.90114787042256,-140.91399848373203,1061.2259339604766,620.03234707949991,-1122.6468843094044,1122.6468843094044,-620.03234707949991,1869.7415738269267,0.0
568204.59901257406,4092374.0504322448,-27500.0,666.35079853240984,-707.98109833313106,-982.53096218323992,33.598038917611447,-514.86688467359943,-108.72781693134704,1195.3098515734455,878.15776728561343,-1224.5643142594713,1224.5643142594713,-878.15776728561343,2084.2041279730288,0.0
573204.59901257406,4092374.0504322448,-27500.0,1027.3588505217162,-619.28110756760736,-1120.3738976141149,220.85101690515739,-504.8226697259181,-38.68488259363302,1355.9218463440836,1183.7150079962835,-1289.604337688394,1289.604337688394,-1183.7150079962835,2349.6848152369325,0.0
578204.59901257406,4092374.0504322448,-27500.0,1456.7727394872481,-447.19498262232906,-1234.4363063036099,490.46019773985989,-429.50450484773717,91.752062311755182,1557.3188722317241,1525.1012018230138,-1285.8162206212148,1285.8162206212148,-1525.1012018230138,2703.2124623046657,0.0
583204.59901257406,4092374.0504322448,-27500.0,1935.6206374468302,-168.03939801668309,-1287.6167782960808,858.85291208734452,-245.44321157143264,314.51041381680034,1824.2464323586842,1873.95942725379,-1170.39441905329,1170.39441905329,-1873.95942725379,3204.7400003018697,0.0
588204.59901257406,4092374.0504322448,-27500.0,2420.1500432248085,232.58743514135423,-1224.2720028695637,1332.5606801771653,107.22611162458128,671.94301744660902,2197.022155438156,2178.1495811405021,-893.51601474725555,893.51601474725555,-2178.1495811405021,3935.831880329466,0.0
593204.59901257406,4092374.0504322448,-27500.0,2833.8624999891531,743.17075322445908,-971.41252559341865,1894.5226059088386,702.27516830096044,1214.8122305759894,2734.3778151504175,2357.5921830055186,-410.99712381678899,410.99712381678899,-2357.5921830055186,4984.4395366107638,0.0
598204.59901257406,4092374.0504322448,-27500.0,3066.5445204000148,1301.3051215475505,-451.39184656184193,2483.4440970207456,1614.015084155852,1993.3715005761715,3496.4523505276356,2309.8005254240888,288.80950045005,-288.80950045005,-2309.8005254240888,6414.8285324564313,0.0
603204.59901257406,4092374.0504322448,-27500.0,2991.7087048977783,1764.5069554770305,384.31739062697352,2968.2948771294423,2883.2509087340559,3034.919919941558,4492.5470291983065,1936.4225389420039,1139.9326244827848,-1139.9326244827848,-1936.4225389420039,8223.4548974461468,0.0
608204.59901257406,4092374.0504322448,-27500.0,2521.4184540001511,1893.3095981834081,1490.1719869207486,3129.8973175234942,4450.4146627689024,4297.9215034346453,5640.7500613540869,1206.876777979242,1939.9431926660832,-1939.9431926660832,-1206.876777979242,10276.801653442901,0.0
613204.59901257406,4092374.0504322448,-27500.0,1718.2463342636595,1391.6847350969849,2632.4229176125696,2687.8796940930142,6054.4177395009574,5596.5675415433252,6746.2720640316302,269.41663614203389,2311.2219731087876,-2311.2219731087876,-269.41663614203389,12238.627260873202,0.0
618204.59901257406,4092374.0504322448,-27500.0,929.60731241124881,85.16754102971646,3325.6670785208653,1449.300120251306,7154.9930037924614,6529.3118384431364,7495.9126046616402,-442.51570258487766,1785.7185350322261,-1785.7185350322261,442.51570258487766,13549.373201867227,0.0
623204.59901257406,4092374.0504322448,-27500.0,742.06277169863222,-1753.6849834831446,2976.3960805597435,-392.12177136527322,7060.4570149929659,6547.3083443964906,7553.4136381382441,-318.02016983663384,152.65551098306952,-152.65551098306952,318.02016983663384,13599.997766232394,0.0
628204.59901257406,4092374.0504322448,-27500.0,1495.7267472374272,-3262.7613319023567,1371.4958684490221,-2077.6969866556715,5428.4306702534132,5325.139936292624,6808.0091035245159,897.44559972977584,-2074.8132280219434,2074.8132280219434,-897.44559972977584,12183.860533782563,0.0
633204.59901257406,4092374.0504322448,-27500.0,2717.3386631636704,-3550.6412844542169,-890.82840067351253,-2731.6184622453789,2776.4731230815441,3201.3849569152894,5605.2747509138781,2583.1254496272586,-3772.8710088080234,3772.8710088080234,-2583.1254496272586,9916.2733999005486,0.0
638204.59901257406,4092374.0504322448,-27500.0,3453.372660850539,-2557.7525811553746,-2784.0035408160707,-2170.4676913881594,194.02985133214264,1019.5102482385154,4581.2264532837571,3685.4770884601157,-4163.1293705335538,4163.1293705335538,-3685.4770884601157,7969.9222192572224,0.0
643204.59901257406,4092374.0504322448,-27500.0,3238.5048027450903,-1012.5313184506582,-3720.0213897925159,-966.13838106942922,-1547.0064606284702,-567.67909565078958,4050.2806856896837,3720.7627273653416,-3421.2482159624124,3421.2482159624124,-3720.7627273653416,7034.0819148182154,0.0
648204.59901257406,4092374.0504322448,-27500.0,2326.4697528843476,359.4372394976042,-3786.7313474576108,225.25171799479668,-2354.0999798342273,-1428.4029950517586,3807.1787089300296,2962.8293583498089,-2216.5455647125291,2216.5455647125291,-2962.8293583498089,6758.7843118453402,0.0
653204.59901257406,4092374.0504322448,-27500.0,1195.1318494039469,1258.212158984297,-3359.2842408504434,1081.8447193312356,-2507.5560274059808,-1742.3291688903842,3599.1793026875898,1914.0010076960925,-1076.353244517868,1076.353244517868,-1914.0010076960925,6566.3485000397823,0.0
658204.59901257406,4092374.0504322448,-27500.0,173.89042492887515,1704.8717687967596,-2760.2419496272814,1568.0965093519419,-2315.9458673241033,-1735.3446211227588,3340.2325422447548,924.13269026916703,-218.31483420402708,218.31483420402708,-924.13269026916703,6232.1522691928503,0.0
663204.59901257406,4092374.0504322448,-27500.0,-605.7040386194227,1832.5408218173263,-2171.2275530996158,1767.2759663350657,-1989.0495409142616,-1573.2101686020787,3036.8311190958734,140.90904690983294,340.4918759494077,-340.4918759494077,-140.90904690983294,5760.69815492219,0.0
668204.59901257406,4092374.0504322448,-27500.0,-1133.8493840431834,1771.5293334468222,-1666.7825155346877,1779.0933141068638,-1640.6372136057832,-1354.8691390308882,2716.7370539017452,-413.594653857781,660.58291142923099,-660.58291142923099,413.594653857781,5215.4211434245999,0.0
673204.59901257406,4092374.0504322448,-27500.0,-1451.6849055825901,1615.6933486992173,-1263.4968876116543,1683.3276934059327,-1322.3875491025972,-1132.4052253560799,2403.3328470355227,-771.50985430373714,814.17910809090256,-814.17910809090256,771.50985430373714,4653.5542852138888,0.0
678204.59901257406,4092374.0504322448,-27500.0,-1611.99100960788,1423.4922096132861,-952.88455173056957,1534.552202695374,-1052.2241162464188,-929.84899852387241,2111.0247231211197,-979.20962632759949,861.22715863684823,-861.22715863684823,979.20962632759949,4112.8096497065017,0.0
683204.59901257406,4092374.0504322448,-27500.0,-1662.5142197564567,1227.8163735756305,-718.49566128375989,1366.784709719989,-831.79107341910719,-755.84748518467916,1846.8122745107266,-1080.0248589205953,844.93194449209773,-844.93194449209773,1080.0248589205953,3613.8393741044652,0.0
688204.59901257406,4092374.0504322448,-27500.0,-1640.9607245384402,1045.291826231804,-543.49410394713607,1199.6327802519827,-655.92411418431004,-611.26805557582179,1612.7837428301466,-1108.7336867727029,794.11433101579803,-794.11433101579803,1108.7336867727029,3165.5358789950869,0.0
693204.59901257406,4092374.0504322448,-27500.0,-1574.9921323985266,882.97438350238963,-413.41923028671044,1043.3868210950161,-517.36427476305914,-493.47406935159859,1408.1491937023845,-1091.1553314635662,727.00046345962198,-727.00046345962198,1091.1553314635662,2769.5789737628643,0.0
698204.59901257406,4092374.0504322448,-27500.0,-1483.9402960431053,742.64820163721072,-316.78694470649344,902.65175265284267,-408.90113451635568,-398.59235575557062,1230.6305571292778,-1045.5503913825089,654.59117954205783,-654.59117954205783,1045.5503913825089,2423.6294350545372,0.0
703204.59901257406,4092374.0504322448,-27500.0,-1380.8133845617208,623.4126621205744,-244.84376995820514,778.74625359049753,-324.2129711574226,-322.63244851163995,1077.3310812709717,-984.38634260547587,583.18863101017905,-583.18863101017905,984.38634260547587,2123.3751069788277,0.0
708204.59901257406,4092374.0504322448,-27500.0,-1274.0594233039433,523.16320136325726,-191.06659870216092,671.20876454277516,-258.08469074139549,-261.97793290698962,945.23739212153384,-915.92278145483908,516.14402656087339,-516.14402656087339,915.92278145483908,1863.7573218354382,0.0
713204.59901257406,4092374.0504322448,-27500.0,-1168.9492934425193,439.40040171470309,-150.65424324734948,578.70563566001033,-206.35609071883974,-213.55364719671161,831.48426182105845,-845.46597736657907,455.01246712326235,-455.01246712326235,845.46597736657907,1639.664074867987,0.0
718204.59901257406,4092374.0504322448,-27500.0,-1068.5980344451798,369.64540509273667,-120.09457821166632,499.5573452334919,-165.77165694756161,-174.83653904845627,733.47544545655558,-776.30030617843704,400.29271345005958,-400.29271345005958,776.30030617843704,1446.2914908477553,0.0
723204.59901257406,4092374.0504322448,-27500.0,-974.69128821292315,311.63321864025414,-96.824159737624271,432.02917687313982,-133.81162379836056,-143.79988032606599,648.92368377243679,-710.35366663114849,351.89010474999475,-351.89010474999475,710.35366663114849,1279.3080326962702,0.0
528204.59901257406,4097374.0504322448,-27500.0,-490.26348798420429,-452.1404358570984,-209.76537824395965,-271.28338473400527,-193.17084674025861,-104.9275730039857,538.82090960360756,-255.00037572918234,-399.30098744925931,399.30098744925931,255.00037572918234,1032.0362566183974,0.0
533204.59901257406,4097374.0504322448,-27500.0,-496.29260878996456,-512.7601237006777,-252.15680785245931,-299.44711727011656,-228.74242406074475,-123.32491077502766,603.49871766511262,-240.37525881022981,-470.50594134787212,470.50594134787212,240.37525881022981,1149.9549019746698,0.0
538204.59901257406,4097374.0504322448,-27500.0,-490.46872395916705,-580.57760134834598,-304.79852766156387,-327.90687334245882,-271.15126641352413,-144.61458681356035,676.91456482531066,-212.99098290248611,-555.12865370125519,555.12865370125519,212.99098290248611,1282.2724104458507,0.0
543204.59901257406,4097374.0504322448,-27500.0,-467.38118118047652,-655.25849438841453,-370.21599967450737,-354.81604160739198,-321.35341004285635,-168.79347245221476,760.07295052674215,-168.03461769148799,-655.19596630301226,655.19596630301226,168.03461769148799,1430.0915213284418,0.0
548204.59901257406,4097374.0504322448,-27500.0,-419.80760750608425,-735.53373921222465,-451.38722694170116,-377.14228245300484,-380.07124761308819,-195.43195081413171,853.95965188696164,-99.279030627486804,-772.53614208165516,772.53614208165516,99.279030627486804,1594.2171789048173,0.0
553204.59901257406,4097374.0504322448,-27500.0,-338.32828844069491,-818.59930969217055,-551.63671093855612,-390.10260933133827,-447.41140024997151,-223.30542272947707,959.48604112481166,1.1182655735853473,-908.30271089396774,908.30271089396774,-1.1182655735853473,1775.0074926345414,0.0
558204.59901257406,4097374.0504322448,-27500.0,-211.04688723275535,-899.24694343088595,-674.30977330911378,-386.40186189365568,-522.17785790557309,-249.78261893500752,1077.4523195977742,142.64264063185709,-1062.1431109216837,1062.1431109216837,-142.64264063185709,1972.3163209683746,0.0
563204.59901257406,4097374.0504322448,-27500.0,-23.640694971352048,-968.68239775057395,-822.03743554602045,-355.27342208190925,-600.6907922369827,-269.83894666131624,1208.610552780535,336.04433618989287,-1230.8347279759041,1230.8347279759041,-336.04433618989287,2185.788121683951,0.0
568204.59901257406,4097374.0504322448,-27500.0,239.84962705851979,-1013.0761345865511,-995.28978616172083,-281.41181234979962,-674.83977279310761,-274.51702078036055,1354.0236400739514,592.15446747649412,-1406.1881772820091,1406.1881772820091,-592.15446747649412,2416.1129202779634,0.0
573204.59901257406,4097374.0504322448,-27500.0,594.81693919490647,-1012.1292164477899,-1189.7979141333137,-144.08951870176895,-729.03528708376757,-248.62621057116502,1516.1602651822809,919.27909931407601,-1572.098596420285,1572.098596420285,-919.27909931407601,2668.5210732908322,0.0
578204.59901257406,4097374.0504322448,-27500.0,1051.5028847630208,-938.44962721636568,-1392.3938869865335,82.848777661233896,-735.76211778834886,-167.51209327911792,1701.6286032719618,1318.3685639667431,-1700.9697828247511,1700.9697828247511,-1318.3685639667431,2960.772657326479,0.0
583204.59901257406,4097374.0504322448,-27500.0,1606.9616770584332,-759.45668783068663,-1575.145316356793,428.74289547762743,-649.79711598990639,7.0541580568387028,1927.2027145426537,1775.2673001096471,-1750.6393186208454,1750.6393186208454,-1775.2673001096471,3338.1021181284482,0.0
588204.59901257406,4097374.0504322448,-27500.0,2233.0839562741899,-444.83047112968552,-1688.8639179104655,919.28290897560407,-402.24220278114342,331.20179584577437,2231.5718323387118,2250.2859168601481,-1664.7391698643858,1664.7391698643858,-2250.2859168601481,3892.8152020575617,0.0
593204.59901257406,4097374.0504322448,-27500.0,2862.2467518194098,16.468013657386415,-1659.8155258247662,1561.7618558701834,102.08744587846515,881.50477107855352,2693.2203182947478,2667.8573355892736,-1382.1071124867085,1382.1071124867085,-2667.8573355892736,4771.2395510915076,0.0
598204.59901257406,4097374.0504322448,-27500.0,3376.1578424486115,586.55757369722824,-1397.7034872551419,2318.7050377395667,976.22211367286661,1751.1451433504399,3432.0689357811625,2913.3424204601542,-863.11588805645761,863.11588805645761,-2913.3424204601542,6139.4780190617139,0.0
603204.59901257406,4097374.0504322448,-27500.0,3609.3284231260236,1138.3376357759714,-826.69817868540247,3067.1381208078624,2317.7921264852007,3029.7831260582366,4534.8810817029089,2849.2264731363325,-139.81907613994235,139.81907613994235,-2849.2264731363325,8103.6568232363697,0.0
608204.59901257406,4097374.0504322448,-27500.0,3390.0898169323164,1417.2539885609162,48.149433179731552,3546.5234052291444,4128.545760660294,4744.9856712897017,5959.981482547726,2370.7524802775438,609.60287278765509,-609.60287278765509,-2370.7524802775438,10603.125537574051,0.0
613204.59901257406,4097374.0504322448,-27500.0,2669.0528376020511,1048.3718690925643,1031.0042184383237,3332.4266386188001,6158.4142171873145,6724.2852932247006,7488.7354853859824,1537.092413954007,983.9760245321113,-983.9760245321113,-1537.092413954007,13272.581931056486,0.0
618204.59901257406,4097374.0504322448,-27500.0,1772.0694361965475,-283.21270416929264,1619.6023885374752,1985.6041714065884,7705.8156380734245,8372.1626624791697,8672.5654339674747,782.55235417363656,397.21132365699555,-397.21132365699555,-782.55235417363656,15323.121664745444,0.0
623204.59901257406,4097374.0504322448,-27500.0,1520.6461786850009,-2335.7089483835957,1110.8525114336132,-402.25617374534693,7675.448895813337,8620.9283877298494,8927.7019931685372,930.56702775450663,-1485.5679011189952,1485.5679011189952,-930.56702775450663,15718.815960565085,0.0
628204.59901257406,4097374.0504322448,-27500.0,2527.1508956390981,-3922.6711416129028,-742.92011385966055,-2626.0904631766812,5415.2142802813742,6659.313850104113,7992.4869208132877,2422.4237489722946,-3955.8682989912313,3955.8682989912313,-2422.4237489722946,14003.761583785934,0.0
633204.59901257406,4097374.0504322448,-27500.0,4018.1052579676225,-3780.9572669918184,-3063.8223251497652,-3128.4592208867025,1815.1051084803676,3154.2873374129822,6472.0846943328343,4292.4981245332965,-5387.6213696778595,5387.6213696778595,-4292.4981245332965,11265.650813567127,0.0
638204.59901257406,4097374.0504322448,-27500.0,4477.6688302855146,-2091.5446935170548,-4547.1057641175748,-1809.507443106753,-1291.9806769919956,-105.70768178307428,5447.8928950375976,4997.9852868635908,-4947.1740794932457,4947.1740794932457,-4997.9852868635908,9436.324931483723,0.0
643204.59901257406,4097374.0504322448,-27500.0,3533.7320575399044,-112.64261005138638,-4774.9600545273215,82.833389138236285,-2939.7140657151208,-2042.4808989095668,5094.613824606753,4222.9963471648352,-3343.5651959851207,3343.5651959851207,-4222.9963471648352,8932.0705601053251,0.0
648204.59901257406,4097374.0504322448,-27500.0,1926.0937592265379,1289.7097323555176,-4187.9655631567293,1550.8206886257276,-3352.4479220940402,-2764.725280828603,4868.3360207631249,2729.6129745512517,-1634.9240743313021,1634.9240743313021,-2729.6129745512517,8753.7116699013968,0.0
653204.59901257406,4097374.0504322448,-27500.0,385.20142413122107,1988.4474888802438,-3329.8445790029796,2357.9886793850746,-3106.2622174932549,-2781.9677342311688,4528.43389119735,1249.5196787748828,-346.18553850906528,346.18553850906528,-1249.5196787748828,8339.9667347038321,0.0
658204.59901257406,4097374.0504322448,-27500.0,-776.97389877463013,2183.8706677294836,-2510.8443290132327,2648.6321227914309,-2620.7985366678745,-2489.7019999087752,4091.1622526979759,101.44241066167291,457.74176901224581,-457.74176901224581,-101.44241066167291,7676.5539249608737,0.0
663204.59901257406,4097374.0504322448,-27500.0,-1531.6845431086319,2097.1755464924913,-1841.5832342963097,2623.5914500113317,-2108.7677177710248,-2103.2309299999929,3619.89775511793,-673.58556849568117,886.56183157677765,-886.56183157677765,673.58556849568117,6886.9744419878098,0.0
668204.59901257406,4097374.0504322448,-27500.0,-1957.0145303121255,1881.3537304255931,-1333.130079043591,2434.2467581576084,-1655.0097467385926,-1721.9800152261901,3161.0210420475987,-1141.4507051007024,1068.7553099232321,-1068.7553099232321,1141.4507051007024,6075.3730629076053,0.0
673204.59901257406,4097374.0504322448,-27500.0,-2147.6399647637109,1624.5832559933453,-960.86552654865613,2175.3292756581063,-1282.4423474364698,-1385.3540674292519,2739.2375155763625,-1387.1876539408806,1103.8189953951226,-1103.8189953951226,1387.1876539408806,5304.0373020907273,0.0
678204.59901257406,4097374.0504322448,-27500.0,-2183.5101484925158,1371.9844848256976,-693.36955520192078,1900.6416870407643,-988.15428852516857,-1104.107183963504,2364.4926803416006,-1483.8734329489821,1058.332884429039,-1058.332884429039,1483.8734329489821,4603.3525842362351,0.0
683204.59901257406,4097374.0504322448,-27500.0,-2123.8669357943913,1143.7033955181248,-502.79931759155164,1638.209574923834,-760.4238956585491,-876.24581224211215,2038.2968235048972,-1486.147114814883,973.59194723388418,-973.59194723388418,1486.147114814883,3983.9726650272405,0.0
688204.59901257406,4097374.0504322448,-27500.0,-2009.7179418421024,946.51009534000843,-367.37731267651344,1400.8558925132231,-586.04255040155317,-694.86323661013034,1757.8431876609554,-1432.1086502136513,873.8627611588845,-873.8627611588845,1432.1086502136513,3445.5565186742847,0.0
693204.59901257406,4097374.0504322448,-27500.0,-1868.1864505935052,780.53195800267747,-271.02522949850311,1192.8893087642859,-453.11662927289365,-551.87814758556101,1518.4318635317411,-1347.1794123036836,772.664963266727,-772.664963266727,1347.1794123036836,2982.2515149835112,0.0
698204.59901257406,4097374.0504322448,-27500.0,-1716.528536738942,642.94030707473166,-202.21589633487287,1014.1301684477053,-351.86872201327571,-439.68541647860076,1314.8068169079199,-1247.7407847638237,677.00736012546838,-677.00736012546838,1247.7407847638237,2585.8969340377103,0.0
703204.59901257406,4097374.0504322448,-27500.0,-1565.2756473151276,529.87621775662126,-152.80935678428034,862.24933014360886,-274.62075345110947,-351.76421161488543,1141.8496118587736,-1143.9946499159239,590.0865330799295,-590.0865330799295,1143.9946499159239,2247.8000012168814,0.0
708204.59901257406,4097374.0504322448,-27500.0,-1420.5108746938515,437.39798207952134,-117.09860101103445,734.07538388003491,-215.49162198093828,-282.79092152190827,994.9013853468864,-1042.0375316462153,512.9469698280177,-512.9469698280177,1042.0375316462153,1959.6512458404245,0.0
713204.59901257406,4097374.0504322448,-27500.0,-1285.4509872181031,361.90327124631875,-91.091605586657678,626.29109138741467,-170.03764231750205,-228.53985821559792,869.88038970215086,-945.30195742772889,445.47704801010354,-445.47704801010354,945.30195742772889,1713.9444771375574,0.0
718204.59901257406,4097374.0504322448,-27500.0,-1161.5085259665971,300.27824633415105,-71.993486731639663,535.77399175860182,-134.92362652001904,-185.71057934865672,763.28780396253853,-855.52560847321297,386.99066054719992,-386.99066054719992,855.52560847321297,1504.1122486794077,0.0
723204.59901257406,4097374.0504322448,-27500.0,-1048.9998414677948,249.91651995579542,-57.842502248535482,459.74403670556666,-107.65344277432142,-151.74945602511838,672.16764704343302,-773.39738172098157,336.56131662412724,-336.56131662412724,773.39738172098157,1324.5267647500909,0.0
528204.59901257406,4102374.0504322448,-27500.0,-655.09833363029657,-450.00104378036718,-165.89280947577723,-338.50881088891811,-188.54075851778859,-126.07601314340316,591.54841030628006,-391.45228218542155,-346.29221689523916,346.29221689523916,391.45228218542155,1148.1708649322809,0.0
533204.59901257406,4102374.0504322448,-27500.0,-691.09103880825489,-516.98362067427217,-200.82075463657102,-382.91793150628075,-225.72538505968777,-150.92801094193993,666.67896301636517,-400.92645172854873,-413.53584456993894,413.53584456993894,400.92645172854873,1289.1336759114827,0.0
538204.59901257406,4102374.0504322448,-27500.0,-720.86582682443805,-594.36917378952558,-245.0524110805878,-431.97328414607671,-271.06329223873036,-180.8763619482894,752.82693460240273,-401.86124828649992,-495.3115757270387,495.3115757270387,401.86124828649992,1449.5190999535378,0.0
543204.59901257406,4102374.0504322448,-27500.0,-739.77354788783452,-683.12528146429099,-301.30736699150123,-485.00347058486858,-326.23031277942738,-216.71895746097493,851.44128118412482,-389.83692523850306,-594.67095841757032,594.67095841757032,389.83692523850306,1631.3923956501876,0.0
548204.59901257406,4102374.0504322448,-27500.0,-741.17585052347943,-783.74594282434282,-373.05587071397747,-540.40329486386679,-393.02251540809311,-259.11340294066224,963.95401839842827,-358.75187001824361,-715.03103933608168,715.03103933608168,358.75187001824361,1836.4966837069201,0.0
553204.59901257406,4102374.0504322448,-27500.0,-715.79227489664197,-895.75933213021165,-464.62918281964465,-595.0487287994315,-473.12723635498304,-308.28990551868344,1091.6258424625498,-300.34298416996319,-859.94918370694688,859.94918370694688,300.34298416996319,2065.8516360871408,0.0
558204.59901257406,4102374.0504322448,-27500.0,-650.9685613485093,-1016.9337579526303,-581.2317756537858,-643.42823974198188,-567.6331948724835,-363.51733402573922,1235.3024359246401,-203.70487540852844,-1032.6147029825115,1032.6147029825115,203.70487540852844,2319.1658711221389,0.0
563204.59901257406,4102374.0504322448,-27500.0,-530.00835406077101,-1142.0588465305309,-728.70419510485465,-676.40640848106273,-676.07126816361369,-422.15258281464685,1395.0681294420949,-54.973316075342268,-1234.8512475385701,1234.8512475385701,54.973316075342268,2594.076442945789,0.0
568204.59901257406,4102374.0504322448,-27500.0,-331.90352083798189,-1261.1983781118095,-912.7516782854118,-679.57406476166068,-794.64789890924681,-478.01059252125634,1569.8361131966235,162.47574957400195,-1465.3330748263861,1465.3330748263861,-162.47574957400195,2885.4095827277174,0.0
573204.59901257406,4102374.0504322448,-27500.0,-32.147883170050058,-1357.4533331713783,-1137.1470584107947,-631.28548111898317,-913.16209468466707,-518.6751627661871,1757.0807586629523,466.64428753165589,-1716.6591410902013,1716.6591410902013,-466.64428753165589,3185.1715013675316,0.0
578204.59901257406,4102374.0504322448,-27500.0,394.14323951409261,-1404.7203283233869,-1400.1769147196305,-500.86009618236761,-1009.9449212806543,-521.25889041736809,1953.3870264034829,873.23819171253172,-1971.0638025574472,1971.0638025574472,-873.23819171253172,3485.2959310118817,0.0
583204.59901257406,4102374.0504322448,-27500.0,964.94893067456223,-1367.0026118767437,-1688.5534867942463,-248.25580143181801,-1044.2540341940435,-446.12718959406425,2157.7599705909997,1388.1919347574283,-2195.2692451681278,2195.2692451681278,-1388.1919347574283,3788.1786805269171,0.0
588204.59901257406,4102374.0504322448,-27500.0,1677.8809468696077,-1202.8665188949215,-1968.8824084478902,171.97018563520822,-946.49620147156372,-228.50028083939074,2382.9197780489967,1995.2217395748053,-2337.0714030908398,2337.0714030908398,-1995.2217395748053,4134.9729324206155,0.0
593204.59901257406,4102374.0504322448,-27500.0,2490.2914929912536,-881.25569146532769,-2180.0445360105618,797.47354219724377,-609.6368184883703,230.77528650013539,2686.7994446419925,2639.8427327021154,-2330.461620545324,2330.461620545324,-2639.8427327021154,4660.1985202352998,0.0
598204.59901257406,4102374.0504322448,-27500.0,3298.1519754242963,-415.08782603671926,-2236.8329100645442,1629.1244797886275,108.52085238303107,1070.7472805572463,3229.7639766413572,3217.6762177556384,-2121.0602963134106,2121.0602963134106,-3217.6762177556384,5637.6503780801168,0.0
603204.59901257406,4102374.0504322448,-27500.0,3926.2417631164108,89.372035282434894,-2062.0522631357394,2579.7421709610676,1353.6737299945394,2460.8126630029979,4240.3701066388539,3581.9311727473132,-1721.9556023417163,1721.9556023417163,-3581.9311727473132,7397.1748834274258,0.0
608204.59901257406,4102374.0504322448,-27500.0,4147.0366221012155,386.64256276492472,-1657.1491044779691,3393.1216583387854,3186.7709040710411,4545.4993898995554,5797.0758929214016,3584.7506712309578,-1293.031016159561,1293.031016159561,-3584.7506712309578,10080.422808561365,0.0
613204.59901257406,4102374.0504322448,-27500.0,3779.7752130127869,85.964951286152441,-1197.8528301333113,3539.2948893491484,5395.3563031286058,7252.6760299160933,7707.934997682235,3182.9467645079017,-1215.546576805627,1215.546576805627,-3182.9467645079017,13381.189531960212,0.0
618204.59901257406,4102374.0504322448,-27500.0,3020.3203486508564,-1194.086753618041,-1121.4769493920451,2271.3491037537506,7175.3227904776386,9823.0218409760764,9399.940284137092,2698.3668959259721,-2071.1622156313369,2071.1622156313369,-2698.3668959259721,16303.895986345577,0.0
623204.59901257406,4102374.0504322448,-27500.0,2847.5988714206942,-3218.8575109596572,-2016.9139424006678,-563.69859013473501,7047.2290101036078,10393.245190999485,9966.9258084660978,3032.5452472969973,-4161.7584247716895,4161.7584247716895,-3032.5452472969973,17272.315015591892,0.0
628204.59901257406,4102374.0504322448,-27500.0,4166.2466435635215,-4496.5293129830643,-3902.8647292643795,-3173.151120056456,4076.9320252586631,7241.6738580586089,8946.0547818743617,4740.9313357817509,-6453.8353480470423,6453.8353480470423,-4740.9313357817509,15495.544246878795,0.0
633204.59901257406,4102374.0504322448,-27500.0,5713.5814137068191,-3564.0830687639177,-5603.5008540977096,-3026.8122484573428,-241.52910979043753,1727.5372081091384,7407.6446865797352,6381.1361852381779,-6915.3723427535515,6915.3723427535515,-6381.1361852381779,12830.524530407603,0.0
638204.59901257406,4102374.0504322448,-27500.0,5357.4148741261224,-1168.0406140995588,-5959.7880407499679,-495.42841209198855,-3282.6004917882397,-2626.2529036026672,6785.9418160001842,6049.7738346318383,-5146.1313730164529,5146.1313730164529,-6049.7738346318383,11773.739732355963,0.0
643204.59901257406,4102374.0504322448,-27500.0,3278.0763940356178,937.07378845539915,-5137.8959509500291,2070.2703668764789,-4279.5380278725852,-4441.345406460372,6615.5395346506157,4074.1213225376987,-2668.5322924114816,2668.5322924114816,-4074.1213225376987,11657.072543320479,0.0
648204.59901257406,4102374.0504322448,-27500.0,924.30798353828845,2058.1581043775909,-3914.0799349756398,3519.0089070381014,-4022.2700318212501,-4565.0041996297887,6206.5708306207662,1838.3116409590173,-705.92835690864399,705.92835690864399,-1838.3116409590173,11197.205373853571,0.0
653204.59901257406,4102374.0504322448,-27500.0,-875.01021212500166,2394.5123511528273,-2791.1161781025344,3982.1768732042465,-3325.0424723672263,-4008.4898246398407,5570.627832034007,107.04440566586308,484.23002211789321,-484.23002211789321,-107.04440566586308,10267.817005193876,0.0
658204.59901257406,4102374.0504322448,-27500.0,-1996.8997472077779,2304.6138945027078,-1925.4446986581572,3880.6266194985669,-2594.8772115207767,-3297.3283479515626,4861.8840379764779,-1004.5722784759549,1080.2035654168506,-1080.2035654168506,1004.5722784759549,9115.9656797891712,0.0
663204.59901257406,4102374.0504322448,-27500.0,-2586.5753331490168,2036.2931958724305,-1308.2445332271079,3522.6324355381544,-1971.6416200774447,-2630.8565114548524,4178.8671213352518,-1626.0876001936053,1308.1728789238441,-1308.1728789238441,1626.0876001936053,7938.5827608784639,0.0
668204.59901257406,4102374.0504322448,-27500.0,-2819.0624672079321,1721.4067361196578,-884.26872886868193,3079.3942808271395,-1480.4134035986121,-2067.4376040759603,3564.4671871016999,-1915.5273303384224,1332.683852504239,-1332.683852504239,1915.5273303384224,6838.6204797851924,0.0
673204.59901257406,4102374.0504322448,-27500.0,-2831.2300460355596,1420.4251844320122,-598.11553297092928,2635.535029044408,-1107.0610023243178,-1612.8833143073975,3030.9273664452226,-1997.2162617605618,1255.2406013412874,-1255.2406013412874,1997.2162617605618,5858.1713348854873,0.0
678204.59901257406,4102374.0504322448,-27500.0,-2716.8731598922845,1156.5610455238377,-406.43190250369156,2228.8116833533622,-828.16002863061351,-1255.0859969128255,2576.331734203663,-1956.7315115281699,1133.8853186523775,-1133.8853186523775,1956.7315115281699,5007.0789046626242,0.0
683204.59901257406,4102374.0504322448,-27500.0,-2536.5385657845582,935.20231092537335,-278.28742402429026,1872.864177873772,-621.37621010979262,-977.25427943473528,2192.9969287615718,-1849.5509690053927,1000.0831312973351,-1000.0831312973351,1849.5509690053927,4279.5801361559761,0.0
688204.59901257406,4102374.0504322448,-27500.0,-2327.8134932441899,753.9460501781067,-192.52163017676406,1569.394767275237,-468.36524672898605,-763.0268745810987,1871.4697187251618,-1710.3222062320008,869.88179667140207,-869.88179667140207,1710.3222062320008,3663.2163637412477,0.0
693204.59901257406,4102374.0504322448,-27500.0,-2113.1603521953016,607.52048348378685,-134.94621771044115,1314.6034039087422,-354.98779549382891,-598.28668766232829,1602.3599188344106,-1559.9683905354075,750.67759792972925,-750.67759792972925,1559.9683905354075,3143.4483665784023,0.0
698204.59901257406,4102374.0504322448,-27500.0,-1905.3546647283245,490.08140205167086,-96.134383129181074,1102.5555770507049,-270.6847234883528,-471.56487343409583,1377.1267931252812,-1410.622659962736,645.16885005705603,-645.16885005705603,1410.622659962736,2705.9612016744522,0.0
703204.59901257406,4102374.0504322448,-27500.0,-1711.1097490123248,396.19645170340368,-69.842049074473195,926.88914562302978,-207.69807425239821,-373.85656049778788,1188.3499513907113,-1268.909547027554,553.61427583368345,-553.61427583368345,1268.909547027554,2337.7160024469831,0.0
708204.59901257406,4102374.0504322448,-27500.0,-1533.4360663195446,321.19383861544736,-51.931960226602619,781.62096512163623,-160.37266231741265,-298.23235310662682,1029.7500925513725,-1138.0741385966442,475.09715427834072,-475.09715427834072,1138.0741385966442,2027.331219663422,0.0
713204.59901257406,4102374.0504322448,-27500.0,-1373.1500829790759,261.21663924558607,-39.656085426724424,661.47394486894939,-124.59735824860975,-239.42130296069394,896.09644565747465,-1019.3403788048922,408.21576238378998,-408.21576238378998,1019.3403788048922,1765.1192331592219,0.0
718204.59901257406,4102374.0504322448,-27500.0,-1229.824759381042,213.15386605289066,-31.182753014733482,561.95881544379563,-97.382130554705881,-193.43838527150081,783.07278187108784,-912.76560054882566,351.44770782556242,-351.44770782556242,912.76560054882566,1542.9613779001056,0.0
723204.59901257406,4102374.0504322448,-27500.0,-1102.3757966594139,174.5292960362894,-25.285954495183358,479.33702814439346,-76.546505994914554,-157.27746804989803,687.13538296610977,-817.76859160389745,303.33056116605968,-303.33056116605968,817.76859160389745,1354.1155996287471,0.0
523204.59901257406,4107374.0504322448,-27500.0,-753.38993931221137,-366.39973568056939,-98.432459804811899,-351.91794725315913,-145.23476557576618,-121.36674351590786,569.20648035540682,-493.23140176614044,-225.79766323279324,225.79766323279324,493.23140176614044,1118.9453676524379,0.0
528204.59901257406,4107374.0504322448,-27500.0,-818.75526382337694,-423.70057821966157,-118.19304197454385,-404.68418478777943,-174.4143588882998,-146.78744643528219,643.56024610429813,-530.23120558489359,-272.04626826374266,272.04626826374266,530.23120558489359,1262.025523152802,0.0
533204.59901257406,4107374.0504322448,-27500.0,-886.81945742245591,-491.40258828898277,-143.4700692787232,-465.96245086122286,-210.47182262166348,-178.2299953196482,729.71248119874997,-566.54066439389203,-329.25609233690113,329.25609233690113,566.54066439389203,1427.103881320407,0.0
538204.59901257406,4107374.0504322448,-27500.0,-955.63489173172638,-571.35828255170827,-176.07818408842587,-536.80166411936204,-255.14864506027902,-217.158623043765,829.61456931051407,-599.96649605340883,-400.23953957029045,400.23953957029045,599.96649605340883,1617.5577780436192,0.0
543204.59901257406,4107374.0504322448,-27500.0,-1021.9766647073991,-665.57835983409404,-218.47335098775508,-618.06769780569505,-310.58508788255841,-265.32138957853647,945.43622574280403,-627.1453322195996,-488.50203542366239,488.50203542366239,627.1453322195996,1836.9991144595481,0.0
548204.59901257406,4107374.0504322448,-27500.0,-1080.7472100245943,-776.08500935082998,-273.9713598231142,-710.15834990042481,-379.34275639796215,-324.72072716945246,1079.4952460302502,-643.04278910566052,-598.34400935649239,598.34400935649239,643.04278910566052,2089.0477874568282,0.0
553204.59901257406,4107374.0504322448,-27500.0,-1124.158294560297,-904.60936073632968,-347.01783866165573,-812.51601908711416,-464.34766256225424,-397.48397775478065,1234.1003316399961,-640.28338486844905,-734.90345569276838,734.90345569276838,640.28338486844905,2376.8955018349075,0.0
558204.59901257406,4107374.0504322448,-27500.0,-1140.6522686312319,-1052.0245058849703,-443.49001033307155,-922.82459578697842,-568.65596015278288,-485.53436492682556,1411.2473855130982,-608.29841894302706,-904.04751007017251,904.04751007017251,608.29841894302706,2702.5325890206996,0.0
563204.59901257406,4107374.0504322448,-27500.0,-1113.5748499848223,-1217.351576233744,-570.95978179456961,-1035.7343277028108,-694.85717070786677,-589.88538768263459,1612.0807792797455,-532.33741372784607,-1111.9418340443849,1111.9418340443849,532.33741372784607,3065.4642076087921,0.0
568204.59901257406,4107374.0504322448,-27500.0,-1019.7512466364719,-1396.1190659972567,-738.73658881406357,-1140.9222405130968,-843.77572430130488,-709.25285505412444,1835.9964398853897,-392.53354710164825,-1363.9958777586962,1363.9958777586962,392.53354710164825,3460.7155798472299,0.0
573204.59901257406,4107374.0504322448,-27500.0,-828.4418401332548,-1577.8540232999542,-957.28518781839136,-1220.3182951865299,-1011.8814737926799,-837.47625840446472,2079.2548726479299,-163.52799064054011,-1662.702979764716,1662.702979764716,163.52799064054011,3876.0328606074445,0.0
578204.59901257406,4107374.0504322448,-27500.0,-501.82878027715833,-1742.7000121717108,-1236.216503193164,-1244.5386187929712,-1186.4564777416808,-958.94198925887997,2333.0791720860043,184.22752215337607,-2003.7345965688373,2003.7345965688373,-184.22752215337607,4288.7358887827513,0.0
583204.59901257406,4107374.0504322448,-27500.0,0.60024031767530062,-1858.0512508242741,-1579.5176653222572,-1169.3067444905344,-1337.2209850927316,-1040.8433738983908,2581.8041065172106,679.36631452337633,-2369.8663667499382,2369.8663667499382,-679.36631452337633,4664.6705911454692,0.0
588204.59901257406,4107374.0504322448,-27500.0,709.83621023346745,-1878.5831929941769,-1976.5695632690854,-934.58290162809885,-1403.4412264271507,-1020.9551337062983,2803.9736157413927,1337.5775558262067,-2723.9812966446848,2723.9812966446848,-1337.5775558262067,4967.8273585371344,0.0
593204.59901257406,4107374.0504322448,-27500.0,1623.2930882522978,-1758.1900733110072,-2389.9908025170521,-473.12496628078475,-1278.6325540382791,-790.69191662379319,2988.2670049185617,2140.7193536791383,-3007.8759108737468,3007.8759108737468,-2140.7193536791383,5205.3536274310336,0.0
598204.59901257406,4107374.0504322448,-27500.0,2671.9385859985637,-1487.6664308834083,-2751.3711929358669,259.8036802658475,-805.17233136806908,-177.96754643540854,3207.5408867099086,3014.1250012835972,-3164.6136179506675,3164.6136179506675,-3014.1250012835972,5555.6444864722489,0.0
603204.59901257406,4107374.0504322448,-27500.0,3699.9818289887617,-1162.0636363994454,-2994.9538645679008,1225.1995989223619,189.8505374674161,1054.7991038294469,3775.2855987905414,3828.295909082819,-3207.9027705023145,3207.9027705023145,-3828.295909082819,6540.0668868250896,0.0
608204.59901257406,4107374.0504322448,-27500.0,4484.0495994855601,-1032.4567972849381,-3155.9631894104332,2208.6214287477987,1777.8746474839354,3163.8667006491619,5031.5434765283007,4450.2613809715949,-3321.7351678095692,3321.7351678095692,-4450.2613809715949,8794.3678464078585,0.0
613204.59901257406,4107374.0504322448,-27500.0,4789.744454441472,-1453.4109145885116,-3464.7889113744577,2683.9626923270898,3721.0904100344151,6221.4536937260837,6973.8460304503233,4812.8702608968533,-3880.5220020441798,3880.5220020441798,-4812.8702608968533,12308.246126046533,0.0
618204.59901257406,4107374.0504322448,-27500.0,4623.2168906578108,-2678.2083376671198,-4267.7899626115068,1722.8647229874125,5170.417738589801,9418.4004177874212,9044.1517029046408,5057.3757492120858,-5281.906796757874,5281.906796757874,-5057.3757492120858,15978.130196042795,0.0
623204.59901257406,4107374.0504322448,-27500.0,4868.1707895845911,-4298.760327654838,-5701.9858586580176,-1081.951068593128,4571.5672037518352,10043.461395230561,10059.749029873368,5849.1366754765359,-7420.1621776243637,7420.1621776243637,-5849.1366754765359,17744.380302696853,0.0
628204.59901257406,4107374.0504322448,-27500.0,6442.0336575151678,-4700.5493223754784,-7133.199488281537,-3348.6904388907024,1198.7510954174531,5334.1597518706558,9503.2231649370224,7523.2892014134131,-8799.2199211284933,8799.2199211284933,-7523.2892014134131,16574.449623362405,0.0
633204.59901257406,4107374.0504322448,-27500.0,7445.9931452615301,-2855.7099749187582,-7350.1121917202072,-1803.5938750570219,-2757.6537914766186,-2072.0447089302329,8671.1835565517358,8190.9218235089511,-7611.4512749898504,7611.4512749898504,-8190.9218235089511,15024.178557472056,0.0
638204.59901257406,4107374.0504322448,-27500.0,5634.2883290753571,-249.62019351686666,-6154.899264218494,2040.3433887269891,-4694.59796081079,-6617.7035849552685,8624.3512811843029,6247.1949927324877,-4567.709207811431,4567.709207811431,-6247.1949927324877,14948.207354096518,0.0
643204.59901257406,4107374.0504322448,-27500.0,2309.0938075723511,1459.9038594174538,-4452.0516431819069,4809.7536795383276,-4654.2174129621199,-7405.4405898357063,8341.4969184791498,3087.5067182501843,-1709.4111009411808,1709.4111009411808,-3087.5067182501843,14669.15998646586,0.0
648204.59901257406,4107374.0504322448,-27500.0,-540.81060165427425,2097.8583318311521,-2961.9280647312244,5761.7152488924658,-3807.4963688683301,-6449.9271376172828,7517.5800517980324,434.34132381090728,97.536488058088366,-97.536488058088366,-434.34132381090728,13518.838897447056,0.0
653204.59901257406,4107374.0504322448,-27500.0,-2318.8006409224236,2109.6079796977633,-1884.7272992940098,5607.6238078883371,-2878.7439044950302,-5148.9834888509695,6489.2918839941176,-1240.1839337762026,999.54114000759409,-999.54114000759409,1240.1839337762026,11915.369601663424,0.0
658204.59901257406,4107374.0504322448,-27500.0,-3214.8397904979529,1862.4578286877895,-1170.0898215890797,5001.8158100956107,-2107.4605580481207,-3985.3282780781396,5489.0347432152448,-2122.0237203287779,1348.680926313247,-1348.680926313247,2122.0237203287779,10253.536607061233,0.0
663204.59901257406,4107374.0504322448,-27500.0,-3544.6599941832064,1547.9814371005946,-715.09388175367758,4283.1351238468096,-1524.3363005611045,-3051.2053715494199,4605.5833765250172,-2493.6931892533312,1406.6847817881935,-1406.6847817881935,2493.6931892533312,8720.6055924357443,0.0
668204.59901257406,4107374.0504322448,-27500.0,-3547.8469997162047,1247.5978878494884,-431.5267774193232,3593.9141791051647,-1099.4934098236984,-2328.2758741540697,3856.3720273519143,-2567.9382557486247,1326.8136400699314,-1326.8136400699314,2567.9382557486247,7378.5532065194757,0.0
673204.59901257406,4107374.0504322448,-27500.0,-3376.6165834213552,989.28637725507269,-257.03346347284241,2984.8034808333,-794.48247539547424,-1777.0859190343724,3232.1993679223256,-2480.1771442259524,1191.0347983193872,-1191.0347983193872,2480.1771442259524,6233.5586630353455,0.0
678204.59901257406,4107374.0504322448,-27500.0,-3121.9349388201604,777.89629081800217,-150.69074036670608,2467.259311889431,-576.50606015153755,-1359.7715463240754,2716.2054291735394,-2311.6348461647995,1040.9163276838201,-1040.9163276838201,2311.6348461647995,5269.9378856216554,0.0
683204.59901257406,4107374.0504322448,-27500.0,-2836.5038331849796,609.3167299205877,-86.524373032601915,2036.7207170932177,-420.64317523039517,-1044.7505202516718,2290.8650161968203,-2109.5873282649927,896.29158527107893,-896.29158527107893,2109.5873282649927,4464.8402737878632,0.0
688204.59901257406,4107374.0504322448,-27500.0,-2549.8596913589195,476.71834304128674,-48.308125219996029,1682.7451934069572,-308.81173250977253,-806.98905300914896,1940.3125344312775,-1900.7359194934129,765.60286813140362,-765.60286813140362,1900.7359194934129,3794.5021909491929,0.0
693204.59901257406,4107374.0504322448,-27500.0,-2277.6750210606397,373.14861976419655,-25.981640828854612,1393.5184314001476,-228.16167213015697,-627.18528260476728,1650.962178426922,-1699.4752015988704,651.48857938228934,-651.48857938228934,1699.4752015988704,3236.8837508080878,0.0
698204.59901257406,4107374.0504322448,-27500.0,-2027.4218458189014,292.48734687089262,-13.328654357428027,1157.821083331402,-169.64310260159596,-490.71945504247469,1411.4993289465788,-1512.9253123150324,553.76568420040348,-553.76568420040348,1512.9253123150324,2772.6513796696117,0.0
703204.59901257406,4107374.0504322448,-27500.0,-1801.818971275866,229.68966452616161,-6.5147114699771791,965.79363388954243,-126.9004310881904,-386.64561673241093,1212.6479659225979,-1343.9848844498913,471.00253884703829,-471.00253884703829,1343.9848844498913,2385.3765889053093,0.0
708204.59901257406,4107374.0504322448,-27500.0,-1600.9231232539623,180.73732047667306,-3.1780745431895427,809.12540653491885,-95.465844982292182,-306.82410794869202,1046.8725850360918,-1193.1749494675651,401.32884070753823,-401.32884070753823,1193.1749494675651,2061.3665608190809,0.0
713204.59901257406,4107374.0504322448,-27500.0,-1423.3873872896997,142.49020884912315,-1.8675998465174646,680.98073619677757,-72.188261055244467,-245.22147518796999,908.08327806845341,-1059.7442658450034,342.83644832419662,-342.83644832419662,1059.7442658450034,1789.3449552159616,0.0
718204.59901257406,4107374.0504322448,-27500.0,-1267.2057748760801,112.52010135503396,-1.6957902082425198,575.81887275031943,-54.8345526876641,-197.36704296770023,791.36988768337608,-942.32195253611542,293.76201895114593,-293.76201895114593,942.32195253611542,1560.0909470763049,0.0
723204.59901257406,4107374.0504322448,-27500.0,-1130.1428496352037,88.959158126508555,-2.1242712512029294,489.1868669644935,-41.812899151812793,-159.94241893325946,692.7746621234644,-839.29451841174387,252.55612028526303,-252.55612028526303,839.29451841174387,1366.0923108661177,0.0
523204.59901257406,4112374.0504322448,-27500.0,-881.19573950726965,-320.57781053724483,-60.072414731199729,-401.05821358367439,-124.98140675466091,-136.00214614326211,609.86221094767484,-603.97667190247307,-147.02004119705151,147.02004119705151,603.97667190247307,1206.3895270913356,0.0
528204.59901257406,4112374.0504322448,-27500.0,-972.13497782267473,-372.4259807008014,-71.437184172079881,-466.36094798058605,-150.59016327087491,-166.03765493162038,692.82943414543524,-663.08622196807278,-180.06601602783729,180.06601602783729,663.08622196807278,1368.0688783070505,0.0
533204.59901257406,4112374.0504322448,-27500.0,-1071.7757410164872,-434.39991504843459,-86.241151282126395,-543.93684697918377,-182.49472262923612,-203.78430086098928,789.85897908749484,-726.65170897622011,-221.71586515080475,221.71586515080475,726.65170897622011,1556.5592472916994,0.0
538204.59901257406,4112374.0504322448,-27500.0,-1179.6891421199482,-508.63351576952863,-105.77224830763723,-636.10505599380156,-222.42465665884077,-251.40292354428249,903.58672550875269,-793.75462201964774,-274.46502684754546,274.46502684754546,793.75462201964774,1776.66592710495,0.0
543204.59901257406,4112374.0504322448,-27500.0,-1294.5231316502857,-597.64756266448421,-131.85519432593981,-745.46107368965465,-272.58891030050484,-311.65198689713498,1037.0964811146087,-862.58457156651707,-341.56844651831619,341.56844651831619,862.58457156651707,2033.8825580247003,0.0
548204.59901257406,4112374.0504322448,-27500.0,-1413.4373261926773,-704.33830408433278,-167.08608125528872,-874.75630291764139,-335.77528778761229,-388.00717673808265,1193.9272171117805,-929.94454529992981,-427.25464693049616,427.25464693049616,929.94454529992981,2334.3008618746112,0.0
553204.59901257406,4112374.0504322448,-27500.0,-1531.2573341844341,-831.87846393959217,-215.16590214046548,-1026.621904464401,-415.42760244782738,-484.75159970597957,1378.0140052332479,-990.52296911411577,-536.97085806032283,536.97085806032283,990.52296911411577,2684.3317414522994,0.0
558204.59901257406,4112374.0504322448,-27500.0,-1639.2351772424154,-983.44465347805954,-281.36427199065633,-1203.0190467064872,-515.63951286892927,-606.96677057077125,1593.497798247437,-1035.8452368890989,-677.62647270348589,677.62647270348589,1035.8452368890989,3090.0827147806658,0.0
563204.59901257406,4112374.0504322448,-27500.0,-1723.2861542651444,-1161.62351559382,-373.13610427943422,-1404.2260692252789,-640.93583091959056,-760.28386529133877,1844.2922739242726,-1052.8131174023788,-857.75075620074563,857.75075620074563,1052.8131174023788,3556.1407919172575,0.0
568204.59901257406,4112374.0504322448,-27500.0,-1761.5950687120883,-1367.2479036604368,-500.87106713454858,-1627.0666633336266,-795.57559570943499,-950.12315202959974,2133.2113372693825,-1021.779524540136,-1087.3723608409571,1087.3723608409571,1021.779524540136,4083.3600642365614,0.0
573204.59901257406,4112374.0504322448,-27500.0,-1721.638370656427,-1597.2776384716369,-678.61727206936962,-1861.9423979640771,-981.84906787272564,-1179.9076579091432,2460.3199078593898,-914.27679893563254,-1377.2165055958912,1377.2165055958912,914.27679893563254,4665.06028186392,0.0
578204.59901257406,4112374.0504322448,-27500.0,-1557.1842367137685,-1841.2351412034959,-924.26455833068701,-2088.1168336893115,-1196.3546743727557,-1447.2939641174949,2819.9617738198181,-691.02483615714993,-1736.4491181563044,1736.4491181563044,691.02483615714993,5280.9129196574886,0.0
583204.59901257406,4112374.0504322448,-27500.0,-1207.2345848733116,-2075.9589448040078,-1257.8683178231415,-2266.8695372764928,-1422.4184301373984,-1736.6458886344717,3195.7019697043243,-302.12997082456116,-2167.7202751833229,2167.7202751833229,302.12997082456116,5888.1886622884795,0.0
588204.59901257406,4112374.0504322448,-27500.0,-602.0604471360333,-2260.2373928523189,-1695.4095565841099,-2333.6449179666902,-1615.8691200494302,-2004.7017296065546,3552.7814849618508,305.9400680479589,-2658.4013178909204,2658.4013178909204,-305.9400680479589,6412.9597153220902,0.0
593204.59901257406,4112374.0504322448,-27500.0,313.67252779859069,-2337.3110236133039,-2234.5558432710959,-2195.9650247432673,-1682.3980667656444,-2155.6568008466697,3831.320498344312,1168.7087607056819,-3170.8431554706103,3170.8431554706103,-1168.7087607056819,6756.1738809650269,0.0
598204.59901257406,4112374.0504322448,-27500.0,1531.9722186521892,-2267.870604181297,-2835.91478944555,-1757.3449227216688,-1456.3242922398485,-2007.585304234816,3963.0496677042147,2263.9076308893518,-3650.261281944765,3650.261281944765,-2263.9076308893518,6870.4914781536372,0.0
603204.59901257406,4112374.0504322448,-27500.0,2931.6212211030738,-2124.434332757929,-3434.8726628363979,-997.91916199156822,-730.67241288488469,-1278.1386007624965,4044.2346895519322,3486.1296986960365,-4098.6185294471843,4098.6185294471843,-3486.1296986960365,7041.4309740517856,0.0
608204.59901257406,4112374.0504322448,-27500.0,4316.6660917514728,-2199.4342635737744,-4062.6637148985378,-94.263334572540984,559.84466463565798,341.92339244134303,4764.7116991318762,4724.5307816801142,-4735.0980013341159,4735.0980013341159,-4724.5307816801142,8257.4533407027411,0.0
613204.59901257406,4112374.0504322448,-27500.0,5530.0189645070632,-2868.1253640480322,-5022.7077766114471,525.47141606367632,2017.5992381511885,2964.2426063004414,6242.0479790982899,5995.1902102741396,-6004.1445668103415,6004.1445668103415,-5995.1902102741396,11339.58655341652,0.0
618204.59901257406,4112374.0504322448,-27500.0,6448.8517830151759,-4089.1232765639088,-6631.7465389178378,130.14169523935362,2681.4327732708889,5861.9722706661205,8075.6844378713149,7311.0761710118495,-8030.7950429908778,8030.7950429908778,-7311.0761710118495,15347.755148731198,0.0
623204.59901257406,4112374.0504322448,-27500.0,7400.8074887862358,-5034.5037725714346,-8387.9711523203878,-1693.8859322946403,1458.645714554191,6076.7840576669259,9930.6713466389156,8679.2547731872892,-9925.5678523669503,9925.5678523669503,-8679.2547731872892,17921.027634574522,0.0
628204.59901257406,4112374.0504322448,-27500.0,8756.6023341450054,-4390.6138278943918,-8902.9242105823705,-2508.8272208693638,-1401.4845062352949,541.69166200636289,10274.373773015228,9801.3750563748526,-9920.3391001723012,9920.3391001723012,-9801.3750563748526,17801.117660170152,0.0
633204.59901257406,4112374.0504322448,-27500.0,8434.8724435553358,-2244.8635886086299,-7519.9792996566839,551.02902351363173,-3612.5319998047626,-6914.7770862132838,9873.0751593593195,8928.8862525217883,-7379.4063553098758,7379.4063553098758,-8928.8862525217883,17333.434488708946,0.0
638204.59901257406,4112374.0504322448,-27500.0,5127.6376683581802,-260.41483036620389,-5263.9729912851299,4873.5764601044002,-3992.3973800606009,-10217.913022775305,10052.778881510041,5574.3029161465356,-3993.931571856861,3993.931571856861,-5574.3029161465356,17415.019686629683,0.0
643204.59901257406,4112374.0504322448,-27500.0,1070.0929216486445,764.14439952356986,-3281.4812845705533,7159.2470387743879,-3323.5505432217583,-9574.5487557513861,9469.9667250194761,1834.5722547189091,-1406.6390203967314,1406.6390203967314,-1834.5722547189091,16570.389719957482,0.0
648204.59901257406,4112374.0504322448,-27500.0,-1836.8355526165615,1064.963920394177,-1912.3420272343769,7395.2131042166448,-2456.774231839795,-7645.9239621920487,8276.160663577979,-793.25932167748454,72.574818623358965,-72.574818623358965,793.25932167748454,14794.924112535209,0.0
653204.59901257406,4112374.0504322448,-27500.0,-3391.7761240791124,1019.9974601503511,-1061.2301936087624,6661.937896041054,-1726.8394784406371,-5798.1796271482244,6971.0452601799634,-2222.7008840000008,766.2548355896148,-766.2548355896148,2222.7008840000008,12729.564558378634,0.0
658204.59901257406,4112374.0504322448,-27500.0,-4020.4198532041082,855.43404438702157,-558.75811634058948,5664.7888501189591,-1188.9430877945631,-4342.8084266217129,5789.7738539982292,-2842.4485912848568,1018.8675741904228,-1018.8675741904228,2842.4485912848568,10766.085357360193,0.0
663204.59901257406,4112374.0504322448,-27500.0,-4122.4906504063047,673.23834284995132,-271.75560924483347,4697.6491849790555,-812.48537585544932,-3252.1544348989264,4792.7793312878111,-3000.055562260919,1051.2186954456113,-1051.2186954456113,3000.055562260919,9043.1234634276952,0.0
668204.59901257406,4112374.0504322448,-27500.0,-3952.8698546294254,511.36928105117863,-112.78058918292304,3853.4314306564497,-554.35296210577849,-2443.1999283155506,3972.8040594528202,-2915.8549123555181,983.93353301936293,-983.93353301936293,2915.8549123555181,7581.644952879059,0.0
673204.59901257406,4112374.0504322448,-27500.0,-3656.7966264646698,379.74623424280423,-28.131007326183614,3147.6668012145601,-378.58183266298659,-1843.5481272403899,3304.2389808323951,-2715.7818461764814,878.58079270337441,-878.58079270337441,2715.7818461764814,6360.9295626586099,0.0
678204.59901257406,4112374.0504322448,-27500.0,-3313.9344448046832,277.33349827331426,14.166953153276722,2569.5264585688092,-258.95838587969985,-1398.3850350411797,2760.1316808407623,-2469.2498094493376,765.17791987741043,-765.17791987741043,2469.2498094493376,5348.8096242383572,0.0
683204.59901257406,4112374.0504322448,-27500.0,-2966.8747004759794,199.56190272240275,32.822214363264912,2100.7458269870385,-177.33139246357825,-1067.1276097516857,2316.8402736076614,-2213.5976365556548,657.47645150749759,-657.47645150749759,2213.5976365556548,4512.4016131894941,0.0
688204.59901257406,4112374.0504322448,-27500.0,-2637.3779752108871,141.3386231583097,38.649094489235772,1722.4949500063135,-121.39903346052117,-819.81012385598615,1954.772215458172,-1968.1080353286534,561.00671129221803,-561.00671129221803,1968.1080353286534,3821.7695579875481,0.0
693204.59901257406,4112374.0504322448,-27500.0,-2335.4733254991584,98.133338946506939,37.82798483495494,1417.7916073916285,-82.890690000646174,-634.35292718725896,1658.0328204305476,-1741.8991354682244,477.24760099853165,-477.24760099853165,1741.8991354682244,3250.9999432346767,0.0
698204.59901257406,4112374.0504322448,-27500.0,-2064.6460263006456,66.262628615909463,33.842257790584306,1172.2056850132562,-56.253811963570314,-494.54026521422463,1413.8558790833272,-1538.4235268697616,405.78049809122069,-405.78049809122069,1538.4235268697616,2778.2909892427901,0.0
703204.59901257406,4112374.0504322448,-27500.0,-1824.8314046149048,42.86144733013213,28.615758488994651,973.86362195531774,-37.751460332562196,-388.49424131396933,1212.0384294865148,-1358.056094918393,345.38962404777197,-345.38962404777197,1358.056094918393,2385.6180927159444,0.0
708204.59901257406,4112374.0504322448,-27500.0,-1614.1525937230906,25.754534966704753,23.176639277017653,813.18034656150678,-24.857169560779198,-307.52444060636179,1044.445561859063,-1199.5884887746242,294.61336773420226,-294.61336773420226,1199.5884887746242,2058.2453762723353,0.0
713204.59901257406,4112374.0504322448,-27500.0,-1429.9199805315786,13.312286640412632,18.043388340771493,682.50659064726165,-15.852915360683056,-245.26842602636958,904.59472572169568,-1061.0845393141979,252.00776060944031,-252.00776060944031,1061.0845393141979,1784.2075277053621,0.0
718204.59901257406,4112374.0504322448,-27500.0,-1269.1956926289174,4.3227861846797655,13.448611583913046,575.77896918283079,-9.5629048989428664,-197.05779548269922,787.31696634991431,-940.36166613668343,216.26136748355043,-216.26136748355043,940.36166613668343,1553.8272701534929,0.0
723204.59901257406,4112374.0504322448,-27500.0,-1129.0945045830454,-2.1124950855027906,9.4683728110719354,488.20596819939033,-5.176825265472341,-159.45437901360472,688.48172639428117,-835.24803928393771,186.23338246870696,-186.23338246870696,835.24803928393771,1359.2866276512893,0.0
523204.59901257406,4117374.0504322448,-27500.0,-992.34784545655145,-256.18370539640676,-26.981946366366238,-443.70895712639123,-97.840296285702152,-148.70431826032939,647.00115133271333,-702.13524186124255,-59.077208705337966,59.077208705337966,702.13524186124255,1282.7635742135719,0.0
528204.59901257406,4117374.0504322448,-27500.0,-1105.9113493914772,-297.64528944377986,-30.748926515603198,-520.03065856344926,-117.70232165245666,-182.78817423574947,737.75356076336027,-781.30050303883945,-75.909132293089954,75.909132293089954,781.30050303883945,1460.9101972913197,0.0
533204.59901257406,4117374.0504322448,-27500.0,-1233.7100935390279,-347.43390287185861,-35.912807810041592,-612.02240046450754,-142.48182431346953,-226.09619693379329,844.72998351190734,-869.83067968438559,-97.867607468553956,97.867607468553956,869.83067968438559,1670.2800152368368,0.0
538204.59901257406,4117374.0504322448,-27500.0,-1376.8360599795203,-407.44363646837002,-43.156555104094409,-723.20574257160899,-173.56975372149782,-281.43430054617528,971.26524073735504,-968.15107683716553,-126.67094652501476,126.67094652501476,968.15107683716553,1917.0761923606187,0.0
543204.59901257406,4117374.0504322448,-27500.0,-1535.8869973158091,-479.99892924825605,-53.520745635560495,-857.84973183492491,-212.77218614191906,-352.51198481617564,1121.4067487463228,-1076.1682389181187,-164.66163961727369,164.66163961727369,1076.1682389181187,2208.6924538674266,0.0
548204.59901257406,4117374.0504322448,-27500.0,-1710.49868598698,-567.9191002650166,-68.59939871829252,-1021.0458337363905,-262.42112866147437,-444.21942762381451,1300.0325134521081,-1192.8540988179684,-215.04348933121952,215.04348933121952,1192.8540988179684,2553.8183297402488,0.0
553204.59901257406,4117374.0504322448,-27500.0,-1898.5856776692442,-674.55574631182628,-90.846415364076435,-1218.7068569757871,-325.49312017135594,-562.96110704418311,1512.9510051853431,-1315.5801078086088,-282.20637375523097,282.20637375523097,1315.5801078086088,2962.4324711833669,0.0
558204.59901257406,4117374.0504322448,-27500.0,-2095.1280107633434,-803.75744861272062,-124.05510557896444,-1457.3972160179649,-405.70755440853958,-717.02483156395613,1766.9388881113887,-1439.0641065433006,-372.16366351922159,372.16366351922159,1439.0641065433006,3445.5549388288086,0.0
563204.59901257406,4117374.0504322448,-27500.0,-2290.2597621298983,-959.6708792140206,-174.10387235529078,-1743.8250255249022,-507.53615811993313,-916.92208488848144,2069.6290529311896,-1553.7257863157624,-493.12151926769377,493.12151926769377,1553.7257863157624,4014.5281310245214,0.0
568204.59901257406,4117374.0504322448,-27500.0,-2466.2994176635407,-1146.2006842906849,-250.09819113929441,-2083.6814237397703,-635.96952584761948,-1175.5455140818383,2429.071031205463,-1643.1555222372435,-656.16967128220676,656.16967128220676,1643.1555222372435,4679.4131788228187,0.0
573204.59901257406,4117374.0504322448,-27500.0,-2593.2351361086157,-1365.7814443536734,-366.05614250250335,-2479.2451091192788,-795.70098376350791,-1507.8030474245493,2852.6044284543259,-1680.315381644248,-875.97851819762877,875.97851819762877,1680.315381644248,5445.7785029311344,0.0
578204.59901257406,4117374.0504322448,-27500.0,-2622.1694278858868,-1616.8071377476911,-543.19409127296706,-2924.6502003260816,-988.97406767147879,-1928.9558902393583,3344.2939307309384,-1622.13964445589,-1171.0921877278347,1171.0921877278347,1622.13964445589,6308.617207886824,0.0
583204.59901257406,4117374.0504322448,-27500.0,-2476.9248784895362,-1888.6105030443082,-812.38589874824413,-3396.8343048936804,-1210.3853168859689,-2449.7896278946077,3899.3846170848865,-1402.9145884528884,-1562.661567743387,1562.661567743387,1402.9145884528884,7241.3641865257405,0.0
588204.59901257406,4117374.0504322448,-27500.0,-2047.306804152264,-2152.8688544114952,-1214.7915252707878,-3839.414673757602,-1434.8701602620561,-3063.9235178074418,4492.9646291967147,-929.77838437336027,-2069.0297854513092,2069.0297854513092,929.77838437336027,8177.8570135121909,0.0
593204.59901257406,4117374.0504322448,-27500.0,-1197.6156401688329,-2353.9687616002589,-1794.9375032802357,-4139.8836231138657,-1591.9576505608327,-3716.6969412766775,5059.64409616584,-92.0874852303632,-2692.7807905759591,2692.7807905759591,92.0874852303632,8991.121464407066,0.0
598204.59901257406,4117374.0504322448,-27500.0,178.1337336224604,-2418.830615424466,-2576.8141498430332,-4121.1678065253427,-1522.5746002952019,-4241.4907110746271,5469.6528789682188,1190.6005554335952,-3406.2213016339883,3406.2213016339883,-1190.6005554335952,9508.2059406863755,0.0
603204.59901257406,4117374.0504322448,-27500.0,2035.5816727231424,-2349.5705350728581,-3530.7283584630986,-3622.1747833806571,-961.93115117557363,-4286.7280970642933,5550.8763130173866,2875.7476897540446,-4187.1864859749103,4187.1864859749103,-2875.7476897540446,9719.1204384619778,0.0
608204.59901257406,4117374.0504322448,-27500.0,4135.1214645487753,-2439.8648538597795,-4623.3249608955985,-2730.678785981077,254.66949654827459,-3406.3874022194232,5496.8609837819804,4798.6610446903696,-5212.511165323006,5212.511165323006,-4798.6610446903696,10390.190059265413,0.0
613204.59901257406,4117374.0504322448,-27500.0,6305.4235280709254,-3232.7509250566454,-6047.4660274374201,-1846.8353178166401,1579.0834876876322,-1510.459481198671,7345.756524358203,6940.8871822460515,-6996.1058654370754,6996.1058654370754,-6940.8871822460515,12891.784968728218,0.0
618204.59901257406,4117374.0504322448,-27500.0,8333.2390755877532,-4556.6952519762308,-8036.5367812316235,-1292.2895964180332,1654.6630739394031,721.96932881496343,9603.6945946129999,9210.3879794253862,-9497.716546290043,9497.716546290043,-9210.3879794253862,16637.920265049328,0.0
623204.59901257406,4117374.0504322448,-27500.0,9583.9218789120769,-5063.2284539222264,-9672.512998807817,-1330.5615820066887,3.8511037906469721,1096.7369414884288,10966.906371892432,10723.612802650878,-11023.102745993336,11023.102745993336,-10723.612802650878,19016.564945136513,0.0
628204.59901257406,4117374.0504322448,-27500.0,9846.5173418398554,-3967.595355517693,-9336.618270438119,-664.37716920819037,-1805.7436517580386,-3027.5352691564021,10621.69875473202,10717.549377113664,-10002.697352537918,10002.697352537918,-10717.549377113664,18576.893863756402,0.0
633204.59901257406,4117374.0504322448,-27500.0,8155.8821779985374,-2336.6149432742754,-7181.5147580994008,2499.5213221009085,-2163.9616682652991,-8504.5090837264524,9542.5825668266698,8616.398799137296,-7217.3713973298945,7217.3713973298945,-8616.398799137296,17505.646714157341,0.0
638204.59901257406,4117374.0504322448,-27500.0,4360.2792223126935,-1312.9068566677815,-4687.9035258521644,6040.4084714157507,-1560.3300377180742,-10539.055461229422,9793.2863277862925,4897.5213187022,-4386.0124339446029,4386.0124339446029,-4897.5213187022,17058.210581445957,0.0
643204.59901257406,4117374.0504322448,-27500.0,448.11588884167298,-846.36895954488432,-2759.6666634941885,7658.9902740834405,-923.83383147524387,-9475.6006984597207,9226.4535439625979,1327.2368169017225,-2297.9465057648326,2297.9465057648326,-1327.2368169017225,16050.754469250727,0.0
648204.59901257406,4117374.0504322448,-27500.0,-2202.8761686215034,-625.29202507436935,-1515.467184807296,7551.0502175282045,-494.39837330306875,-7479.4614755488674,8064.7065677905148,-1063.5497922318566,-993.93065442691625,993.93065442691625,1063.5497922318566,14314.447021226189,0.0
653204.59901257406,4117374.0504322448,-27500.0,-3565.8201509411761,-504.693479355394,-780.87585454613338,6667.6279478691249,-231.28255924545968,-5650.6577197988236,6796.9955197438594,-2325.2558609839471,-264.65062675324634,264.65062675324634,2325.2558609839471,12337.140173614189,0.0
658204.59901257406,4117374.0504322448,-27500.0,-4074.940772050194,-430.35108487403147,-368.15652290772942,5610.5358881787715,-76.364141361993887,-4226.1725499177901,5648.5689971470447,-2845.4920170163409,108.83659983212965,-108.83659983212965,2845.4920170163409,10456.153382823797,0.0
663204.59901257406,4117374.0504322448,-27500.0,-4108.4162222703371,-378.12864941276825,-145.00521551847757,4623.851084978689,10.262351564716369,-3162.9378748786921,4678.2293218403056,-2949.5016230096521,281.26721354174742,-281.26721354174742,2949.5016230096521,8799.1188858547448,0.0
668204.59901257406,4117374.0504322448,-27500.0,-3902.3251422602257,-336.50525210835173,-29.673932154973489,3778.0522274025211,54.933075158126172,-2375.793465417602,3879.4880891848688,-2839.7548244086311,345.93264009266295,-345.93264009266295,2839.7548244086311,7388.2202045700487,0.0
673204.59901257406,4117374.0504322448,-27500.0,-3589.2015857312981,-300.41842779486092,25.769469834800166,3078.269068549499,74.794407128623632,-1792.8541938997218,3227.8089022294712,-2630.4944027814045,355.23051808721038,-355.23051808721038,2630.4944027814045,6206.1174286314572,0.0
678204.59901257406,4117374.0504322448,-27500.0,-3240.6457990616968,-267.94958315783902,48.741085549456791,2508.7404867163309,80.634268284401386,-1360.2727115623318,2697.1656065639986,-2383.8873067716581,337.67130899029746,-337.67130899029746,2383.8873067716581,5223.6795015319722,0.0
683204.59901257406,4117374.0504322448,-27500.0,-2894.2650919980633,-238.49704803363088,54.683780929930101,2048.8994660302023,78.985841340174275,-1038.4028927332542,2264.6540545974253,-2132.9055932580559,308.49164766563877,-308.49164766563877,2132.9055932580559,4410.329590611921,0.0
688204.59901257406,4117374.0504322448,-27500.0,-2568.7956044741481,-211.89487596567713,52.178256390860078,1678.9104010390706,73.669305538231384,-798.06336009793154,1911.2550542608117,-1894.2645252684779,275.6739768311262,-275.6739768311262,1894.2645252684779,3737.8006839288369,0.0
693204.59901257406,4117374.0504322448,-27500.0,-2272.4742217847047,-188.0536841239346,45.912637685878103,1381.4300382693943,66.844442220685906,-617.79367080492068,1621.5236628817424,-1675.622554735093,243.25513324065014,-243.25513324065014,1675.622554735093,3181.389580756756,0.0
698204.59901257406,4117374.0504322448,-27500.0,-2007.7509084754317,-166.84709282756361,38.384197754349465,1141.9725779224352,59.686021636002963,-481.84779863929339,1383.0439966187071,-1479.6372044954578,213.1349440650979,-213.1349440650979,1479.6372044954578,2720.174714735123,0.0
703204.59901257406,4117374.0504322448,-27500.0,-1773.9856149383691,-148.09653911513229,30.868008293365243,948.74345923604903,52.798446791297167,-378.69677034996971,1185.8861918562279,-1306.2805827168686,186.06860891050621,-186.06860891050621,1306.2805827168686,2336.7795513246997,0.0
708204.59901257406,4117374.0504322448,-27500.0,-1569.0028597033638,-131.58821567538789,23.965468023509935,792.28686911485966,46.463554704462013,-299.9066357478664,1022.1293937593517,-1154.1687782281792,162.21271665677875,-162.21271665677875,1154.1687782281792,2016.9535540951053,0.0
713204.59901257406,4117374.0504322448,-27500.0,-1389.9760726890049,-117.09309987382476,17.913855601890766,665.09111517116355,40.785153838046874,-239.30214711613991,885.458009664663,-1021.3164465361128,141.42616591075239,-141.42616591075239,1021.3164465361128,1749.0979233562248,0.0
718204.59901257406,4117374.0504322448,-27500.0,-1233.922117449494,-104.38361591796016,12.759992108637828,561.2202031602676,35.772555026551188,-192.35118183265195,770.83264363804699,-905.55853071847332,123.43439614816776,-123.43439614816776,905.55853071847332,1523.8141747425366,0.0
723204.59901257406,4117374.0504322448,-27500.0,-1097.9632095751035,-93.244292986904483,8.4568078579237476,475.99433098604351,31.387968295187871,-155.71526656864478,674.22452309549897,-804.7750234124461,107.91748566616741,-107.91748566616741,804.7750234124461,1333.5011710255451,0.0
523204.59901257406,4122374.0504322448,-27500.0,-1080.3925296987911,-176.32063268506468,-2.745594792033669,-477.54741286355784,-64.971795493544633,-158.8156561265647,678.83289824365681,-781.49730999538428,32.497583205899844,-32.497583205899844,781.49730999538428,1344.461918720426,0.0
528204.59901257406,4122374.0504322448,-27500.0,-1211.571789891515,-203.19496103227573,-0.90923274106321805,-562.49849602076631,-77.245596156948352,-196.0930139096242,776.02549739489746,-876.68562085515873,33.301061410030741,-33.301061410030741,876.68562085515873,1535.7336152842477,0.0
533204.59901257406,4122374.0504322448,-27500.0,-1361.2935014064074,-235.24320107705347,1.0786468329292989,-665.77596149068586,-92.362035895982316,-243.78744262364333,891.2057032754509,-985.18413054447569,33.060181475882985,-33.060181475882985,985.18413054447569,1761.7609805022169,0.0
538204.59901257406,4122374.0504322448,-27500.0,-1531.8616033805245,-273.62020018354423,3.0226169167090005,-791.85352214748445,-111.07183704351121,-305.21808921475593,1028.3049133897614,-1108.5340697513857,31.116327332072046,-31.116327332072046,1108.5340697513857,2029.896305023891,0.0
543204.59901257406,4122374.0504322448,-27500.0,-1725.4526467865558,-319.75216678696358,4.5344616172305656,-946.33795604008344,-134.33099624397212,-384.85648504415059,1192.196166517401,-1248.0963936429985,26.465471479248549,-26.465471479248549,1248.0963936429985,2349.1199973625748,0.0
548204.59901257406,4122374.0504322448,-27500.0,-1943.7529791272643,-375.39197455748837,4.8907856354299586,-1136.2152351061566,-163.34670684521052,-488.7370131920253,1388.9164506731961,-1404.7320044523212,17.575388910017523,-17.575388910017523,1404.7320044523212,2730.336099912457,0.0
553204.59901257406,4122374.0504322448,-27500.0,-2187.3188492218096,-442.67496790270616,2.7901267760293411,-1370.1015765302427,-199.61978637261876,-625.00215466311397,1625.9236700515767,-1578.2438322603357,2.1012094442320404,-2.1012094442320404,1578.2438322603357,3186.6486335534628,0.0
558204.59901257406,4122374.0504322448,-27500.0,-2454.475757632003,-524.16465089117889,-4.0620920523262409,-1658.4454686700656,-244.96654933018604,-804.61252814723673,1912.3748362759966,-1766.4220743541164,-23.562178995909903,23.562178995909903,1766.4220743541164,3733.5404238951655,0.0
563204.59901257406,4122374.0504322448,-27500.0,-2739.447901930338,-622.86422795327019,-19.664038624705032,-2013.5636771933348,-301.48436900418682,-1042.2465239924711,2259.3867605899313,-1963.4250721190592,-64.990940362946162,64.990940362946162,1963.4250721190592,4388.8005103748428,0.0
568204.59901257406,4122374.0504322448,-27500.0,-3029.1866657661362,-742.13764499492947,-50.933232765218492,-2449.2588099152254,-371.38853931390082,-1357.3974134036348,2680.1794174751594,-2157.0381094831332,-130.86511655539834,130.86511655539834,2157.0381094831332,5171.9010124897904,0.0
573204.59901257406,4122374.0504322448,-27500.0,-3297.9727350439875,-885.40879721113004,-109.77806131748649,-2979.4541611915229,-456.57683520484164,-1775.6288170155769,3189.8496203362452,-2324.0202583071314,-234.76520674020003,234.76520674020003,2324.0202583071314,6102.234200774009,0.0
578204.59901257406,4122374.0504322448,-27500.0,-3498.2122818987596,-1055.2967373791178,-216.57308485457284,-3614.4950460892583,-557.60164038505729,-2329.7537914937675,3804.1024759469387,-2422.2172760710209,-397.92278560104,397.92278560104,2422.2172760710209,7194.9584832440059,0.0
583204.59901257406,4122374.0504322448,-27500.0,-3545.1553601934761,-1251.3144995362443,-405.74905858853816,-4351.8257220041896,-671.21137919929731,-3059.8337778933237,4535.178218699516,-2377.5951950258827,-652.99584654028649,652.99584654028649,2377.5951950258827,8451.7386821923119,0.0
588204.59901257406,4122374.0504322448,-27500.0,-3294.3264558430574,-1464.1987293525865,-733.84633680773584,-5153.4904289314081,-783.9820188175529,-4007.2158401725096,5380.5978568120308,-2065.3375871837129,-1047.7182527541913,1047.7182527541913,2065.3375871837129,9840.757937667986,0.0
593204.59901257406,4122374.0504322448,-27500.0,-2520.9574911910768,-1664.437403106235,-1287.7155334545964,-5897.4317874549006,-854.94037594580732,-5185.2703941365498,6295.8633249374116,-1292.8266459968402,-1643.678783053593,1643.678783053593,1292.8266459968402,11258.246810248449,0.0
598204.59901257406,4122374.0504322448,-27500.0,-949.61180152709608,-1791.657087395419,-2181.3525124774801,-6300.8363328895502,-772.64047455119749,-6480.2329773121428,7142.1229406187013,176.61814638358669,-2501.2846153115388,2501.2846153115388,-176.61814638358669,12482.600100009859,0.0
603204.59901257406,4122374.0504322448,-27500.0,1551.4964743117139,-1800.9197769723514,-3513.5697647386155,-5911.7039844775927,-292.16707671604109,-7429.6822523342344,7640.3030639353819,2469.8956894987514,-3661.4982260835977,3661.4982260835977,-2469.8956894987514,13253.56386419893,0.0
608204.59901257406,4122374.0504322448,-27500.0,4619.8342332005304,-1901.8472224919487,-5277.9881502678336,-4475.9066380479444,854.32396977323549,-7101.0686865712405,7563.6144596364138,5334.1724448945315,-5229.3612805762987,5229.3612805762987,-5334.1724448945315,13873.605714531413,0.0
613204.59901257406,4122374.0504322448,-27500.0,7544.6481461130033,-2757.2750568514411,-7333.4394415507304,-2549.8472716733813,2167.6022147672788,-4942.0434514581111,8680.1482333821532,8250.2557431757778,-7539.5004583036907,7539.5004583036907,-8250.2557431757778,15745.006341015453,0.0
618204.59901257406,4122374.0504322448,-27500.0,9749.9096347630893,-4344.1754807506331,-9318.836564789015,-821.026512428714,1850.6295608478015,-1997.2236165615757,10690.643271097451,10670.043583212619,-10277.554346033974,10277.554346033974,-10670.043583212619,18615.086447420254,1.0
623204.59901257406,4122374.0504322448,-27500.0,10186.442199619294,-4888.3169743113331,-10190.625154975092,299.18158106524749,-341.23502034176084,-183.64286177516016,11309.589570749929,11328.561536212177,-11272.019518929117,11272.019518929117,-11328.561536212177,19589.701319367159,0.0
628204.59901257406,4122374.0504322448,-27500.0,9057.2220712938361,-3782.2169649556895,-9154.7761675923139,898.55358209485598,-1630.5045356192902,-1768.6879642808949,10044.16659671599,10059.871037928611,-9624.9941270586332,9624.9941270586332,-10059.871037928611,17465.081726148048,0.0
633204.59901257406,4122374.0504322448,-27500.0,6982.493232167536,-2651.0735066634179,-7012.0715551355224,2577.0198723875242,-904.5014113626379,-5354.0367467254027,7806.505436509,7719.209273721166,-7183.3305043311557,7183.3305043311557,-7719.209273721166,14793.764982475981,0.0
638204.59901257406,4122374.0504322448,-27500.0,3930.349298020667,-2274.8348844485245,-4841.3388482535611,4790.4536642930725,299.4323776244284,-7322.4301724526258,7714.0713634873036,4708.2023861463276,-5170.1826498209193,5170.1826498209193,-4708.2023861463276,13765.922631005969,0.0
643204.59901257406,4122374.0504322448,-27500.0,826.63694842071561,-2190.3052408230778,-3106.8553978110849,6041.221628772947,956.02278583109114,-7137.0277311566015,7618.0331789240063,1829.2352674667866,-3626.4974749651738,3626.4974749651738,-1829.2352674667866,13198.129763357205,0.0
648204.59901257406,4122374.0504322448,-27500.0,-1441.4635981831418,-2044.2592623518949,-1892.846170054522,6140.6286144435298,1114.0804646059964,-5990.3947655119091,6912.1038364273863,-263.24029487869007,-2461.2288174226787,2461.2288174226787,263.24029487869007,12174.797153269614,0.0
653204.59901257406,4122374.0504322448,-27500.0,-2742.7469641924795,-1812.9263859987743,-1113.5133803971546,5594.1291388649506,1041.2719725348738,-4729.0798347085884,5992.300708290124,-1503.3109483652859,-1628.4347409683126,1628.4347409683126,1503.3109483652859,10808.876502056366,0.0
658204.59901257406,4122374.0504322448,-27500.0,-3329.679633639093,-1555.7256486697438,-638.56952723732866,4828.860803329605,895.42499169068014,-3647.8021961204727,5084.5546595626729,-2116.293251238973,-1061.5099830626227,1061.5099830626227,2116.293251238973,9371.1937881640242,0.0
663204.59901257406,4122374.0504322448,-27500.0,-3478.8649254219963,-1312.3882256235195,-357.72037941266871,4059.5103508197221,741.80205174546688,-2790.9173277242166,4276.3412075443275,-2340.107629499154,-685.46775690498316,685.46775690498316,2340.107629499154,8020.2495948188407,0.0
668204.59901257406,4122374.0504322448,-27500.0,-3385.6726581518296,-1098.4482335242137,-194.89781632202505,3368.7201009565269,603.45389260195077,-2130.7861841859858,3587.3963510593881,-2343.1710168307163,-438.3776095498132,438.3776095498132,2343.1710168307163,6819.7349424861168,0.0
673204.59901257406,4122374.0504322448,-27500.0,-3170.018012840439,-916.84434312667747,-102.14916908283283,2778.6568285244143,486.69085583856389,-1628.1806447804581,3011.3631651148639,-2229.8011875005895,-276.25514815158317,276.25514815158317,2229.8011875005895,5783.9556375018283,0.0
678204.59901257406,4122374.0504322448,-27500.0,-2901.6307891761162,-765.40234603775423,-50.451379363401585,2287.144138137086,391.32785735366218,-1247.6181554975842,2533.8851757832072,-2061.3482549285636,-169.78578483336366,169.78578483336366,2061.3482549285636,4905.0091447643244,0.0
683204.59901257406,4122374.0504322448,-27500.0,-2619.8183193893037,-640.2610287901349,-22.561877803292528,1883.2439097330614,314.81276322757031,-960.09451352569965,2139.4587137799476,-1872.9009684705236,-99.846264931028372,99.846264931028372,1872.9009684705236,4166.1303919047741,0.0
688204.59901257406,4122374.0504322448,-27500.0,-2345.8970302224197,-537.29682787286265,-8.3267734036410452,1553.7522563045375,253.98124747377855,-742.8145318713141,1813.8197072529165,-1683.9187957731785,-53.99541933996602,53.99541933996602,1683.9187957731785,3548.0715216237149,0.0
693204.59901257406,4122374.0504322448,-27500.0,-2090.6203200205041,-452.68790757569406,-1.7974191917698055,1285.8801846940871,205.80074947525412,-578.26165513902993,1544.6421305451902,-1504.6342407394411,-24.103288064229218,24.103288064229218,1504.6342407394411,3032.1056788004048,0.0
698204.59901257406,4122374.0504322448,-27500.0,-1858.6026660932584,-383.11010887415,0.49438067831336074,1068.28525555489,167.64846656734912,-453.17979695290705,1321.6002036657139,-1339.8796527249988,-4.8231311416450353,4.8231311416450353,1339.8796527249988,2601.341196043531,0.0
703204.59901257406,4122374.0504322448,-27500.0,-1650.9709778094223,-325.7698635178358,0.55695891832211653,891.35929426959501,137.37182687312938,-357.6400274189395,1136.1937996304216,-1191.3828781653242,7.3843813430498813,-7.3843813430498813,1191.3828781653242,2241.1676688397661,0.0
708204.59901257406,4122374.0504322448,-27500.0,-1466.9534085851051,-278.36701062267724,-0.45966461395881963,747.1782195140089,113.25530357976717,-284.25130622168484,981.4963100293445,-1059.1440255672546,14.875689099166038,-14.875689099166038,1059.1440255672546,1939.2611155458449,0.0
713204.59901257406,4122374.0504322448,-27500.0,-1304.825575898906,-239.03091538870845,-1.9091587466727182,629.31324063354418,93.954259387097679,-227.52771469723717,851.89562902274781,-942.25746795765156,19.227537610235231,-19.227537610235231,942.25746795765156,1685.3865464419616,0.0
718204.59901257406,4122374.0504322448,-27500.0,-1162.4639133546721,-206.25136105758159,-3.4396888114756772,532.60037962322383,78.424178443202649,-183.39848743363754,742.85672631447972,-839.39566486530248,21.499116323391206,-21.499116323391206,839.39566486530248,1471.1237662035469,0.0
723204.59901257406,4122374.0504322448,-27500.0,-1037.6589350104584,-178.8133117970811,-4.8702714017624293,452.91451528136844,65.856744115459747,-148.83754301871321,650.71570709439084,-749.08688188547126,22.404226944019229,-22.404226944019229,749.08688188547126,1289.581265776013,0.0
523204.59901257406,4127374.0504322448,-27500.0,-1140.2970986773944,-85.590983064799914,9.860676525277194,-500.75503903952199,-28.05997191329401,-165.81856364191364,702.50181688657824,-837.05481033693877,121.65891551807624,-121.65891551807624,837.05481033693877,1388.6229228457346,0.0
528204.59901257406,4127374.0504322448,-27500.0,-1282.459599188792,-94.996498062127841,14.359482740115464,-591.25598041070236,-31.471384441017406,-205.2052475591039,804.20254260536342,-942.61346285135187,139.67235952061901,-139.67235952061901,942.61346285135187,1588.7126616345922,0.0
533204.59901257406,4127374.0504322448,-27500.0,-1445.6294019393906,-105.4999875988315,19.686039091759611,-701.69393360824756,-35.172040669378489,-255.76485194922128,925.02220473260866,-1063.8484255480107,160.67206770115848,-160.67206770115848,1063.8484255480107,1825.8217821254889,0.0
538204.59901257406,4127374.0504322448,-27500.0,-1632.7466421048996,-117.1716756652703,25.842032795011125,-837.09039370036396,-39.063501361380105,-321.13055536712784,1069.2605545684451,-1202.9218188456141,185.07844374848514,-185.07844374848514,1202.9218188456141,2108.0199292327584,0.0
543204.59901257406,4127374.0504322448,-27500.0,-1846.7995507253759,-130.04753434027612,32.698715105499794,-1003.8119258632553,-42.938922602977357,-406.23593266406675,1242.3001186975241,-1361.9899479137796,213.2737299129426,-213.2737299129426,1361.9899479137796,2445.2778842660468,0.0
548204.59901257406,4127374.0504322448,-27500.0,-2090.5067127295169,-144.10599963529376,39.874061278838582,-1209.908077621518,-46.406042351093618,-517.80348429037815,1450.8915057657634,-1542.9295343884519,245.50019700184873,-245.50019700184873,1542.9295343884519,2849.8866318669329,0.0
553204.59901257406,4127374.0504322448,-27500.0,-2365.7264366833092,-159.23953625158308,46.513714091079301,-1465.4975667703798,-48.760063175326103,-665.01384325132813,1703.5078529846767,-1746.8307843700618,281.66426514822865,-281.66426514822865,1746.8307843700618,3336.9225857503916,0.0
558204.59901257406,4127374.0504322448,-27500.0,-2672.4005132026286,-175.22820047284358,50.902957982282913,-1783.1733098971706,-48.776070132201923,-860.41750926269219,2010.7786043638939,-1973.090155411513,320.96881637320587,-320.96881637320587,1973.090155411513,3924.7239188943822,0.0
563204.59901257406,4127374.0504322448,-27500.0,-3006.6928838940294,-191.73617151927741,49.780932771524583,-2178.3457179821871,-44.375292220765303,-1121.171791422048,2386.0029810549154,-2217.8075375759759,361.22972073260917,-361.22972073260917,2217.8075375759759,4635.2930987637892,0.0
568204.59901257406,4127374.0504322448,-27500.0,-3357.7154834847888,-208.38571550182769,37.131353305297836,-2669.3338059740627,-32.10482261312908,-1470.7308862261459,2845.719770389444,-2470.9595198332659,397.60803501322516,-397.60803501322516,2470.9595198332659,5494.4578536747858,0.0
573204.59901257406,4127374.0504322448,-27500.0,-3701.687952037908,-225.02192942263827,2.054022557365089,-3276.7116663241177,-6.3640485462064929,-1941.1991569230368,3410.2055467173009,-2711.3563540832529,420.25863920391248,-420.25863920391248,2711.3563540832529,6531.3990314488501,0.0
578204.59901257406,4127374.0504322448,-27500.0,-3991.332248042178,-242.37368085658622,-74.963614230055697,-4020.5738857652432,41.66176107131669,-2576.6735667500207,4103.4376317524029,-2897.5161600014271,409.99339432452575,-409.99339432452575,2897.5161600014271,7776.5906923738139,0.0
583204.59901257406,4127374.0504322448,-27500.0,-4136.5103701696162,-263.40078128640471,-228.49326008445829,-4911.8796707390293,125.3183001589579,-3437.6028098837296,4950.9410541970274,-2951.1142892312432,330.45361703325125,-330.45361703325125,2951.1142892312432,9255.5208632387112,0.0
588204.59901257406,4127374.0504322448,-27500.0,-3970.705111508767,-295.49785942388303,-518.9283602785116,-5927.2720353373252,264.02114864244572,-4603.0145792026424,5970.7581509759366,-2728.4757087049775,114.88521343592515,-114.88521343592515,2728.4757087049775,10971.13981870968,0.0
593204.59901257406,4127374.0504322448,-27500.0,-3205.1726048661462,-353.2733814912533,-1048.6899478602154,-6942.377734302122,485.87038710981579,-6151.4730984230973,7145.3797277216763,-1981.1004995796795,-352.59644126409398,352.59644126409398,1981.1004995796795,12859.128746832272,0.0
598204.59901257406,4127374.0504322448,-27500.0,-1420.7602661264507,-462.98458010920859,-1978.8270386823522,-7588.8837811330413,835.50740949345277,-8047.0017889725705,8352.8796964407229,-343.68787276645747,-1251.1931280333606,1251.1931280333606,343.68787276645747,14698.006096397408,0.0
603204.59901257406,4127374.0504322448,-27500.0,1703.8593160208572,-687.19221100090238,-3512.6122820964765,-7101.2944733188633,1388.5119992234233,-9761.0819842761957,9258.749326589179,2494.0538720917039,-2796.9702181868306,2796.9702181868306,-2494.0538720917039,16041.685073490569,0.0
608204.59901257406,4127374.0504322448,-27500.0,5657.0531422923068,-1239.3477771652861,-5737.4386123337836,-4704.640714074626,2182.0915786014984,-9704.7478015059078,9406.0214356394899,6201.3038093163032,-5126.5861530394559,5126.5861530394559,-6201.3038093163032,16615.441879435384,0.0
613204.59901257406,4127374.0504322448,-27500.0,8734.7340806302582,-2578.6342112168859,-8204.0859034795249,-1209.3891899213065,2695.3034077987372,-6215.1001757392942,9740.9513843588393,9406.8173059640085,-8078.4909197286051,8078.4909197286051,-9406.8173059640085,17416.042222336881,0.0
618204.59901257406,4127374.0504322448,-27500.0,9827.5347597752461,-4459.2798138332328,-9679.5868118265589,1147.8199270260507,1454.785199336789,-1073.7282046113924,10893.687001474129,10857.933751725332,-10584.590188951335,10584.590188951335,-10857.933751725332,18885.715907931964,0.0
623204.59901257406,4127374.0504322448,-27500.0,8948.1277883108705,-4984.4603625465643,-9248.7409196906883,1728.7053135520862,-1298.0083141758153,2177.950492451364,10636.589927125757,10105.934728548949,-10619.389737998939,10619.389737998939,-10105.934728548949,18501.880506118338,0.0
628204.59901257406,4127374.0504322448,-27500.0,7214.0611442870122,-3709.9887825888286,-7687.8493972598562,1144.8362853467161,-2478.942440157839,1995.7957643777565,8762.9006002696406,8201.1758140542843,-8445.2767335669923,8445.2767335669923,-8201.1758140542843,15336.054740915533,0.0
633204.59901257406,4127374.0504322448,-27500.0,5679.7411026917425,-2564.0410485694988,-6129.015818351274,1183.8647205407522,-1261.8773838424765,-623.09931102809423,6661.1330947174247,6454.4726103153871,-6407.171034263517,6407.171034263517,-6454.4726103153871,11551.984983750126,0.0
638204.59901257406,4127374.0504322448,-27500.0,3870.7786798647003,-2358.7931550136614,-4772.2068814528038,2265.7264248070214,461.29794570227665,-2969.0193320748058,5408.6381819747967,4647.6126032330976,-5188.7050823318677,5188.7050823318677,-4647.6126032330976,9751.8414836637421,0.0
643204.59901257406,4127374.0504322448,-27500.0,1793.7942634640719,-2523.7112935284517,-3548.7704944654051,3350.5907670701099,1479.3692527045669,-3912.6915078985498,5467.3976258333851,2717.3462397708827,-4297.1635844411076,4297.1635844411076,-2717.3462397708827,9485.3592435734772,0.0
648204.59901257406,4127374.0504322448,-27500.0,-22.437921192929192,-2576.8272918467096,-2515.3842050434564,3860.5271524049181,1784.9992612424919,-3846.8885852737785,5287.3046155912689,1034.517281557014,-3465.3414661199413,3465.3414661199413,-1034.517281557014,9246.4505315637925,0.0
653204.59901257406,4127374.0504322448,-27500.0,-1294.2296968387129,-2438.4443289852261,-1725.3431248467102,3854.1770111036194,1704.5407285820763,-3354.2771194037114,4822.5842091614204,-180.09599675505092,-2705.4654528854144,2705.4654528854144,180.09599675505092,8640.6013035233354,0.0
658204.59901257406,4127374.0504322448,-27500.0,-2044.0177445195725,-2184.94558646411,-1164.3264104491523,3557.1051941825922,1477.4879831880548,-2766.125745578468,4250.9891887288968,-941.83508903347888,-2066.8079602100233,2066.8079602100233,941.83508903347888,7794.8954396765894,0.0
663204.59901257406,4127374.0504322448,-27500.0,-2407.4607402383881,-1893.7068083026825,-782.64127181528443,3142.3625908745844,1222.7463950029496,-2218.1054282844966,3678.7128598261311,-1361.3387660726662,-1561.253552018864,1561.253552018864,1361.3387660726662,6872.7910026653553,0.0
668204.59901257406,4127374.0504322448,-27500.0,-2518.3410911561318,-1610.1836988334182,-528.44523319155473,2707.2729832194827,988.6685687164794,-1752.6772205539883,3153.5264179613268,-1551.1044598509534,-1174.3140591543861,1174.3140591543861,1551.1044598509534,5976.6870077716376,0.0
673204.59901257406,4127374.0504322448,-27500.0,-2476.5842546093927,-1354.9923952504844,-360.57825741625351,2298.7818297761619,790.45742698534264,-1374.6706676345502,2691.7843580639283,-1597.0325624870964,-883.15811066943775,883.15811066943775,1597.0325624870964,5157.1033422654682,0.0
678204.59901257406,4127374.0504322448,-27500.0,-2349.4049911902248,-1134.6848901806939,-249.82487316913929,1936.0267070692823,629.24526968382611,-1075.1142088231838,2295.0153786675069,-1557.9961895323534,-665.73231283239761,665.73231283239761,1557.9961895323534,4433.0073921106641,0.0
683204.59901257406,4127374.0504322448,-27500.0,-2179.7405022440666,-948.88932349034849,-176.4888789065246,1623.8516629560136,500.86408363355014,-841.03735433025554,1958.3569796232352,-1472.3114635691043,-503.73223310293156,503.73223310293156,1472.3114635691043,3806.2887352107941,0.0
688204.59901257406,4127374.0504322448,-27500.0,-1994.0304694522672,-794.24908403679717,-127.60675742175859,1360.179633579666,399.71420004948936,-659.50999445147681,1674.6290228552966,-1364.1006235034904,-382.92186686964823,382.92186686964823,1364.1006235034904,3270.4398430108163,0.0
693204.59901257406,4127374.0504322448,-27500.0,-1807.9243828098486,-666.43522977065606,-94.733772005693268,1139.9414697519053,320.37216393301458,-519.19024665755899,1436.2553013358608,-1248.0862888611605,-292.57271956516195,292.57271956516195,1248.0862888611605,2815.4454178408364,0.0
698204.59901257406,4127374.0504322448,-27500.0,-1630.1854476357489,-561.11289220137724,-72.385193969251731,957.13679711288796,258.16613685840741,-410.74578490233705,1236.1356284208591,-1132.9181304064778,-224.72794115260518,224.72794115260518,1132.9181304064778,2430.4230386171871,0.0
703204.59901257406,4127374.0504322448,-27500.0,-1465.2722510954593,-474.35888316946006,-56.995024037722182,805.86158036231438,209.29318015376444,-326.77287948817514,1067.9874624715155,-1023.3937976363327,-173.53310562730286,173.53310562730286,1023.3937976363327,2104.9468984655246,0.0
708204.59901257406,4127374.0504322448,-27500.0,-1315.0216231807237,-402.8022274803605,-46.236778220049018,680.7743689490776,170.75092382893473,-261.52558781721109,926.42986706617774,-921.91716929398581,-134.69465338824085,134.69465338824085,921.91716929398581,1829.6411771278847,0.0
713204.59901257406,4127374.0504322448,-27500.0,-1179.7232509236351,-343.62973032800352,-38.585272127859966,577.25785510755088,140.20842507655058,-210.60164403006019,806.9407212706144,-829.43769151127844,-105.06438807318727,105.06438807318727,829.43769151127844,1596.3678710853537,0.0
718204.59901257406,4127374.0504322448,-27500.0,-1058.8001023969687,-294.53396932975573,-33.034901965390318,491.42839860341093,115.87190719325493,-170.65228490899517,705.7643584985218,-746.05095916991695,-82.329691927990723,82.329691927990723,746.05095916991695,1398.2149172661686,0.0
723204.59901257406,4127374.0504322448,-27500.0,-951.22793044907473,-253.64108162678417,-28.918542243008133,420.07305455010112,96.36611546063962,-139.13792971373195,619.80231596732392,-671.37465866124012,-64.786335346911017,64.786335346911017,671.37465866124012,1229.3865698352945,0.0
523204.59901257406,4132374.0504322448,-27500.0,-1169.03222769165,10.36556428085767,9.2693044698399945,-512.21833676486131,10.845716035697581,-169.39068226291258,716.21020594272863,-865.6018256697696,202.53650478399481,-202.53650478399481,865.6018256697696,1413.3565199348516,0.0
528204.59901257406,4132374.0504322448,-27500.0,-1314.6190677115092,19.584149395078999,12.979544233179983,-604.78428473997167,16.840293773638564,-209.66409266742437,819.96221567805981,-974.88723331784149,235.52074703150174,-235.52074703150174,974.88723331784149,1617.3436173532466,0.0
533204.59901257406,4132374.0504322448,-27500.0,-1481.4979358881651,32.08486727924349,17.123031338256947,-717.67819125056235,25.274949624544373,-261.36027948869986,943.19633424475489,-1100.2712258011497,274.81053732861164,-274.81053732861164,1100.2712258011497,1859.1039705036599,0.0
538204.59901257406,4132374.0504322448,-27500.0,-1672.525117917691,48.97460831746691,21.517574988588532,-855.97783839240037,37.163350784932611,-328.1877477605376,1090.2887055975136,-1243.8849601274478,321.64863685667194,-321.64863685667194,1243.8849601274478,2146.8795428797716,0.0
543204.59901257406,4132374.0504322448,-27500.0,-1890.5186920205458,71.73250735638949,25.762656453120897,-1026.0949183958126,53.96983244601951,-415.17715849061108,1266.7161836711016,-1407.7871923914672,377.44599767455611,-377.44599767455611,1407.7871923914672,2490.8602158060476,0.0
548204.59901257406,4132374.0504322448,-27500.0,-2137.8863622715298,102.32426814232149,29.07340473785402,-1236.0918692277751,77.823212246902415,-529.1737188832534,1479.3451977761945,-1593.6430172782138,443.71953341945539,-443.71953341945539,1593.6430172782138,2903.6192722345431,0.0
553204.59901257406,4132374.0504322448,-27500.0,-2415.9505768755516,143.33529778935636,29.997379786552781,-1496.0290599085713,111.83635778962854,-679.50834881150365,1736.7912513010638,-1802.1414660264666,521.93011271359342,-521.93011271359342,1802.1414660264666,3400.6046048209323,0.0
558204.59901257406,4132374.0504322448,-27500.0,-2723.761795272309,198.10118834680159,25.932856576855517,-1818.2981165107233,160.58117628683812,-878.90517036827941,2049.8594487991568,-2031.9687160761259,613.12415637829611,-613.12415637829611,2031.9687160761259,4000.6548909470616,0.0
563204.59901257406,4132374.0504322448,-27500.0,-3056.0447175504414,270.77992891888812,12.311699518218539,-2217.8423617140916,230.78920476539508,-1144.7041928718893,2432.0743922044808,-2278.024580440419,717.20011508001107,-717.20011508001107,2278.024580440419,4726.4775726125472,0.0
568204.59901257406,4132374.0504322448,-27500.0,-3399.6391742242308,366.2230597611678,-18.78161983756889,-2712.0358555724647,332.36066509086027,-1500.5182554058708,2900.2832398179567,-2528.3235404916932,831.45434615281579,-831.45434615281579,2528.3235404916932,5604.9411265061008,0.0
573204.59901257406,4132374.0504322448,-27500.0,-3727.2578189652404,489.32298087257169,-80.925105537345374,-3319.6834575158955,479.75305048645993,-1978.5436815152818,3475.2401089084678,-2758.5619058650468,947.75038034054933,-947.75038034054933,2758.5619058650468,6666.8616685222623,0.0
578204.59901257406,4132374.0504322448,-27500.0,-3986.3119944981599,643.11809207982401,-197.18535021569693,-4057.7146752550047,693.7008758901128,-2622.9065587888704,4181.7751748882229,-2922.4425923510967,1047.0507072951932,-1047.0507072951932,2922.4425923510967,7945.4294886544758,0.0
583204.59901257406,4132374.0504322448,-27500.0,-4078.7041822733072,824.11562473608444,-406.26995382326174,-4931.510354324163,1002.772950893277,-3494.285128384056,5047.1112045337923,-2934.3381027564124,1088.9609402044707,-1088.9609402044707,2934.3381027564124,9470.777256483776,0.0
588204.59901257406,4132374.0504322448,-27500.0,-3825.9017223882834,1011.6545124156296,-771.86584682721582,-5907.4088377424014,1442.8501113593657,-4673.0841097881057,6092.7458267855336,-2639.5609144268556,992.34864523546401,-992.34864523546401,2639.5609144268556,11253.461687353367,0.0
593204.59901257406,4132374.0504322448,-27500.0,-2920.9867697635773,1145.3917946687914,-1394.8297251882202,-6839.0773326503286,2048.3736006861877,-6241.5682444367567,7307.5175685904605,-1773.1365587039027,602.77773578147423,-602.77773578147423,1773.1365587039027,13238.78212163305,0.0
598204.59901257406,4132374.0504322448,-27500.0,-922.68062560524038,1083.4150198685638,-2421.0834002679785,-7302.9920776672889,2817.6945485517999,-8161.5383149815834,8577.4158889659448,50.565152877325431,-346.31457053110978,346.31457053110978,-50.565152877325431,15203.295661042361,0.0
603204.59901257406,4132374.0504322448,-27500.0,2471.5978128864176,550.57934804082299,-4009.8480330302127,-6400.1049771507523,3611.5257582490367,-9827.0275769281634,9563.643014793648,3129.9330703112728,-2212.8356670109861,2212.8356670109861,-3129.9330703112728,16627.544954317498,0.0
608204.59901257406,4132374.0504322448,-27500.0,6481.240157704513,-812.09292933297627,-6146.0462059039646,-3197.2192868796819,3949.8452831272311,-9262.4370494863433,9756.4003350558323,6912.8276861934592,-5148.498335794493,5148.498335794493,-6912.8276861934592,16969.406706367496,0.0
613204.59901257406,4132374.0504322448,-27500.0,8702.390413109697,-2986.4405365555649,-8160.6565467759419,1023.095296325863,2955.5890415118174,-4152.9658955155846,9738.6753747604926,9400.495898377816,-8374.2490372851644,8374.2490372851644,-9400.495898377816,16998.389171117458,0.0
618204.59901257406,4132374.0504322448,-27500.0,8216.4305746265272,-4853.9495232193685,-8639.0824605412727,2621.9679309772614,257.34442915342453,2846.8246208884798,10168.517576803641,9350.8321662168819,-10054.465435009879,10054.465435009879,-9350.8321662168819,17718.31900917627,0.0
623204.59901257406,4132374.0504322448,-27500.0,6784.4163342598295,-4905.7289727419447,-7204.7111910486647,1496.8144940226755,-2675.9448479207485,6247.9605017392578,9436.8641498310717,7815.9333083795691,-9058.4712955220803,9058.4712955220803,-7815.9333083795691,16996.495473027739,0.0
628204.59901257406,4132374.0504322448,-27500.0,5551.6621414590836,-3378.6470893203536,-5467.6280288869211,-92.210828129940111,-3627.7595627029486,5671.5123774675576,7402.4200477099312,6201.3690398147155,-6664.9061580170892,6664.9061580170892,-6201.3690398147155,14018.308734375112,0.0
633204.59901257406,4132374.0504322448,-27500.0,4814.7516871848775,-2040.2044874982805,-4527.9133591798263,-757.67372360302465,-2360.587108470927,3148.2458456383529,5465.080626169507,5235.9218060395224,-4949.9434759380902,4949.9434759380902,-5235.9218060395224,10267.407266192917,0.0
638204.59901257406,4132374.0504322448,-27500.0,3997.2299520524339,-1718.3489501680149,-4031.5604710659527,-246.85554148987816,-447.42476392143431,596.39054017881585,4393.481390250824,4440.6643023796823,-4282.1139286408106,4282.1139286408106,-4440.6643023796823,7639.6404719024367,0.0
643204.59901257406,4132374.0504322448,-27500.0,2781.467599211599,-1969.3565133207235,-3494.9679314137579,730.30585453496212,930.86244970028258,-1033.0738605584052,3906.9834331990132,3383.4837347701532,-3984.3572984983593,3984.3572984983593,-3383.4837347701532,6770.3246466637866,0.0
648204.59901257406,4132374.0504322448,-27500.0,1429.2185778112978,-2240.2477923932975,-2851.5527523388137,1539.3125674391333,1576.4888757198439,-1757.083750080023,3832.0630160002111,2191.2638277039505,-3620.3879450894319,3620.3879450894319,-2191.2638277039505,6667.7001756179498,0.0
653204.59901257406,4132374.0504322448,-27500.0,256.1128010014915,-2323.5275079546877,-2211.8759272681968,1988.3281903378536,1719.3316838349617,-1914.8845553347912,3667.1505681432523,1117.5515142458612,-3137.7968975725139,3137.7968975725139,-1117.5515142458612,6509.3158177187406,0.0
658204.59901257406,4132374.0504322448,-27500.0,-606.70984142512793,-2231.7090896308146,-1661.8317189646393,2131.8798692137216,1606.0041920386188,-1793.1858764208307,3376.2985228692251,288.94545202845438,-2616.0255554661931,2616.0255554661931,-288.94545202845438,6130.5130978912939,0.0
663204.59901257406,4132374.0504322448,-27500.0,-1167.3726264664595,-2035.847140709036,-1228.197781715254,2079.3683670343403,1393.5364217197684,-1562.0165402894113,3025.7892336984,-285.91290926081695,-2125.4954881834246,2125.4954881834246,285.91290926081695,5600.5901184919376,0.0
668204.59901257406,4132374.0504322448,-27500.0,-1488.1247517386162,-1797.4049027283766,-902.61130819016751,1921.5527093544349,1163.0853232396714,-1308.1203672432127,2666.3366021090051,-650.87793216337309,-1700.4828319806008,1700.4828319806008,650.87793216337309,5009.7128249969101,0.0
673204.59901257406,4132374.0504322448,-27500.0,-1637.3759880511932,-1555.1334251112726,-664.42256138254334,1718.6088723294492,950.59335881785137,-1071.0485787526243,2326.1685520949923,-860.27726787932761,-1349.2437666152809,1349.2437666152809,860.27726787932761,4420.7926202011504,0.0
678204.59901257406,4132374.0504322448,-27500.0,-1672.2053992306985,-1329.4277983194513,-492.31139756902047,1506.197619268941,768.59670919564689,-865.77689882284778,2018.2771412540214,-961.76043618142523,-1066.844309268962,1066.844309268962,961.76043618142523,3869.2671079797456,0.0
683204.59901257406,4132374.0504322448,-27500.0,-1635.1387033184494,-1128.993733400268,-368.43966021590347,1303.5494941510738,618.62021325916533,-695.20452624955306,1746.8185390177323,-991.99817506321324,-843.33317192650748,843.33317192650748,991.99817506321324,3371.5080166567554,0.0
688204.59901257406,4132374.0504322448,-27500.0,-1555.9600347952055,-955.93910509138254,-279.16273602139825,1119.7571194835837,497.60448415121709,-556.80304103500532,1511.2437995292526,-977.37650736667467,-667.91094041678559,667.91094041678559,977.37650736667467,2932.3476082186239,0.0
693204.59901257406,4132374.0504322448,-27500.0,-1454.659818429453,-809.01095143043949,-214.49967309977401,958.01333248686603,401.03698080530813,-446.04042967619557,1308.7313115153909,-936.09289293893119,-530.73845494607474,530.73845494607474,936.09289293893119,2550.258313168647,0.0
698204.59901257406,4132374.0504322448,-27500.0,-1344.1840365467638,-685.4788613883361,-167.31617397164823,818.29401250065666,324.36766546997825,-358.05415640802852,1135.5617583915887,-880.30951231803692,-423.53599328764813,423.53599328764813,880.30951231803692,2220.5917612937287,0.0
703204.59901257406,4132374.0504322448,-27500.0,-1232.607934211791,-582.16034073327671,-132.5707507493691,698.97647069212098,263.56959080457528,-288.38852798010447,987.85718660339194,-817.9286880337653,-339.62640919476905,339.62640919476905,817.9286880337653,1937.4722527574836,0.0
708204.59901257406,4132374.0504322448,-27500.0,-1124.7329188798692,-495.93822116410337,-106.71670586286592,597.7743140469936,215.29372055286325,-233.2529022709584,861.95048301742247,-753.93068900398328,-273.75379120476225,273.75379120476225,753.93068900398328,1694.8372273040727,0.0
713204.59901257406,4132374.0504322448,-27500.0,-1023.2152103269619,-423.99406433307502,-87.259336551469076,512.25302585321379,176.84701013353461,-189.55177823147133,754.54980079841448,-691.33647485799679,-221.83843633675309,221.83843633675309,691.33647485799679,1486.9710528057831,0.0
718204.59901257406,4132374.0504322448,-27500.0,-929.33592210026768,-363.8872719038356,-72.439076874597887,440.09215862734499,146.10407179510634,-154.81635277388551,662.78706943550606,-631.87586644801445,-180.73744503951031,180.73744503951031,631.87586644801445,1308.73746592199,0.0
723204.59901257406,4132374.0504322448,-27500.0,-843.519458921092,-313.55760439362558,-61.009034158641576,379.20411299867146,121.40469438589928,-127.10496762524321,584.20974875899424,-576.44442912107138,-148.03793142248762,148.03793142248762,576.44442912107138,1155.6514057154291,0.0
523204.59901257406,4137374.0504322448,-27500.0,-1165.9008461966689,105.50059146846949,-4.658301626308333,-511.64461866474016,49.544977306337017,-169.43742500605219,719.29712241444497,-866.10091131367653,270.11380459337641,-270.11380459337641,866.10091131367653,1417.8800247029667,0.0
528204.59901257406,4137374.0504322448,-27500.0,-1307.2706124043491,132.63195030358366,-5.1597100997927692,-602.7286340251153,64.697976230903905,-209.34618189444103,822.44275858343121,-972.27089494776635,314.34267197571251,-314.34267197571251,972.27089494776635,1620.644344718447,0.0
533204.59901257406,4137374.0504322448,-27500.0,-1468.0524102501242,167.05340734368454,-6.6568380272331655,-713.30287172617989,84.864857173538141,-260.41260566838281,944.61938776044974,-1092.9881506164631,366.96827648998311,-366.96827648998311,1092.9881506164631,1860.3658425078988,0.0
538204.59901257406,4137374.0504322448,-27500.0,-1650.3231150885576,210.86035013656721,-9.8706886385599795,-848.01345893194002,111.88164633506564,-326.17956540805784,1089.9810198999739,-1229.705682678117,429.59337845558935,-429.59337845558935,1229.705682678117,2144.8927838689019,0.0
543204.59901257406,4137374.0504322448,-27500.0,-1855.7924482799513,266.75906208508184,-15.961364305557941,-1012.611611849348,148.31970692500607,-411.40760162039044,1263.6743043934243,-1383.5060404325222,504.00213596503716,-504.00213596503716,1383.5060404325222,2483.8329436717772,0.0
548204.59901257406,4137374.0504322448,-27500.0,-2085.2902482107502,338.21734605319551,-26.788903505311442,-1214.1422539040852,197.79857809180012,-522.49806854383246,1472.0707477305045,-1554.647356890538,592.05084773613464,-592.05084773613464,1554.647356890538,2888.8937969035446,0.0
553204.59901257406,4137374.0504322448,-27500.0,-2337.8947724429872,429.61535243411237,-45.330305895285967,-1461.0867678132047,265.4329517563998,-668.04590125565733,1723.0370419212363,-1741.7921715085213,695.41307123104878,-695.41307123104878,1741.7921715085213,3374.2268058484137,0.0
558204.59901257406,4137374.0504322448,-27500.0,-2609.478201085175,546.34602941068772,-76.346778383507015,-1763.3684502659855,358.46492703799919,-859.54226902026824,2026.2338635237716,-1940.7183739249863,815.04973820545513,-815.04973820545513,1940.7183739249863,3956.7146739776485,0.0
563204.59901257406,4137374.0504322448,-27500.0,-2890.3073913952467,694.74590344406431,-127.44590209994901,-2132.0422843439283,487.13899866510991,-1112.2352377277339,2393.4156356677909,-2142.1873049966057,950.16926917083276,-950.16926917083276,2142.1873049966057,4656.0840675327381,0.0
568204.59901257406,4137374.0504322448,-27500.0,-3161.098094333493,881.59507960214182,-210.75773103341237,-2578.3156454138966,665.86629240360662,-1446.1344346170831,2838.6596731289737,-2328.4310418456703,1096.2490033421604,-1096.2490033421604,2328.4310418456703,5494.613746204891,0.0
573204.59901257406,4137374.0504322448,-27500.0,-3386.5011561328683,1112.6215148573315,-345.52659790374037,-3111.1644699100725,914.64622241045015,-1887.1098766071423,3378.3380436919319,-2467.3596977135307,1241.3324689904666,-1241.3324689904666,2467.3596977135307,6495.9707402372205,0.0
578204.59901257406,4137374.0504322448,-27500.0,-3504.2891235376201,1388.7964391250464,-561.95863574654948,-3731.8595899485936,1260.4345996300694,-2467.9088462444392,4030.3028206771555,-2503.0021714984937,1359.163528524311,-1359.163528524311,2503.0021714984937,7682.1025947854259,0.0
583204.59901257406,4137374.0504322448,-27500.0,-3407.6576006129271,1697.8424240152826,-906.44598096815673,-4421.2312135460197,1737.2535045974053,-3228.1774461011919,4810.7561909354299,-2340.0304392439866,1396.6139339924814,-1396.6139339924814,2340.0304392439866,9065.5042376646797,0.0
588204.59901257406,4137374.0504322448,-27500.0,-2919.0068001501331,1995.6452062053777,-1447.1045088784897,-5109.2934249024202,2380.9952415353268,-4208.5641639770465,5724.5507333153528,-1821.1023346307256,1251.5012367550817,-1251.5012367550817,1821.1023346307256,10630.023954876144,0.0
593204.59901257406,4137374.0504322448,-27500.0,-1766.4250968342062,2168.280325146457,-2274.1834439656532,-5605.4011588818394,3206.2216257120999,-5416.7973905476392,6738.8766138767842,-706.39585060994193,738.25703541889959,-738.25703541889959,706.39585060994193,12285.560057250434,0.0
598204.59901257406,4137374.0504322448,-27500.0,367.2108691648487,1968.3267797133713,-3476.2337607583622,-5468.6279264359928,4129.6405188806402,-6689.1218552596747,7725.3705633487798,1287.189531649426,-441.56028364885572,441.56028364885572,-1287.189531649426,13782.077912947994,0.0
603204.59901257406,4137374.0504322448,-27500.0,3500.6434527411025,976.36194270426085,-5040.8286718298277,-3932.630842178035,4774.520463425778,-7287.9148756588766,8391.9388504567887,4202.3525043323907,-2618.6539788533,2618.6539788533,-4202.3525043323907,14657.56826874169,0.0
608204.59901257406,4137374.0504322448,-27500.0,6516.9422818524754,-1134.6955918649433,-6615.1678816222675,-542.22930291187174,4214.3159797504168,-5384.2667762174233,8481.705095699348,7122.7084845388626,-5675.1895614617069,5675.1895614617069,-7122.7084845388626,14691.12397338425,0.0
613204.59901257406,4137374.0504322448,-27500.0,7219.0211648528157,-3673.0058899817768,-7332.5566325628106,2847.3904789612166,1471.8304455416796,561.94341074133581,8764.0568160805742,8082.1564938542588,-8216.9946030307437,8216.9946030307437,-8082.1564938542588,15181.857092594333,0.0
618204.59901257406,4137374.0504322448,-27500.0,5721.6137508238844,-4799.6530854359125,-6489.5085958327836,2823.9247774067007,-2476.9742657759607,7330.790854180048,9586.7889375080667,6783.13338449399,-8400.2095338162835,8400.2095338162835,-6783.13338449399,16816.381465951919,0.0
623204.59901257406,4137374.0504322448,-27500.0,4583.5481765198019,-3933.9961191178795,-4671.5001445200678,265.19487113521876,-5031.7116140631124,9757.7317523158581,9526.8349947615498,5263.2394743879431,-6504.2436351767628,6504.2436351767628,-5263.2394743879431,16819.92095025329,0.0
628204.59901257406,4137374.0504322448,-27500.0,4301.7539337366425,-2243.3892547040205,-3236.8582456939707,-1797.8533538047359,-5193.3911755085828,8271.2891221430182,8185.9118499836168,4438.6501809979636,-4303.8838037904516,4303.8838037904516,-4438.6501809979636,14429.893323137601,0.0
633204.59901257406,4137374.0504322448,-27500.0,4295.1411198326359,-989.49909191486904,-2783.9330913652784,-2507.7339069373747,-3677.3187160739167,5490.0324520929171,6301.0672292872523,4182.2343535112286,-3047.9311041623732,3047.9311041623732,-4182.2343535112286,11062.156824978552,0.0
638204.59901257406,4137374.0504322448,-27500.0,4088.4436306680609,-656.53634217116212,-2866.8372267695759,-2134.0025005021262,-1691.9069981662058,2886.8514642850505,4632.1249731507487,4031.5728894417539,-2795.4053140143174,2795.4053140143174,-4031.5728894417539,8062.5685944625939,0.0
643204.59901257406,4137374.0504322448,-27500.0,3453.3652240510328,-945.11102857070944,-2908.7662568137603,-1237.0778622072698,-98.433054291438054,1009.376957089177,3568.3095930093896,3600.3630557013939,-2946.5016519474766,2946.5016519474766,-3600.3630557013939,6180.6696737291468,0.0
648204.59901257406,4137374.0504322448,-27500.0,2513.9388227683489,-1379.4964002825257,-2714.8088573974405,-313.41897222028393,853.6746815008338,-116.61625799784888,3091.8462870415779,2876.8142171032068,-3032.2159053968944,3032.2159053968944,-2876.8142171032068,5356.7826404294456,0.0
653204.59901257406,4137374.0504322448,-27500.0,1522.0056740897746,-1691.1963158245298,-2350.4921604449082,391.97927206227428,1277.5382115679718,-684.28049863119429,2877.7709747220574,2047.4667615536987,-2915.8545732594152,2915.8545732594152,-2047.4667615536987,5025.7128409205279,0.0
658204.59901257406,4137374.0504322448,-27500.0,656.67605977405299,-1818.6539274513709,-1931.6096281992034,835.28482811109359,1370.2019021287874,-903.86258608872652,2683.5129148623546,1278.5144014823027,-2642.3121805680375,2642.3121805680375,-1278.5144014823027,4768.9990709472058,0.0
663204.59901257406,4137374.0504322448,-27500.0,-11.438057939718586,-1796.8749868458476,-1536.5624421641251,1062.6085073526206,1290.2826270578407,-930.90511459737309,2459.2610822375741,651.19029581605434,-2294.9787178309693,2294.9787178309693,-651.19029581605434,4453.908381954895,0.0
668204.59901257406,4137374.0504322448,-27500.0,-482.6256197704418,-1681.8790204994052,-1200.0029649748772,1139.5398721071958,1137.6967275572526,-863.49934761979398,2216.3827176245336,181.37912724899331,-1937.9698295242838,1937.9698295242838,-181.37912724899331,4080.6042296544229,0.0
673204.59901257406,4137374.0504322448,-27500.0,-788.37533783927529,-1520.5626561085319,-929.0153155104199,1122.834086451956,967.21373916542518,-758.1172469862978,1972.8934721282837,-148.04271132062058,-1607.5906765689783,1607.5906765689783,148.04271132062058,3681.0405369739046,0.0
678204.59901257406,4137374.0504322448,-27500.0,-967.60940145614654,-1344.5084902253034,-717.69142933564422,1053.8034036011932,805.4075942692491,-644.89043597638636,1741.6922070844505,-365.26468622678198,-1319.4273582771477,1319.4273582771477,365.26468622678198,3284.2977200551586,0.0
683204.59901257406,4137374.0504322448,-27500.0,-1055.8868307073449,-1172.3068939915488,-555.76120726692579,959.80140219360828,663.06820371594324,-538.43890674273791,1529.8854917883284,-498.49216778125623,-1076.7932700469817,1076.7932700469817,498.49216778125623,2909.4043912908101,0.0
688204.59901257406,4137374.0504322448,-27500.0,-1081.8553991628755,-1013.5413279103126,-432.73530091561162,857.71340404278601,542.86311063216442,-444.74718946446814,1340.3487190524586,-571.62057445648952,-876.80984328705449,876.80984328705449,571.62057445648952,2566.441119598569,0.0
693204.59901257406,4137374.0504322448,-27500.0,-1067.0487915307149,-872.18877522640435,-339.51847455592122,757.26651976275639,443.66871366692584,-365.27805314649402,1173.3138387041913,-603.27390954850659,-714.0587793745359,714.0587793745359,603.27390954850659,2259.2579203897167,0.0
698204.59901257406,4137374.0504322448,-27500.0,-1026.9429692817637,-749.01258548527596,-268.80234441139788,663.57838149747158,362.86867171423773,-299.32162814459349,1027.540657518444,-607.26231263079421,-582.54104485704374,582.54104485704374,607.26231263079421,1987.8782931738369,0.0
703204.59901257406,4137374.0504322448,-27500.0,-972.29595918928476,-643.08965388004935,-214.94712207776539,578.93787542297127,297.49561461118077,-245.27504573405065,901.07905427025696,-593.48901658391992,-476.61228893566482,476.61228893566482,593.48901658391992,1750.2112009793289,0.0
708204.59901257406,4137374.0504322448,-27500.0,-910.37869209077564,-552.72680022194049,-173.69733029578973,503.98147974901644,244.75012293325983,-201.30243687867559,791.73240523373602,-568.8811277888409,-391.35526833664352,391.35526833664352,568.8811277888409,1543.1610136612155,0.0
713204.59901257406,4137374.0504322448,-27500.0,-845.96924787517491,-475.97959726292748,-141.88093223335846,438.43661472470859,202.19835214939602,-165.64819007273843,697.31859352576407,-538.18295895084702,-322.66401658387917,322.66401658387917,538.18295895084702,1363.2949928354824,0.0
718204.59901257406,4137374.0504322448,-27500.0,-782.10652407037185,-410.92740969975006,-117.14692585561158,381.57560368858736,167.81383210383581,-136.76504628386502,615.8046588084502,-504.57829814777983,-267.19400991715611,267.19400991715611,504.57829814777983,1207.2195986166168,0.0
723204.59901257406,4137374.0504322448,-27500.0,-720.64014139400626,-355.8062039122857,-97.755866709992688,332.48339050569899,139.9504778141924,-113.34830938756173,545.36660904339419,-470.15586463387672,-222.26153430190425,222.26153430190425,470.15586463387672,1071.7760234324537,0.0
523204.59901257406,4142374.0504322448,-27500.0,-1132.5522793775369,194.04264026092446,-30.637019417515493,-499.57205181911263,85.921653503639732,-166.09611521860603,711.87924599487519,-839.74581540204122,320.77444925054851,-320.77444925054851,839.74581540204122,1402.5419413412799,0.0
528204.59901257406,4142374.0504322448,-27500.0,-1262.8168358138246,236.66349878552739,-38.218559418052848,-585.90870282431922,109.24765220874175,-204.47079024073565,811.84733925847593,-936.56536106047668,371.58917760371867,-371.58917760371867,936.56536106047668,1599.1840279154937,0.0
533204.59901257406,4142374.0504322448,-27500.0,-1408.8080981907426,289.62232691514203,-48.997785519997244,-689.82361051591977,139.70880086792698,-253.27433386733517,929.64108101847546,-1044.7139468835585,431.39960941213963,-431.39960941213963,1044.7139468835585,1830.5202545477784,0.0
538204.59901257406,4142374.0504322448,-27500.0,-1571.3129863745846,355.58733355545098,-64.453751845395786,-815.1350390079524,179.7354562640854,-315.6775819856062,1068.9353244634676,-1164.4834399436868,501.63112305081415,-501.63112305081415,1164.4834399436868,2103.5104398746712,0.0
543204.59901257406,4142374.0504322448,-27500.0,-1750.2827736637314,437.88062164580288,-86.781137842324014,-966.37926529684626,232.65185401661839,-395.86371065110808,1234.190792025873,-1295.3601213774955,583.69370544287938,-583.69370544287938,1295.3601213774955,2426.4945886774963,0.0
548204.59901257406,4142374.0504322448,-27500.0,-1944.155892980551,540.56741978320952,-119.2492685059335,-1148.8058868425287,303.01207649008813,-499.32919262884127,1430.7882050886615,-1435.4115671303271,678.74196145372525,-678.74196145372525,1435.4115671303271,2809.3571905033355,0.0
553204.59901257406,4142374.0504322448,-27500.0,-2148.7785700079849,668.47644400302818,-166.74331433876318,-1368.2257535428437,397.0496343434138,-633.23623760521798,1665.1485732659521,-1580.3102603200687,787.21279774865798,-787.21279774865798,1580.3102603200687,3263.6063832316368,0.0
558204.59901257406,4142374.0504322448,-27500.0,-2355.7116357328482,827.04512844075748,-236.57368463229602,-1630.5668549051022,523.25706849553671,-806.78285186249684,1944.8006227114699,-1721.8005641221471,907.97345241543326,-907.97345241543326,1721.8005641221471,3802.260101757216,0.0
563204.59901257406,4142374.0504322448,-27500.0,-2549.6113500146676,1021.7754980917827,-339.66820280627979,-1940.8778160933937,693.08219971290316,-1031.5009576624216,2278.3178882806938,-1845.3234477293126,1036.7940893601804,-1036.7940893601804,1845.3234477293126,4439.3416879268989,0.0
568204.59901257406,4142374.0504322448,-27500.0,-2704.2423817112372,1256.8795768230739,-492.27466645380235,-2301.3150294015077,921.64106167654461,-1321.2892948009335,2674.9790230658105,-1926.3970702145111,1163.6658258002444,-1163.6658258002444,1926.3970702145111,5188.6386441177601,0.0
573204.59901257406,4142374.0504322448,-27500.0,-2776.5310207014759,1532.2905405473641,-718.2427014338125,-2707.2524426181199,1228.1185475765349,-1691.780351226598,3143.8522144641415,-1925.2287455334927,1268.1724643390085,-1268.1724643390085,1925.2287455334927,6061.0824903398743,0.0
578204.59901257406,4142374.0504322448,-27500.0,-2698.0437387973575,1837.4539684104971,-1051.6631206559041,-3139.8445659032773,1634.9472177638836,-2158.1787352159745,3691.6698971923533,-1779.0548010215859,1311.6759031147956,-1311.6759031147956,1779.0548010215859,7059.5283305880657,0.0
583204.59901257406,4142374.0504322448,-27500.0,-2364.0750643034753,2138.9253116331852,-1538.6446673755829,-3551.6726480880102,2163.3312550873702,-2729.3819144326217,4318.0838905956734,-1392.5206909985793,1224.6575189082166,-1224.6575189082166,1392.5206909985793,8168.5045409000595,0.0
588204.59901257406,4142374.0504322448,-27500.0,-1624.9841349038436,2356.8411341645374,-2234.0686752154361,-3839.1553145447583,2818.6944251887062,-3391.9017988857245,5005.3807523846717,-630.53400407516858,888.36673896666287,-888.36673896666287,630.53400407516858,9334.5238521219871,0.0
593204.59901257406,4142374.0504322448,-27500.0,-301.68526288784386,2325.6328826394119,-3181.3808407359043,-3794.609520491023,3549.8891903320437,-4064.2092156355034,5698.4336488783401,666.60413185464836,117.33159887682638,-117.33159887682638,-666.60413185464836,10432.753158785847,0.0
598204.59901257406,4142374.0504322448,-27500.0,1704.689463679131,1753.1831505434559,-4347.3284384625531,-3056.525055784497,4149.28264042296,-4475.7094104741464,6279.0971551204393,2583.5923628209175,-1318.8354792499565,1318.8354792499565,-2583.5923628209175,11239.127871905201,0.0
603204.59901257406,4142374.0504322448,-27500.0,4082.2778139908282,282.09583749406784,-5474.3977197718932,-1209.2782379114451,4074.1366152069272,-3935.8279035195515,6600.1536153878797,4831.9474654720261,-3510.2102551134221,3510.2102551134221,-4831.9474654720261,11550.549556185615,0.0
608204.59901257406,4142374.0504322448,-27500.0,5680.3848876061447,-2065.4104105135061,-5928.0407419816074,1562.6253424025267,2404.4107435030319,-1296.3555913729929,6827.2044762369405,6347.8854198399549,-5896.5310834339853,5896.5310834339853,-6347.8854198399549,11828.280000307695,0.0
613204.59901257406,4142374.0504322448,-27500.0,5199.705706152612,-4112.7805183253113,-5026.4618083443984,3453.2202500521271,-1274.9432677711191,3766.8359202820957,7817.9877323163309,5851.1366297906725,-6945.9304733172748,6945.9304733172748,-5851.1366297906725,13541.431736378718,0.0
618204.59901257406,4142374.0504322448,-27500.0,3508.6962079187774,-4208.3846594355446,-3093.2936191594367,2412.4452633524711,-5294.7744510857501,8657.0887359790922,9286.6435960710551,3960.6654419332253,-5662.8325269449806,5662.8325269449806,-3960.6654419332253,16086.54532927549,0.0
623204.59901257406,4142374.0504322448,-27500.0,2762.7106806005822,-2585.9830735182959,-1399.724486444318,-426.2862590354049,-7204.1891047889758,10215.269668291445,9658.4556665001946,2712.0353968687946,-3296.3772804081577,3296.3772804081577,-2712.0353968687946,16739.038289754943,0.0
628204.59901257406,4142374.0504322448,-27500.0,3103.5949875624442,-792.92369542488473,-694.33213249738196,-2588.6303527586565,-6694.9629408695346,8784.6137309278056,8641.8750436717201,2584.134877348034,-1524.6091457991597,1524.6091457991597,-2584.134877348034,14991.034358427982,0.0
633204.59901257406,4142374.0504322448,-27500.0,3639.4410366565276,279.81980627496949,-876.69490813220852,-3368.9624137632559,-4903.3673254642881,6319.0623609784307,6956.557953544474,2955.971235061792,-857.77500564987645,857.77500564987645,-2955.971235061792,12086.812751426995,0.0
638204.59901257406,4142374.0504322448,-27500.0,3871.9058814690993,511.2587697041522,-1450.6975980271091,-3139.7903272649296,-2866.3789197036867,3988.4637419840669,5259.2481520160991,3302.5444161718165,-1033.1377156482426,1033.1377156482426,-3302.5444161718165,9163.5951257710512,0.0
643204.59901257406,4142374.0504322448,-27500.0,3660.4548049096816,176.41856912516252,-1948.8356576738688,-2396.1868130333942,-1175.7582848881168,2191.4934632554123,3914.2864962959366,3341.0012572369578,-1545.9219935712672,1545.9219935712672,-3341.0012572369578,6844.5513344682622,0.0
648204.59901257406,4142374.0504322448,-27500.0,3085.9130631010489,-356.92520850951081,-2165.8336597173761,-1525.4217569093385,-28.437333346485602,969.22434577743888,3047.8225491577268,3032.7228829717233,-2000.447230113127,2000.447230113127,-3032.7228829717233,5320.7376557012749,0.0
653204.59901257406,4142374.0504322448,-27500.0,2332.2680075963726,-834.72845097796289,-2118.723545821249,-755.34577023661643,624.98862797188451,218.58513516660784,2569.789226545302,2499.0297843553521,-2233.3366606096456,2233.3366606096456,-2499.0297843553521,4454.748623183059,0.0
658204.59901257406,4142374.0504322448,-27500.0,1568.7261472357079,-1155.0021022767648,-1908.8644870667674,-173.15832115332071,923.59409701339337,-197.22433761983584,2283.3120291578603,1890.7622806297281,-2247.5146691848017,2247.5146691848017,-1890.7622806297281,3965.1083235434289,0.0
663204.59901257406,4142374.0504322448,-27500.0,898.38937047702143,-1314.1596442379546,-1632.0255284723839,219.28032897484687,1002.9194362610764,-397.31604684024512,2062.7927774599093,1315.9119922005038,-2110.5891942589656,2110.5891942589656,-1315.9119922005038,3625.7441006238851,0.0
668204.59901257406,4142374.0504322448,-27500.0,362.39084073096842,-1348.8657386015852,-1350.4729321411878,456.392500432291,962.99376852336854,-468.78606006084283,1862.7809612806318,828.67629623941355,-1893.4431063301545,1893.4431063301545,-828.67629623941355,3326.6100196641478,0.0
673204.59901257406,4142374.0504322448,-27500.0,-37.559811776267935,-1302.0049121002771,-1095.8510980656961,580.15886225670965,867.71709796810239,-469.3102816364152,1672.7871776909758,444.36332581994736,-1648.3453544320982,1648.3453544320982,-444.36332581994736,3033.7556478463366,0.0
678204.59901257406,4142374.0504322448,-27500.0,-318.85363264984329,-1208.9644300512141,-879.79012136660435,627.5387214593311,754.02305872085219,-434.5474419500548,1493.301958159898,156.86522263067889,-1407.2514010374134,1407.2514010374134,-156.86522263067889,2744.9935814418614,0.0
683204.59901257406,4142374.0504322448,-27500.0,-505.0271546901015,-1094.7183229340042,-703.092928437713,626.84500993795496,641.35440295494766,-385.29353652202451,1326.8558836466091,-48.926181215568022,-1186.7323727067485,1186.7323727067485,48.926181215568022,2466.8433982520396,0.0
688204.59901257406,4142374.0504322448,-27500.0,-619.04490951292598,-975.18454810157266,-561.67554215907376,598.08579213029395,538.75370409963557,-332.95278916649931,1175.2950936865645,-190.05878598307083,-993.48107753002762,993.48107753002762,190.05878598307083,2205.8033084437743,0.0
693204.59901257406,4142374.0504322448,-27500.0,-680.51066944875924,-859.63063350582081,-449.85705088218941,554.62146201341193,449.49220976935862,-283.28717320575834,1039.2950821981349,-282.16606342469868,-828.53049754964218,828.53049754964218,282.16606342469868,1966.0126340972022,0.0
698204.59901257406,4142374.0504322448,-27500.0,-704.98213130662248,-752.87902119315186,-361.96576571334748,504.96180265219914,373.8642961128192,-238.82267432461194,918.56802722022815,-338.24664132260978,-690.02645397195579,690.02645397195579,338.24664132260978,1749.2363498032589,0.0
703204.59901257406,4142374.0504322448,-27500.0,-704.2536577873218,-656.97545665660471,-293.00506627507627,454.27534390672344,310.78129067853826,-200.32146976800814,812.20228374411329,-368.51670820408441,-574.88709129762731,574.88709129762731,368.51670820408441,1555.4855189624056,0.0
708204.59901257406,4142374.0504322448,-27500.0,-686.98563327408112,-572.33159452021152,-238.83948692777403,405.52044674971557,258.63234443667136,-167.64645223598021,718.95028507612915,-380.72107059696981,-479.71729725588676,479.71729725588676,380.72107059696981,1383.6586392742747,0.0
713204.59901257406,4142374.0504322448,-27500.0,-659.38652698982548,-498.46620577129067,-196.16467681653245,360.24382741272922,215.72385831532685,-140.25152455181924,637.43636170468517,-380.58756097450447,-401.2729244421858,401.2729244421858,380.58756097450447,1232.0486299288584,0.0
718204.59901257406,4142374.0504322448,-27500.0,-625.81679136803689,-434.46091208082703,-162.39332483303289,319.11883350767351,180.48288007436497,-117.44712633015483,566.28655160588528,-372.27466904076988,-336.66267293158836,336.66267293158836,372.27466904076988,1098.6865546137233,0.0
523204.59901257406,4147374.0504322448,-27500.0,-1072.6853795011596,271.11666859997166,-66.184494179226448,-477.27426253259421,118.1585291996995,-159.71154319633501,694.67889420332403,-789.71517175749,352.62128142031156,-352.62128142031156,789.71517175749,1368.7313492751823,0.0
528204.59901257406,4147374.0504322448,-27500.0,-1186.3884162230559,325.5008766371925,-82.753968886321431,-556.16658741460196,148.08788293477227,-195.55915899577852,789.20527642739012,-872.22570454095512,405.09475116056524,-405.09475116056524,872.22570454095512,1554.9420101023018,0.0
533204.59901257406,4147374.0504322448,-27500.0,-1310.9394114803729,391.93018646700244,-105.0805302630481,-649.93209435957374,186.61177124478743,-240.74290133505133,899.74581957284272,-961.74120606945473,465.69934765124469,-465.69934765124469,961.74120606945473,1772.4122262782989,0.0
538204.59901257406,4147374.0504322448,-27500.0,-1445.6115299566195,473.11874471718949,-135.42167036901802,-761.31830498135503,236.4468219248227,-297.91719128430788,1029.3196871730468,-1057.1790312876788,535.21502740936489,-535.21502740936489,1057.1790312876788,2026.8607011470958,0.0
543204.59901257406,4147374.0504322448,-27500.0,-1588.3802465609283,572.25803129155327,-176.97886990724828,-893.33768401759301,301.20626052112226,-370.4849293249631,1181.4749489546987,-1156.2194932915402,614.06247985631126,-614.06247985631126,1156.2194932915402,2324.8986585914745,0.0
548204.59901257406,4147374.0504322448,-27500.0,-1735.1361977739302,692.95217354978365,-234.3007814926718,-1049.0647829731345,385.67494016839612,-462.75507389062636,1360.3139222762063,-1254.5846764893167,701.89773811721489,-701.89773811721489,1254.5846764893167,2673.9896030041086,0.0
553204.59901257406,4147374.0504322448,-27500.0,-1878.5103156346538,838.98208455220617,-313.84666791962451,-1231.2029763166056,496.13073879514917,-580.07046188594052,1570.4557965995907,-1344.9639592637286,796.91748884455956,-796.91748884455956,1344.9639592637286,3082.2376607884098,0.0
558204.59901257406,4147374.0504322448,-27500.0,-2006.1583993417898,1013.7312599881388,-424.75127360313343,-1441.2486027755938,640.66867513903503,-728.82436158360463,1816.873899355181,-1415.4465269006307,894.69385244222553,-894.69385244222553,1415.4465269006307,3557.8589704267015,0.0
563204.59901257406,4147374.0504322448,-27500.0,-2098.3316351001613,1218.976262376591,-579.80664024212297,-1677.9722343819994,829.40730514064387,-916.20128987992211,2104.5028496844566,-1447.3043551857081,986.26491344254873,-986.26491344254873,1447.3043551857081,4108.100182924898,0.0
568204.59901257406,4147374.0504322448,-27500.0,-2124.5966898739966,1452.5156505150649,-796.57926740016774,-1934.76796615338,1074.2836231825925,-1149.3255584887352,2437.4391621886502,-1412.0111558041506,1055.0848997876353,-1055.0848997876353,1412.0111558041506,4737.219575092603,0.0
573204.59901257406,4147374.0504322448,-27500.0,-2039.7774573211736,1703.7439999611111,-1098.308991914018,-2195.1658846301962,1387.7758875091949,-1433.2237093269132,2817.4434586909638,-1267.5991634242503,1072.3315102580384,-1072.3315102580384,1267.5991634242503,5442.9289423480413,0.0
578204.59901257406,4147374.0504322448,-27500.0,-1779.9074754155222,1945.7378947917546,-1513.5278679582796,-2425.4462538000744,1779.1077205708184,-1766.4679070509035,3241.2741380603125,-955.18019618607593,990.15091363365616,-990.15091363365616,955.18019618607593,6210.4176985457298,0.0
583204.59901257406,4147374.0504322448,-27500.0,-1261.1075811307962,2121.9112550995701,-2071.6494428276856,-2562.9770268789425,2244.8263662156742,-2132.2030708111001,3696.1903295006036,-398.55286105964365,733.30627993624762,-733.30627993624762,398.55286105964365,7002.9663850140523,0.0
588204.59901257406,4147374.0504322448,-27500.0,-390.15047524277918,2126.082780159235,-2788.0652203794471,-2499.7474424053175,2747.3550403098702,-2479.6323966285004,4153.2906336457327,484.55880784367184,193.35400439567829,-193.35400439567829,-484.55880784367184,7749.6003290496919,0.0
593204.59901257406,4147374.0504322448,-27500.0,890.96730266784346,1782.1065036218367,-3625.770173424271,-2067.8068089902981,3170.262064398275,-2686.2928286167789,4561.9370245567825,1738.3238938181694,-758.84471500379334,758.84471500379334,-1738.3238938181694,8339.4863761308552,0.0
598204.59901257406,4147374.0504322448,-27500.0,2485.9369286242322,858.10516701794836,-4416.9207625945,-1062.9738838276064,3241.1494922492066,-2491.6071701718611,4865.2846070860105,3253.4650392635467,-2198.445263791682,2198.445263791682,-3253.4650392635467,8670.6421304498308,0.0
603204.59901257406,4147374.0504322448,-27500.0,3943.840272576806,-782.66373606449395,-4762.9153131824187,587.59697894394139,2465.1539922202874,-1440.4457502770081,5104.2952586735664,4574.048916635581,-3937.7255654844585,3937.7255654844585,-4574.048916635581,8889.4835180432583,0.0
608204.59901257406,4147374.0504322448,-27500.0,4429.9170470099707,-2784.4603230928651,-4089.4228587674638,2412.5128952676719,294.86902533349411,940.9789180042219,5652.206348199853,4863.1559121827104,-5235.2302035747634,5235.2302035747634,-4863.1559121827104,9798.4462225095667,0.0
613204.59901257406,4147374.0504322448,-27500.0,3473.1708862637756,-4017.3497772921255,-2191.4762509174589,3172.0109109950708,-3136.5127453418027,4415.5940209637301,6930.1890572630564,3615.4402642794557,-4998.0913148534455,4998.0913148534455,-3615.4402642794557,12100.837864726636,0.0
618204.59901257406,4147374.0504322448,-27500.0,2019.3017051178892,-3468.1568363722185,95.455245622155118,1945.546297706851,-6373.5953012940681,7456.6651566407882,8312.2935213215751,1729.6704209209349,-3040.1511020773005,3040.1511020773005,-1729.6704209209349,14595.708164987996,0.0
623204.59901257406,4147374.0504322448,-27500.0,1489.3507548518212,-1628.8690027056982,1515.3238702834765,-432.3003870807749,-7783.5952472227082,8523.0328284130246,8782.4261097074286,715.42757934268241,-689.32628451406174,689.32628451406174,-715.42757934268241,15477.856116205356,0.0
628204.59901257406,4147374.0504322448,-27500.0,1983.9831638336482,167.37457889366684,1675.4772062296438,-2395.7043335155595,-7210.1403113704782,7682.7358955146201,8150.1355604473147,884.38367898066372,753.84473322427129,-753.84473322427129,-884.38367898066372,14407.972384418228,0.0
633204.59901257406,4147374.0504322448,-27500.0,2763.0540748581693,1190.0546640264338,994.54263258837307,-3303.2232454493474,-5553.1187436640057,5965.9044106957772,6868.2179065466853,1607.4959877708627,1061.3396882687318,-1061.3396882687318,-1607.4959877708627,12187.866324491013,0.0
638204.59901257406,4147374.0504322448,-27500.0,3300.2015161413337,1413.720412882139,32.440566799018697,-3326.7827307681728,-3667.6812380330657,4177.7809307581001,5432.8451192188877,2310.0720400038704,612.49643127462639,-612.49643127462639,-2310.0720400038704,9688.6557485601297,0.0
643204.59901257406,4147374.0504322448,-27500.0,3425.9686518629128,1101.7312777440982,-813.53692424047495,-2834.2419549181341,-2032.8172998268399,2677.1363751323524,4157.1535322734526,2712.5275168395483,-131.98044685814511,131.98044685814511,-2712.5275168395483,7449.6130786289214,0.0
648204.59901257406,4147374.0504322448,-27500.0,3177.7008081660847,556.68573589332459,-1364.3516027272367,-2137.2217994955035,-824.98387410906707,1557.0195374120108,3187.2063899546197,2758.1789839480552,-836.12075205228348,836.12075205228348,-2758.1789839480552,5707.0370487262808,0.0
653204.59901257406,4147374.0504322448,-27500.0,2685.5254218918394,4.1475442258491269,-1612.0459100411674,-1440.5319580433204,-38.786467701814317,788.49616168036528,2537.3249588991985,2522.4708718554239,-1336.5243273946562,1336.5243273946562,-2522.4708718554239,4488.3385061356548,0.0
658204.59901257406,4147374.0504322448,-27500.0,2091.0570159826534,-438.06519514357814,-1632.7463730522195,-849.16833304215743,412.48712838868016,297.8724473780552,2121.0608359543512,2126.1528650754422,-1604.8497345047049,1604.8497345047049,-2126.1528650754422,3695.1531248253823,0.0
663204.59901257406,4147374.0504322448,-27500.0,1501.7705066916337,-736.49926588166579,-1517.2387861691584,-396.84805488722475,631.09578565284858,6.5452764966977712,1837.620878347363,1676.4050120353174,-1682.7826216975393,1682.7826216975393,-1676.4050120353174,3182.863655335439,0.0
668204.59901257406,4147374.0504322448,-27500.0,980.07325960606181,-904.2864766299125,-1337.9206164812497,-77.169822323403935,703.65662634217836,-151.64704447663843,1623.1956210954054,1244.6645822082378,-1631.5607125491842,1631.5607125491842,-1244.6645822082378,2826.13363187398,0.0
673204.59901257406,4147374.0504322448,-27500.0,551.64289457682582,-971.91569049595421,-1141.7905476710782,133.21080408901381,692.80425216734761,-225.97295736519317,1445.6274429453483,868.10387062315397,-1506.0636167231855,1506.0636167231855,-868.10387062315397,2546.0933656000652,0.0
678204.59901257406,4147374.0504322448,-27500.0,218.74921972356577,-971.01759641822889,-954.85345670378877,261.08230582126077,639.53638278205494,-250.35810383622987,1290.4560695813902,559.65557546809009,-1346.5037174140484,1346.5037174140484,-559.65557546809009,2303.6920576065813,0.0
683204.59901257406,4147374.0504322448,-27500.0,-28.466181312575621,-927.70102932294446,-789.01689744972214,330.37818821376095,568.72820596839165,-246.86903760375111,1151.6865751918854,318.12580929999513,-1178.8073744760532,1178.8073744760532,-318.12580929999513,2083.2001604860407,0.0
688204.59901257406,4147374.0504322448,-27500.0,-204.50525103560835,-861.10081250816256,-647.9002606260234,360.1016712149555,494.43463071089946,-229.20196015922764,1026.8832206259633,135.55444808585281,-1017.9298480531934,1017.9298480531934,-135.55444808585281,1879.6699032737733,0.0
693204.59901257406,4147374.0504322448,-27500.0,-324.29999778872497,-784.16550144527309,-530.79923935886507,364.31681693476054,423.94154653006967,-205.49062540967481,914.87653641271538,1.7191754184964907,-871.39217375203157,871.39217375203157,-1.7191754184964907,1692.1577302130981,0.0
698204.59901257406,4147374.0504322448,-27500.0,-401.21240307518354,-705.09540072963603,-435.08309371815471,352.94409328673606,360.53101270416551,-180.33357075218498,814.81732664831634,-93.468864997690673,-742.09859891874339,742.09859891874339,93.468864997690673,1520.7074030085207,0.0
703204.59901257406,4147374.0504322448,-27500.0,-446.33080264421079,-628.73518895375958,-357.5172216005916,332.72787092560884,305.24301065149916,-156.16404983939844,725.85375234306468,-158.89083806358587,-630.30445180768618,630.30445180768618,158.89083806358587,1365.2402926253267,0.0
708204.59901257406,4147374.0504322448,-27500.0,-468.43728035833084,-557.68912241725809,-294.9254565897387,308.10808636485922,257.94325671073534,-134.13427413771623,647.06554357314258,-201.88500492578271,-534.88325105175693,534.88325105175693,201.88500492578271,1225.2782337658837,0.0
713204.59901257406,4147374.0504322448,-27500.0,-474.27295926341662,-493.1345258899359,-244.47846386354027,281.91451462591868,217.94412584711696,-114.66725064890466,577.48886755630508,-228.28090481122422,-454.0948757448125,454.0948757448125,228.28090481122422,1099.980750717217,0.0
718204.59901257406,4147374.0504322448,-27500.0,-468.89628093740265,-435.37970054174838,-203.78272403237065,255.88228298236356,184.34962124275785,-97.790761770445116,516.1587804214472,-242.58944553303559,-386.02275622393995,386.02275622393995,242.58944553303559,988.26485719106938,0.0
523204.59901257406,4152374.0504322448,-27500.0,-991.50840970957847,333.19372168335718,-108.01470810918926,-446.58065124870745,144.89743791168235,-150.78829679877177,668.88870771866323,-720.67719301662146,365.52671367912899,-365.52671367912899,720.67719301662146,1318.6899975778006,0.0
528204.59901257406,4152374.0504322448,-27500.0,-1085.0411171566268,394.87928522414938,-134.30780440521372,-516.08876423579966,179.49585840988885,-183.3575322472112,756.17271706298379,-785.61894027270534,415.10187106047181,-415.10187106047181,785.61894027270534,1491.0246726675887,0.0
533204.59901257406,4152374.0504322448,-27500.0,-1184.0708146760221,468.86076640435004,-168.81244179498896,-597.31898291331538,223.39359746680597,-223.93414870807493,857.25864274218725,-852.81406293412556,470.76418177288798,-470.76418177288798,852.81406293412556,1690.3847037997448,0.0
538204.59901257406,4152374.0504322448,-27500.0,-1286.4369699925201,557.39645486271309,-214.38824692705339,-691.8799809731355,279.27410465058551,-274.58616462004761,974.43736100518652,-919.88427094042868,532.35978496210441,-532.35978496210441,919.88427094042868,1921.0740166913859,0.0
543204.59901257406,4152374.0504322448,-27500.0,-1388.3579636633758,662.87644143894147,-274.93290728190266,-801.22041438780104,350.57804184144277,-337.85443111400315,1110.2780762348975,-982.91691000710659,598.99471329497862,-598.99471329497862,982.91691000710659,2187.7863128109097,0.0
548204.59901257406,4152374.0504322448,-27500.0,-1483.6444664032299,787.56195603692936,-355.73929738591698,-926.27729526018857,441.65578103557613,-416.77713914018739,1267.5662124212072,-1035.7442335557973,668.49909281773398,-668.49909281773398,1035.7442335557973,2495.387878647698,0.0
553204.59901257406,4152374.0504322448,-27500.0,-1562.6132001008721,933.05825385916091,-463.93451763940107,-1066.8593850437769,557.87622319772038,-514.82243176493205,1449.1470233069169,-1068.953215038506,736.58427708418594,-736.58427708418594,1068.953215038506,2848.4754798900408,0.0
558204.59901257406,4152374.0504322448,-27500.0,-1610.6493314810032,1099.3274706469658,-608.96548116578083,-1220.6103340471193,705.59120619596763,-635.62400475734046,1657.6082443136611,-1068.5844124185874,795.54995652725279,-795.54995652725279,1068.5844124185874,3250.5670393018772,0.0
563204.59901257406,4152374.0504322448,-27500.0,-1606.4387733325807,1282.9299262282507,-803.00463831494415,-1381.3293665691588,891.74313389866052,-782.32959559996527,1894.7066582084694,-1014.5536107361379,832.36713243264398,-832.36713243264398,1014.5536107361379,3702.7155434902515,0.0
568204.59901257406,4152374.0504322448,-27500.0,-1520.090380006201,1474.0260448462091,-1060.9468575161984,-1536.3597245799924,1122.6966686152589,-956.23258208882407,2160.4152734922709,-879.03238860597264,825.9840511572703,-825.9840511572703,879.03238860597264,4201.2691078704211,0.0
573204.59901257406,4152374.0504322448,-27500.0,-1311.8489674282171,1651.5090540622837,-1399.2353946948326,-1662.7326809051913,1401.4933098193367,-1154.1341982308256,2451.4528244309176,-625.51145036206992,743.89398500699656,-743.89398500699656,625.51145036206992,4734.4830055778448,0.0
578204.59901257406,4152374.0504322448,-27500.0,-933.17257769815717,1775.6459960832551,-1831.8840819427755,-1721.9329763522978,1722.0657192355834,-1363.5424153795188,2759.237246261589,-210.35517044933746,538.67222338393128,-538.67222338393128,210.35517044933746,5277.9322561312238,0.0
583204.59901257406,4152374.0504322448,-27500.0,-334.17215591246401,1778.3877407919151,-2360.4863259662425,-1653.9822475260025,2057.9285231678009,-1554.3279783430596,3067.6641725481522,409.11124491602357,147.05987967322645,-147.05987967322645,-409.11124491602357,5789.8601389584974,0.0
588204.59901257406,4152374.0504322448,-27500.0,514.61932461218316,1554.8078167681704,-2952.7847793406117,-1374.3028360784119,2341.8395693890693,-1664.9992328822991,3352.8266580092131,1252.0078919805073,-501.30850141899271,501.30850141899271,-1252.0078919805073,6211.8479173474489,0.0
593204.59901257406,4152374.0504322448,-27500.0,1573.9186718356334,968.95679847909662,-3503.8277586014219,-784.55736905914159,2434.3953182012106,-1582.8168379402773,3592.0874053644684,2264.724155655937,-1449.5986987610265,1449.5986987610265,-2264.724155655937,6493.1848693633683,0.0
598204.59901257406,4152374.0504322448,-27500.0,2656.1240865920158,-91.854121210814014,-3785.2248364308216,175.48640041571514,2092.8447199067691,-1126.0419809569075,3801.4757446540489,3240.8862055008581,-2629.0922495525933,2629.0922495525933,-3240.8862055008581,6685.1477035749858,0.0
603204.59901257406,4152374.0504322448,-27500.0,3366.5783397502209,-1564.8900103588091,-3436.0441289401224,1398.6167518690884,995.96083307803872,-68.809307949530691,4118.8110789121383,3762.996910426863,-3723.1649205324829,3723.1649205324829,-3762.996910426863,7134.3365615213688,0.0
608204.59901257406,4152374.0504322448,-27500.0,3245.7180365214053,-2995.4427364051617,-2133.2132415086503,2443.3942001088672,-1054.7408944410877,1702.3125706566864,4818.7226967042134,3347.5715461399022,-4113.2111970037658,4113.2111970037658,-3347.5715461399022,8436.7720406949611,0.0
613204.59901257406,4152374.0504322448,-27500.0,2258.0130238475094,-3576.1123724377312,-11.365993595414411,2612.140453741632,-3737.4378510010251,3889.7265303090876,5953.1231960555269,1950.1367154171076,-3224.8965977611169,3224.8965977611169,-1950.1367154171076,10595.114152638202,0.0
618204.59901257406,4152374.0504322448,-27500.0,1129.920802337446,-2804.0471726640972,2104.4919623386872,1553.8463230957514,-6080.6832918366408,5711.8142267472649,7029.2275472538322,344.57741237420117,-1237.9105807846722,1237.9105807846722,-344.57741237420117,12618.78123365176,0.0
623204.59901257406,4152374.0504322448,-27500.0,716.54496596117008,-1118.8012084582219,3279.0749706587922,-223.58297225312145,-7141.7513828382935,6460.7115563399084,7477.81886238483,-488.91578916773847,833.37058495578617,-833.37058495578617,488.91578916773847,13481.890279726242,0.0
628204.59901257406,4152374.0504322448,-27500.0,1130.3477590346654,535.73194698573059,3258.29016855071,-1828.201430257252,-6782.0714790459388,6091.2243419560809,7153.9940949896136,-307.37346385178455,2074.9073606320985,-2074.9073606320985,307.37346385178455,12940.612192107987,0.0
633204.59901257406,4152374.0504322448,-27500.0,1897.8141103316036,1559.9704112437323,2428.6857467106825,-2757.2698757300536,-5527.3742774969014,5056.8414410376436,6287.0182325389333,457.17490581524135,2302.0112082097403,-2302.0112082097403,-457.17490581524135,11417.003728095122,0.0
638204.59901257406,4152374.0504322448,-27500.0,2563.4492353378464,1877.1660552719627,1311.7687493933552,-3002.4251523911012,-3984.7956663727641,3829.6630065262748,5198.2466777529853,1299.2640366657524,1820.0519407561933,-1820.0519407561933,-1299.2640366657524,9487.1288340693336,0.0
643204.59901257406,4152374.0504322448,-27500.0,2914.3586688719352,1679.5971312042157,278.3908234018167,-2772.8670999215219,-2551.8284843055435,2694.5665403739927,4133.1860453092295,1921.8102909239842,1025.1919262786723,-1025.1919262786723,-1921.8102909239842,7581.7063613386727,0.0
648204.59901257406,4152374.0504322448,-27500.0,2927.7210003610876,1213.2435298210728,-492.82271744000735,-2295.9372935428378,-1408.7558929649579,1771.4247500300905,3233.2814173427987,2228.3868223835398,217.72440872208131,-217.72440872208131,-2228.3868223835398,5938.4864841491735,0.0
653204.59901257406,4152374.0504322448,-27500.0,2679.6797556091956,677.29283505168621,-968.20768951459604,-1744.6091227165698,-591.01857371996357,1081.8367105264379,2551.9921098591049,2248.062962662153,-436.8252809573238,436.8252809573238,-2248.062962662153,4646.1276581101374,0.0
658204.59901257406,4152374.0504322448,-27500.0,2276.9729854311277,194.25794579290681,-1194.2465797292477,-1225.2778327794331,-58.430146220801312,599.31022377283045,2068.9038421591408,2065.5195963091091,-884.07772531396586,884.07772531396586,-2065.5195963091091,3696.9919943615041,0.0
663204.59901257406,4152374.0504322448,-27500.0,1815.5396934578648,-181.74381724006477,-1244.2165468338317,-789.03356925478317,256.06910664688178,280.17151228903515,1728.3874774072417,1771.9028868961277,-1137.5302961754751,1137.5302961754751,-1771.9028868961277,3030.6995654399034,0.0
668204.59901257406,4152374.0504322448,-27500.0,1363.312138025613,-442.07232472292043,-1186.8929597881847,-449.90440142864179,418.79532303950879,80.36167540253048,1480.6313292287114,1439.7846442357588,-1239.9080184260677,1239.9080184260677,-1439.7846442357588,2568.5434433483856,0.0
673204.59901257406,4152374.0504322448,-27500.0,959.33396889317248,-601.43950669064088,-1074.3666735049455,-201.4771735502768,483.65234386590288,-37.178170753581981,1291.4545513066589,1116.6612374586753,-1238.5242444280107,1238.5242444280107,-1116.6612374586753,2238.5472371580554,0.0
678204.59901257406,4152374.0504322448,-27500.0,620.32135215600329,-682.66006570264278,-941.05629273390718,-28.636644486975243,489.82807809245406,-100.60940308705277,1139.500519588059,828.25421405177735,-1173.619668938238,1173.619668938238,-828.25421405177735,1988.0455843537018,0.0
683204.59901257406,4152374.0504322448,-27500.0,348.5981332474496,-708.32325350445501,-807.27136964570764,85.537899597350432,463.72066679877707,-129.94838949191725,1012.2246023035773,584.90342206837545,-1075.0021593030087,1075.0021593030087,-584.90342206837545,1784.4130722484933,0.0
688204.59901257406,4152374.0504322448,-27500.0,138.62781424475725,-697.27537459324242,-683.58432224050421,156.40054287597547,422.07709100810433,-138.74692926760017,902.53244594353771,387.57782383182655,-962.75236041249093,962.75236041249093,-387.57782383182655,1609.7571590123737,0.0
693204.59901257406,4152374.0504322448,-27500.0,-18.527939369831838,-663.79926046161552,-574.48506978363446,196.50722681542206,374.94997325033364,-135.83303897231778,806.41263918753339,232.32890429109091,-849.34294061500407,849.34294061500407,-232.32890429109091,1455.03549893269,0.0
698204.59901257406,4152374.0504322448,-27500.0,-132.54869198424615,-618.03541953823606,-480.97899296282498,215.50038790358218,328.01261178112782,-126.76670374151239,721.48206760023493,113.16063459473645,-741.86423671352713,741.86423671352713,-113.16063459473645,1315.8469277865713,0.0
703204.59901257406,4152374.0504322448,-27500.0,-212.46759519371193,-566.81948951259426,-402.26108245269302,220.47762002663649,284.20268990953412,-114.93429500474078,646.17820937644365,23.682607030581153,-643.85726862421825,643.85726862421825,-23.682607030581153,1189.976112510519,0.0
708204.59901257406,4152374.0504322448,-27500.0,-266.07897459315211,-514.53996876605231,-336.71902947923468,216.50295608907771,244.81980381740163,-102.32032919237072,579.34494411537389,-42.047566086782012,-556.65737920222023,556.65737920222023,42.047566086782012,1076.1318545511976,0.0
713204.59901257406,4152374.0504322448,-27500.0,-299.7938692435377,-463.86261974848742,-282.49550245776163,207.10015230575488,210.2269736667248,-90.028725255607355,520.03471820964955,-89.171125656768794,-480.31143372247436,480.31143372247436,89.171125656768794,973.36283335268035,0.0
523204.59901257406,4157374.0504322448,-27500.0,-895.06782022468849,378.31042261043393,-152.51170363631846,-409.64901602797482,165.32364362982076,-139.9295002076781,636.02911953503212,-638.15255996927192,360.93320426737796,-360.93320426737796,638.15255996927192,1255.2608845320781,0.0
528204.59901257406,4157374.0504322448,-27500.0,-966.78182403785911,442.70286656273998,-188.09604681644836,-468.66171296154153,202.53297591778849,-168.74006984903389,714.82452226042426,-684.09400285631602,403.9204642519677,-403.9204642519677,684.09400285631602,1411.2923595907098,0.0
533204.59901257406,4157374.0504322448,-27500.0,-1038.852292200366,518.3226785029417,-233.83956476395562,-536.1475209737622,249.01613642611878,-204.12691125234059,805.04207109942035,-727.75913718354286,450.21692339559831,-450.21692339559831,727.75913718354286,1589.7207917896039,0.0
538204.59901257406,4157374.0504322448,-27500.0,-1108.0060233533684,606.60582747582725,-292.89080149929339,-612.66298219438477,307.15302939272118,-247.57233010819508,908.28223153495128,-765.78732787480112,498.67036505449732,-498.67036505449732,765.78732787480112,1793.4366434423371,0.0
543204.59901257406,4157374.0504322448,-27500.0,-1169.2405011839251,708.70457102593423,-369.35903547247671,-698.27868041977308,379.84644037223444,-300.78361826299789,1026.2320100862592,-793.19710390443606,547.08286629266468,-547.08286629266468,793.19710390443606,2025.2854022629294,0.0
548204.59901257406,4157374.0504322448,-27500.0,-1215.15662302702,825.05288901147969,-468.53857875957033,-792.15641825705359,470.52846040627367,-365.61647481145314,1160.5470695081281,-802.78445984408745,591.63015543823167,-591.63015543823167,802.78445984408745,2287.7364886676714,0.0
553204.59901257406,4157374.0504322448,-27500.0,-1235.1329361458022,954.62080361844221,-597.10243179368319,-891.88218390470217,583.043939834752,-443.87480654582254,1312.6210996573034,-784.39013422291134,626.02431730788214,-626.02431730788214,784.39013422291134,2582.3265405401007,0.0
558204.59901257406,4157374.0504322448,-27500.0,-1214.4012745098794,1093.6853261140982,-763.15017050126073,-992.45149121089946,721.27599238533799,-536.88459066808628,1483.1987086660731,-724.10523140806117,640.35675553085844,-640.35675553085844,724.10523140806117,2908.7739858317614,0.0
563204.59901257406,4157374.0504322448,-27500.0,-1133.2189431762718,1233.8869820003238,-975.86573355587268,-1084.7925769966755,888.26998954618898,-644.67459517364068,1671.7998085871548,-603.62316273973636,619.60586784833492,-619.60586784833492,603.62316273973636,3263.6464840265812,0.0
568204.59901257406,4157374.0504322448,-27500.0,-966.61456563690433,1359.317268188255,-1244.299056751662,-1153.7548926261413,1084.4373466703894,-764.5081691797991,1875.9414968294477,-400.23332966701133,541.95644238119326,-541.95644238119326,400.23332966701133,3638.5123229236046,0.0
573204.59901257406,4157374.0504322448,-27500.0,-685.71279994727752,1442.4969670474673,-1574.3671245735768,-1175.6639066797391,1304.1615827060202,-888.40493267340639,2090.2172183052116,-88.491269100624152,377.48961407597938,-377.48961407597938,88.491269100624152,4017.7268491874765,0.0
578204.59901257406,4157374.0504322448,-27500.0,-262.53864956254694,1439.6372682649935,-1962.5383381495164,-1116.0313141186916,1529.8248101987613,-999.2170918339657,2305.5822748598571,354.48508643834856,88.726368125182091,-88.726368125182091,-354.48508643834856,4376.7198757248661,0.0
583204.59901257406,4157374.0504322448,-27500.0,318.5425276186063,1287.1293248480574,-2383.9850527320973,-929.17614169909848,1722.1558314981999,-1064.9325408587988,2509.9957731375362,936.86667888875058,-363.66830389076716,363.66830389076716,-936.86667888875058,4683.6365983941041,0.0
588204.59901257406,4157374.0504322448,-27500.0,1038.7511391803394,904.87148512003216,-2773.2368785157933,-563.93754835879474,1806.7114651782197,-1031.60839735677,2693.4244567918022,1629.0597221080718,-1003.7933115033672,1003.7933115033672,-1629.0597221080718,4912.0798401799948,0.0
593204.59901257406,4157374.0504322448,-27500.0,1811.0465406727785,218.67563630903351,-2999.6961020657764,16.37622557191677,1660.5306074478551,-817.87323280631836,2863.2946892320529,2328.7383188782246,-1803.406347765464,1803.406347765464,-2328.7383188782246,5081.7078655004298,0.0
598204.59901257406,4157374.0504322448,-27500.0,2448.3726271490732,-780.13554939553728,-2855.408552861833,789.11808668230071,1114.7379938238362,-320.55902198864277,3075.5079852563144,2828.617656829309,-2622.3671215169611,2622.3671215169611,-2828.617656829309,5341.6428735646296,0.0
603204.59901257406,4157374.0504322448,-27500.0,2683.616695903429,-1934.733479754176,-2101.7149073887049,1604.6502262885501,8.3819383052326994,548.05200946849129,3456.5649466425753,2839.0049566858615,-3158.2852664224756,3158.2852664224756,-2839.0049566858615,6016.240406469863,0.0
608204.59901257406,4157374.0504322448,-27500.0,2317.273192245731,-2852.5838146527967,-632.00838250560139,2150.7013375414413,-1671.9434754125837,1772.3570074869506,4126.9358054028407,2145.9636097663051,-3005.8139867626387,3005.8139867626387,-2145.9636097663051,7352.7220222021206,0.0
613204.59901257406,4157374.0504322448,-27500.0,1465.4916479094411,-3035.4679216734767,1300.3641819866104,2068.0437987882769,-3625.4139153387077,3134.3841414002904,5013.788304289963,881.21373649832663,-1928.5249544845012,1928.5249544845012,-881.21373649832663,9109.9692297735328,0.0
618204.59901257406,4157374.0504322448,-27500.0,621.05592437370137,-2263.2039049322866,3063.0576797889435,1238.3899724692117,-5264.7084831609718,4243.1118045294133,5807.1685704445526,-396.24460747658293,-185.63455110261918,185.63455110261918,396.24460747658293,10646.885258633618,0.0
623204.59901257406,4157374.0504322448,-27500.0,289.93173806040852,-857.13283203289143,4030.9735817850878,-42.717163700787381,-6064.1916563053101,4764.7637653057564,6190.1612837039393,-1077.4370167213574,1533.5045143167854,-1533.5045143167854,1077.4370167213574,11393.495844896521,0.0
628204.59901257406,4157374.0504322448,-27500.0,576.21582444441992,565.63715011010754,4017.4055149467622,-1277.9243152226031,-5907.4244191806283,4640.2395525513875,6055.6804971632873,-974.04227432184098,2614.796544008283,-2614.796544008283,974.04227432184098,11176.989595663841,0.0
633204.59901257406,4157374.0504322448,-27500.0,1212.2040766268938,1548.1882190111507,3278.072771879471,-2117.7826628249113,-5061.0320200763299,4055.3731420707759,5506.1331834426655,-333.54342146801878,2880.6091522873403,-2880.6091522873403,333.54342146801878,10196.353057008382,0.0
638204.59901257406,4157374.0504322448,-27500.0,1862.4107415929698,1965.0109854028399,2217.799547214071,-2478.4351736088838,-3907.3493887430914,3262.3664203188064,4730.608215864645,470.22489751220974,2512.4544783741831,-2512.4544783741831,-470.22489751220974,8797.8698281863872,0.0
643204.59901257406,4157374.0504322448,-27500.0,2314.9252836607711,1917.0673486589349,1163.5884760184613,-2448.9213665492816,-2747.6742826846016,2456.0143448344215,3902.7921242572756,1162.8851289023314,1808.8444851153595,-1808.8444851153595,-1162.8851289023314,7292.0610752232587,0.0
648204.59901257406,4157374.0504322448,-27500.0,2501.0199284361229,1583.1756433728829,298.82935097841175,-2173.1131724514576,-1751.5542475583243,1746.2540154384101,3142.6369550052532,1617.8641222279662,1026.5853871006625,-1026.5853871006625,-1617.8641222279662,5886.221310964218,0.0
653204.59901257406,4157374.0504322448,-27500.0,2446.7092641501222,1129.2855543829239,-314.9502126931813,-1782.266280299146,-981.24925785997482,1176.1673644012856,2514.4173359036099,1820.5115741317782,328.4408854937077,-328.4408854937077,-1820.5115741317782,4687.8633615676245,0.0
658204.59901257406,4157374.0504322448,-27500.0,2220.9721923627844,672.60421797747051,-692.40335466377689,-1370.5626299642565,-432.67185221019037,747.64084557760486,2030.7410314223148,1817.3668058893743,-211.45722567176927,211.45722567176927,-1817.3668058893743,3730.9817316910526,0.0
663204.59901257406,4157374.0504322448,-27500.0,1899.2362817986216,278.44980435782759,-882.89173864871896,-993.72937287008358,-69.970802031803814,442.02147006282229,1668.9199618323314,1675.5131396880222,-580.91824101306406,580.91824101306406,-1675.5131396880222,3003.2212688587138,0.0
668204.59901257406,4157374.0504322448,-27500.0,1543.8885601829754,-27.928468798720854,-942.60655539287302,-677.37502001212874,151.64606173765378,233.69598944720946,1398.561492696715,1457.8837053378127,-801.44937048443558,801.44937048443558,-1457.8837053378127,2467.6538331043803,0.0
673204.59901257406,4157374.0504322448,-27500.0,1197.908956255613,-246.22178928953556,-920.2818360732407,-427.42381566057077,273.70554021690543,97.641278719201424,1193.9483775264221,1212.5602627444591,-907.13006659705445,907.13006659705445,-1212.5602627444591,2078.8067160426576,0.0
678204.59901257406,4157374.0504322448,-27500.0,886.15868119747927,-388.52848725227227,-852.46366235075345,-238.96102576322562,329.63442564922684,12.767026158953085,1035.4692603291321,971.13992550916214,-932.1628426687023,932.1628426687023,-971.13992550916214,1793.6747826453598,0.0
683204.59901257406,4157374.0504322448,-27500.0,619.76652600141415,-471.07715346938465,-763.92400811156131,-102.37464323230967,344.09399917585193,-37.232513007443657,909.04605882428598,751.4550074548298,-905.21107051144361,905.21107051144361,-751.4550074548298,1577.8303702725182,0.0
688204.59901257406,4157374.0504322448,-27500.0,400.85613393296347,-509.6812212942566,-670.08065330159559,-7.0186704928387043,334.18850263926919,-64.257821334460019,805.11669207032242,561.51462039430248,-847.89607088611865,847.89607088611865,-561.51462039430248,1406.9994462685618,0.0
693204.59901257406,4157374.0504322448,-27500.0,226.39884275487043,-517.74512029248365,-579.70844407529319,56.920408963490729,311.21367497621031,-76.639375318171489,717.44164167284612,403.10115940846538,-775.35231492699052,775.35231492699052,-403.10115940846538,1265.6308647560747,0.0
698204.59901257406,4157374.0504322448,-27500.0,90.912060766396365,-505.74076193455477,-497.22255885474311,97.67714307144341,282.30744300445531,-80.022821724518707,642.01657852828816,274.48754065341836,-697.52866945895198,697.52866945895198,-274.48754065341836,1144.3882416228673,0.0
703204.59901257406,4157374.0504322448,-27500.0,-11.852366191247331,-481.40687931207407,-424.36236334711299,121.77648131489458,251.77797591178228,-78.132416530024955,576.24806187568981,172.26494590357555,-620.56635509137232,620.56635509137232,-172.26494590357555,1037.8531165168245,0.0
708204.59901257406,4157374.0504322448,-27500.0,-87.960530285877965,-450.22176907245239,-361.33237673048069,134.19317624479254,222.08077073211862,-73.364618893608068,518.39708807271893,92.46315356205011,-547.97030088356519,547.97030088356519,-92.46315356205011,942.87712570877875,0.0
713204.59901257406,4157374.0504322448,-27500.0,-142.83587287271132,-415.92074516898629,-307.53109265321854,138.61623064601272,194.49924599983802,-67.222421441153273,467.23380997898892,31.176493101329356,-481.50589795751557,481.50589795751557,-31.176493101329356,857.55380619681375,0.0
528204.59901257406,4162374.0504322448,-27500.0,-839.61615842096148,468.95247057445113,-239.65290052746698,-416.92789240489486,217.02862744546641,-152.61021108385953,667.45526528254288,-575.05538706041693,375.33848176309419,-375.33848176309419,575.05538706041693,1319.9601861056067,0.0
533204.59901257406,4162374.0504322448,-27500.0,-885.61905918286243,541.01256116542254,-294.45102201073843,-470.5453929069717,263.52132606574042,-182.61003994295123,746.22217934740183,-596.17412369105728,409.49278221237682,-409.49278221237682,596.17412369105728,1476.0616550594432,0.0
538204.59901257406,4162374.0504322448,-27500.0,-923.64551910613034,622.67162981156139,-363.66013794604544,-529.28280111683353,320.54271211255355,-218.72475495054294,835.15779169372547,-607.31303641982106,441.92104304846896,-441.92104304846896,607.31303641982106,1651.5372249221616,0.0
543204.59901257406,4162374.0504322448,-27500.0,-948.14625787958971,713.70376071855094,-451.08697204709279,-592.15943194427837,390.23936318551245,-261.9366510384715,935.27627090845363,-603.08095886963383,469.40724000206728,-469.40724000206728,603.08095886963383,1847.6478386037018,0.0
548204.59901257406,4162374.0504322448,-27500.0,-951.49105316102134,812.68291754489996,-561.31113684301965,-657.09832056014011,474.88668509144958,-313.12080450879665,1047.3689590634056,-576.19776977364336,487.00710107858578,-487.00710107858578,576.19776977364336,2064.9273508652504,0.0
553204.59901257406,4162374.0504322448,-27500.0,-923.4990617191977,916.1564750637956,-699.58651250520757,-720.32646772561668,576.59398254310304,-372.78193039344308,1171.7278333528413,-517.1162786090099,487.36811674010329,-487.36811674010329,517.1162786090099,2302.6363791309104,0.0
558204.59901257406,4162374.0504322448,-27500.0,-851.10380832107035,1017.419064047632,-871.43810618385248,-775.55062206096591,696.70375225588964,-440.58362223109816,1307.8166756700666,-413.81449900767893,459.92347888083918,-459.92347888083918,413.81449900767893,2557.994773181133,0.0
563204.59901257406,4162374.0504322448,-27500.0,-718.44288581068622,1104.7937184133518,-1081.6659588116577,-812.90426781210897,834.67269328868736,-514.55329563995519,1453.8947077183004,-252.06198087502511,390.09466224567416,-390.09466224567416,252.06198087502511,2825.1977648686079,0.0
568204.59901257406,4162374.0504322448,-27500.0,-507.92099590948146,1159.4284762619566,-1332.271614653403,-817.76993335719055,986.12052565011879,-589.81302727476725,1606.6253831879146,-16.72852892781161,258.87002439985048,-258.87002439985048,16.72852892781161,3094.3690375316078,0.0
573204.59901257406,4162374.0504322448,-27500.0,-203.16647533648251,1152.9284168236438,-1618.5777371803745,-769.83073167297573,1139.6472846968072,-656.68511973094189,1760.886419713783,304.91538319959545,43.57327248690703,-43.57327248690703,-304.91538319959545,3350.9984294280257,0.0
578204.59901257406,4162374.0504322448,-27500.0,204.77204412074877,1045.8807789807761,-1922.6247752164288,-643.20674889973884,1272.0593647381806,-698.12153402298406,1910.3766344335259,716.52173855074489,-278.60194381238193,278.60194381238193,-716.52173855074489,3577.3412995275298,0.0
583204.59901257406,4162374.0504322448,-27500.0,706.53007804054937,789.80360643120957,-2203.2178962641779,-409.4024686396898,1342.1165478689168,-686.75963485449006,2050.3151832647927,1201.1256243889752,-721.68430576837784,721.68430576837784,-1201.1256243889752,3759.2284336928001,0.0
588204.59901257406,4162374.0504322448,-27500.0,1258.6321199919223,337.37842000929658,-2383.7945985827114,-45.965784463801519,1284.460584051817,-582.78997954871124,2184.4505345021084,1704.6067054134437,-1273.3908135597235,1273.3908135597235,-1704.6067054134437,3904.8931898527835,0.0
593204.59901257406,4162374.0504322448,-27500.0,1767.4530471280484,-332.14536837019836,-2344.4867050088819,445.64432406660063,1008.9927828788989,-335.60838368162882,2338.0227336133321,2119.1887355333115,-1867.8041244944825,1867.8041244944825,-2119.1887355333115,4082.1822036802378,0.0
598204.59901257406,4162374.0504322448,-27500.0,2088.3985152593132,-1168.7295688004799,-1934.6413221287851,1012.5029140014698,416.81027701991843,105.15944072121438,2569.8933896894573,2283.5689330719983,-2356.9899635195329,2356.9899635195329,-2283.5689330719983,4453.5269444220539,0.0
603204.59901257406,4162374.0504322448,-27500.0,2068.0455553690526,-2003.6685081812323,-1030.5293558115513,1524.7777946358462,-553.03356859489747,762.77377008776057,2956.5315773482553,2029.6550797996661,-2512.0265258145637,2512.0265258145637,-2029.6550797996661,5215.0610094761569,0.0
608204.59901257406,4162374.0504322448,-27500.0,1645.6332614266055,-2550.7083730806953,354.48051563115177,1786.0325291171114,-1847.0100996362421,1592.8207769415237,3526.0589915873175,1294.5961325780245,-2102.1981774695246,2102.1981774695246,-1294.5961325780245,6397.1939716032966,0.0
613204.59901257406,4162374.0504322448,-27500.0,960.79034606059304,-2522.505112641833,1970.7376724197093,1616.8188708886053,-3239.8357813684133,2456.1439168495663,4192.9318039417794,242.80035637130686,-1061.0519176415805,1061.0519176415805,-242.80035637130686,7756.7300550756363,0.0
618204.59901257406,4162374.0504322448,-27500.0,334.48745578499586,-1833.6832048386391,3376.7390308766689,985.57474892164294,-4384.2524574296749,3151.2739028768997,4772.1370591267942,-747.06817611487179,379.62180821581649,-379.62180821581649,747.06817611487179,8904.2951099454458,0.0
623204.59901257406,4162374.0504322448,-27500.0,70.23566954749279,-705.3177647736436,4168.1707783193478,66.304219774930502,-4983.5670410912653,3511.6754609483364,5082.6911247671705,-1297.5850576852795,1767.2327054101297,-1767.2327054101297,1297.5850576852795,9515.6299110140553,0.0
628204.59901257406,4162374.0504322448,-27500.0,251.44741698040974,467.82215466367148,4205.9431236563423,-858.81330602902517,-4950.4117293011068,3491.7044328407223,5048.5807872943442,-1269.2572815900523,2695.1793845523935,-2695.1793845523935,1269.2572815900523,9471.6789336965012,0.0
633204.59901257406,4162374.0504322448,-27500.0,734.88494106512678,1357.0877890928966,3636.4590108534444,-1560.738734206355,-4411.9156807117879,3166.5815167594187,4710.8449503775946,-791.0943898617968,3006.6393697561989,-3006.6393697561989,791.0943898617968,8860.2658256672257,0.0
638204.59901257406,4162374.0504322448,-27500.0,1295.6164681660932,1826.6749290079993,2740.2837721004603,-1945.8461255631089,-3593.6189311370304,2666.6137879793359,4175.5515229020502,-112.74899348076246,2787.2325450587014,-2787.2325450587014,112.74899348076246,7880.1985163358377,0.0
643204.59901257406,4162374.0504322448,-27500.0,1756.0005327622996,1907.7668655601349,1779.1146320943408,-2036.2337471025023,-2705.0416777934611,2113.5604261711669,3557.4265069390085,544.17496622759734,2237.5696784164029,-2237.5696784164029,-544.17496622759734,6740.1288532470035,0.0
648204.59901257406,4162374.0504322448,-27500.0,2029.3035770525503,1714.0048969081961,925.43680292601948,-1911.5652659038053,-1887.3111775276291,1591.4690447009805,2948.5535001806734,1048.6478533848931,1559.2395534119805,-1559.2395534119805,-1048.6478533848931,5602.5372858803512,0.0
653204.59901257406,4162374.0504322448,-27500.0,2105.6354237903693,1371.7314658778466,259.14534721849134,-1661.4940447481388,-1210.6851054616254,1144.8137655654182,2409.1114987493452,1356.4870264460749,899.52773063984546,-899.52773063984546,-1356.4870264460749,4569.7330889148752,0.0
658204.59901257406,4162374.0504322448,-27500.0,2020.2550496372878,983.16744524902617,-207.04846609173953,-1360.4664531963119,-693.26142003158793,788.2588085053269,1965.4279872835693,1481.3357836783234,341.4331253588764,-341.4331253588764,-1481.3357836783234,3691.7423944022403,0.0
663204.59901257406,4162374.0504322448,-27500.0,1825.2621957710696,615.29578769842749,-498.09161349813002,-1059.6825617922573,-322.57914070611139,518.22605656148835,1614.700901380641,1464.7224130273066,-84.038318054644037,84.038318054644037,-1464.7224130273066,2980.9946359889136,0.0
668204.59901257406,4162374.0504322448,-27500.0,1571.1685362365799,303.13888413744087,-653.54012046165406,-788.5969839893753,-72.610969547154568,322.23641577239817,1341.6371476952379,1354.4491773020695,-379.33103753713823,379.33103753713823,-1354.4491773020695,2426.4793768102595,0.0
673204.59901257406,4162374.0504322448,-27500.0,1298.000904610305,58.595789126703551,-713.38722536071612,-560.25029166202751,85.423244196204408,185.09613370885182,1130.0360698072966,1192.5609933775982,-563.88927608420249,563.88927608420249,-1192.5609933775982,2004.891206994422,0.0
678204.59901257406,4162374.0504322448,-27500.0,1033.0886529848108,-120.43730458542747,-711.3024886404404,-377.06392891778864,177.42849074492531,92.341740099250373,965.55805001936062,1010.7164745661778,-662.72437659820321,662.72437659820321,-1010.7164745661778,1688.5983205604932,0.0
683204.59901257406,4162374.0504322448,-27500.0,792.47452039078451,-242.97076268126307,-672.68548167744802,-235.56791960961584,224.29120800604426,31.762790690866325,836.27400623018616,830.01222708092337,-699.88760339928308,699.88760339928308,-830.01222708092337,1450.9695085255742,0.0
688204.59901257406,4162374.0504322448,-27500.0,583.68082557735136,-320.28936392424373,-615.23143441156037,-129.67436860702637,241.69274288669979,-6.2222753426253012,732.83381775010446,662.84713376447132,-695.53929908427119,695.53929908427119,-662.84713376447132,1269.4812000067027,0.0
693204.59901257406,4162374.0504322448,-27500.0,408.52510331968506,-363.36254457861304,-550.4658853768899,-52.668295301456531,240.81407695402984,-28.768331502115878,648.29991823109788,515.31075371211205,-665.19994811716901,665.19994811716901,-515.31075371211205,1126.9081260265561,0.0
698204.59901257406,4162374.0504322448,-27500.0,265.41895145595407,-381.65350517457921,-485.40681703287407,1.7352171378003511,229.30704608575198,-41.029264281238206,577.73678545403652,389.34408824114468,-620.10541176351353,620.10541176351353,-389.34408824114468,1011.085069416928,0.0
703204.59901257406,4162374.0504322448,-27500.0,151.01851670702544,-382.76172853039088,-423.98759612079351,38.932988826026012,212.22301244485948,-46.616621100543391,517.72118361221305,284.40755011421356,-567.98791644673122,567.98791644673122,-284.40755011421356,913.91084986976057,0.0
708204.59901257406,4162374.0504322448,-27500.0,61.301689603468901,-372.49781289174268,-368.14147673168827,63.319375701876325,192.77970969663932,-48.005087391350145,465.89740033804924,198.64638861787489,-513.91915933557993,513.91915933557993,-198.64638861787489,830.18810967864249,0.0
528204.59901257406,4167374.0504322448,-27500.0,-710.77044940641122,475.32301138664087,-285.31798463740722,-363.69593159483645,223.46577905213618,-135.81570783229793,616.4312856114218,-465.19687146009051,333.93305805119519,-333.93305805119519,465.19687146009051,1221.2279858250381,0.0
533204.59901257406,4167374.0504322448,-27500.0,-733.36109294889206,539.80592570258682,-346.21313146193501,-404.19965343805148,267.82712494501959,-160.55714397404799,684.00700144114728,-466.40648728603605,354.83048092286526,-354.83048092286526,466.40648728603605,1354.8894881965614,0.0
538204.59901257406,4167374.0504322448,-27500.0,-744.44523321337692,610.247444251616,-421.42685099476802,-446.56439586197843,321.06640908871532,-189.66912147881362,759.38127535002013,-454.77846805932143,370.57827464732202,-370.57827464732202,454.77846805932143,1502.5413648327276,0.0
543204.59901257406,4167374.0504322448,-27500.0,-738.56837498865548,685.16948046675941,-514.04490981301183,-489.13409019183911,384.50818352658666,-223.56079930522881,843.01172485793415,-425.13578661684079,377.38162893166549,-377.38162893166549,425.13578661684079,1664.2355779729783,0.0
548204.59901257406,4167374.0504322448,-27500.0,-708.7080651729392,761.61368933009192,-627.41936983203493,-529.15480230829087,459.26335551461932,-262.37758982064213,934.94524067812824,-370.93923500438717,369.86149320322949,-369.86149320322949,370.93923500438717,1839.1536809316835,0.0
553204.59901257406,4167374.0504322448,-27500.0,-646.16041076919782,834.3774667583117,-764.8125714922146,-562.31458848649174,545.83374104606037,-305.73307665607837,1034.6791719467724,-284.26353904244843,340.62661923478515,-340.62661923478515,284.26353904244843,2025.1704428977243,0.0
558204.59901257406,4167374.0504322448,-27500.0,-540.71400002910093,895.0022761789985,-928.65869630653458,-582.18697334386491,643.42800807663832,-352.27888669315735,1141.0109996863791,-156.09468261967089,279.90928244767753,-279.90928244767753,156.09468261967089,2218.3377393313858,0.0
563204.59901257406,4167374.0504322448,-27500.0,-381.40462555332914,930.55441859124892,-1119.1870430193635,-579.64877115893523,748.84203406161271,-399.04847155347255,1251.8789750471838,22.745894159271231,175.48786513157091,-175.48786513157091,-22.745894159271231,2412.4018589360694,0.0
568204.59901257406,4167374.0504322448,-27500.0,-158.30556806548918,922.4114787068404,-1332.0574910776174,-542.4663133097273,854.73600274493469,-440.51876483541957,1364.3424487783795,259.58040398423168,13.336319212985515,-13.336319212985515,-259.58040398423168,2598.6820500670719,0.0
573204.59901257406,4167374.0504322448,-27500.0,134.0410809771293,845.62027975109618,-1554.619685374864,-455.46269971792924,947.18485077209698,-467.38668231195118,1475.0172650370112,556.13528933068233,-220.23189012030096,220.23189012030096,-556.13528933068233,2767.0779317339038,0.0
578204.59901257406,4167374.0504322448,-27500.0,490.96479616728715,670.01962311506929,-1760.5994168157977,-302.0196209654016,1002.6052512547388,-465.21065744968848,1581.5521354385353,902.49007654559512,-533.76789183159406,533.76789183159406,-902.49007654559512,2909.8111245477216,0.0
583204.59901257406,4167374.0504322448,-27500.0,889.75555569692438,365.22057914513931,-1903.8089117557004,-68.075527570862036,984.77733605636809,-413.40320388150843,1686.0368061200525,1268.7335650209991,-921.90121805667127,921.90121805667127,-1268.7335650209991,3030.7074144097514,0.0
588204.59901257406,4167374.0504322448,-27500.0,1281.2783467224588,-87.713995449897737,-1913.4621274033213,250.05014529213221,843.94365065404816,-285.65159753936791,1800.9459117866243,1596.2830697584729,-1352.0332174064026,1352.0332174064026,-1596.2830697584729,3162.7647321768854,0.0
593204.59901257406,4167374.0504322448,-27500.0,1586.600148189804,-675.89395470301031,-1697.2616924314948,633.57039115439738,521.91889856466639,-53.627380151158548,1955.4194773532915,1794.8321060196929,-1749.2681812616809,1749.2681812616809,-1794.8321060196929,3388.1771778424518,0.0
598204.59901257406,4167374.0504322448,-27500.0,1708.9004741778274,-1328.914884289718,-1162.265447060747,1027.8489628790246,-31.314734489245108,303.74876361334594,2192.6017752636862,1756.137310295557,-1989.5654092730517,1989.5654092730517,-1756.137310295557,3828.057991954186,0.0
603204.59901257406,4167374.0504322448,-27500.0,1571.1711572137992,-1903.5388689485278,-261.60307923061708,1337.3889333838576,-826.5352605413932,784.78660930280898,2546.3143226256398,1396.3447263416856,-1919.8548794621565,1919.8548794621565,-1396.3447263416856,4563.1005341302061,0.0
608204.59901257406,4167374.0504322448,-27500.0,1174.7229407755003,-2207.2636591986866,942.98806442266482,1444.683948595831,-1798.5402209758381,1348.2146517497517,3006.5977201617375,722.05086868076432,-1421.4324616026056,1421.4324616026056,-722.05086868076432,5541.2651086135738,0.0
613204.59901257406,4167374.0504322448,-27500.0,640.05803892220172,-2079.1228208672287,2246.5547817234942,1260.6065251077337,-2791.5495973321158,1908.4415757295503,3504.7986466836314,-121.53448354537699,-500.4796863143884,500.4796863143884,121.53448354537699,6577.6791932908882,0.0
618204.59901257406,4167374.0504322448,-27500.0,174.92108469709618,-1493.4977144931604,3350.2760903438921,783.81096147453491,-3598.239984836855,2356.9808696366963,3930.3468495250731,-882.58489078007926,661.99267152305276,-661.99267152305276,882.58489078007926,7435.8676670053937,0.0
623204.59901257406,4167374.0504322448,-27500.0,-34.297731339182036,-600.66744824208445,3992.8089775938001,119.70815994938768,-4046.3153796665242,2605.8117171662821,4176.556208248644,-1323.77624728619,1769.1327302647028,-1769.1327302647028,1323.77624728619,7924.5922676698683,0.0
628204.59901257406,4167374.0504322448,-27500.0,74.522236808468023,345.66346630657131,4072.1718557852396,-566.67256107329126,-4074.2536631153935,2624.2068959930393,4190.5349616875674,-1344.9406533429469,2551.1808036393068,-2551.1808036393068,1344.9406533429469,7963.0258216051961,0.0
633204.59901257406,4167374.0504322448,-27500.0,426.44213398851309,1116.0338875211694,3666.1067965235634,-1128.2380047073557,-3741.088532891004,2442.9731852523414,3985.9257449154284,-1009.4241816085143,2880.8412393400422,-2880.8412393400422,1009.4241816085143,7587.5904180165107,0.0
638204.59901257406,4167374.0504322448,-27500.0,877.67365821016915,1589.0242676019559,2957.6216441511629,-1486.1528194417394,-3176.3873202122545,2129.4996984535874,3621.0929625333843,-475.32137949343473,2787.288267810959,-2787.288267810959,475.32137949343473,6910.7722585397041,0.0
643204.59901257406,4167374.0504322448,-27500.0,1293.8098309088975,1756.181785567084,2141.1072416489374,-1632.8741345796634,-2518.1738498218078,1756.709037017522,3169.0654220567744,93.443202804700149,2394.7079176408115,-2394.7079176408115,-93.443202804700149,6067.5308900971495,0.0
648204.59901257406,4167374.0504322448,-27500.0,1591.2065002061574,1680.4845426258707,1363.9882555143597,-1606.9890387658284,-1873.7212856990423,1382.9077906124785,2696.1598324341862,580.55920302500397,1849.6886697099098,-1849.6886697099098,-580.55920302500397,5176.8241028233515,0.0
653204.59901257406,4167374.0504322448,-27500.0,1740.8804332672792,1449.9425991172816,710.61427572805565,-1464.6168972299074,-1307.893162616333,1045.1309515001062,2252.207911913702,929.29218771612545,1274.5210991231086,-1274.5210991231086,-929.29218771612545,4324.6700122869988,0.0
658204.59901257406,4167374.0504322448,-27500.0,1753.3019372961774,1146.2761999641546,211.67562759731464,-1259.6022008914265,-848.51115331252413,761.14740267187767,1866.4481410805772,1130.5707632885999,749.95503914373069,-749.95503914373069,-1130.5707632885999,3562.7243495166817,0.0
663204.59901257406,4167374.0504322448,-27500.0,1659.5112294972744,830.61723966454883,-137.62201397936357,-1033.9639655128183,-497.88726603767526,534.89103413424471,1546.6229901574161,1204.0693451113164,317.05394925725523,-317.05394925725523,-1204.0693451113164,2914.4572000157086,0.0
668204.59901257406,4167374.0504322448,-27500.0,1496.1511311473532,541.14125776073956,-360.3893746404321,-815.70786977347018,-244.08608959304357,362.07149048075223,1287.422471931324,1181.5759886089691,-12.630137227418004,12.630137227418004,-1181.5759886089691,2383.4403952481516,0.0
673204.59901257406,4167374.0504322448,-27500.0,1296.3896337377612,296.85759685210371,-485.68483255844149,-620.59928706187554,-69.338363626803044,234.55435783598736,1080.0125435812852,1095.8336570056535,-245.61665303292654,245.61665303292654,-1095.8336570056535,1960.9286508488847,0.0
678204.59901257406,4167374.0504322448,-27500.0,1085.9126632393622,103.35781606582272,-541.2582813311044,-455.37659403152691,44.728640872685993,143.22713427756861,915.2740563259149,974.68748515474863,-397.18590341939995,397.18590341939995,-974.68748515474863,1631.7428664831216,0.0
683204.59901257406,4167374.0504322448,-27500.0,882.26822687801098,-41.818897287317149,-550.23255778552357,-320.94856618217398,114.40808944910499,79.587146146046891,784.61531272964748,839.05969205501481,-485.1278804420466,485.1278804420466,-839.05969205501481,1378.4238017213384,0.0
688204.59901257406,4167374.0504322448,-27500.0,695.95481791958878,-145.1259899404256,-530.26196132467453,-214.94684587506364,152.91831290384351,36.440003891005745,680.45761841024807,703.14804914368165,-526.20638479137097,526.20638479137097,-703.14804914368165,1183.9773554797725,0.0
693204.59901257406,4167374.0504322448,-27500.0,532.12712375605054,-214.35063236350283,-493.97713885722447,-133.50224680379168,170.36093604711243,8.0636992623156232,596.518389024778,575.62340215329937,-534.56326501401441,534.56326501401441,-575.62340215329937,1033.5203882720111,0.0
698204.59901257406,4167374.0504322448,-27500.0,392.28140288631676,-257.09001481280364,-449.93298901473611,-72.349466645593111,174.12362062128946,-9.9022372417957918,527.85857157788882,461.07127586319655,-521.30769452796233,521.30769452796233,-461.07127586319655,915.03998891018864,0.0
703204.59901257406,4167374.0504322448,-27500.0,275.64187049407349,-280.01440329883815,-403.62559491290608,-27.437686686601172,169.42363999591802,-20.678496565971731,470.75247378341595,361.29840721625339,-494.723616719407,494.723616719407,-361.29840721625339,819.46632163782556,0.0
528204.59901257406,4172374.0504322448,-27500.0,-586.17575733473211,464.70831624297517,-322.51140899451684,-311.33869801643073,222.80729817678153,-119.0873538038542,564.14011831516359,-359.98786542237195,284.42151611487162,-284.42151611487162,359.98786542237195,1118.9825710576588,0.0
533204.59901257406,4172374.0504322448,-27500.0,-589.10964085408818,518.9702521189804,-386.26952643338768,-340.09848392986009,263.4480712369612,-138.94298214246243,621.52088671600654,-344.93806321461216,292.37659311898358,-292.37659311898358,344.93806321461216,1231.1329086882738,0.0
538204.59901257406,4172374.0504322448,-27500.0,-578.57198061281667,575.52289072435747,-463.20464423117261,-368.22528998401089,311.0645830037754,-161.69693224920303,684.70123994344158,-315.69781535115595,292.57891894646201,-292.57891894646201,315.69781535115595,1352.6764485681001,0.0
543204.59901257406,4172374.0504322448,-27500.0,-549.695608226025,631.93951072379355,-555.42991736871898,-393.73756962102198,366.21671585240597,-187.34667027122842,753.5758161013423,-267.77603259883369,281.11810051870987,-281.11810051870987,267.77603259883369,1482.8627588923823,0.0
548204.59901257406,4172374.0504322448,-27500.0,-496.62668914516706,684.25451245266913,-664.83534803063003,-413.68508016816304,429.00919130276185,-215.55501047113856,827.7080472411061,-195.90825486611232,252.82167463062132,-252.82167463062132,195.90825486611232,1620.1047930182208,0.0
553204.59901257406,4172374.0504322448,-27500.0,-412.692365097893,726.36468278332484,-792.56467230240196,-423.85033828212238,498.67428303244515,-245.41451481364635,906.2727508947886,-94.309329704614299,201.09834018366593,-201.09834018366593,94.309329704614299,1761.7098167838037,0.0
558204.59901257406,4172374.0504322448,-27500.0,-290.9134397137031,749.34532563897562,-938.11598213094874,-418.45433193413345,572.92377324671702,-275.10205897385464,987.98426799628282,42.699472894249034,117.98042050272954,-117.98042050272954,-42.699472894249034,1903.666615049558,0.0
563204.59901257406,4172374.0504322448,-27500.0,-125.08994727780221,740.81253313288028,-1097.8957960247089,-389.96929840353494,646.9970996073547,-301.4013304965448,1071.1237958306874,219.45322494879494,-5.3972006995683444,5.3972006995683444,-219.45322494879494,2040.6797171398887,0.0
568204.59901257406,4172374.0504322448,-27500.0,88.255551600180567,684.63485060691107,-1263.0562576342825,-329.2398779426361,712.36170223700356,-319.09661631971994,1153.8312724918867,436.80471116021624,-177.497968488834,177.497968488834,-436.80471116021624,2166.8568276607089,0.0
573204.59901257406,4172374.0504322448,-27500.0,346.82094500245756,561.57882962258202,-1416.5579194780503,-226.256170779358,755.12918711437032,-320.30698164910581,1234.9371044068848,688.83022837935584,-403.72428527727163,403.72428527727163,-688.83022837935584,2277.8308941264627,0.0
578204.59901257406,4172374.0504322448,-27500.0,638.3558345635347,351.84659966843378,-1529.7642000850299,-72.080084585708292,754.50764676260383,-293.96227125178831,1315.7183817749972,958.40892369733979,-681.80566032575575,681.80566032575575,-958.40892369733979,2375.5849896684094,0.0
583204.59901257406,4172374.0504322448,-27500.0,936.10718919303474,40.767820110227767,-1559.6909246306911,137.51063455195489,682.09688026662104,-225.84151199109718,1402.8272237826754,1212.4899854538369,-994.97562790799554,994.97562790799554,-1212.4899854538369,2477.2213594866557,0.0
588204.59901257406,4172374.0504322448,-27500.0,1196.0182975674084,-371.33170560982273,-1449.4459735510718,396.38669415154794,503.56069666068481,-99.876832574711329,1511.6041395981856,1399.3980895020752,-1303.891658331024,1303.891658331024,-1399.3980895020752,2625.8960753468023,0.0
593204.59901257406,4172374.0504322448,-27500.0,1359.7414770701662,-855.78295150096255,-1136.046064181229,681.24662618967545,184.88109981574632,98.390474871076577,1666.3486460225295,1452.6363285086966,-1540.8637620997304,1540.8637620997304,-1452.6363285086966,2892.0278397539096,0.0
598204.59901257406,4172374.0504322448,-27500.0,1368.5153634824178,-1343.6194754259295,-570.057401299307,946.62347156917554,-294.92973613252093,375.6323061686964,1892.0290190975002,1306.7924315835037,-1613.5932483012327,1613.5932483012327,-1306.7924315835037,3344.2911953217676,0.0
603204.59901257406,4172374.0504322448,-27500.0,1189.7199380468319,-1725.7126641508776,252.93547930412521,1127.3939657309395,-925.73410500627722,722.68501167289151,2197.5119499111097,927.72961840410403,-1427.2519550039372,1427.2519550039372,-927.72961840410403,3997.0527445762968,0.0
608204.59901257406,4172374.0504322448,-27500.0,847.41424596536194,-1877.6091378947795,1260.6375717670219,1154.6480907800888,-1650.2439890527778,1108.1672003069343,2562.1722160337322,347.73609962679603,-927.04057735190213,927.04057735190213,-347.73609962679603,4782.9694701239241,0.0
613204.59901257406,4172374.0504322448,-27500.0,434.83163978914251,-1710.3102037671947,2296.82311815803,984.13876843576463,-2363.7128218635312,1479.6055125887094,2936.3884915981785,-318.82714985402924,-144.78158561726113,144.78158561726113,318.82714985402924,5572.763219579605,0.0
618204.59901257406,4172374.0504322448,-27500.0,87.44448557669196,-1223.1005313463102,3160.1789028973963,623.70943446068111,-2939.7720053854491,1776.0888887679941,3252.7988174468546,-904.3068521133581,785.10458290380632,-785.10458290380632,904.3068521133581,6219.8235006873965,0.0
623204.59901257406,4172374.0504322448,-27500.0,-77.397644606376303,-518.72782121112061,3679.7136697335563,139.13711802559865,-3275.2080147207475,1948.7795011776582,3446.5666634147233,-1256.4697554628303,1665.6089054377014,-1665.6089054377014,1256.4697554628303,6607.1916776011794,0.0
628204.59901257406,4172374.0504322448,-27500.0,-14.946084654688494,237.27305501264479,3781.6135640501384,-369.96572223891019,-3327.889502502358,1977.8918928115027,3481.0549143244339,-1304.3993674208707,2315.9531637107657,-2315.9531637107657,1304.3993674208707,6680.0752358298414,0.0
633204.59901257406,4172374.0504322448,-27500.0,235.99219790563893,886.34781494654771,3505.0474109904294,-809.20204970788234,-3124.7313249677168,1876.1839297835811,3358.3600179107225,-1077.3993085104948,2637.9066702175915,-2637.9066702175915,1077.3993085104948,6451.9897977757819,0.0
638204.59901257406,4172374.0504322448,-27500.0,585.37158811120389,1329.8076074048952,2966.0173896333226,-1118.8782353034751,-2739.826097253811,1679.0657624243167,3110.4042229970032,-673.15864861443833,2632.4501958745955,-2632.4501958745955,673.15864861443833,5986.7114845318911,0.0
643204.59901257406,4172374.0504322448,-27500.0,937.21102984769414,1541.8741423748017,2302.3617995270683,-1281.6470423647997,-2261.5921257788577,1429.5459593523856,2782.9307139800185,-206.85088413181302,2371.9647719512668,-2371.9647719512668,206.85088413181302,5370.1304234950749,0.0
648204.59901257406,4172374.0504322448,-27500.0,1220.8917167654367,1551.9114614639323,1631.4664989647461,-1312.9536159343279,-1767.0328622987722,1166.070423111023,2421.9556302755277,227.59003632413237,1957.2386202795631,-1957.2386202795631,-227.59003632413237,4685.9502581124161,0.0
653204.59901257406,4172374.0504322448,-27500.0,1401.2010433497435,1416.5875346723985,1031.5317812533062,-1245.4408512453138,-1309.6894748652769,916.4277164088154,2065.9350440614307,573.38237331684491,1483.1080456476632,-1483.1080456476632,-573.38237331684491,4001.4801983186539,0.0
658204.59901257406,4172374.0504322448,-27500.0,1473.4371516133988,1196.6311508341385,541.49844694257138,-1115.4998609210052,-918.78250880727319,696.85099152395412,1741.6964373867208,809.14601880852115,1020.6621992840132,-1020.6621992840132,-809.14601880852115,3362.907545749923,0.0
663204.59901257406,4172374.0504322448,-27500.0,1452.5278070652787,943.15268887830428,170.35386676524269,-954.97711151109957,-604.26333789298678,514.05087002383937,1461.5538255550512,938.82418160055579,613.31572938050783,-613.31572938050783,-938.82418160055579,2796.6722512668816,0.0
668204.59901257406,4172374.0504322448,-27500.0,1362.332961078976,692.50354723117152,-91.451907658712372,-787.68667858444144,-363.47343447545876,368.20761525798702,1226.2157415834868,980.35592297504718,280.84988666426256,-280.84988666426256,-980.35592297504718,2313.6344730187566,0.0
673204.59901257406,4172374.0504322448,-27500.0,1227.8619840628496,466.62304152248169,-262.35007828986818,-629.14286198119134,-187.02445809828583,255.7537370941524,1031.8094470156641,956.65756678815319,26.371993083162636,-26.371993083162636,-956.65756678815319,1913.8147386375695,0.0
678204.59901257406,4172374.0504322448,-27500.0,1070.8262826750013,275.98267582493526,-363.02496275980877,-487.93110342517531,-63.029723887756468,171.46787248607356,873.21575153473202,889.87834054797668,-156.89293793688603,156.89293793688603,-889.87834054797668,1590.5585820354265,0.0
683204.59901257406,4172374.0504322448,-27500.0,907.84453727075515,123.15630469201744,-412.62927644809918,-367.59475198474371,20.305407362365418,109.82526201052704,744.91824341644349,798.52026804814989,-280.33739297202203,280.33739297202203,-798.52026804814989,1333.7313674428055,0.0
688204.59901257406,4172374.0504322448,-27500.0,750.33756682633793,5.9738693151139417,-427.09827402492874,-268.40866996576614,73.364592894467989,65.742583506253453,641.48191300094322,696.54373968045707,-356.49104009104576,356.49104009104576,-696.54373968045707,1131.9640342493155,0.0
693204.59901257406,4172374.0504322448,-27500.0,605.28337698062603,-80.119181989832754,-418.77095792171878,-188.77950860747083,104.64036819180981,34.904103451775661,557.93539162311708,593.61030827537252,-397.04750639907974,397.04750639907974,-593.61030827537252,974.13531270160888,0.0
698204.59901257406,4172374.0504322448,-27500.0,476.26349213843832,-140.50009109359684,-396.69571117299546,-126.22902700125078,120.7339552886726,13.833678452838381,490.00267690241924,495.83377680832518,-411.95912990339536,411.95912990339536,-495.83377680832518,850.27579874586127,0.0
703204.59901257406,4172374.0504322448,-27500.0,364.48157147237526,-180.4482738473682,-367.21176215375687,-78.020640677848945,126.58516441913183,-0.1666133150940628,434.18436522521921,406.65440006861434,-409.19384539650366,409.19384539650366,-406.65440006861434,752.03098239749681,0.0
533204.59901257406,4177374.0504322448,-27500.0,-457.73340994422887,483.38352186923561,-413.33540080274679,-280.42342476438068,252.20634504077185,-118.50404027535265,561.14781185790355,-236.17515273452887,227.53229119089099,-227.53229119089099,236.17515273452887,1108.9190864785389,0.0
538204.59901257406,4177374.0504322448,-27500.0,-431.180952237101,525.12376720743919,-488.13453046042406,-296.79101177811339,293.16453862999873,-135.72673542689392,613.39173698651871,-194.68282877075796,214.52585028053664,-214.52585028053664,194.68282877075796,1206.946579579035,0.0
543204.59901257406,4177374.0504322448,-27500.0,-386.58904586822047,562.87522859612659,-575.26378636641437,-308.7625889585712,339.10857635844121,-154.40554201469575,669.21801368409353,-135.42348500130916,188.49330046957013,-188.49330046957013,135.42348500130916,1309.4987426887642,0.0
548204.59901257406,4177374.0504322448,-27500.0,-319.52798844374058,592.22596675236957,-675.17708765726309,-313.53881877041698,389.3821298703611,-173.93040149861508,728.06292388095164,-54.631215063653023,144.94304439858382,-144.94304439858382,54.631215063653023,1414.7213431070613,0.0
553204.59901257406,4177374.0504322448,-27500.0,-225.46351721762144,606.96060458467355,-787.12918199624778,-307.39692430926351,442.36157171144492,-193.16236531062543,789.11324737717302,51.274957038247678,78.601234099704996,-78.601234099704996,-51.274957038247678,1519.9959031272144,0.0
558204.59901257406,4177374.0504322448,-27500.0,-100.4225755122194,598.7170253380184,-908.28185636396233,-285.60399610197982,494.91779778478286,-210.18368741726056,851.34216257508308,184.92615955866694,-16.252414319261689,16.252414319261689,-184.92615955866694,1622.0168381263261,0.0
563204.59901257406,4177374.0504322448,-27500.0,57.879267014290548,556.85507256877736,-1032.4264593522209,-242.49641777783171,541.70548619246199,-221.98734003423115,913.70314172344058,346.75243640129889,-144.98946558823064,144.98946558823064,-346.75243640129889,1717.2543449238083,0.0
568204.59901257406,4177374.0504322448,-27500.0,248.33045027289361,468.83222663992501,-1148.3079599763641,-171.88712812092561,574.31443811379017,-224.13699843021212,975.61391865733981,533.12976311485522,-311.11548316226987,311.11548316226987,-533.12976311485522,1803.1960233828358,0.0
573204.59901257406,4177374.0504322448,-27500.0,464.13817500841776,321.54739112657131,-1237.7098765167946,-68.029421334862221,580.43054175503585,-210.4833412860807,1037.9073034023281,733.94417801209249,-513.75252121422398,513.75252121422398,-733.94417801209249,1880.9728041184928,0.0
578204.59901257406,4177374.0504322448,-27500.0,690.2764542566797,104.24883242592387,-1273.8181902931665,72.604762854489195,543.35545698474573,-173.10972040540187,1104.3609264157781,929.93003532941236,-743.98717711611846,743.98717711611846,-929.93003532941236,1959.9628994892009,0.0
583204.59901257406,4177374.0504322448,-27500.0,901.56056432961748,-186.46840345472344,-1220.9770156382774,248.57458853936808,442.52622608003543,-102.79172137686233,1183.5006826817391,1090.7743178288176,-980.43455781731905,980.43455781731905,-1090.7743178288176,2063.8026987118878,0.0
588204.59901257406,4177374.0504322448,-27500.0,1063.0516940407729,-539.6466714304762,-1037.6781633535077,449.96269506425114,255.97424448928606,9.6564012677803159,1289.31960541646,1175.8693658890254,-1185.3851832516245,1185.3851832516245,-1175.8693658890254,2233.2559069101985,0.0
593204.59901257406,4177374.0504322448,-27500.0,1135.1319313550828,-922.51074775953407,-685.00082664141348,655.10933076070557,-34.312910216636574,170.82975045688519,1438.3992513916451,1140.3104283369501,-1304.4182468655756,1304.4182468655756,-1140.3104283369501,2516.2907298490122,0.0
598204.59901257406,4177374.0504322448,-27500.0,1085.0280673797752,-1276.5588210025917,-141.66281843882618,829.68367511862016,-433.92681300156067,381.04204760910983,1642.1503608295709,948.15462735369044,-1273.6009460827579,1273.6009460827579,-948.15462735369044,2942.0406729046531,0.0
603204.59901257406,4177374.0504322448,-27500.0,903.46721121886992,-1523.1954601163125,576.87996913768893,930.89827834473704,-926.30328033730802,630.41422312495615,1897.8337167387799,591.57939150290838,-1037.4051585471307,1037.4051585471307,-591.57939150290838,3496.6044790906763,0.0
608204.59901257406,4177374.0504322448,-27500.0,619.4975909121257,-1583.4460841414464,1403.8964546227683,918.58578956677331,-1466.4494251226429,896.74677048026456,2184.9117610940712,108.26103946745883,-575.00008347310427,575.00008347310427,-108.26103946745883,4120.6068188316713,0.0
613204.59901257406,4177374.0504322448,-27500.0,302.07775403274178,-1408.5661747320833,2224.0541295755493,770.91276418774635,-1984.3693226586206,1147.5970265024082,2468.6936559521041,-415.94146990217644,76.569914872135911,-76.569914872135911,415.94146990217644,4725.683893723346,0.0
618204.59901257406,4177374.0504322448,-27500.0,40.687003234167186,-1007.1476375975584,2900.8377231672243,497.33211216220053,-2401.2559330035283,1347.5473676056538,2707.1356525640745,-868.38263952133809,819.29486931366557,-819.29486931366557,868.38263952133809,5218.5894156526419,0.0
623204.59901257406,4177374.0504322448,-27500.0,-89.031697055923047,-450.27389662447513,3320.5162112798807,139.98083426423884,-2653.4645115680846,1468.4274227273049,2859.7403424403847,-1149.3675773326449,1520.3396143864375,-1520.3396143864375,1149.3675773326449,5525.4058452876961,0.0
628204.59901257406,4177374.0504322448,-27500.0,-55.242382143047458,152.04352679859841,3429.9352163669564,-239.25423751249124,-2712.3801236530935,1497.6286767369606,2901.0160290649083,-1208.8392997363087,2056.9205665088252,-2056.9205665088252,1208.8392997363087,5608.7375824754163,0.0
633204.59901257406,4177374.0504322448,-27500.0,122.16571916341017,690.16882842528935,3247.6794992583277,-579.27759556384171,-2589.897520984081,1440.3889205475498,2828.5670287127282,-1059.0768041432639,2355.2165746217865,-2355.2165746217865,1059.0768041432639,5472.1858665453492,0.0
638204.59901257406,4177374.0504322448,-27500.0,387.11817857593701,1087.7247324759355,2846.4886857659376,-836.93328785316362,-2328.6479506821315,1315.6945606567879,2659.7947918229879,-759.90675874954388,2404.2150874892272,-2404.2150874892272,759.90675874954388,5152.2475796247845,0.0
643204.59901257406,4177374.0504322448,-27500.0,673.16559737394562,1314.3565253059969,2321.6071913353585,-993.91413455140423,-1984.6371325205123,1148.8836578493231,2423.2342294720529,-390.01768323658871,2243.9437616640307,-2243.9437616640307,390.01768323658871,4703.4054380461948,0.0
648204.59901257406,4177374.0504322448,-27500.0,924.93199021662303,1379.5806279320539,1762.2553058454143,-1053.885228647478,-1611.3308414575347,964.67919191397311,2150.1957440470637,-21.04962271056695,1941.0682721132084,-1941.0682721132084,21.04962271056695,4183.3384408272732,0.0
653204.59901257406,4177374.0504322448,-27500.0,1108.4556326619208,1317.2831825936209,1235.1751176634068,-1034.5266966744907,-1250.0892162544433,782.79350920026457,1869.1360872979553,296.79633086075967,1565.608928329254,-1565.608928329254,-296.79633086075967,3642.525488822519,0.0
658204.59901257406,4177374.0504322448,-27500.0,1211.496227643589,1169.9921385037294,780.31161589740952,-959.16579217667811,-927.21223426286167,616.35579073498741,1602.4338182843444,537.68042003214487,1175.9158491190308,-1175.9158491190308,-537.68042003214487,3119.1836040950034,0.0
663204.59901257406,4177374.0504322448,-27500.0,1238.2069939339685,977.68926897114875,414.32820241002446,-850.5804636894818,-655.43658171312461,472.34199650173406,1363.4770640586701,695.89440533732954,812.57858472797056,-812.57858472797056,-695.89440533732954,2638.4137587607233,0.0
668204.59901257406,4177374.0504322448,-27500.0,1202.2777839255709,772.02117376836452,137.35301807511871,-727.56914993264411,-437.43270688635573,352.98553160542014,1156.3128386138351,778.99004477126152,498.70562004891588,-498.70562004891588,-778.99004477126152,2213.8411268731529,0.0
673204.59901257406,4177374.0504322448,-27500.0,1121.0224693530422,574.72927372744539,-60.188802913138254,-603.77960892588953,-269.55200731382706,257.39437993043049,980.13753321789864,801.24191972671156,243.46572242671192,-243.46572242671192,-801.24191972671156,1850.2842562534599,0.0
678204.59901257406,4177374.0504322448,-27500.0,1011.3420092947631,398.59830300036958,-192.17466219956279,-487.95922045362227,-144.92421163859521,182.94696012056167,832.54168748135112,778.77679303825471,46.531164466268592,-46.531164466268592,-778.77679303825471,1546.5015321994488,0.0
683204.59901257406,4177374.0504322448,-27500.0,887.53194559514327,249.48907822188323,-273.18909234719001,-384.88229930982607,-55.628615398449568,126.31173771132018,710.36248997922542,726.5853782264893,-97.926153427315739,97.926153427315739,-726.5853782264893,1297.530887875331,0.0
688204.59901257406,4177374.0504322448,-27500.0,760.48292915040986,128.52728133757472,-316.50303545873356,-296.45045899867233,5.9889325748078681,84.098069963233399,610.06036620176224,657.07935007151434,-198.22391943967924,198.22391943967924,-657.07935007151434,1096.4726433841538,0.0
693204.59901257406,4177374.0504322448,-27500.0,637.74686155201971,33.974871794178391,-333.18946667789112,-222.68898762237484,46.647768392183515,53.214073794716263,528.06120320309947,579.69443036872713,-263.19015375903882,263.19015375903882,-579.69443036872713,935.74242664200949,0.0
698204.59901257406,4177374.0504322448,-27500.0,524.03882903249416,-37.372810678544525,-331.94653422060082,-162.53027219473091,71.892291169051632,31.022932761028574,461.02225660465137,501.09056811606723,-301.03030384681352,301.03030384681352,-501.09056811606723,807.90171350365347,0.0
533204.59901257406,4182374.0504322448,-27500.0,-342.0579596363288,437.88610756631238,-427.47135954966637,-226.56573379899748,235.98186756187258,-99.736728896896409,504.00341065661564,-142.56164672658986,164.5825682308319,-164.5825682308319,142.56164672658986,991.46540947669894,0.0
538204.59901257406,4182374.0504322448,-27500.0,-304.75422603098411,465.27339278100487,-497.04984166027799,-233.68619788561574,269.93535289696683,-112.32211508224906,546.56234462285295,-93.772815031207799,141.31789203945783,-141.31789203945783,93.772815031207799,1069.0521801687439,0.0
543204.59901257406,4182374.0504322448,-27500.0,-250.89424926188374,485.81927569411693,-575.62193276828157,-235.49329462976849,306.64445639126211,-125.32985328993524,591.20303511418092,-29.209896691196427,104.86510074127111,-104.86510074127111,29.209896691196427,1148.2654617583767,0.0
548204.59901257406,4182374.0504322448,-27500.0,-177.47435833804278,495.14691112096534,-662.41731904615938,-229.54646325427839,344.95479431694076,-138.0352951199942,637.40164553738214,53.426506871725749,51.678899506913567,-51.678899506913567,-53.426506871725749,1227.362362326081,0.0
553204.59901257406,4182374.0504322448,-27500.0,-81.889726974277224,487.52041498061766,-755.23942475979504,-212.80698608092069,382.77715526127639,-149.26712596096024,684.53018274520059,155.76823039374321,-22.00470225694292,22.00470225694292,-155.76823039374321,1304.2296327601612,0.0
558204.59901257406,4182374.0504322448,-27500.0,37.395477346454733,455.78509498445737,-849.69395750972069,-181.68864377344522,416.68728110190676,-157.24326408292811,731.98551700833559,278.03027495950073,-119.67435806871212,119.67435806871212,-278.03027495950073,1376.6943207981676,0.0
563204.59901257406,4182374.0504322448,-27500.0,179.86477746624138,391.59076823967189,-938.20478407790824,-132.27889778918163,441.4557596128783,-159.39159156121295,779.48007736644001,417.93670477315419,-243.6533722005658,243.6533722005658,-417.93670477315419,1443.2722824908517,0.0
568204.59901257406,4182374.0504322448,-27500.0,341.65381025686253,286.12948444270438,-1008.901633087681,-60.839331385319838,449.57835450204266,-152.19322146129988,827.57964286274228,569.33261958136109,-393.67675164301477,393.67675164301477,-569.33261958136109,1504.6573391509389,0.0
573204.59901257406,4182374.0504322448,-27500.0,514.08187297972097,131.68245657181043,-1044.6300673524024,35.291192708210602,430.96506202038574,-131.1225768313019,878.54231072427137,720.64610890600454,-564.86332396115529,564.86332396115529,-720.64610890600454,1566.2482823982241,0.0
578204.59901257406,4182374.0504322448,-27500.0,682.40364935246635,-75.74797530512555,-1022.5998092304939,156.30245527649672,373.07140952815024,-90.805275158581324,937.33287328585288,853.64210616706532,-745.21630492970462,745.21630492970462,-853.64210616706532,1641.5286820252825,0.0
583204.59901257406,4182374.0504322448,-27500.0,825.53352426872675,-332.66611962142019,-915.52191237431202,298.07645098758849,261.89185285439828,-25.557378510822257,1012.2401236989732,943.30504368941888,-913.20767375476953,913.20767375476953,-943.30504368941888,1754.464105076858,0.0
588204.59901257406,4182374.0504322448,-27500.0,917.83759996320612,-623.69294841710632,-695.33012106057731,450.25264461508652,84.292440418394335,69.530401484654064,1113.9442172563192,960.06789375471578,-1036.6556356671917,1036.6556356671917,-960.06789375471578,1936.4787809953532,0.0
593204.59901257406,4182374.0504322448,-27500.0,934.07537187664627,-918.07607506442014,-340.36400673507029,594.9896220907948,-168.03620461013239,196.9067994121429,1252.0275425034019,875.6005640826229,-1074.7740855140078,1074.7740855140078,-875.6005640826229,2214.3789343166795,0.0
598204.59901257406,4182374.0504322448,-27500.0,857.69142351041023,-1169.7312130378159,154.28984242182875,707.65123317226414,-493.37561267485893,354.49084425043117,1429.7736543940887,672.41045463226646,-985.35552519630346,985.35552519630346,-672.41045463226646,2594.4970891160492,0.0
603204.59901257406,4182374.0504322448,-27500.0,690.56538211789348,-1323.7470949789047,765.99675873440719,760.6310880224753,-875.04220416915427,533.86951420174898,1640.2660675590516,355.18253322814115,-737.6052587340107,737.6052587340107,-355.18253322814115,3054.7926149663517,0.0
608204.59901257406,4182374.0504322448,-27500.0,459.67357260287031,-1330.4208408356487,1438.7567547435026,730.5221250221781,-1279.3898397827049,719.79710840215807,1866.306511483979,-41.242988088877695,-327.68507256765861,327.68507256765861,41.242988088877695,3548.6824604767357,0.0
613204.59901257406,4182374.0504322448,-27500.0,215.07918459981758,-1163.4206252741662,2088.488742531661,606.76914274385604,-1659.4815138440049,891.96673164399795,2083.8224344952082,-453.70101114722013,210.08827840287134,-210.08827840287134,453.70101114722013,4015.7861296245078,0.0
618204.59901257406,4182374.0504322448,-27500.0,16.750582234199332,-833.86865921648325,2621.587049597159,397.91756062654304,-1965.0793013844325,1029.1807514965549,2265.9324801929361,-805.56177184479884,804.56181577958296,-804.56181577958296,805.56177184479884,4395.2939382488985,0.0
623204.59901257406,4182374.0504322448,-27500.0,-85.487560764957891,-391.60461255493016,2961.088081502427,131.57765908529245,-2155.9135300360213,1114.6715332306376,2386.7179182520799,-1030.2286865170518,1364.6790361657395,-1364.6790361657395,1030.2286865170518,4639.1291788605859,0.0
628204.59901257406,4182374.0504322448,-27500.0,-69.020564276786473,88.884976535285915,3068.6766468302535,-152.80787458399263,-2212.5113858515051,1140.3737508504787,2428.2704574940881,-1092.2446486574879,1805.8281419672064,-1805.8281419672064,1092.2446486574879,4721.4867873034273,0.0
633204.59901257406,4182374.0504322448,-27500.0,56.160636395715841,531.28721364194325,2952.2739639825218,-415.19688961038366,-2139.762794109482,1108.3269548909668,2386.7527174818365,-995.62616349486041,2073.1852229850133,-2073.1852229850133,995.62616349486041,4641.8801790761509,0.0
638204.59901257406,4182374.0504322448,-27500.0,255.05398554836847,877.93025518029708,2657.4256063694484,-624.99561627287937,-1962.4576088839888,1028.9139041556173,2271.5716483850565,-776.97671519447454,2151.9791801260199,-2151.9791801260199,776.97671519447454,4421.4264927921313,0.0
643204.59901257406,4182374.0504322448,-27500.0,482.3391518578772,1099.9730016542919,2249.1278272737668,-766.19953049388789,-1716.0195634357756,917.1525283563376,2100.5695019375389,-489.33476317670659,2063.037231700318,-2063.037231700318,489.33476317670659,4094.8208687826814,0.0
648204.59901257406,4182374.0504322448,-27500.0,696.39756622565017,1196.3717438628262,1793.2759639370329,-837.10475157949577,-1436.9176038512155,788.77335315977018,1894.8696458328457,-185.50528200003566,1849.2721980635151,-1849.2721980635151,185.50528200003566,3701.4451562709341,0.0
653204.59901257406,4182374.0504322448,-27500.0,867.85430693648368,1185.769181097206,1343.8941476186546,-846.47134688354424,-1155.8554576460615,657.33421882135724,1675.0160856306395,93.180293789786788,1560.6560598855808,-1560.6560598855808,-93.180293789786788,3278.2374806194766,0.0
658204.59901257406,4182374.0504322448,-27500.0,981.9326881635468,1096.5015010100497,937.69119890104253,-808.60013574906031,-894.62659266615083,532.78610134123539,1458.6403423989259,321.22259735657633,1242.8078511154695,-1242.8078511154695,-321.22259735657633,2855.4051265269736,0.0
663204.59901257406,4182374.0504322448,-27500.0,1036.4470778313516,958.28564555294372,594.35772067545327,-739.08778422264879,-665.94915977263031,421.27148977331808,1258.3173478177919,488.03024022749071,930.85251286865366,-930.85251286865366,-488.03024022749071,2454.8060346137336,0.0
668204.59901257406,4182374.0504322448,-27500.0,1037.835865123136,796.96895655690594,320.02454929431968,-652.01245049739055,-475.03716081757733,325.68184013743218,1079.7661682835517,594.24409119395523,647.81594504313443,-647.81594504313443,-594.24409119395523,2090.2259196358118,0.0
673204.59901257406,4182374.0504322448,-27500.0,997.06780946435424,632.18767137038003,111.6817954674174,-558.54728325013161,-321.79317516533467,246.52271745807141,923.97322101405871,647.41506806024552,405.90105897234764,-405.90105897234764,-647.41506806024552,1768.6903919864217,0.0
678204.59901257406,4182374.0504322448,-27500.0,926.39798217519774,477.10057628918241,-38.798652167158018,-466.63949254931123,-202.9018476006857,182.77912759612178,790.19717752238239,658.27816754401169,209.0594326123454,-209.0594326123454,-658.27816754401169,1492.1376394769452,0.0
683204.59901257406,4182374.0504322448,-27500.0,837.25823359574724,339.28346913024188,-141.61977946619751,-381.32402533317907,-113.48563258058405,132.6254281493994,676.89620908882989,638.10123272863746,55.755669433804655,-55.755669433804655,-638.10123272863746,1259.0316973787453,0.0
688204.59901257406,4182374.0504322448,-27500.0,739.16400184702673,222.07016309639965,-207.07300613981369,-305.31799183008502,-48.244815804476282,93.932935277392119,581.98802841972952,597.10387830627405,-58.67000673182298,58.67000673182298,-597.10387830627405,1065.7070318966385,0.0
693204.59901257406,4182374.0504322448,-27500.0,639.3615862439907,125.89638472053528,-244.43161997677913,-239.66476848866611,-2.1456775883967745,64.591720035740366,503.10436526858803,543.71854334438376,-140.25084347341613,140.25084347341613,-543.71854334438376,907.38869410302209,0.0
698204.59901257406,4182374.0504322448,-27500.0,542.92982378538022,49.427181562809182,-261.47211169586126,-184.30374621803824,29.230235925227486,42.687704605039769,437.82680792445433,484.41518976754992,-195.24158014603543,195.24158014603543,-484.41518976754992,778.91263582546458,0.0
538204.59901257406,4187374.0504322448,-27500.0,-199.66819194561538,401.2710610036126,-491.92927069129564,-179.42947471374592,243.65646047700736,-91.745372382383039,484.92575823237934,-12.996107858820881,76.1326849704366,-76.1326849704366,12.996107858820881,941.46222833446211,0.0
543204.59901257406,4187374.0504322448,-27500.0,-141.77254288392945,407.05041001240733,-559.79558940666482,-174.05518620532106,271.73072647506808,-100.29838684320391,520.30988745071181,52.097173701816793,33.258858347548887,-33.258858347548887,-52.097173701816793,1001.6331771882672,0.0
548204.59901257406,4187374.0504322448,-27500.0,-67.758830659274693,400.1688317276828,-631.65202522709433,-161.1128111769381,299.3322069407061,-107.84885483939657,556.40908498704152,131.41392882448764,-24.564977854267056,24.564977854267056,-131.41392882448764,1060.2135911618552,0.0
553204.59901257406,4187374.0504322448,-27500.0,23.425302304586921,375.72640925890749,-704.35372964840815,-138.2814833510603,324.2193902710801,-113.31251242686979,592.86738170833098,225.05615773679173,-99.652069392392406,99.652069392392406,-225.05615773679173,1115.8295495870705,0.0
558204.59901257406,4187374.0504322448,-27500.0,131.55838997169604,328.05568188657082,-772.70494475658768,-103.03414641549404,343.05884535467686,-115.15584989948165,629.54589106071887,331.55618283647482,-193.57002774535954,193.57002774535954,-331.55618283647482,1167.5800892373138,0.0
563204.59901257406,4187374.0504322448,-27500.0,254.38825732646455,251.14061829880083,-828.79443838270015,-52.9068871995959,351.15506275504299,-111.30809970840413,666.83885880565231,447.06172702299295,-306.31082923675979,306.31082923675979,-447.06172702299295,1215.9130285187978,0.0
568204.59901257406,4187374.0504322448,-27500.0,386.76595811005933,139.47003611371105,-861.38569934300335,14.025144365185389,342.25313603325213,-99.115587657409719,706.15336866957409,564.42472130548526,-435.12727794400155,435.12727794400155,-564.42472130548526,1264.0676382862391,0.0
573204.59901257406,4187374.0504322448,-27500.0,519.85160730212067,-10.526195007272184,-855.61273033391171,98.416327988954492,308.54589741637159,-75.392155138381227,750.498221282347,672.40015760266078,-573.08776031475895,573.08776031475895,-672.40015760266078,1320.0273288919257,0.0
578204.59901257406,4187374.0504322448,-27500.0,640.74002141904873,-198.39612816518229,-793.39242326708666,198.66798639094679,241.08118478848678,-36.639724671249368,804.92773047028118,755.34506266028802,-707.58691667264725,707.58691667264725,-755.34506266028802,1398.2050309282984,0.0
583204.59901257406,4187374.0504322448,-27500.0,733.0291504597493,-417.1104974924437,-655.10153584093337,309.81529059640008,130.80512996029611,20.479644368738317,876.29687570092619,794.00124366471437,-819.34076691456585,819.34076691456585,-794.00124366471437,1518.7994456990659,0.0
588204.59901257406,4187374.0504322448,-27500.0,778.92546216358733,-650.62614291836542,-423.05189851376849,422.59358551374095,-29.566094113810614,98.366950477558376,971.71708071812418,768.0263662679198,-882.73518609943005,882.73518609943005,-768.0263662679198,1702.4145061084057,0.0
593204.59901257406,4187374.0504322448,-27500.0,763.24360966191784,-872.70806854747173,-86.921245643140026,523.21202242415063,-242.86634229067613,197.44203872605226,1095.7484927103046,660.67968683436538,-868.58349712908512,868.58349712908512,-660.67968683436538,1960.8543670521128,0.0
598204.59901257406,4187374.0504322448,-27500.0,678.91891573992382,-1048.5423375448891,349.61084268695856,594.47923196989018,-504.44531198381242,315.0329217948472,1247.5308434024507,465.24911379600047,-750.03243559516181,750.03243559516181,-465.24911379600047,2289.7513443691678,0.0
603204.59901257406,4187374.0504322448,-27500.0,532.44042692075789,-1140.386771350808,863.11100250159916,618.72630836281553,-799.80823175074454,444.5962711798698,1419.4531838044222,191.4401462026994,-511.18042265921616,511.18042265921616,-191.4401462026994,2667.4143705690726,0.0
608204.59901257406,4187374.0504322448,-27500.0,346.50237277564975,-1117.0665386592414,1408.698451362425,582.29312632557685,-1104.352757789736,575.77905220662763,1598.0546367030479,-131.3501756224527,-156.03414336985117,156.03414336985117,131.3501756224527,3058.886295121295,0.0
613204.59901257406,4187374.0504322448,-27500.0,157.23612265491818,-964.71940497511287,1925.2452398792611,480.31897194652015,-1386.3533599419025,695.69669632361467,1766.5821097539631,-456.97906965308857,286.28669493356335,-286.28669493356335,456.97906965308857,3422.5559565594276,0.0
618204.59901257406,4187374.0504322448,-27500.0,5.4371970892762231,-694.2040149648368,2347.7484215813006,319.81027338541702,-1613.1277504972322,791.34800190185808,1907.4687537603825,-732.61046344718704,764.00689941452049,-764.00689941452049,732.61046344718704,3717.8443835483049,0.0
623204.59901257406,4187374.0504322448,-27500.0,-75.420420318834076,-340.93748275169071,2623.2427791641767,119.22018073642155,-1758.60646176619,852.48543154586969,2003.7597423751517,-912.92582943863442,1213.7022766288765,-1213.7022766288765,912.92582943863442,3912.6886506817145,0.0
628204.59901257406,4187374.0504322448,-27500.0,-69.2040055158039,43.741264060663596,2723.9745203961133,-95.737563126283675,-1809.4424046308256,873.89846748028401,2042.7090572235084,-972.63093941436864,1576.2111061024989,-1576.2111061024989,972.63093941436864,3989.0496814947319,0.0
633204.59901257406,4187374.0504322448,-27500.0,19.276215310694916,406.20259793313124,2652.4904049026213,-298.44421284998651,-1767.2909686540131,856.26045134539322,2020.3080286290854,-911.90082692095632,1810.9514066840516,-1810.9514066840516,911.90082692095632,3944.9412432581894,0.0
638204.59901257406,4187374.0504322448,-27500.0,168.03031172446521,703.37818018842734,2437.397217500753,-467.34635880587041,-1646.738513063869,805.35062840381022,1941.5390109783377,-753.19007185464193,1903.1847908766774,-1903.1847908766774,753.19007185464193,3792.7026439756933,0.0
643204.59901257406,4187374.0504322448,-27500.0,346.31399306799614,910.27679049966889,2122.8618312150411,-589.51782576555718,-1470.2819444429667,730.15416246849122,1817.6197153981009,-532.07614434899165,1862.7526366368691,-1862.7526366368691,532.07614434899165,3554.5938402081979,0.0
648204.59901257406,4187374.0504322448,-27500.0,523.5944702423152,1020.9200503274852,1756.7526397062145,-661.22341340317882,-1262.6003272573817,640.65778468678695,1662.7797757289832,-286.72752867330814,1716.7114786700681,-1716.7114786700681,286.72752867330814,3257.4509239439935,0.0
653204.59901257406,4187374.0504322448,-27500.0,675.95698557016681,1044.3719750057976,1381.3457873426107,-686.18708168473768,-1045.9561673260978,546.03454797684276,1491.6543985411338,-49.735907744964379,1499.9084283295422,-1499.9084283295422,49.735907744964379,2927.9461309391518,0.0
658204.59901257406,4187374.0504322448,-27500.0,788.89148116950958,998.66981341218309,1028.2378870362134,-672.80572717719133,-837.54675625289701,453.5497554317879,1317.6323013662955,156.1311612954654,1246.8303486298278,-1246.8303486298278,-156.1311612954654,2589.3018647452509,0.0
663204.59901257406,4187374.0504322448,-27500.0,857.03076869543111,905.02498039632815,717.1477763922145,-631.39703425461573,-648.72110084246117,368.18396775038997,1151.5541474926893,318.59843002209595,986.34610641965378,-986.34610641965378,-318.59843002209595,2259.6175745225819,0.0
668204.59901257406,4187374.0504322448,-27500.0,882.10634768375644,783.57309509571883,457.31484924287776,-572.10286456733809,-485.49462032627423,292.77493092714411,999.79501135781618,434.24003830218453,739.43164116537491,-739.43164116537491,-434.24003830218453,1951.5114369203811,0.0
673204.59901257406,4187374.0504322448,-27500.0,870.32857076852338,650.96388549886092,250.10605856413932,-503.62524792896517,-349.71896141890983,228.43880088506424,864.38888879852209,505.85980818187687,519.1350768406827,-519.1350768406827,-505.85980818187687,1672.6240233072001,0.0
678204.59901257406,4187374.0504322448,-27500.0,829.99625102700873,519.4887736751358,91.794717999704048,-432.68825436451954,-240.40366190462026,175.07402001860723,745.522981334723,539.86149305056551,331.82812911674745,-331.82812911674745,-539.86149305056551,1426.5500108228969,0.0
683204.59901257406,4187374.0504322448,-27500.0,769.7107799356163,397.23355059459237,-24.072020640924446,-364.00738455565858,-154.89106112829487,131.82524578345487,642.67020524801615,544.12240777204295,178.94660679366609,-178.94660679366609,-544.12240777204295,1213.8813183604977,0.0
688204.59901257406,4187374.0504322448,-27500.0,697.25886220470261,288.7690081621401,-104.9340535773643,-300.5456346540293,-89.757394308318581,97.450615030121782,554.77404775312766,526.52926060866162,58.699046450734585,-58.699046450734585,-526.52926060866162,1033.1680918665393,0.0
693204.59901257406,4187374.0504322448,-27500.0,619.0600269786969,196.0215335407878,-158.09678756310669,-243.88690194132806,-41.426721080508045,70.580939846552909,480.40015381042207,494.12424212727308,-32.519306916468281,32.519306916468281,-494.12424212727308,881.70974278430731,0.0
543204.59901257406,4192374.0504322443,-27500.0,-56.815014999543614,331.14231103446809,-531.56209765518781,-123.78279150540801,236.61325562389263,-79.193676272499317,456.88084822836072,111.18584819079975,-25.187533920861327,25.187533920861327,-111.18584819079975,870.71873754876287,0.0
548204.59901257406,4192374.0504322443,-27500.0,13.823844555035549,312.0428594012738,-588.14185175361081,-106.77282609305904,255.10712316575953,-82.989260037185943,485.16218674327655,183.82918860819208,-83.632823064193104,83.632823064193104,-183.82918860819208,913.78870051608476,0.0
553204.59901257406,4192374.0504322443,-27500.0,97.01788602061086,276.04478787775992,-641.48016320610918,-81.172290297680192,269.50326513620581,-84.475221644446833,513.70654450667314,265.96651135082323,-155.77099804345937,155.77099804345937,-265.96651135082323,954.22839903244517,0.0
558204.59901257406,4192374.0504322443,-27500.0,191.42449786497343,218.97450690517999,-686.19245308167081,-45.334199894269368,276.79078562817244,-82.400388689668205,542.79340598641772,355.12233155277136,-241.69034747010744,241.69034747010744,-355.12233155277136,992.33699373922093,0.0
563204.59901257406,4192374.0504322443,-27500.0,293.91290724017858,136.8883604597647,-714.75482780797279,2.1108433642505502,272.99782343676907,-75.169930574903006,573.32984665080846,446.76392951128571,-339.80481033041099,339.80481033041099,-446.76392951128571,1030.1275951568193,0.0
568204.59901257406,4192374.0504322443,-27500.0,399.06003070124757,26.882320116635629,-717.27407053587683,61.858300067053918,253.16549813640142,-60.858403699866606,607.20299403606748,533.78838021195361,-445.99719666494394,445.99719666494394,-533.78838021195361,1072.4876658420792,0.0
573204.59901257406,4192374.0504322443,-27500.0,498.83202881138396,-111.72925687236607,-681.6159782176095,133.39117069160193,211.51468967520677,-37.301382419754127,647.5813079416647,606.2381458889846,-552.69925972445287,552.69925972445287,-606.2381458889846,1128.3014671496203,0.0
578204.59901257406,4192374.0504322443,-27500.0,582.70896996071644,-275.91760642105595,-594.17338306552494,214.34186068825878,141.92446992332302,-2.3059787907148306,698.9011965340901,651.53387355064751,-648.14961363608381,648.14961363608381,-651.53387355064751,1210.556622179834,0.0
583204.59901257406,4192374.0504322443,-27500.0,638.56916441971168,-457.36278386121006,-441.57855985770686,299.87823880223692,38.835613078655399,45.985734131798523,766.19422597623657,655.5790812896671,-716.24055853423806,716.24055853423806,-655.5790812896671,1334.0330661112896,0.0
588204.59901257406,4192374.0504322443,-27500.0,654.59828401544951,-641.2945087093857,-213.54765067662771,382.34226662958753,-101.37694784869269,108.57649435694456,853.62056854672551,605.03468584357825,-737.49973000142904,737.49973000142904,-605.03468584357825,1510.2831475193889,0.0
593204.59901257406,4192374.0504322443,-27500.0,622.23339681753487,-806.50203966728975,93.296488443848475,451.45649038825036,-278.68158412606118,184.99378781021957,962.63154319880209,490.77831631416569,-691.72147583335118,691.72147583335118,-490.77831631416569,1742.2532381414858,0.0
598204.59901257406,4192374.0504322443,-27500.0,539.64812614551488,-927.32271758870547,471.36937773183712,495.40635923213756,-487.69114750517036,272.71487150781468,1090.6114197985833,311.9967218318896,-562.39485703693185,562.39485703693185,-311.9967218318896,2021.7027717782155,0.0
603204.59901257406,4192374.0504322443,-27500.0,414.64929685446953,-978.03164800428851,899.26333596217182,502.91176295259487,-716.62436410750536,366.86380551128076,1230.6462834640956,79.631503801369348,-342.28199335893851,342.28199335893851,-79.631503801369348,2330.0947652817536,0.0
608204.59901257406,4192374.0504322443,-27500.0,265.45808945024157,-939.10775352780183,1341.8448920682813,465.99420913767813,-947.65836195961526,460.42456665176582,1372.5065476385769,-182.58385216997317,-38.489288206876054,38.489288206876054,182.58385216997317,2641.6192331794541,0.0
613204.59901257406,4192374.0504322443,-27500.0,118.17151606660644,-803.61263464466697,1754.5650465019792,382.65402113853906,-1159.1322469690813,545.10676002183914,1504.4503183379311,-440.94491886860402,325.27465924243421,-325.27465924243421,440.94491886860402,2927.2577978564755,0.0
618204.59901257406,4192374.0504322443,-27500.0,0.95386616093503696,-581.1271526373331,2091.6905152270288,258.39497023196441,-1329.383931221214,612.76277394853707,1614.7802950822763,-658.52174814084617,711.12115175543124,-711.12115175543124,658.52174814084617,3159.3628572780153,0.0
623204.59901257406,4192374.0504322443,-27500.0,-63.2934602012513,-297.14809347994048,2316.1869090706814,105.77044805447655,-1441.186978195281,656.98397762341608,1692.1837360007482,-803.94063687833693,1074.1998512990399,-1074.1998512990399,803.94063687833693,3316.0749752134147,0.0
628204.59901257406,4192374.0504322443,-27500.0,-62.977675311410728,12.344950066818424,2407.8061613367763,-58.111337092030197,-1485.302893582357,674.36164443973053,1727.4433562387246,-858.99471548768349,1372.5544264196101,-1372.5544264196101,858.99471548768349,3384.6119422249012,0.0
633204.59901257406,4192374.0504322443,-27500.0,-0.20864126780019576,309.24660864742322,2366.4953853243428,-215.29331618332333,-1461.9375765908057,664.99920939933668,1716.8658482797566,-822.21653326203682,1576.0925361380539,-1576.0925361380539,822.21653326203682,3362.6147266355169,0.0
638204.59901257406,4192374.0504322443,-27500.0,111.08266350423303,561.49898922899263,2210.3112988430571,-350.57709155805981,-1379.772346482762,632.16358882445616,1662.9783982536833,-707.43273643177577,1671.6313744899264,-1671.6313744899264,707.43273643177577,3257.3439509583777,0.0
643204.59901257406,4192374.0504322443,-27500.0,250.03079830315929,748.44274873646089,1969.2890908894778,-453.91955898900005,-1253.1963528507833,581.28985616097816,1572.8832545654266,-538.51757819006457,1662.9329513761325,-1662.9329513761325,538.51757819006457,3083.2115718396103,0.0
648204.59901257406,4192374.0504322443,-27500.0,394.52321234475409,862.31212804384347,1677.9068823312141,-521.16578800842444,-1098.8819009462807,518.73581273379978,1456.195629884985,-342.77880991773782,1566.7443047050863,-1566.7443047050863,342.77880991773782,2858.5489750055417,0.0
653204.59901257406,4192374.0504322443,-27500.0,525.77494076812445,906.47196975304826,1368.552805452832,-553.34720168190427,-932.75885497625995,450.66075204407343,1323.2847817765644,-145.24472721988582,1406.9813137370488,-1406.9813137370488,145.24472721988582,2602.4972936416157,0.0
658204.59901257406,4192374.0504322443,-27500.0,630.85834669263454,891.86059093647191,1067.3216212118191,-555.15312378026465,-767.99729002539641,382.25479418311141,1184.0900290644988,34.897761741609202,1209.120254357302,-1209.120254357302,-34.897761741609202,2332.6166986657809,0.0
663204.59901257406,4192374.0504322443,-27500.0,703.2276358810559,833.11447225795348,792.31302020464648,-533.20990470397157,-614.10778599550747,317.37032896355379,1047.3867844348797,185.56891668851893,996.06502295142752,-996.06502295142752,-185.56891668851893,2063.433791286659,0.0
668204.59901257406,4192374.0504322443,-27500.0,741.83956736215237,745.36163296792756,553.87098650077655,-494.60980542621257,-476.93914300016286,258.48661508057609,919.50533862112275,301.32023733167262,785.86526359562413,-785.86526359562413,-301.32023733167262,1805.859464167999,0.0
673204.59901257406,4192374.0504322443,-27500.0,749.59826200746068,642.09062495113869,355.95608493095227,-445.88885650245044,-359.22710892590817,206.88714729414798,803.18320162639498,381.89365522379404,591.03841729987801,-591.03841729987801,-381.89365522379404,1567.2522481269418,0.0
678204.59901257406,4192374.0504322443,-27500.0,731.70971724088326,534.07447618880656,197.93600137299453,-392.46641360701869,-261.37561156561225,162.93519299802287,699.08509569933244,430.49000505334635,418.98304835563061,-418.98304835563061,-430.49000505334635,1351.8764272760318,0.0
683204.59901257406,4192374.0504322443,-27500.0,694.29334689992174,429.10374259660733,76.30753271354034,-338.45306096534193,-182.24271064254987,126.36145725193862,607.23980080288243,452.18624708222558,272.95767606128231,-272.95767606128231,-452.18624708222558,1161.5325877894786,0.0
688204.59901257406,4192374.0504322443,-27500.0,643.38895166827979,332.23055411506681,-13.898633509933987,-286.70353071603171,-119.80725977553135,96.515273698350384,527.25473580084508,452.71077887002184,153.22518861707147,-153.22518861707147,-452.71077887002184,996.20982499575689,0.0
548204.59901257406,4197374.0504322443,-27500.0,72.018703637217101,233.4853653905862,-536.68698302676762,-64.637363794749064,213.96247369185892,-62.874450646713193,423.26873660857268,215.57352480677224,-126.82102754578733,126.82102754578733,-215.57352480677224,787.41893572597053,0.0
553204.59901257406,4197374.0504322443,-27500.0,145.44343736267768,190.45577862100942,-572.5348652227533,-38.562955610911544,220.22242326256665,-61.753953611712944,446.11557831483543,285.1691105471142,-193.1648770152558,193.1648770152558,-285.1691105471142,817.57912970414804,0.0
558204.59901257406,4197374.0504322443,-27500.0,225.52157225718923,129.16249663858687,-597.04707365231457,-4.3501709048006436,219.08976769142285,-57.367175275498042,470.01305447614192,357.28795407286884,-268.7896239957654,268.7896239957654,-357.28795407286884,847.3820916261426,0.0
563204.59901257406,4197374.0504322443,-27500.0,308.85161725420022,47.335827354294452,-603.51130312522821,38.602987372757731,207.35062911456055,-48.527027416157807,496.18040528629638,427.33936221484441,-351.18567684328286,351.18567684328286,-427.33936221484441,879.91024198827995,0.0
568204.59901257406,4197374.0504322443,-27500.0,390.34048301891204,-56.038432104831607,-583.66548766650271,90.227629151424807,181.22355572321925,-33.879150370764705,526.65564697984576,488.86443378633425,-435.6975972176711,435.6975972176711,-488.86443378633425,920.77543230293179,0.0
573204.59901257406,4197374.0504322443,-27500.0,463.17935621339632,-179.83106048292242,-528.05248224354193,149.41495129504162,136.58370924996433,-11.998035777346088,564.34920247032142,533.56781341075873,-515.01095792090439,515.01095792090439,-533.56781341075873,978.40717210467187,0.0
578204.59901257406,4197374.0504322443,-27500.0,519.20221611915372,-319.77457400821652,-426.87990197897989,213.63140040529746,69.408335919861827,18.439668055128301,612.75913938129361,551.793324381248,-578.89954411940096,578.89954411940096,-551.793324381248,1063.1119523085438,0.0
583204.59901257406,4197374.0504322443,-27500.0,549.79344649985626,-467.5828993619532,-271.52337639848537,278.61827174058953,-23.51477134941095,58.39508478680731,675.21703912705811,533.63023017281478,-614.51414399808425,614.51414399808425,-533.63023017281478,1184.4342501952815,0.0
588204.59901257406,4197374.0504322443,-27500.0,547.42566744948783,-610.54833642455947,-56.68283173288696,338.32642047244752,-143.6356266371865,108.13343937474662,753.78396998691619,470.74176595565882,-607.52090524537994,607.52090524537994,-470.74176595565882,1347.6424842095171,0.0
593204.59901257406,4197374.0504322443,-27500.0,507.70656502717378,-732.07032358256345,217.05283728138164,385.26061111260577,-289.57583410251385,166.86714116600922,848.20636599979287,358.77997002390242,-544.2948845669531,544.2948845669531,-358.77997002390242,1551.1948413163561,0.0
598204.59901257406,4197374.0504322443,-27500.0,431.50327404718746,-813.50190991132047,540.82877709201853,411.36431191793071,-456.21354030318923,232.46943398844715,955.37488314119275,199.89832122696424,-415.07209785354092,415.07209785354092,-199.89832122696424,1786.2632103100163,0.0
603204.59901257406,4197374.0504322443,-27500.0,326.40830757279747,-837.37546324052573,896.24226220595233,409.43301195738451,-634.29418912785025,301.38321490832215,1069.4866626033986,4.5186879824247796,-217.48043044175449,217.48043044175449,-4.5186879824247796,2037.9115944690034,0.0
608204.59901257406,4197374.0504322443,-27500.0,206.710084217396,-791.49141826783887,1256.108309493105,374.81411319233661,-810.9333736449662,368.83951361019325,1182.8629087804982,-208.62604956038746,40.632826114759936,-40.632826114759936,208.62604956038746,2287.1501732527909,0.0
613204.59901257406,4197374.0504322443,-27500.0,91.342519961675535,-672.72986481801252,1587.7882473943157,306.91913189744042,-971.1780047830282,429.42855476870426,1287.2046990327287,-414.8247042572915,340.36108152992483,-340.36108152992483,414.8247042572915,2513.4795014765036,0.0
618204.59901257406,4197374.0504322443,-27500.0,0.028968804406160675,-489.154873297412,1858.6888340826372,209.98562353617598,-1100.4201267549354,477.94371095129242,1374.603860723551,-587.91763362312679,653.77202185445424,-653.77202185445424,587.91763362312679,2697.7047221469038,0.0
623204.59901257406,4197374.0504322443,-27500.0,-51.29738213293011,-259.35078253437291,2042.5248637529937,92.693008517344339,-1187.0625077201089,510.29321943808981,1437.3739605141207,-705.83551553952736,948.69565315101579,-948.69565315101579,705.83551553952736,2824.6276506615231,0.0
628204.59901257406,4197374.0504322443,-27500.0,-54.231853120485887,-8.927362910893553,2124.3995489842587,-33.363290372411683,-1224.6398421458969,524.21675240290199,1468.7226476481246,-755.34280264392578,1194.9711340141234,-1194.9711340141234,755.34280264392578,2885.0680977655134,0.0
633204.59901257406,4197374.0504322443,-27500.0,-9.4962147267229362,234.72599833771142,2103.0994076498996,-155.89086989541821,-1212.7552059129962,519.598083596523,1465.4201924083013,-734.40271151231377,1370.1798662625049,-1370.1798662625049,734.40271151231377,2876.7619093323137,0.0
638204.59901257406,4197374.0504322443,-27500.0,74.004212033722681,447.7144370500443,1990.0803937705459,-264.1195572010455,-1156.6279362801361,498.30815482273897,1428.6369672190947,-651.55637668268537,1463.1316701253199,-1463.1316701253199,651.55637668268537,2803.9917463071633,0.0
643204.59901257406,4197374.0504322443,-27500.0,182.05242189422418,613.39006238964316,1805.8444660026098,-350.3973445021519,-1065.5424818841659,463.67354545578223,1362.9056130599977,-522.88061998629064,1474.3590118438237,-1474.3590118438237,522.88061998629064,2676.1794156914893,0.0
648204.59901257406,4197374.0504322443,-27500.0,298.72693696234342,723.83148333845202,1575.1448448683832,-410.85334323458562,-950.7867102237168,419.7650526957795,1274.7622717635604,-367.82967448954309,1414.0208165922757,-1414.0208165922757,367.82967448954309,2505.9092651956153,0.0
653204.59901257406,4197374.0504322443,-27500.0,409.58439292081283,779.20377594890817,1322.4797781759194,-445.1773508015537,-823.68615585307873,370.71026692407258,1171.5549416604765,-205.32000072225674,1298.3458421292214,-1298.3458421292214,205.32000072225674,2306.8979250741845,0.0
658204.59901257406,4197374.0504322443,-27500.0,503.71893473324189,785.74164419609338,1068.8321224416975,-455.80667480370261,-694.14325683559548,320.17159756331779,1060.5815038925907,-50.954337049110904,1145.8589628407458,-1145.8589628407458,50.954337049110904,2092.3004355009402,0.0
663204.59901257406,4197374.0504322443,-27500.0,574.55147961131865,753.23859284798573,829.96554717457673,-446.87756499645388,-569.82901007249734,271.04537309953889,948.62305013289074,84.332331508220705,974.29310628025542,-974.29310628025542,-84.332331508220705,1873.5504107209222,0.0
668204.59901257406,4197374.0504322443,-27500.0,619.59650190678087,692.73639901282468,616.08815863565633,-423.23174361181731,-455.96454775575233,225.36595537013886,841.39211552335394,194.39645320052864,798.59447447164405,-798.59447447164405,-194.39645320052864,1659.7543265779004,0.0
673204.59901257406,4197374.0504322443,-27500.0,639.61665249206294,614.79541999953506,432.449663851541,-389.64624062295292,-355.52122431535042,184.35959118657672,742.16467473330954,277.19790930523442,630.01459993714366,-630.01459993714366,-277.19790930523442,1457.5464813414944,0.0
678204.59901257406,4197374.0504322443,-27500.0,637.55453339261089,528.44228565349192,280.41252467205703,-350.33873623100828,-269.64818715863532,148.58351051928057,651.91531398187817,333.73457884896033,476.04516927512617,-476.04516927512617,-333.73457884896033,1271.2619143643508,0.0
683204.59901257406,4197374.0504322443,-27500.0,617.5195216522651,440.71062649994929,158.63428919939787,-308.72398535232088,-198.17146429238562,118.09602054528946,570.90540163484684,366.93324087559955,340.87957149418418,-340.87957149418418,-366.93324087559955,1103.2888446495463,0.0
553204.59901257406,4202374.0504322443,-27500.0,174.63641320328554,119.20830395516073,-502.1107427536395,-7.6368037210836048,177.05790894343389,-44.124218091557168,388.87414428844687,288.56658140465822,-215.17477139611026,215.17477139611026,-288.56658140465822,703.31545035159286,0.0
558204.59901257406,4202374.0504322443,-27500.0,241.0231367423163,57.4986104239347,-510.1682321904035,23.710615876808752,170.10919384529339,-38.541300796587102,409.30113415271012,345.08030199331046,-279.67456445410181,279.67456445410181,-345.08030199331046,728.59770721956852,0.0
563204.59901257406,4202374.0504322443,-27500.0,307.34849026213487,-20.488810429137683,-499.76105125175212,61.433287491831059,153.48519635530158,-29.233613600533154,432.64668194663665,396.608435165993,-346.78022210626921,346.78022210626921,-396.608435165993,759.15040282426344,0.0
568204.59901257406,4202374.0504322443,-27500.0,369.15034166327808,-114.50503679089273,-464.26629739706732,105.03437936990696,124.39263779929682,-15.273364610196639,460.85046579390604,437.61005320946924,-411.85126864692916,411.85126864692916,-437.61005320946924,800.51934696572653,0.0
573204.59901257406,4202374.0504322443,-27500.0,420.92663490663159,-222.41215498750273,-396.58992484745744,153.18152771422828,79.981398714722076,4.2509404056123348,496.33660530121426,461.46996785527085,-468.30719168608459,468.30719168608459,-461.46996785527085,859.82497831633589,0.0
578204.59901257406,4202374.0504322443,-27500.0,456.56460150462414,-339.56977520915711,-289.9724537216423,203.49290154455807,17.715524464932241,30.10291212609264,541.62937188704507,461.03829571904527,-507.65994840673028,507.65994840673028,-461.03829571904527,944.40997063939028,0.0
583204.59901257406,4202374.0504322443,-27500.0,470.1381727514331,-458.40883053476455,-139.20249510592959,252.41896763474256,-64.103637985842042,62.720529851028076,598.71073524630424,429.59364489646998,-519.98452902121494,519.98452902121494,-429.59364489646998,1059.6786537629,0.0
588204.59901257406,4202374.0504322443,-27500.0,457.06562234267051,-568.43466561994171,57.82870496750386,295.3123347874743,-165.70236668694599,102.00855826504842,668.30157124794528,362.22061569868367,-494.98186118590786,494.98186118590786,-362.22061569868367,1207.0864105925627,0.0
593204.59901257406,4202374.0504322443,-27500.0,415.4786435107398,-656.91448149452447,298.46787356539085,326.77559224522099,-285.19396425331053,147.13835389508466,749.33416722885408,257.43244882374358,-423.6808437462314,423.6808437462314,-257.43244882374358,1383.2074646313156,0.0
598204.59901257406,4202374.0504322443,-27500.0,347.47854508417765,-710.40874858697191,573.96465010862414,341.33242216653457,-418.10845186573022,196.41271787567092,838.80082348300073,118.66769927709794,-300.61333357157008,300.61333357157008,-118.66769927709794,1579.9811456988027,0.0
603204.59901257406,4202374.0504322443,-27500.0,259.82078998466932,-717.07155356336477,869.01528512221682,334.37316979192275,-557.3057981265265,247.2622164689694,932.01400174580533,-44.870013482658948,-126.01658674559968,126.01658674559968,44.870013482658948,1785.6893938260773,0.0
608204.59901257406,4202374.0504322443,-27500.0,163.57991481751412,-669.30876259026149,1162.6864018290173,303.20055473134505,-693.45251486775339,296.4257862574874,1023.2311459108593,-218.56075160635359,92.61891091311881,-92.61891091311881,218.56075160635359,1986.3227797506831,0.0
613204.59901257406,4202374.0504322443,-27500.0,72.583306578683079,-566.0735871789168,1430.900067422484,247.89335128282511,-816.10746644992696,340.32375264871683,1106.5376048048186,-384.17930963876034,340.36705283876,-340.36705283876,384.17930963876034,2167.2098383220118,0.0
618204.59901257406,4202374.0504322443,-27500.0,0.83337742509104051,-413.99188573948868,1650.1361032912775,171.68589058709966,-915.26040071219268,375.56838045440571,1176.5276564374665,-522.95446373608092,596.46481139144976,-596.46481139144976,522.95446373608092,2314.7948342912146,0.0
623204.59901257406,4202374.0504322443,-27500.0,-40.410665319430919,-226.77035488407509,1801.4752630301564,80.669768306635447,-982.96893651293431,399.4970853223881,1227.8886821041415,-619.12942038280539,837.52752492342165,-837.52752492342165,619.12942038280539,2418.3224997949869,0.0
628204.59901257406,4202374.0504322443,-27500.0,-44.996860339534244,-22.903621744140228,1873.8585804479944,-17.160640737056863,-1014.6564995057039,410.59028004498111,1255.5030915091425,-662.98371955802952,1041.5915524713605,-1041.5915524713605,662.98371955802952,2471.1132326241145,0.0
633204.59901257406,4202374.0504322443,-27500.0,-12.955206049646403,177.69185993624916,1865.6451617970033,-113.26992570017637,-1009.7201878807927,408.66458596400975,1256.6128264654958,-652.41589147151626,1191.8489033551527,-1191.8489033551527,652.41589147151626,2471.1668271551748,0.0
638204.59901257406,4202374.0504322443,-27500.0,49.970606475745228,357.13160233018931,1784.1348075460417,-199.97069933123066,-971.32460671387855,394.80321773570068,1231.6519422088488,-592.70974361820322,1279.0590957451425,-1279.0590957451425,592.70974361820322,2421.0012178846569,0.0
643204.59901257406,4202374.0504322443,-27500.0,134.03476208249668,502.18320519949424,1643.398688863876,-271.48575372194802,-905.51749842511811,371.06661398407397,1183.5383396941904,-494.74820202430828,1302.1443641885608,-1302.1443641885608,494.74820202430828,2326.8346553985866,0.0
648204.59901257406,4202374.0504322443,-27500.0,227.78759877799985,605.53297875751684,1461.2129761647664,-324.47992174793518,-819.97715462262022,340.08118555483395,1116.7504917900214,-372.38560917748475,1267.1061492051208,-1267.1061492051208,372.38560917748475,2197.3625276260359,0.0
653204.59901257406,4202374.0504322443,-27500.0,320.26109024406031,665.68570627280144,1255.977976677005,-358.05011645246009,-722.74004034148743,304.61769363560603,1036.5154084615758,-239.79049346277708,1184.8610860045574,-1184.8610860045574,239.79049346277708,2042.4299576244891,0.0
658204.59901257406,4202374.0504322443,-27500.0,402.55348768395032,685.86270533190634,1044.2784464167396,-373.30852469804847,-621.17186893144185,267.24490549669133,948.18057881875814,-109.36833475556398,1068.7350788674594,-1068.7350788674594,109.36833475556398,1871.847861654916,0.0
663204.59901257406,4202374.0504322443,-27500.0,468.63006617120243,672.41348223146122,839.38851190785635,-372.75641547899892,-521.31223412060251,230.10296737413026,856.85098972636558,9.4578372564590723,932.22665954418176,-932.22665954418176,-9.4578372564590723,1694.5070031709226,0.0
668204.59901257406,4202374.0504322443,-27500.0,515.41394644644208,633.20381903145199,650.70415610225791,-359.63093828646356,-427.59531968665823,194.7999772792042,767.22852618849129,110.63278291360706,787.38738647490231,-787.38738647490231,-110.63278291360706,1517.8374175257918,0.0
673204.59901257406,4202374.0504322443,-27500.0,542.38228845501862,576.28445639653091,483.88995170774052,-337.34944938697311,-342.86921062477103,162.40842364682067,682.85015067963991,191.22693791781131,643.90732994976634,-643.90732994976634,-191.22693791781131,1347.5826861388086,0.0
678204.59901257406,4202374.0504322443,-27500.0,550.91261799359324,508.97111496969166,341.46230036481444,-309.10998129680786,-268.60627450815753,133.52766678445994,605.09432673459276,250.83055989606629,508.81436411940859,-508.81436411940859,-250.83055989606629,1187.8164604829692,0.0
558204.59901257406,4207374.0504322443,-27500.0,243.63655446596647,1.9436788582195978,-428.7284427348099,42.040456389492313,129.3583151142397,-24.5938428001006,358.77091186172612,323.93626759919277,-278.67728336468622,278.67728336468622,-323.93626759919277,631.81307348119731,0.0
563204.59901257406,4207374.0504322443,-27500.0,295.46778196705691,-70.087233303063002,-406.07485590980536,74.463014666121921,110.11303989532769,-15.511266428091407,380.22292943035058,360.18359405590923,-331.80719376950174,331.80719376950174,-360.18359405590923,662.15595331093652,0.0
568204.59901257406,4207374.0504322443,-27500.0,341.38765567422553,-153.60504005545377,-360.41636658387807,110.69220839118297,80.32289437831308,-2.7625502113111011,406.69288147722125,385.22532243529633,-380.2239895624781,380.2239895624781,-385.22532243529633,704.51357203965824,0.0
573204.59901257406,4207374.0504322443,-27500.0,377.102483320803,-246.02083409538622,-286.61088096973731,149.3867083924136,38.080283992186487,14.216934474971634,440.04635382759807,393.95929913183778,-418.27919149448968,418.27919149448968,-393.95929913183778,764.34783015903633,0.0
578204.59901257406,4207374.0504322443,-27500.0,398.16740402790145,-342.83011265693108,-180.1951237555883,188.45678255651484,-18.133670104281688,35.841115906554684,481.95980594011723,381.24970723448541,-439.15274861834678,439.15274861834678,-381.24970723448541,846.38019223616982,0.0
583204.59901257406,4207374.0504322443,-27500.0,400.6312118150239,-437.46125436866078,-38.313018276305662,225.0436805717448,-89.078064964130988,62.255500092451285,533.45231425228656,342.70332953192099,-435.35791463829401,435.35791463829401,-342.70332953192099,953.15151987554327,0.0
588204.59901257406,4207374.0504322443,-27500.0,381.87059743286562,-521.46996107209225,139.20300138107146,255.63824402984989,-174.3401939948032,93.210992203323741,594.46569817217528,275.66425583433073,-399.63870442921035,399.63870442921035,-275.66425583433073,1084.0630071386718,0.0
593204.59901257406,4207374.0504322443,-27500.0,341.48046794154686,-585.21206620893486,348.79079378551143,276.38093024349973,-271.96125401002075,127.95458690931919,663.63110922411079,180.27412269456289,-326.2355691180075,326.2355691180075,-180.27412269456289,1235.1822540279177,0.0
598204.59901257406,4207374.0504322443,-27500.0,281.99374564688503,-619.04169109695624,582.44852857843875,283.55074478111499,-378.21084773092207,165.17098702190063,738.28157440308632,60.33644974303418,-212.35661224882193,212.35661224882193,-60.33644974303418,1399.6398989288903,0.0
603204.59901257406,4207374.0504322443,-27500.0,209.1533369435586,-614.92560641806006,827.68674451106779,274.19215982362283,-487.6297758269917,203.01037706018369,814.70267584698593,-76.339441939755289,-59.536584331849866,59.536584331849866,76.339441939755289,1568.3474929918277,0.0
608204.59901257406,4207374.0504322443,-27500.0,131.50119184396399,-568.17238900582413,1068.3974492390373,246.76135410825577,-593.42599446476243,239.22545492807836,888.59664253018252,-218.39792067369686,125.53809398822099,-125.53809398822099,218.39792067369686,1730.9098694943691,0.0
613204.59901257406,4207374.0504322443,-27500.0,59.213542293083158,-478.82633475660327,1286.6798720107392,201.62462277993038,-688.22482960960838,271.41484303814053,955.7171298856324,-352.30105032748884,331.13107989530477,-331.13107989530477,352.30105032748884,1876.6924951141777,0.0
618204.59901257406,4207374.0504322443,-27500.0,2.3619192494633547,-352.26435899313032,1465.3565096120269,141.24436040358705,-765.062713486588,297.33673954579416,1012.3464434170047,-464.4113636951023,541.67440184118266,-541.67440184118266,464.4113636951023,1995.9709567633079,0.0
623204.59901257406,4207374.0504322443,-27500.0,-30.981276431113038,-198.70986761513427,1590.6299266174751,69.956282519215364,-818.41376151773625,315.22786448349672,1054.7492913580693,-543.32205570066208,739.95509392193412,-739.95509392193412,543.32205570066208,2081.0114789640143,0.0
628204.59901257406,4207374.0504322443,-27500.0,-36.268399170815862,-31.700491635058757,1654.2142487526278,-6.6402545989984576,-845.00097301977871,324.05265089897972,1078.9687977328213,-581.82076753260651,909.7818100493588,-909.7818100493588,581.82076753260651,2126.8928827976652,0.0
633204.59901257406,4207374.0504322443,-27500.0,-13.206712881623044,134.11492175377447,1654.4030196432168,-82.536352056854085,-844.19555923555515,323.62430244564757,1082.6767700859377,-577.96142116218653,1038.4605020831445,-1038.4605020831445,577.96142116218653,2131.9170446254939,0.0
638204.59901257406,4207374.0504322443,-27500.0,34.46821068224169,285.27275634599386,1595.860720765183,-152.19841758416101,-817.92843686445417,314.57538262512833,1065.9241108098636,-535.00800811345312,1118.4729745793547,-1118.4729745793547,535.00800811345312,2097.5473422558275,0.0
643204.59901257406,4207374.0504322443,-27500.0,100.02702895548956,411.32615601332242,1488.306414975166,-211.27807832524911,-770.17736890240894,298.19721361795717,1030.6074529648827,-460.37277856480381,1148.0315056213503,-1148.0315056213503,460.37277856480381,2027.924537836293,0.0
648204.59901257406,4207374.0504322443,-27500.0,175.22134782454478,505.86138970126507,1344.5389648349226,-257.01630228527881,-706.19822918839191,276.19926160615273,979.82376489465423,-363.94377000804923,1130.5420174329279,-1130.5420174329279,363.94377000804923,1929.1013885817058,0.0
653204.59901257406,4207374.0504322443,-27500.0,251.77689029984495,566.63428216346188,1178.3355293866352,-288.31465167348716,-631.69962422432116,250.44908809514081,917.31334576086238,-256.28663726559108,1073.2909912566793,-1073.2909912566793,256.28663726559108,1808.1690881501625,0.0
658204.59901257406,4207374.0504322443,-27500.0,322.57514386158647,594.99833321914696,1002.6639851726334,-305.53338798331686,-552.12932757718841,222.7450115191908,847.00731386457448,-147.12605790113389,985.79394696546819,-985.79394696546819,147.12605790113389,1672.4358381303803,0.0
663204.59901257406,4207374.0504322443,-27500.0,382.35995395047922,594.92009551906312,828.45660765363164,-310.1240204181039,-472.17051795918104,194.65247620296861,772.72592276595844,-44.333924792942128,878.20670067055062,-878.20670067055062,44.333924792942128,1528.7666524729432,0.0
668204.59901257406,4207374.0504322443,-27500.0,427.96655213742628,571.88049298291162,663.99644813145073,-304.20792423388718,-395.47290740553689,167.41330931776042,698.08882148207158,46.53293356292113,760.06701390140563,-760.06701390140563,-46.53293356292113,1383.1349170232797,0.0
673204.59901257406,4207374.0504322443,-27500.0,458.17615278079774,531.88659364704176,514.8257318114355,-290.18720781689507,-324.58906779342186,141.91963575477973,626.39011207784927,122.23438200617761,639.47815840184842,-639.47815840184842,-122.23438200617761,1240.3843109940005,0.0
563204.59901257406,4212374.0504322443,-27500.0,277.54794612053513,-104.92561175010876,-323.49872198289017,80.648221834764286,75.73928529583371,-5.9411033015614532,336.74240448790698,321.88848637355693,-310.32140196663443,310.32140196663443,-321.88848637355693,583.93738264613387,0.0
568204.59901257406,4212374.0504322443,-27500.0,310.95132193998529,-177.84473262481552,-271.94200449425057,110.39852880685685,46.711316281757462,5.3857675657956916,361.67742250647177,334.88079704698282,-344.94425316189961,344.94425316189961,-334.88079704698282,626.91180324694528,0.0
573204.59901257406,4212374.0504322443,-27500.0,334.66418665102384,-255.97035606389616,-196.2634161385669,141.22638947522447,7.687981160040346,19.904686699944687,392.82235847777906,333.01027243146319,-368.60433303518715,368.60433303518715,-333.01027243146319,685.86997267345475,0.0
578204.59901257406,4212374.0504322443,-27500.0,345.53505956792333,-335.19809836831229,-93.673950784827014,171.37327214208872,-42.174812263080952,37.817492573553345,431.19255637761205,312.69030778484444,-375.95048536762681,375.95048536762681,-312.69030778484444,763.51696954014028,0.0
583204.59901257406,4212374.0504322443,-27500.0,341.01756576310555,-410.00377170294007,37.117061681194059,198.58683283039386,-103.07689525015776,59.11524585863998,477.17467991053587,271.17339385630476,-361.43821705836274,361.43821705836274,-271.17339385630476,860.6091942245904,0.0
588204.59901257406,4212374.0504322443,-27500.0,319.75343939882328,-473.7069553524272,195.17052682118754,220.24551336239867,-174.31260634418149,83.503018284149789,530.30358844965247,207.24815893839178,-320.04514367660835,320.04514367660835,-207.24815893839178,975.59015438406925,0.0
593204.59901257406,4212374.0504322443,-27500.0,282.13822547525274,-519.05827734457262,376.68356463651679,233.59863666309934,-254.05866501694382,110.34208701162842,589.1803971592617,121.91635084633884,-248.18720578998818,248.18720578998818,-121.91635084633884,1104.6728607731193,0.0
598204.59901257406,4212374.0504322443,-27500.0,230.71812736337642,-539.1466962226682,574.64384284703749,236.11479487582122,-339.27959719609805,138.62934434590153,651.54255543326815,18.873398509723181,-144.70092706572797,144.70092706572797,-18.873398509723181,1242.1984329235568,0.0
603204.59901257406,4212374.0504322443,-27500.0,170.25309385935736,-528.52294849903899,778.96528220113032,225.89606002317694,-425.81635572601272,167.03210673727241,714.4737406145905,-95.40224293663691,-11.673774221050763,11.673774221050763,95.40224293663691,1381.1433215265031,0.0
608204.59901257406,4212374.0504322443,-27500.0,107.32653693741106,-484.32810444706149,977.22989490079476,202.07992827249041,-508.69622921320638,193.98799707003747,774.7475373337569,-212.09781977845907,145.13520607740625,-145.13520607740625,212.09781977845907,1513.7372813813531,0.0
613204.59901257406,4212374.0504322443,-27500.0,49.490066734310957,-407.14665275097724,1156.0201564404335,165.12972350237484,-582.65117240611289,217.86439198477598,829.29863133954291,-321.0785064881477,316.50146003503789,-316.50146003503789,321.0785064881477,1632.1774808563332,0.0
618204.59901257406,4212374.0504322443,-27500.0,4.0782611606896104,-301.31645137428819,1302.6464695282014,116.92220140078155,-642.76839802182099,237.15413914927069,875.57190661881202,-412.31884267996929,490.64965504340205,-490.64965504340205,412.31884267996929,1729.3870842075389,0.0
623204.59901257406,4212374.0504322443,-27500.0,-23.042510624917583,-174.54457288767571,1406.9216292145024,60.584168295547443,-685.14621647100944,250.67013309592312,910.88878509403969,-477.45335249383515,654.75929364998456,-654.75929364998456,477.45335249383515,1799.722631232193,0.0
628204.59901257406,4212374.0504322443,-27500.0,-28.477377718170057,-36.865886116585337,1462.5801793008191,0.095488162538744648,-707.41159923624491,257.69727393227231,932.09869111502621,-511.07658419921006,796.7551891901918,-796.7551891901918,511.07658419921006,1839.5152929109925,0.0
633204.59901257406,4212374.0504322443,-27500.0,-11.804422942507413,100.8252449401476,1468.0182732139633,-60.257442578039488,-708.98581071956301,258.06942163763455,937.25143044746767,-511.47788516149882,906.97570022172249,-906.97570022172249,511.47788516149882,1847.3533423128517,0.0
638204.59901257406,4212374.0504322443,-27500.0,24.528784403096687,228.32452125858589,1426.2172890354548,-116.45491769777604,-691.05094960800034,252.15801526361764,926.21576448652229,-480.66158021207673,979.34946696585541,-979.34946696585541,480.66158021207673,1824.0658442061188,0.0
643204.59901257406,4212374.0504322443,-27500.0,75.838944987084957,337.4039966011045,1343.9361782248498,-165.22184290042625,-656.24879646272814,240.78181540151914,900.23846099496586,-423.70904029798379,1011.8655569070531,-1011.8655569070531,423.70904029798379,1772.4332814774036,0.0
648204.59901257406,4212374.0504322443,-27500.0,136.1618860290211,422.60157052408414,1230.4274608903766,-204.32685146358821,-608.20285659624903,225.06389755859581,861.48217541199108,-347.70433837065565,1006.3277155958815,-1006.3277155958815,347.70433837065565,1696.7012401889631,0.0
653204.59901257406,4212374.0504322443,-27500.0,199.272123432553,481.44158412079162,1096.0029786649147,-232.67534080858525,-550.9809849210834,206.27033635751144,812.64242232802735,-260.5167107257206,967.55984177584912,-967.55984177584912,260.5167107257206,1602.0022674471525,0.0
658204.59901257406,4212374.0504322443,-27500.0,259.5486008886968,514.16294919950781,950.73832930344395,-250.22144688402179,-488.60357441840415,185.66126021711429,756.62485369028786,-169.70430977131582,902.32130634508144,-902.32130634508144,169.70430977131582,1493.7858085896319,0.0
663204.59901257406,4212374.0504322443,-27500.0,312.55686859116975,523.12092465916965,803.50558372510568,-257.75646674133247,-424.66818002206838,164.3756587258811,696.30338992621125,-81.711881511558204,818.1921399934547,-818.1921399934547,81.711881511558204,1377.333862830159,0.0
668204.59901257406,4212374.0504322443,-27500.0,355.3162285529271,512.05116544102407,661.40279172556222,-256.6407569433668,-362.11844085142889,143.35856662539496,634.40644378902653,-1.4235308526027097,722.62216299726606,-722.62216299726606,1.4235308526027097,1257.4038114138443,0.0
573204.59901257406,4217374.0504322443,-27500.0,295.20212719572129,-256.3943837073619,-123.15457037114291,130.81567838946964,-13.859785963570012,22.735985929231791,352.68300029209519,279.31446870579714,-321.49384032883154,321.49384032883154,-279.31446870579714,620.000673874683,0.0
578204.59901257406,4217374.0504322443,-27500.0,299.10216098733736,-320.76619816033508,-26.542698953155821,153.96633803241571,-57.564412781356197,37.486785624911143,387.48365372791511,254.69993168218087,-319.21702191769765,319.21702191769765,-254.69993168218087,692.11575867634963,0.0
583204.59901257406,4217374.0504322443,-27500.0,290.43044474294749,-379.55699571284833,92.332784150818014,174.11236489189795,-109.51483659433325,54.628072884753514,428.23956605903641,212.87461276304933,-297.94805612786627,297.94805612786627,-212.87461276304933,779.2624253678149,0.0
588204.59901257406,4217374.0504322443,-27500.0,268.62220876010826,-427.53982908375275,231.96321122008305,189.30760723970062,-168.90886996995533,73.871888204901424,474.30708610346221,153.5186017194799,-254.27253735969217,254.27253735969217,-153.5186017194799,879.54867053152918,0.0
593204.59901257406,4217374.0504322443,-27500.0,234.47139437796866,-459.28904550011811,388.66807780008457,197.59351484483275,-234.14187199275034,94.696381408148341,524.38667838437686,78.029850270782191,-186.05721987743769,186.05721987743769,-78.029850270782191,989.59720936882502,0.0
598204.59901257406,4217374.0504322443,-27500.0,190.3370438841084,-469.85418974480558,556.45499443681649,197.24431703450813,-302.779485438275,116.34282004506716,576.60448012486131,-10.223357971056821,-93.09976373519649,93.09976373519649,10.223357971056821,1104.8254176744022,0.0
603204.59901257406,4217374.0504322443,-27500.0,140.10802688335505,-455.53919999819584,727.22273893306419,187.04086944730059,-371.65379351130019,137.84797696787507,628.6789081068697,-105.93540741789187,22.369317245860429,-22.369317245860429,105.93540741789187,1219.8016547439149,0.0
608204.59901257406,4217374.0504322443,-27500.0,88.86726332204735,-414.6425700049906,891.36461251617925,166.5224565874453,-437.09869520242307,158.11543219580545,678.17796531141994,-202.25585168232493,155.48931010290818,-155.48931010290818,202.25585168232493,1328.6708428598874,0.0
613204.59901257406,4217374.0504322443,-27500.0,42.266694127234295,-347.98278608155164,1038.7394850694584,136.15727735530731,-495.30923737776357,176.02072026020377,722.88326391683904,-291.53598362199534,298.99660218113399,-298.99660218113399,291.53598362199534,1425.6409462159036,0.0
618204.59901257406,4217374.0504322443,-27500.0,5.7110007626762354,-259.05273090084489,1159.8703999151628,97.380490319581895,-542.7732891714154,190.53537562649115,761.05691248437176,-366.32233212108736,443.90677886970002,-443.90677886970002,366.32233212108736,1505.493122174375,0.0
623204.59901257406,4217374.0504322443,-27500.0,-16.482479090589965,-153.72142718506515,1247.1480923816509,52.475034265385894,-576.69790123913424,200.84778045081296,790.72574774579516,-420.40505416487275,580.56450355364973,-580.56450355364973,420.40505416487275,1564.0532695150914,0.0
628204.59901257406,4217374.0504322443,-27500.0,-21.754903075629727,-39.515665037522716,1295.7919226646311,4.3087821910037096,-595.3457927385316,206.45781943101105,809.30166204222326,-449.69317040954843,699.86501748890009,-699.86501748890009,449.69317040954843,1598.5555153188625,0.0
633204.59901257406,4217374.0504322443,-27500.0,-9.6542948851526607,75.375872615632332,1304.3680844395444,-44.021998649079592,-598.21416169660802,207.2263949421677,815.16575302070953,-452.7245406779175,794.3961660004702,-794.3961660004702,452.7245406779175,1607.8385778073762,0.0
638204.59901257406,4217374.0504322443,-27500.0,18.205780080064773,183.1626307429691,1274.7766730479696,-89.56976748812373,-586.02678180119028,203.37220790276189,808.11825345081286,-430.71463240619681,859.270229921583,-859.270229921583,430.71463240619681,1592.3499351902517,0.0
643204.59901257406,4217374.0504322443,-27500.0,58.53937659493414,277.36188474824968,1211.7502254696647,-129.86045481032627,-560.55451584908599,195.42012860457493,788.98913474732149,-387.16943781720568,892.50450226435089,-892.50450226435089,387.16943781720568,1553.9702018487349,0.0
648204.59901257406,4217374.0504322443,-27500.0,107.01252213844282,353.40140088889319,1122.0112213801538,-163.11191962338845,-524.31482620079237,184.11518407687299,759.30390936122922,-327.18882134684878,894.92792130206089,-894.92792130206089,327.18882134684878,1495.7006166700128,0.0
653204.59901257406,4217374.0504322443,-27500.0,158.94133417150189,408.85244650714861,1013.2891740884064,-188.32390269704737,-480.21937296875552,170.32148048929011,721.0196779202455,-256.63902075785023,869.70196291373486,-869.70196291373486,256.63902075785023,1421.2767923334468,0.0
658204.59901257406,4217374.0504322443,-27500.0,209.92018625749597,443.32262703554539,893.38765052690792,-205.24826709637367,-431.23604846491776,154.92470022761586,676.29726561923644,-181.36671302976504,821.60947151700805,-821.60947151700805,181.36671302976504,1334.7729771132713,0.0
583204.59901257406,4222374.0504322443,-27500.0,247.77239915457281,-348.39885172294902,131.73802355967194,152.06782003799813,-110.85992697534881,49.606876582989329,385.42377768458306,165.69329068088211,-244.05372360942999,244.05372360942999,-165.69329068088211,707.19760571258348,0.0
588204.59901257406,4222374.0504322443,-27500.0,226.57592645658173,-384.27828031990305,254.47742136034324,162.60316071799676,-160.36157169965071,64.833374986998308,425.27675687525357,111.52727698911897,-200.30804636847452,200.30804636847452,-111.52727698911897,794.309927035138,0.0
593204.59901257406,4222374.0504322443,-27500.0,196.06483899517013,-406.00927473046301,389.57801448631847,167.43541370657795,-213.84938403431215,81.073062762682696,467.8979396766768,45.213470981184066,-136.82354174811528,136.82354174811528,-45.213470981184066,888.11711244080811,0.0
598204.59901257406,4222374.0504322443,-27500.0,158.33065213287577,-410.04365961962912,531.99700662122518,165.38521623489007,-269.38678648150471,97.75404729173853,511.75575246351184,-30.286535968602387,-53.940059854253725,53.940059854253725,30.286535968602387,984.93829677366864,0.0
603204.59901257406,4222374.0504322443,-27500.0,116.52545926331119,-393.87737623252531,675.24112240818818,155.67075808897951,-324.55596351079009,114.17670269610109,555.06560547239201,-110.65818384498847,46.183173537067759,-46.183173537067759,110.65818384498847,1080.5595928177891,0.0
608204.59901257406,4222374.0504322443,-27500.0,74.58684710019331,-356.53862673091481,811.84509397198156,138.0667667422172,-376.63398031903131,129.56419418136244,595.98663616124736,-190.55949317234243,159.49133635171435,-159.49133635171435,190.55949317234243,1170.5323008905564,0.0
613204.59901257406,4222374.0504322443,-27500.0,36.781501814669227,-298.91342203822546,934.08018441560648,113.00523917509965,-422.84308295806409,143.13233568426924,632.91703096857464,-264.17061211687178,280.24606233784777,-280.24606233784777,264.17061211687178,1250.5095100880858,0.0
618204.59901257406,4222374.0504322443,-27500.0,7.1364872576259062,-223.81543522031095,1034.7949381565124,81.588633083233447,-460.64093032649441,154.16927872426979,664.70500527509137,-325.89088954297546,401.53394974072017,-401.53394974072017,325.89088954297546,1316.5946244422926,0.0
623204.59901257406,4222374.0504322443,-27500.0,-11.13302494568916,-135.75715181069674,1108.2435830884961,45.503278234813671,-488.002528107839,162.11213646603636,689.83527629866319,-371.05795486776276,516.00703935177103,-516.00703935177103,371.05795486776276,1365.6618745281826,0.0
628204.59901257406,4222374.0504322443,-27500.0,-16.080289100896113,-40.446703151700547,1150.7463258933119,6.8423450347178143,-503.64257029808522,166.60682390301437,706.11875677662329,-396.54645896504752,616.72902036625987,-616.72902036625987,396.54645896504752,1395.6039987549332,0.0
633204.59901257406,4222374.0504322443,-27500.0,-7.2715636677563484,55.897874452797559,1161.0562511965247,-32.130675129358899,-507.13731372793393,167.54045808857646,712.23082090703633,-401.12608998600194,697.96802479361872,-697.96802479361872,401.12608998600194,1405.4703844012081,0.0
638204.59901257406,4222374.0504322443,-27500.0,14.224413427679194,147.28403626207628,1140.3752233973876,-69.234019889496878,-498.92789807497815,165.04159675346273,707.96435216330826,-385.51716457466432,755.79062242095506,-755.79062242095506,385.51716457466432,1395.4796771711658,0.0
643204.59901257406,4222374.0504322443,-27500.0,46.083388258101969,228.5930016935668,1092.0391316630023,-102.59043299400396,-480.21203214487031,159.45030470618508,693.87966495304318,-352.1536219147896,788.36232555068648,-788.36232555068648,352.1536219147896,1366.9119053842878,0.0
648204.59901257406,4222374.0504322443,-27500.0,85.137842686707913,296.03578361171049,1020.9593457753898,-130.7857876257363,-452.75253640706376,151.26560086784329,671.06343194060548,-304.72685512655869,795.93103215322333,-795.93103215322333,304.72685512655869,1321.9046440374614,0.0
598204.59901257406,4227374.0504322443,-27500.0,132.78787577374717,-358.5443149111511,504.10130315426221,139.23016573731221,-239.31070250368126,82.302503638773246,455.52585630472191,-43.771447458783513,-24.388114622849415,24.388114622849415,43.771447458783513,880.22404087263158,0.0
603204.59901257406,4227374.0504322443,-27500.0,97.900742893174154,-341.71267247481967,624.73189796176894,130.23766423447569,-283.78472480549044,94.949286475235439,491.73254937664763,-111.47409026261215,62.444663107659522,-62.444663107659522,111.47409026261215,960.15842728368796,0.0
608204.59901257406,4227374.0504322443,-27500.0,63.396140726849545,-307.9146817093029,739.014127716443,115.1616800656072,-325.5361235093095,106.74133003185514,525.78081345425869,-178.09278574163892,159.18681426903396,-159.18681426903396,178.09278574163892,1034.9859780051397,0.0
613204.59901257406,4227374.0504322443,-27500.0,32.522311419246257,-258.0163924697012,841.00950142980537,94.382701952618987,-362.51603491792804,117.12513023012406,556.52595599392885,-239.16336230776713,261.28622686821939,-261.28622686821939,239.16336230776713,1101.4100800633942,0.0
618204.59901257406,4227374.0504322443,-27500.0,8.3116766359641101,-194.28903530989976,925.26813734509665,68.752231687846603,-392.86243859064984,125.60141423342657,583.24446801097702,-290.43461611334754,363.37897705288816,-363.37897705288816,290.43461611334754,1156.4879737785161,0.0
623204.59901257406,4227374.0504322443,-27500.0,-6.814796094385426,-120.23370310173486,987.40678950883296,39.529589257052294,-415.08943318140422,131.77447105967391,604.69452514248485,-328.36858186045447,459.81788735902558,-459.81788735902558,328.36858186045447,1197.8518327797979,0.0
628204.59901257406,4227374.0504322443,-27500.0,-11.362627627345313,-40.22431025763413,1024.5688392477819,8.2609074456576863,-428.23638574164403,135.39064609365028,618.98531911760733,-350.5559393163465,545.26674145210313,-545.26674145210313,350.5559393163465,1223.8799421091705,0.0
633204.59901257406,4227374.0504322443,-27500.0,-4.9375773900120166,40.971481207797929,1035.6873008120101,-23.380254332943363,-431.95227760985028,136.35989395280802,625.05700972008106,-355.97050789357866,615.25836747061362,-615.25836747061362,355.97050789357866,1233.7956292379167,0.0
603204.59901257406,4017374.0504322448,-32500.0,16.36430584309722,154.53278076303565,907.24640997324173,80.308714446195935,454.49741583123472,171.93026206015708,598.41727886279887,-305.93047933478459,630.27447645105781,-630.27447645105781,305.93047933478459,1178.9716182412069,0.0
608204.59901257406,4017374.0504322448,-32500.0,-5.3969092956657008,85.102894970440801,934.33668066981636,48.649314913101179,466.41714934979723,176.01443554252086,605.96698635142252,-325.62660544556621,593.61365764927677,-593.61365764927677,325.62660544556621,1194.5683777601521,0.0
613204.59901257406,4017374.0504322448,-32500.0,-18.084696841948773,9.8522179739409825,939.51091676290571,14.553709982492364,468.9637117533552,176.95993757659144,605.79757004249279,-330.78871375868363,538.53037869486207,-538.53037869486207,330.78871375868363,1195.3934084972182,0.0
618204.59901257406,4017374.0504322448,-32500.0,-20.406259475068126,-67.186467395710878,921.08547792752756,-20.331172002768415,461.4528494820409,174.5433193019791,597.77677934895712,-320.2144129355778,467.08753775980438,-467.08753775980438,320.2144129355778,1180.8754985127132,0.0
623204.59901257406,4017374.0504322448,-32500.0,-12.038300220569813,-141.57412695718912,878.92901970143703,-54.198473927262455,443.81896844114084,168.73834017214634,582.38151915147682,-293.97117113526338,382.70092667799065,-382.70092667799065,293.97117113526338,1151.2188472784646,0.0
628204.59901257406,4017374.0504322448,-32500.0,6.2753518332184619,-208.91973316101166,814.57523374101459,-85.255882101520157,416.65964834878196,159.7303774877613,560.74658064669461,-253.47045477810653,289.8559006796188,-289.8559006796188,253.47045477810653,1107.4399819283167,0.0
633204.59901257406,4017374.0504322448,-32500.0,32.782808284989557,-265.3536853303811,731.12496154339863,-111.90775631011275,381.20003984254987,147.90602466276235,534.20708755634587,-201.35386663593854,193.66510430648552,-193.66510430648552,201.35386663593854,1051.3267365579968,0.0
638204.59901257406,4017374.0504322448,-32500.0,64.936158324850922,-307.93921250957152,632.94425372162186,-132.91497020953872,339.1792078461803,133.81838226034262,503.81205136240851,-141.2026434209078,99.336319513146606,-99.336319513146606,141.2026434209078,985.32164556159751,0.0
643204.59901257406,4017374.0504322448,-32500.0,99.718922790831229,-334.95085188678775,525.20629718802286,-147.50598671967589,292.6757221948568,118.13319836158071,470.60080649393456,-77.119936629695474,11.640004134785762,-11.640004134785762,77.119936629695474,912.34371403135117,0.0
648204.59901257406,4017374.0504322448,-32500.0,134.02631493964594,-345.97762864120068,413.356543902721,-155.42291430868667,243.90183756116818,101.56470845828667,435.80904527971171,-13.26210744326125,-65.534980361483747,65.534980361483747,13.26210744326125,835.57247753452657,0.0
653204.59901257406,4017374.0504322448,-32500.0,165.02836678143663,-341.84673820540854,302.58963054445132,-156.89992936063368,194.99911414332587,84.811251920418883,400.7623343541548,46.59922067436068,-129.47302776047346,129.47302776047346,-46.59922067436068,758.21959801603657,0.0
658204.59901257406,4017374.0504322448,-32500.0,190.45560487312451,-324.39893052449651,197.41688350677435,-152.5844629982202,147.86548279986471,68.499939743632439,366.72518257954397,99.415795279832423,-178.74171131196107,178.74171131196107,-99.415795279832423,683.31052052189193,0.0
593204.59901257406,4022374.0504322448,-32500.0,97.741203512113387,308.98223453327415,865.12442477661637,160.58348494851072,464.9032156587736,186.87064552436595,630.05127297484671,-243.93068150545835,716.68658197655941,-716.68658197655941,243.93068150545835,1241.2094335230402,0.0
598204.59901257406,4022374.0504322448,-32500.0,57.238998870059127,255.00366909463838,940.31839814682053,133.90605736637082,499.23249507896003,199.08103275896286,656.52161628115039,-294.87301865943334,722.4059895328428,-722.4059895328428,294.87301865943334,1292.773364788907,0.0
603204.59901257406,4022374.0504322448,-32500.0,21.649543083769071,186.57982668713899,998.21101577916818,100.9494185228565,525.61215953534361,208.45878533399156,675.61753371489203,-335.22345915657672,706.08660353229141,-706.08660353229141,335.22345915657672,1330.3954943746842,0.0
608204.59901257406,4022374.0504322448,-32500.0,-5.7410414694012921,106.33045449433641,1033.7681161451321,62.870463316162734,541.91488275557469,214.28517398714845,686.113270802133,-361.06960183717098,666.45944665080629,-666.45944665080629,361.06960183717098,1351.6890770284062,0.0
613204.59901257406,4022374.0504322448,-32500.0,-22.161739247602984,18.250621779948663,1042.9886459800828,21.384967535914889,546.45495366315151,215.99051345181161,687.18522712757499,-369.3353960769353,604.01652057755246,-604.01652057755246,369.3353960769353,1354.9184957610776,0.0
618204.59901257406,4022374.0504322448,-32500.0,-25.792217111909547,-72.568375123301934,1023.48478055823,-21.346965730044381,538.22183614721803,213.23068366843555,678.59493299410406,-358.27572625739049,521.1844285203523,-521.1844285203523,358.27572625739049,1339.2261773093821,0.0
623204.59901257406,4022374.0504322448,-32500.0,-16.100643719736563,-160.42653602651509,974.9130576199957,-62.916499558184256,517.05352405082999,205.94409830655366,660.88261185026022,-327.83228865674107,422.23219676162557,-422.23219676162557,327.83228865674107,1304.7916156921799,0.0
628204.59901257406,4022374.0504322448,-32500.0,5.999212658742783,-239.64673839421829,899.1574908368068,-100.91778438236467,483.71164560776526,194.37695617991244,635.39658882241906,-279.76130358869426,312.89560817229386,-312.89560817229386,279.76130358869426,1252.89364538827,0.0
633204.59901257406,4022374.0504322448,-32500.0,38.221126062875776,-305.24299454890337,800.20613587679725,-133.21469803087652,439.83514957032821,179.06924166314488,603.77379788506505,-217.48530412498943,199.76284292550579,-199.76284292550579,217.48530412498943,1185.8576621888062,0.0
638204.59901257406,4022374.0504322448,-32500.0,77.207042950416735,-353.50051397113521,683.72793617662194,-158.17486837011245,387.77498210808727,160.80212408934327,567.43257350170222,-145.68317719982255,89.525339187833652,-89.525339187833652,145.68317719982255,1106.8909546838381,0.0
643204.59901257406,4022374.0504322448,-32500.0,118.99706043153209,-382.35802966375076,556.42323712657367,-174.82848907108669,330.33695196299806,140.51509067168624,527.81594956535685,-69.694685384380961,-11.768097970891066,11.768097970891066,69.694685384380961,1019.8272558623764,0.0
648204.59901257406,4022374.0504322448,-32500.0,159.57143275394856,-391.52973335241182,425.26926608193577,-182.92690057757648,270.47936633590115,119.20747900473766,486.56909380756184,5.1429725304319049,-99.320073183221837,99.320073183221837,-5.1429725304319049,928.8163513070665,0.0
653204.59901257406,4022374.0504322448,-32500.0,195.35583049944901,-382.36481678871075,296.79843520137223,-182.89835979534863,211.01881670327694,97.8415576558873,445.40223442509722,74.099761265165995,-169.95963604259074,169.95963604259074,-74.099761265165995,837.99913466507689,0.0
658204.59901257406,4022374.0504322448,-32500.0,223.60075820528951,-357.49964395965588,176.52397616047367,-175.72035344708468,154.38965426628477,77.261790829560155,405.89949416551536,133.4986414512567,-222.24874776810978,222.24874776810978,-133.4986414512567,751.20007939457457,0.0
663204.59901257406,4022374.0504322448,-32500.0,242.58570752188342,-320.39231240477318,68.582713768400865,-162.74149975152108,102.48620770202662,58.140140460976745,369.36592212884204,180.94975431678847,-256.34459132964236,256.34459132964236,-180.94975431678847,671.65577885269704,0.0
668204.59901257406,4022374.0504322448,-32500.0,251.64440263442344,-274.83684907621654,-24.390442169086523,-145.49017697764626,56.596133300552218,40.950651853140627,336.72332793331867,215.37302717548116,-273.68653732390339,273.68653732390339,-215.37302717548116,601.78542513184334,0.0
583204.59901257406,4027374.0504322448,-32500.0,219.80675682925235,422.06701090640388,716.32854246287889,231.64185664475843,425.94611271675461,185.31793468004227,621.27890883720477,-112.72199042512966,703.59283354596198,-703.59283354596198,112.72199042512966,1226.5943180902989,0.0
588204.59901257406,4027374.0504322448,-32500.0,172.76264790580026,401.43459716191893,827.16521191885329,218.68849772770622,479.84147781657919,205.61095587160978,666.29206586543432,-183.12976708923986,756.9980507659651,-756.9980507659651,183.12976708923986,1313.5800037215904,0.0
593204.59901257406,4027374.0504322448,-32500.0,122.72718498431962,361.95950550446344,932.12362451693571,196.99453766215342,530.40089396529834,224.53844634976616,706.62528287963573,-252.27518175423836,792.55072623181866,-792.55072623181866,252.27518175423836,1391.5898735813753,0.0
598204.59901257406,4027374.0504322448,-32500.0,73.486861547381594,303.01086162553537,1024.5350367401113,166.38839975824595,574.61714987428547,241.02532549159179,740.21087291555386,-315.06973053126455,805.3891448763128,-805.3891448763128,315.06973053126455,1456.8051586708125,0.0
603204.59901257406,4027374.0504322448,-32500.0,29.366580732621571,225.63614143357512,1097.3599462092463,127.42652590232393,609.3541633787604,253.95770164183273,765.08193979512021,-366.03543493488274,791.69539159711553,-791.69539159711553,366.03543493488274,1505.5146050344842,0.0
608204.59901257406,4027374.0504322448,-32500.0,-5.2657441585378564,132.80697016321002,1143.9219543993627,81.487414805797258,631.66200911710359,262.29188307356344,779.55760952596336,-399.93673275856145,749.38381640957982,-749.38381640957982,399.93673275856145,1534.4607743793797,0.0
613204.59901257406,4027374.0504322448,-32500.0,-26.618319282614493,29.404845212328414,1158.7624440100685,30.758023544702986,639.13830733433542,265.17841349498821,782.46498178502054,-412.52378208749508,678.66986199129803,-678.66986199129803,412.52378208749508,1541.203453125969,0.0
618204.59901257406,4027374.0504322448,-32500.0,-32.110755112253685,-78.115250697521702,1138.4824667495143,-21.910861600180208,630.28187010061117,262.0832225773155,773.3903887353157,-401.25796238537009,582.37731200216911,-582.37731200216911,401.25796238537009,1524.4569700247148,0.0
623204.59901257406,4027374.0504322448,-32500.0,-20.886309045876253,-182.38079722648811,1082.3922694972673,-73.278593197569577,604.76507039156741,252.88111178557261,752.9242668862571,-365.85664660257413,465.8626127364476,-465.8626127364476,365.85664660257413,1484.3349975748886,0.0
628204.59901257406,4027374.0504322448,-32500.0,5.9337291324580352,-275.98774773618703,992.80905989104065,-120.08167186142001,563.56074756802082,237.90014713076462,722.68361305646965,-308.51120448633941,336.51633628930182,-336.51633628930182,308.51120448633941,1422.4549501136137,0.0
633204.59901257406,4027374.0504322448,-32500.0,45.338195639947678,-352.4555708388462,874.90404264035453,-159.43003829448182,508.88357643751169,217.90348111298093,684.73186100594285,-233.69515551095711,202.90098322448628,-202.90098322448628,233.69515551095711,1341.8718596553235,0.0
638204.59901257406,4027374.0504322448,-32500.0,92.857468774669428,-407.05529223194259,736.10251697752881,-189.15447509629774,443.94598309352278,194.00823159224305,641.00706778597953,-147.57868056382753,73.683548547763621,-73.683548547763621,147.57868056382753,1246.8421425406339,0.0
643204.59901257406,4027374.0504322448,-32500.0,143.24740940500089,-437.33980979969556,585.15068201868633,-208.03664210358613,372.57344971375659,167.55590179255506,593.50455033911658,-57.168138769634155,-43.422416221155189,43.422416221155189,57.168138769634155,1142.4519202948593,0.0
648204.59901257406,4027374.0504322448,-32500.0,191.27079458978403,-443.28097791086196,431.0408128207734,-215.88159310929166,298.75498048602259,139.95926498658594,544.42025096919394,30.643006600058349,-142.49630980602234,142.49630980602234,-30.643006600058349,1034.1652571324305,0.0
653204.59901257406,4027374.0504322448,-32500.0,232.40597343994222,-427.01973988656522,282.00723103538206,-213.43240300588948,226.21491460481337,112.55447403310569,495.96737840863238,109.91524448308152,-219.88970665248016,219.88970665248016,-109.91524448308152,927.35471166450509,0.0
658204.59901257406,4027374.0504322448,-32500.0,263.34893454828079,-392.32505400182072,144.76503347647488,-202.16200309618446,158.07764245196728,86.48269900170591,450.12688774103151,176.24701261733009,-274.3034593266683,274.3034593266683,-176.24701261733009,826.8622692447168,0.0
663204.59901257406,4027374.0504322448,-32500.0,282.24451699558506,-343.90808796923903,24.083526407058063,-183.99868356078443,96.665888305588027,62.61584922833746,408.44700004327353,227.03482138122104,-306.5175057726708,306.5175057726708,-227.03482138122104,736.61526035538941,0.0
668204.59901257406,4027374.0504322448,-32500.0,288.65608708863789,-286.74092135200186,-77.301773328040483,-161.04474194502802,43.438701673158334,41.529399484443509,371.91493365883309,261.42684255885979,-318.89179662889978,318.89179662889978,-261.42684255885979,659.30786325239421,0.0
673204.59901257406,4027374.0504322448,-32500.0,283.33796383932645,-225.4930423640667,-158.50367941119163,-135.33537116565199,-0.9535466268019096,23.515726137624576,340.910341672865,280.04822362672041,-314.77570188207369,314.77570188207369,-280.04822362672041,596.17312983599163,0.0
678204.59901257406,4027374.0504322448,-32500.0,267.89869938502449,-164.14540857250881,-220.12426751561264,-108.66470121988931,-36.5354441556049,8.6256625986855706,315.24797420903815,284.60143707475072,-297.94392202498204,297.94392202498204,-284.60143707475072,546.91630123445452,0.0
573204.59901257406,4032374.0504322448,-32500.0,349.50727046965812,457.15896530513413,492.32207339190671,273.9965116004276,342.98948060416319,166.14671017595774,573.4630954466669,55.615546295960485,584.78724065730614,-584.78724065730614,-55.615546295960485,1133.7258665508748,0.0
578204.59901257406,4032374.0504322448,-32500.0,314.4450659356433,476.44377599636294,613.21323814775144,279.93808847561081,406.87216965834546,191.9516447012912,630.68666611869867,-12.497408401938287,673.7520549340768,-673.7520549340768,12.497408401938287,1246.431344705948,0.0
583204.59901257406,4032374.0504322448,-32500.0,268.81892091184426,479.72871908684596,741.71292926718968,277.67978738952803,473.67367251453061,218.66223750366302,688.15294024697448,-89.699709447005773,755.93306726083892,-755.93306726083892,89.699709447005773,1358.1975555551578,0.0
588204.59901257406,4032374.0504322448,-32500.0,214.64223664997826,463.19215303209808,872.60919010149507,265.56043680446942,540.79397144599022,245.27237848647343,743.38760603466142,-172.44918598167476,825.02774505891523,-825.02774505891523,172.44918598167476,1465.0212980196225,0.0
593204.59901257406,4032374.0504322448,-32500.0,155.29383688281388,423.86801689374272,998.989741231881,242.34596796199051,604.88495752870665,270.50792537491901,793.73346694994484,-255.69158911380703,874.24028390797014,-874.24028390797014,255.69158911380703,1562.2854534144774,0.0
598204.59901257406,4032374.0504322448,-32500.0,95.424119872860601,360.30774596584064,1112.5427143403374,207.51430236420134,662.00190130643011,292.8850013955215,836.45988870902227,-333.08332766877851,896.99384901083272,-896.99384901083272,333.08332766877851,1645.0139893425239,0.0
603204.59901257406,4032374.0504322448,-32500.0,40.591642607665065,273.20530094493159,1204.1897990898631,161.51814249874593,707.89806186844953,310.81888612759678,868.91686390898167,-397.52203289910295,887.84370459995262,-887.84370459995262,397.52203289910295,1708.243029832518,0.0
608204.59901257406,4032374.0504322448,-32500.0,-3.3827455440987961,165.8344837869692,1265.0535755296128,105.96280072703122,738.46107629020082,322.78271979158382,888.781745730642,-441.98315184317164,843.47396731723563,-843.47396731723563,441.98315184317164,1747.5000273317398,0.0
613204.59901257406,4032374.0504322448,-32500.0,-31.28074761391392,44.132919895589801,1287.6526681650225,43.630895224545654,750.24277996144417,327.49832610328781,894.37009888866362,-460.56687392263228,763.57582505606001,-763.57582505606001,460.56687392263228,1759.3319372280139,0.0
618204.59901257406,4032374.0504322448,-32500.0,-39.419063559755422,-83.687027851931077,1267.1285988500265,-21.694073949038263,740.99828795577434,324.12967639098252,884.9843731391901,-449.56826503647642,651.3770384018884,-651.3770384018884,449.56826503647642,1741.8089926278737,0.0
623204.59901257406,4032374.0504322448,-32500.0,-26.433690151426067,-208.01957672187208,1202.2326785203159,-85.611633076930914,710.11817262664624,312.43799103277848,861.23680000222953,-408.31851028884319,513.61994595704471,-513.61994595704471,408.31851028884319,1694.9049439965913,0.0
628204.59901257406,4032374.0504322448,-32500.0,6.3045046120066264,-319.12077708690367,1095.8155418861438,-143.64594446337975,658.84677723482503,292.86162657202129,825.08884062999925,-339.55724889244772,359.90210275516137,-359.90210275516137,339.55724889244772,1620.6776508946341,0.0
633204.59901257406,4032374.0504322448,-32500.0,54.790998040130532,-408.49033875713957,954.63931321807001,-191.84281534796483,590.20794950453467,266.49226126813892,779.20360531628182,-249.18569497268129,201.45185677513496,-201.45185677513496,249.18569497268129,1523.1827628669043,0.0
638204.59901257406,4032374.0504322448,-32500.0,113.01465710715107,-470.07032744258817,788.51854284243871,-227.29387898472095,508.64136788518925,234.94865338922637,726.25420746472446,-145.42037414194266,49.587959583837659,-49.587959583837659,145.42037414194266,1408.1336920445708,0.0
643204.59901257406,4032374.0504322448,-32500.0,173.96755278444496,-500.9874440530171,608.96126884879527,-248.47358334331534,419.41739385580689,200.17028160333325,669.00269248878192,-37.532228010626064,-85.799346587337482,85.799346587337482,37.532228010626064,1282.3507970107842,0.0
648204.59901257406,4032374.0504322448,-32500.0,230.78549761891961,-501.69321794640865,427.6201400373364,-255.32499105709962,327.95953995857417,164.17540749182925,610.39232688470941,65.527179934654896,-197.41467792918627,197.41467792918627,-65.527179934654896,1153.0937261814674,0.0
653204.59901257406,4032374.0504322448,-32500.0,277.74867346204525,-475.52700208464245,254.88711961421015,-249.09956655440496,239.21567834280353,128.83293714686351,553.29412745048853,156.30242387632268,-281.16003907729282,281.16003907729282,-156.30242387632268,1027.3733964069215,0.0
658204.59901257406,4032374.0504322448,-32500.0,310.94093070576542,-427.87042308802643,98.88902861646271,-232.01575404732708,157.19030147576072,95.688176120987762,500.17281709659039,229.5920650187401,-336.13101817799077,336.13101817799077,-229.5920650187401,911.31476525375865,0.0
663204.59901257406,4032374.0504322448,-32500.0,328.48761866778659,-365.13423183880127,-34.998041934133987,-206.83365988901383,84.69443890361255,65.863974439377628,452.82319378693779,282.70773682711376,-364.11963472326045,364.11963472326045,-282.70773682711376,809.60609525457335,0.0
668204.59901257406,4032374.0504322448,-32500.0,330.41278870717161,-293.80665284594869,-144.14071190229294,-176.44165702789908,23.310145111854357,40.038212906069184,412.22018148673482,315.29114952100053,-368.82743016189204,368.82743016189204,-315.29114952100053,725.06017622487366,0.0
673204.59901257406,4032374.0504322448,-32500.0,318.23543368909287,-219.7202382997362,-228.27288317195487,-143.52414677978382,-26.478030445351465,18.482441664197552,378.50268022339731,328.83213236783087,-355.00431475230693,355.00431475230693,-328.83213236783087,658.35966101474605,0.0
678204.59901257406,4032374.0504322448,-32500.0,294.44897797095234,-147.60296495586735,-288.91792002222286,-110.34341607099728,-65.05168166207919,1.1389675171433478,351.09763242618169,326.05481673609279,-327.68164002252956,327.68164002252956,-326.05481673609279,608.13027142294357,0.0
683204.59901257406,4032374.0504322448,-32500.0,262.00874910138151,-80.901150656278276,-328.76118638922691,-78.636023493191644,-93.392369158777242,-12.286433798274862,328.95698789626641,310.3144029103899,-291.59555822060901,291.59555822060901,-310.3144029103899,571.44893165599797,0.0
568204.59901257406,4037374.0504322448,-32500.0,436.31183444061674,455.86346498713198,352.57339751220263,300.16364544758846,296.40815648081161,160.42748575406833,561.10248814923182,166.80411097136459,491.21528226501084,-491.21528226501084,-166.80411097136459,1103.3243854360458,0.0
573204.59901257406,4037374.0504322448,-32500.0,414.90671283350895,498.86392954137295,473.269011184465,318.97159158287769,365.8682167448826,190.56178998801366,625.11136827609891,106.9532511583563,596.78404321404582,-596.78404321404582,-106.9532511583563,1232.9773043212724,0.0
578204.59901257406,4037374.0504322448,-32500.0,379.22660609523228,529.57604953827024,609.27272062704253,330.68678637208404,442.38120905075698,223.29994353058521,692.7080456843853,32.389770485326153,703.45556889701538,-703.45556889701538,-32.389770485326153,1367.3411033554289,0.0
583204.59901257406,4037374.0504322448,-32500.0,329.57176379144795,542.66200450436872,757.08261715733602,332.78026033822385,523.94807588142919,257.78950365771607,761.88251400554816,-55.063727000887923,804.95521319952763,-804.95521319952763,55.063727000887923,1502.6127029184272,0.0
588204.59901257406,4037374.0504322448,-32500.0,267.84603535862561,532.84156348564238,910.93496685825335,322.81865719118321,607.48941462868436,292.76311778254751,829.65308026593448,-151.64481476020637,893.52442259672421,-893.52442259672421,151.64481476020637,1633.9175478539596,0.0
593204.59901257406,4037374.0504322448,-32500.0,197.8185888990453,495.65346364969497,1062.68491676963,298.81905235768693,688.81648087849521,326.53360691801362,892.59051882150141,-251.47816523492719,960.41889563996779,-960.41889563996779,251.47816523492719,1755.4315751977545,0.0
598204.59901257406,4037374.0504322448,-32500.0,125.12165823520904,428.38375548427257,1202.0522002151254,259.66992857469955,762.77322165472197,357.05398340404577,947.07850343490907,-346.73323392779423,996.78768179639439,-996.78768179639439,346.73323392779423,1860.6690450984588,0.0
603204.59901257406,4037374.0504322448,-32500.0,56.866548572309412,331.01907228414001,1317.3602261591793,205.55364808462591,823.60403379723061,382.06185864149165,989.52941679950789,-428.23158502701159,994.91104843831886,-994.91104843831886,428.23158502701159,1942.9715045352111,0.0
608204.59901257406,4037374.0504322448,-32500.0,0.81996201919975464,206.99451497992428,1396.7896547513305,138.2686230880993,865.5508576017578,399.30846263161828,1016.7121412823312,-486.53551582249077,949.6345786408225,-949.6345786408225,486.53551582249077,1996.1653948915509,0.0
613204.59901257406,4037374.0504322448,-32500.0,-35.799692253508354,63.471603817778664,1430.044241359823,61.337116950304562,883.62967560419827,406.85282709526547,1026.1883139637803,-513.41868749077162,859.72135235292535,-859.72135235292535,513.41868749077162,2015.3305065067711,0.0
618204.59901257406,4037374.0504322448,-32500.0,-47.697396635785921,-89.075979452055208,1410.1477996822875,-20.195077518957756,874.45861433613402,403.37364416448702,1016.8050322059416,-503.45270967529427,728.75319467371492,-728.75319467371492,503.45270967529427,1997.5601789737102,0.0
623204.59901257406,4037374.0504322448,-32500.0,-32.71463884701366,-238.04272460265273,1334.960391802565,-100.29639152343969,836.95426685551945,388.43147861508186,989.14382191353684,-455.31928242917138,565.23676805297771,-565.23676805297771,455.31928242917138,1942.5644034876727,0.0
628204.59901257406,4037374.0504322448,-32500.0,7.4858444699743352,-370.4845251220068,1207.9788797258338,-172.75702359634718,772.70412221187212,362.61094209174007,945.60836205592329,-372.44334125702449,381.73319916387607,-381.73319916387607,372.44334125702449,1852.9701712221677,0.0
633204.59901257406,4037374.0504322448,-32500.0,67.523958601554455,-475.14518744230156,1038.1246874026886,-232.10246339300321,685.88330046486169,327.49429121400345,889.70697749021951,-262.68514543091482,193.1051295283911,-193.1051295283911,262.68514543091482,1734.2243706756519,0.0
638204.59901257406,4037374.0504322448,-32500.0,139.22704454724973,-544.21708298743442,838.49265003424557,-274.39774640770571,582.70085980440467,285.45991047603547,825.16205459956734,-137.09807851990058,14.259550930776854,-14.259550930776854,137.09807851990058,1594.0893232677918,0.0
643204.59901257406,4037374.0504322448,-32500.0,213.1430512004732,-574.38975957957234,624.34640561514072,-297.74724664101188,470.49661389113015,239.34832383531898,755.81521158962198,-8.0549500829387881,-142.05961853838858,142.05961853838858,8.0549500829387881,1441.8153371394496,0.0
648204.59901257406,4037374.0504322448,-32500.0,280.22699275253524,-566.9628126938203,410.86004789924112,-302.38704849427324,356.70504989991167,192.07363846884178,685.63199943961911,112.76516776230248,-266.90289679666915,266.90289679666915,-112.76516776230248,1287.1369402890009,0.0
653204.59901257406,4037374.0504322448,-32500.0,333.26179660496206,-527.08756488302004,211.14031693706016,-290.38818444067499,247.92320467774886,146.26722060885552,618.34016915452241,216.03107294965943,-355.85094645315905,355.85094645315905,-216.03107294965943,1139.2462926610599,0.0
658204.59901257406,4037374.0504322448,-32500.0,367.71015233494381,-462.43964630307198,34.915493809119837,-265.093089478178,149.26098923514181,104.02114215006588,556.97459116890855,295.72457103370471,-408.82968283069624,408.82968283069624,-295.72457103370471,1005.8532353889694,0.0
663204.59901257406,4037374.0504322448,-32500.0,381.90854450006339,-381.72072811159688,-111.9690187984814,-230.45378012885033,64.048095176054048,66.761730502275142,503.5336041230679,349.33537287153587,-429.22954729282088,429.22954729282088,-349.33537287153587,892.38672891765509,0.0
668204.59901257406,4037374.0504322448,-32500.0,376.71122104055155,-293.33938939892579,-227.34024114354051,-190.42635316732199,-6.1301245602631118,35.246852897239371,458.82394075435059,377.4237171880381,-422.67718973975985,422.67718973975985,-377.4237171880381,801.40960074078839,0.0
673204.59901257406,4037374.0504322448,-32500.0,354.80251290080867,-204.48176578177319,-312.00729880566229,-148.52133839175551,-61.162824496048636,9.6545081585281789,422.52855006059787,382.80753227509859,-395.79496882696907,395.79496882696907,-382.80753227509859,732.4282960797367,0.0
678204.59901257406,4037374.0504322448,-32500.0,319.90941536383872,-120.62770567005794,-368.8595263666831,-107.54420067026814,-102.02602280632256,-10.278994482904459,393.4853103726881,369.63989622196618,-355.18093921944183,355.18093921944183,-369.63989622196618,682.33557937131968,0.0
683204.59901257406,4037374.0504322448,-32500.0,276.09174636080036,-45.452454288146974,-401.97435979704551,-69.508889657550398,-130.37814630007861,-25.109018523481065,370.09172212323199,342.57737661888467,-306.71449161439222,306.71449161439222,-342.57737661888467,646.48985482739693,0.0
688204.59901257406,4037374.0504322448,-32500.0,227.20745556098782,19.003370989853533,-415.8732277862465,-35.678958384094514,-148.20642523693951,-35.547226316309121,350.70060966936001,306.14851077199887,-255.18751964313435,255.18751964313435,-306.14851077199887,620.0146044683479,0.0
693204.59901257406,4037374.0504322448,-32500.0,176.57829646439032,72.019799307744734,-414.98227622537354,-6.6841126517121143,-157.55678277809321,-42.354754538799973,333.89579303686804,264.3503664756185,-204.19795025515623,204.19795025515623,-264.3503664756185,598.7741117578463,0.0
563204.59901257406,4042374.0504322448,-32500.0,508.86651072727636,417.14061345601891,198.37822113757846,310.11331214744757,234.04301937834927,146.91395391818236,537.19466272549198,275.3102717963165,361.97006385351295,-361.97006385351295,-275.3102717963165,1043.9773365032779,0.0
568204.59901257406,4042374.0504322448,-32500.0,508.04962917630814,480.57570881260358,307.63928042631716,342.13685733481179,303.95515885493398,179.85947253059337,605.44836597607491,232.87732869868057,474.09074960775865,-474.09074960775865,-232.87732869868057,1184.6090165038281,0.0
573204.59901257406,4042374.0504322448,-32500.0,491.41130434001434,537.88171782944232,438.26659930121122,369.59804776245102,384.87443935238099,217.28042489032791,679.8030603793303,172.06420278510825,595.88170926744999,-595.88170926744999,-172.06420278510825,1336.2435683910578,0.0
578204.59901257406,4042374.0504322448,-32500.0,457.0774976295699,583.16314072109128,589.37724452804002,389.43813859240998,475.96037032496019,258.72549659745852,759.46552601817245,92.252086455819949,722.44610082110137,-722.44610082110137,-92.252086455819949,1495.9703936555165,0.0
583204.59901257406,4042374.0504322448,-32500.0,404.54664393153644,609.59564945773161,757.77643978950186,398.22012461989669,575.15857998308832,303.23961425312552,842.5221440454045,-5.3137199175877186,846.6254054358584,-846.6254054358584,5.3137199175877186,1659.4576256148066,0.0
588204.59901257406,4042374.0504322448,-32500.0,335.31213092001644,610.02356222966546,937.3547574878263,392.44008984852644,678.93137615856699,349.2632224687776,925.58852890658943,-116.90892004133309,959.0368654220805,-959.0368654220805,116.90892004133309,1820.8536892747125,0.0
593204.59901257406,4042374.0504322448,-32500.0,253.36561764081796,577.92004541531321,1118.7264163394716,369.00309575928662,782.11788340431281,394.5859061783612,1004.3250094959561,-235.91303587044655,1048.5550440228083,-1048.5550440228083,235.91303587044655,1972.8597825183997,0.0
598204.59901257406,4042374.0504322448,-32500.0,165.38468592417502,508.66741919319139,1289.3335368971539,325.83785649841525,878.02847322113257,436.39466907369007,1073.9549927009587,-352.80719330112254,1103.3615820701002,-1103.3615820701002,352.80719330112254,2107.04689719916,0.0
603204.59901257406,4042374.0504322448,-32500.0,80.392244385258536,400.98170785641184,1434.2357324723346,262.5636089528677,958.87120626925264,471.45365936168002,1129.6054643211937,-455.80364491036556,1112.5804440321122,-1112.5804440321122,455.80364491036556,2214.4672445970714,0.0
608204.59901257406,4042374.0504322448,-32500.0,8.7435118271108472,258.15798844795785,1537.7023402548837,181.05827524516016,1016.5572859402838,496.43126292532435,1166.754801850152,-532.22733083960588,1068.3297880852117,-1068.3297880852117,532.22733083960588,2286.5583381882761,0.0
613204.59901257406,4042374.0504322448,-32500.0,-39.534163426606064,88.710961147292167,1585.5169539596563,85.734574491473126,1043.8350855333563,508.35330311429931,1181.8478036310889,-570.56685317921267,967.79606760116792,-967.79606760116792,570.56685317921267,2316.2603229021447,0.0
618204.59901257406,4042374.0504322448,-32500.0,-56.775473980117461,-93.991209031057863,1567.6193379574872,-16.654697070498557,1035.5716468659723,505.11097306554467,1173.0067586050789,-562.83544495996966,814.75487266673099,-814.75487266673099,562.83544495996966,2299.1760570368192,0.0
623204.59901257406,4042374.0504322448,-32500.0,-39.571337836024945,-273.29234128799499,1480.4494415462796,-117.76488911309144,989.88383900195402,485.9082745648185,1140.6812542285186,-506.6337777185098,619.94489492314449,-619.94489492314449,506.6337777185098,2234.5321491773402,0.0
628204.59901257406,4042374.0504322448,-32500.0,10.090400863419045,-431.83055043659431,1328.2762634129206,-208.87600404321316,908.78740156336914,451.52187850351947,1087.8463689259838,-406.23503686529182,399.93846108303546,-399.93846108303546,406.23503686529182,2125.6977763441773,0.0
633204.59901257406,4042374.0504322448,-32500.0,84.904614270695333,-554.55174208350093,1122.9734053587636,-282.31342118491358,798.11154250336858,404.27516101739587,1019.2042492688585,-272.21294042138624,174.5981423954932,-174.5981423954932,272.21294042138624,1980.0725678388899,0.0
638204.59901257406,4042374.0504322448,-32500.0,173.63204722145824,-631.33663648136087,882.18518425581135,-332.70439383369524,666.65139848398587,347.71537539528282,939.9959980255162,-119.59695316733516,-36.273142802846969,36.273142802846969,119.59695316733516,1808.3451033715467,0.0
643204.59901257406,4042374.0504322448,-32500.0,263.40457737955268,-658.49467943304523,626.31562437392495,-357.72848921861089,524.74238174423226,286.05886292172568,855.60397606177537,34.959578612586668,-216.18826856781442,216.18826856781442,-34.959578612586668,1623.2112001571343,0.0
648204.59901257406,4042374.0504322448,-32500.0,342.25093187772671,-638.78065982319049,375.20228691548385,-358.19476119440907,382.65544862912907,223.55783595890423,771.40074663255803,176.16352705401863,-354.2660120073063,354.2660120073063,-176.16352705401863,1437.8432366542124,0.0
653204.59901257406,4042374.0504322448,-32500.0,401.12243887084259,-580.08389270177827,145.32194679039441,-337.49590520857765,249.20401347685163,163.93778349873779,692.21889323602193,292.41362943769218,-446.08241243971327,446.08241243971327,-292.41362943769218,1264.3294063444052,0.0
658204.59901257406,4042374.0504322448,-32500.0,434.96093386949997,-493.33374580417319,-51.887837574033938,-300.67053242518654,130.84985729273086,110.02054509019969,621.72277755122911,376.98820519098399,-493.11513182638134,493.11513182638134,-376.98820519098399,1112.2585447463121,0.0
663204.59901257406,4042374.0504322448,-32500.0,442.73848517145365,-390.28738949314379,-210.44968253033929,-253.37117409096888,31.398010294974082,63.575127463009174,561.97541694017195,428.04188557942985,-501.22121168285298,501.22121168285298,-428.04188557942985,987.56048690569116,0.0
668204.59901257406,4042374.0504322448,-32500.0,426.7145267348929,-281.72678397923346,-329.24626210345707,-200.9845229005137,-47.807794821017495,25.368164530263723,513.33100466783776,447.71361155893783,-478.74123143294344,478.74123143294344,-447.71361155893783,891.7984848909573,0.0
673204.59901257406,4042374.0504322448,-32500.0,391.30104469176388,-176.32952981167915,-410.82354164918911,-148.04072187650712,-107.37288856929547,-4.6525267055414821,474.69514700662927,440.79776242536695,-434.74259656071285,434.74259656071285,-440.79776242536695,822.30789543744368,0.0
678204.59901257406,4042374.0504322448,-32500.0,341.89941078522321,-80.221347435021784,-460.0231239984206,-97.933242092897487,-149.21974824727587,-27.116819861754855,444.07282318655541,413.390533815298,-377.70611418548867,377.70611418548867,-413.390533815298,773.43975362809556,0.0
683204.59901257406,4042374.0504322448,-32500.0,283.9489521238238,2.944106190697517,-482.75112817647266,-52.892797242136133,-175.98795625469387,-42.994332617211768,419.19950959635366,371.77998405313747,-314.74426100369237,314.74426100369237,-371.77998405313747,738.50369764093693,0.0
688204.59901257406,4042374.0504322448,-32500.0,222.28751240472886,71.587738498650168,-485.04150518222917,-14.126696233986523,-190.5523714280209,-53.396484504635701,398.03632559612748,321.69033709330904,-251.28877464510788,251.28877464510788,-321.69033709330904,711.49169840142861,0.0
693204.59901257406,4042374.0504322448,-32500.0,160.81705622466657,125.67909893484706,-472.44765773060726,17.962259410352548,-195.68784482092184,-59.433061801778706,379.0239297844098,267.87191241077744,-191.11446076859394,191.11446076859394,-267.87191241077744,687.96258494881602,0.0
698204.59901257406,4042374.0504322448,-32500.0,102.40938815317466,166.2154231089921,-449.72011662061482,43.541946308227338,-193.87021111641019,-62.12196882332011,361.12392114017871,213.96406641672402,-136.55855397542425,136.55855397542425,-213.96406641672402,665.13331069859873,0.0
558204.59901257406,4047374.0504322448,-32500.0,554.21796258194661,341.85717282193866,45.168368805043791,300.4344509094139,160.83497787998823,126.02304938335539,503.52202215281659,366.31652495432627,208.5064225726868,-208.5064225726868,-366.31652495432627,960.98655247127056,0.0
563204.59901257406,4047374.0504322448,-32500.0,578.32762467061343,418.49557470141451,132.90689593618134,343.94949948184569,225.45343465971382,159.64160042902188,572.94500491967551,348.46972016517742,315.04099109646,-315.04099109646,-348.46972016517742,1104.5421425948198,0.0
568204.59901257406,4047374.0504322448,-32500.0,588.08266279862596,496.47438887856885,245.00096778489581,386.58811407614331,304.03463518783207,199.46398715427082,650.73843779236984,311.72728451161532,438.6475940472572,-438.6475940472572,-311.72728451161532,1265.1183007973198,0.0
573204.59901257406,4047374.0504322448,-32500.0,579.59501670442103,570.61777204069335,383.46875663394769,425.34386929249848,397.25853093985228,245.65826784355545,736.7481313890197,252.95130619467574,576.95892553582667,-576.95892553582667,-252.95130619467574,1441.3516796495176,0.0
578204.59901257406,4047374.0504322448,-32500.0,549.62717055273856,633.98812460113572,548.5851237605483,456.35563872643843,504.76071675535093,297.91453642381248,830.32570325791153,170.20991173280402,725.11752874413094,-725.11752874413094,-170.20991173280402,1630.3534637111254,0.0
583204.59901257406,4047374.0504322448,-32500.0,496.39519565742387,678.06513570949312,737.94021783222445,475.03991081868531,624.65384885048593,355.24634078810607,929.72499303802192,63.672366754411541,875.25997687564677,-875.25997687564677,-63.672366754411541,1827.3597971677473,0.0
588204.59901257406,4047374.0504322448,-32500.0,420.50028573742281,693.35687282147444,945.4748009551239,476.44123888179325,753.05888472162474,415.80211366656903,1031.3236429602134,-63.427338855744438,1016.3119248263936,-1016.3119248263936,63.427338855744438,2025.4875482749051,0.0
593204.59901257406,4047374.0504322448,-32500.0,325.8057160539754,670.55561263399784,1160.7269754325728,455.84673890532054,883.76627070011182,476.73666986799702,1129.8056130074642,-203.98134417925576,1134.3453786712664,-1134.3453786712664,203.98134417925576,2215.6962564490195,0.0
598204.59901257406,4047374.0504322448,-32500.0,219.97164129581986,602.25126656009934,1368.6297421444747,409.661138197159,1008.1971164502079,534.21274178085366,1218.9148595591596,-346.68060551048359,1213.7456135198458,-1213.7456135198458,346.68060551048359,2387.0856921589143,0.0
603204.59901257406,4047374.0504322448,-32500.0,114.29144935734001,485.01902058040753,1550.2383166836623,336.44282870156326,1115.8452411592264,583.60468943070714,1292.0296495076141,-476.54529041136243,1239.3118932761729,-1239.3118932761729,476.54529041136243,2527.6338609054637,0.0
608204.59901257406,4047374.0504322448,-32500.0,22.522593725298467,321.44290757827264,1684.672677610203,237.88321369986579,1195.3297783830606,619.95403842275107,1342.7937898795778,-576.60088053996856,1199.1523109560503,-1199.1523109560503,576.60088053996856,2625.4196316775856,0.0
613204.59901257406,4047374.0504322448,-32500.0,-41.366632117398822,121.40828936803169,1752.2676974620608,119.4084336826465,1236.0389430980781,638.66460133556973,1365.991276494125,-630.70269483639981,1087.8489439073448,-1087.8489439073448,630.70269483639981,2670.2455070761757,0.0
618204.59901257406,4047374.0504322448,-32500.0,-66.206247651097357,-98.0505678903084,1738.4567217843198,-9.9315187175345692,1230.1206116963476,636.33516120560444,1358.5911706976497,-627.05087329478681,909.00437943155237,-909.00437943155237,627.05087329478681,2655.4190260850878,0.0
623204.59901257406,4047374.0504322448,-32500.0,-46.607929705643699,-314.7853717022611,1637.4254772328482,-138.48669378833571,1174.3423908249315,611.53452896344288,1320.7278396772126,-561.46048441699611,676.15306673713042,-676.15306673713042,561.46048441699611,2579.3083299815448,0.0
628204.59901257406,4047374.0504322448,-32500.0,15.112714475525451,-505.27862778473889,1454.329979833185,-253.85768198020145,1071.2319911377097,565.28126143973543,1256.1068237002626,-439.23067791421681,411.3300885002011,-411.3300885002011,439.23067791421681,2446.2388017167118,0.0
633204.59901257406,4047374.0504322448,-32500.0,108.92636301815108,-649.19132926478687,1205.1248451099943,-345.14378406575707,929.03053512540828,501.03800058166581,1171.1370885869349,-274.73542331370953,141.34775096196267,-141.34775096196267,274.73542331370953,2266.4034312423664,0.0
638204.59901257406,4047374.0504322448,-32500.0,219.19083175291917,-733.34170089846953,913.81387626881769,-404.94113752761439,760.35667350166466,424.17559768876873,1073.2802692171999,-88.63454639137376,-107.26317438051254,107.26317438051254,88.63454639137376,2054.7169450502374,0.0
643204.59901257406,4047374.0504322448,-32500.0,328.2239385464834,-753.85904632728159,607.88339594842535,-430.48825152609481,579.93333171824997,341.04276477663979,970.15311437219816,96.468857457300444,-313.11499655020003,313.11499655020003,-96.468857457300444,1828.8323120067955,0.0
648204.59901257406,4047374.0504322448,-32500.0,420.1366008021912,-715.95161771457083,313.33086043047632,-423.66934280651265,402.05180878668506,257.90879670788553,869.07336347374053,260.51109612993673,-463.1903308327984,463.1903308327984,-260.51109612993673,1606.7304470710119,0.0
653204.59901257406,4047374.0504322448,-32500.0,483.72271526564958,-631.63999648040556,50.718134781529429,-390.00985113442846,238.47917606594044,180.06737154055236,776.2664591917578,389.24952471004116,-553.71791347928286,553.71791347928286,-389.24952471004116,1404.3014774007238,0.0
658204.59901257406,4047374.0504322448,-32500.0,513.72326539202516,-516.44115737264246,-166.89879159997494,-337.1061109924845,97.254713754099058,111.29052500041367,695.99916483952529,475.63064279363664,-588.89421462371263,588.89421462371263,-475.63064279363664,1233.1769259800672,0.0
663204.59901257406,4047374.0504322448,-32500.0,510.48644934381633,-386.11875544382161,-334.08640641662521,-273.01628480334085,-17.539888060140925,53.681906476125647,630.07775556421996,519.32263626018835,-578.30106140454041,578.30106140454041,-519.32263626018835,1099.0762848943655,0.0
668204.59901257406,4047374.0504322448,-32500.0,478.54603156672391,-254.2765090037077,-451.72485814617795,-205.00179331145796,-105.25876662384329,7.8504865324433499,577.9229309439902,525.03658648436067,-534.02032034198146,534.02032034198146,-525.03658648436067,1001.1837591716175,0.0
673204.59901257406,4047374.0504322448,-32500.0,424.80181168048148,-131.08481275785331,-525.0223507828689,-138.79049561847671,-167.76676072072567,-26.730326846901871,537.22420960841941,500.41564476399708,-468.2082568797382,468.2082568797382,-500.41564476399708,933.24499669582281,0.0
678204.59901257406,4047374.0504322448,-32500.0,356.85173854965194,-23.017350464100666,-561.50547092269642,-78.333882553148499,-208.43698852751308,-51.312184682310431,504.90747734195884,454.107509561413,-391.48676732623863,391.48676732623863,-454.107509561413,886.26936772367594,0.0
683204.59901257406,4047374.0504322448,-32500.0,281.77464984347222,66.729038061405078,-569.3850160218168,-25.922078887335051,-231.28714034014155,-67.5034889995257,478.01329622255463,394.34949450521549,-312.16357574627432,312.16357574627432,-394.34949450521549,851.48805691058772,0.0
688204.59901257406,4047374.0504322448,-32500.0,205.42954284679391,137.48238611455236,-556.44305869758296,17.504995830827433,-240.35053715914796,-76.989692625098158,454.21306814653167,328.13619797232133,-236.09373780555205,236.09373780555205,-328.13619797232133,822.17494740706945,0.0
693204.59901257406,4047374.0504322448,-32500.0,132.19219280289974,190.28135108087039,-529.41193326250925,51.983613491786166,-239.28774998685449,-81.350735879421251,431.94759944744874,260.88025266149327,-166.93788868126731,166.93788868126731,-260.88025266149327,794.06767162029087,0.0
698204.59901257406,4047374.0504322448,-32500.0,64.992977018242101,227.15930036607006,-493.7320846941866,78.175498666110229,-231.19612900699491,-81.962221749904856,410.32941886085734,196.41503485290352,-106.60355812180475,106.60355812180475,-196.41503485290352,764.95437232347206,0.0
703204.59901257406,4047374.0504322448,-32500.0,5.5225247340313821,250.59432056873365,-453.55827086986642,97.082782840004327,-218.55870791442032,-79.958256588164716,388.95846354874084,137.19170232879119,-55.720744157185948,55.720744157185948,-137.19170232879119,734.02385714701484,0.0
553204.59901257406,4052374.0504322448,-32500.0,561.83162079924773,237.06962438716235,-91.35460109307337,270.23757178062556,83.556636726616233,99.182189843987373,464.15149882713092,426.20916992508785,46.978248786535602,-46.978248786535602,-426.20916992508785,864.37069201642862,0.0
558204.59901257406,4052374.0504322448,-32500.0,611.07004694409295,316.9780758609507,-31.88240450222624,321.48477652872435,137.5855861408007,131.02176839245521,531.04601514946921,436.15396722366575,136.18021705458023,-136.18021705458023,-436.15396722366575,1001.7275347836295,0.0
563204.59901257406,4052374.0504322448,-32500.0,650.46550121054747,405.33412323655784,51.181661639812319,376.04420182879647,206.86302065799529,170.3038664961403,608.13872944825266,430.22552915057906,246.96635097300759,-246.96635097300759,-430.22552915057906,1160.7907284563876,0.0
568204.59901257406,4052374.0504322448,-32500.0,674.95646100952524,498.83756565021446,162.23781427679873,431.62643725939046,293.59160776980389,217.9220688978719,695.9882675586756,403.47019875706559,379.99372307823779,-379.99372307823779,-403.47019875706559,1342.1772544788121,0.0
573204.59901257406,4052374.0504322448,-32500.0,679.13524967917681,592.07606201843078,304.97115445023013,484.78582500878747,399.39495476352931,274.45599834749129,794.77156389183381,351.0867735997777,533.88843705584713,-533.88843705584713,-351.0867735997777,1545.1895315430454,0.0
578204.59901257406,4052374.0504322448,-32500.0,657.93251040453413,677.19470458252442,481.38442946891792,530.79159136410487,524.76323589573474,339.91836522347916,904.11107312949525,269.2830951488661,704.32796961305428,-704.32796961305428,-269.2830951488661,1767.2815111777845,0.0
583204.59901257406,4052374.0504322448,-32500.0,607.6451248104986,743.87063386037414,690.53066696687665,563.67542630297896,668.35548243986852,413.44439525636341,1022.5274943026585,156.46289235890066,883.14276982951242,-883.14276982951242,-156.46289235890066,2003.4964537900994,0.0
588204.59901257406,4052374.0504322448,-32500.0,527.26007278381655,779.82875869654561,927.06466151156258,576.57338584900845,826.2338927205052,492.96013420080391,1146.3615083911304,14.649146563682052,1057.6999850930824,-1057.6999850930824,-14.649146563682052,2245.9808749657959,0.0
593204.59901257406,4052374.0504322448,-32500.0,419.87637572355584,772.13567186325906,1179.8965181725955,562.47424305906577,991.19139123930597,574.90319496839902,1269.3611366223161,-149.11601308581726,1210.9495659177278,-1210.9495659177278,149.11601308581726,2483.7338541345489,0.0
598204.59901257406,4052374.0504322448,-32500.0,293.82861583199838,709.39986091971002,1431.4224274031935,515.42215780658682,1152.4253158919339,654.10602782670708,1383.4628672071958,-321.85740656551775,1322.5659995082194,-1322.5659995082194,321.85740656551775,2702.7850369208418,0.0
603204.59901257406,4052374.0504322448,-32500.0,162.95052243444371,584.75369874540445,1657.9583948241584,432.09344222478848,1295.8839280003433,723.98268157340158,1479.6991934275479,-484.85385939570841,1371.5286144949068,-1371.5286144949068,484.85385939570841,2887.0276211179371,0.0
608204.59901257406,4052374.0504322448,-32500.0,45.380114409238494,399.06116790581711,1831.9558136428491,313.44738109452754,1405.5678640821104,777.13357120676949,1549.111465382143,-615.51864396094538,1340.1187614007185,-1340.1187614007185,615.51864396094538,3019.8250276861568,0.0
613204.59901257406,4052374.0504322448,-32500.0,-39.411688470904188,163.34736145589784,1926.2180185530233,165.93977907228515,1465.8784419053352,806.40151666429642,1584.0062374690885,-691.20245848496506,1218.7073597497008,-1218.7073597497008,691.20245848496506,3086.3568316312853,0.0
618204.59901257406,4052374.0504322448,-32500.0,-75.053394838516084,-100.79590210280192,1919.5898020909317,1.6779426052928275,1464.7133089957481,806.24237587862308,1579.5178381478972,-694.41012611387384,1009.9912733845609,-1009.9912733845609,694.41012611387384,3076.3706255523466,0.0
623204.59901257406,4052374.0504322448,-32500.0,-53.006060449702233,-363.75958559988385,1802.6800041788672,-162.93601442848427,1396.5520083644581,774.0836095557105,1535.1313334317383,-618.01712347838941,730.93904982021866,-730.93904982021866,618.01712347838941,2986.7221827281414,0.0
628204.59901257406,4052374.0504322448,-32500.0,24.158615570294916,-593.37287649635437,1581.6072722850206,-310.04092392127268,1264.4943678204797,711.22860044112178,1455.4785021177206,-468.51817831557378,411.07230506977555,-411.07230506977555,468.51817831557378,2822.9636043276437,0.0
633204.59901257406,4052374.0504322448,-32500.0,142.51221359567637,-761.86576460607262,1278.0046409508138,-423.93684747203628,1080.3340709444863,622.91318647889022,1349.423285312635,-265.66116565613129,86.952729809052954,-86.952729809052954,265.66116565613129,2599.3243885335869,0.0
638204.59901257406,4052374.0504322448,-32500.0,280.01261954302652,-852.00575902172784,924.85843634653827,-494.33202528407935,862.43180957186348,517.4074854610999,1227.7333033372433,-38.170279122185335,-205.57618150477208,205.57618150477208,38.170279122185335,2336.9422620087335,0.0
643204.59901257406,4052374.0504322448,-32500.0,412.1433789220269,-860.2202953030104,559.44938324900238,-518.11113049379185,632.00095581061362,404.41035658907549,1101.3058001763122,183.03613756205351,-438.75761745118058,438.75761745118058,-183.03613756205351,2060.6862700521074,0.0
648204.59901257406,4052374.0504322448,-32500.0,517.8091802087323,-795.80968047969077,215.85348131988519,-499.13162910601858,409.0478033712177,293.2570189984018,980.15235486145639,371.65665884647956,-597.4593300763828,597.4593300763828,-371.65665884647956,1795.297390658862,0.0
653204.59901257406,4052374.0504322448,-32500.0,583.43631413977937,-677.00865316072316,-80.616524163842172,-446.36274453523237,209.21078592545413,191.47530171775534,872.17548814219765,510.59216856465144,-679.81668827509691,679.81668827509691,-510.59216856465144,1561.5266542227159,0.0
658204.59901257406,4052374.0504322448,-32500.0,604.30035022929519,-525.73468877113635,-315.7856750545414,-371.24393152143165,42.212123578508162,104.01892963983229,782.00713078106173,593.31072419191969,-694.59095426306067,694.59095426306067,-593.31072419191969,1372.7856712005159,0.0
663204.59901257406,4052374.0504322448,-32500.0,583.36468104915821,-362.86264569942858,-485.98651552647243,-285.18549869315399,-88.089602377156254,33.199210945404545,710.54966377276185,622.40641951026998,-656.85709761915143,656.85709761915143,-622.40641951026998,1232.9450358428905,0.0
668204.59901257406,4052374.0504322448,-32500.0,528.7055081228981,-205.14224070692288,-595.51727756021512,-197.81886006394538,-182.54486964631732,-20.875721671074984,655.54209997152361,606.60157519355698,-583.70004991943915,583.70004991943915,-606.60157519355698,1136.5207732959234,0.0
673204.59901257406,4052374.0504322448,-32500.0,450.68262257950312,-63.960801239416682,-653.4752892291732,-116.16199853082429,-245.10664439139381,-59.626235785693169,612.93688032054979,557.49647417977235,-490.99122270572906,490.99122270572906,-557.49647417977235,1071.9626136548418,0.0
678204.59901257406,4052374.0504322448,-32500.0,359.64383812887314,54.461901768266742,-670.91650093995554,-44.54380817033784,-281.2891977812543,-85.320435369963235,578.4220646174648,486.93528641523926,-391.57715802293637,391.57715802293637,-486.93528641523926,1026.5022511998657,0.0
683204.59901257406,4052374.0504322448,-32500.0,264.47426140380406,148.0699616176633,-658.80050298495792,15.000764118827721,-296.97473252968257,-100.5224872819562,548.45795314745828,405.32324689824634,-294.69141667393956,294.69141667393956,-405.32324689824634,989.79685522779573,0.0
688204.59901257406,4052374.0504322448,-32500.0,171.9446616523025,217.70561206437773,-626.78110714488571,62.1399433391977,-297.64264121136233,-107.71632788184249,520.64730595079504,320.83850432399657,-206.17974365048241,206.17974365048241,-320.83850432399657,955.16774850757668,0.0
693204.59901257406,4052374.0504322448,-32500.0,86.642710509106081,265.93395372478983,-582.68417730560452,97.651037438027288,-287.9695789881369,-109.09260791620368,493.6399156439262,239.29810607839235,-129.13337118844075,129.13337118844075,-239.29810607839235,919.15673307158488,0.0
698204.59901257406,4052374.0504322448,-32500.0,11.243116311241556,296.12154530120466,-532.4461639986738,122.92459344491604,-271.6977380561537,-106.45979457914885,466.84902842268059,164.40904456981599,-64.633360804129111,64.633360804129111,-164.40904456981599,880.5182884151875,0.0
703204.59901257406,4052374.0504322448,-32500.0,-53.079493772356869,311.80177219355892,-480.30971694792635,139.60018636636323,-251.66862150808547,-101.23648588826325,440.16131063321922,98.188559067744876,-12.433621026807053,12.433621026807053,-98.188559067744876,839.28993421832342,0.0
553204.59901257406,4057374.0504322448,-32500.0,596.193567663267,187.63719199826278,-169.24713645887724,275.35388961073784,49.234844637581972,96.353426963281734,485.7229318266422,481.68962930027539,-41.774456286628322,41.774456286628322,-481.68962930027539,890.78409244317106,0.0
558204.59901257406,4057374.0504322448,-32500.0,662.90511648459858,273.87013903188853,-120.63759684009084,336.26836643259543,103.45437345028512,131.98889313595976,557.71466863971295,507.67614361693995,43.54615169700017,-43.54615169700017,-507.67614361693995,1037.3851289352754,0.0
563204.59901257406,4057374.0504322448,-32500.0,721.43674120077435,372.82326572671673,-46.977164948137009,403.26360913604555,175.58895927033342,177.10411664184403,642.11189046552317,518.18650434655046,154.41058549896178,-154.41058549896178,-518.18650434655046,1210.7170621806035,0.0
568204.59901257406,4057374.0504322448,-32500.0,765.57713842424766,481.82281377569012,57.761484193629066,474.13155817916243,269.01780550924485,233.21641182630771,740.05817739376789,506.82173561864926,293.07567856679844,-293.07567856679844,-506.82173561864926,1412.6469133033897,0.0
573204.59901257406,4057374.0504322448,-32500.0,788.17191545703577,595.64364018273716,199.33952562839946,545.1422260280807,386.71547559094205,301.57008312773758,852.30192166593872,466.77863471963354,459.76555972259945,-459.76555972259945,-466.77863471963354,1643.6358361765067,0.0
578204.59901257406,4057374.0504322448,-32500.0,781.82726095538771,705.85081741692511,382.14339728458344,610.72887225086799,530.55213440075499,382.79034615402537,978.98070839435934,391.79401753149727,651.40980504846129,-651.40980504846129,-391.79401753149727,1901.9966172147606,0.0
583204.59901257406,4057374.0504322448,-32500.0,740.13661695871463,800.4173471088493,607.57601850615174,663.35590482411135,700.32639572419578,476.41880246567541,1119.0928353688662,277.62128182944718,860.23634589038386,-860.23634589038386,-277.62128182944718,2183.0389246023001,0.0
588204.59901257406,4057374.0504322448,-32500.0,659.45959187283768,863.96180125034732,872.01152097570628,693.75582776786132,892.58656328827658,580.36285129864029,1269.2181693071661,124.01225546498199,1072.5245150641865,-1072.5245150641865,-124.01225546498199,2478.2172076641673,0.0
593204.59901257406,4057374.0504322448,-32500.0,541.08244804223068,879.02198125766643,1164.6074435841379,691.75056060851944,1099.4269842655776,690.35197854161731,1422.3502263278172,-63.053356648623776,1268.0429450166178,-1268.0429450166178,63.053356648623776,2774.4920355922523,0.0
598204.59901257406,4057374.0504322448,-32500.0,393.28023500557913,828.72313431036082,1465.5948313764968,647.82926680955768,1307.6241924283918,799.57440079540459,1568.3455174700289,-269.48207317733602,1420.8845233170819,-1420.8845233170819,269.48207317733602,3054.2258988242502,0.0
603204.59901257406,4057374.0504322448,-32500.0,232.43119053111926,700.88028826487971,1745.9948619526474,555.47057806926011,1498.6407258388979,898.73452929818177,1695.1568238458651,-472.47320988747163,1502.4001981379756,-1502.4001981379756,472.47320988747163,3295.9758644686476,0.0
608204.59901257406,4057374.0504322448,-32500.0,82.125489869560695,492.94924820560584,1969.8502679353007,413.86507272771973,1650.084591839568,976.7937205225611,1790.1599745966171,-642.31834686281218,1486.5468992035017,-1486.5468992035017,642.31834686281218,3476.5264206361871,0.0
613204.59901257406,4057374.0504322448,-32500.0,-30.564260041293075,216.37498169891612,2099.6709973591128,230.24278050627905,1738.969543318482,1022.5364943171976,1841.9611204254943,-747.32870110008253,1357.0191631956154,-1357.0191631956154,747.32870110008253,3574.2280179056929,0.0
618204.59901257406,4057374.0504322448,-32500.0,-81.538384651608055,-101.76746625879885,2104.6871587246696,20.69109601576649,1746.5099576258199,1026.8275273642739,1842.7642199051274,-761.50441225260965,1114.2382482217733,-1114.2382482217733,761.50441225260965,3573.2568568968927,0.0
623204.59901257406,4057374.0504322448,-32500.0,-57.214924780751929,-421.7460190710687,1969.851305984959,-191.52791374413269,1663.2910338102479,985.02598989172179,1790.809973635857,-672.89556159461927,779.25692600386992,-779.25692600386992,672.89556159461927,3467.8294932378367,0.0
628204.59901257406,4057374.0504322448,-32500.0,39.811836396240395,-699.12302692620233,1702.1957237636932,-380.34006822675559,1492.9466157740362,898.71277710920333,1691.8698798283081,-489.28876713704869,391.90124737190195,-391.90124737190195,489.28876713704869,3265.022426528732,0.0
633204.59901257406,4057374.0504322448,-32500.0,189.96831849195576,-895.58042464040614,1331.3263909242992,-522.80068507349552,1252.5765675985488,775.93098880439129,1558.3871851972419,-238.11199130550523,2.5406133092507588,-2.5406133092507588,238.11199130550523,2985.0051942382206,0.0
638204.59901257406,4057374.0504322448,-32500.0,361.79201148024185,-988.55430774791273,903.01770592470734,-604.4878964353527,969.28765302857983,629.64367708221289,1406.1252451100322,40.236176928361601,-340.02076230229073,340.02076230229073,-40.236176928361601,2658.2311666259288,0.0
643204.59901257406,4057374.0504322448,-32500.0,521.00927070101261,-975.78812812461911,468.12318785435565,-622.26890964273446,673.99594259380171,474.89467335540252,1250.8693375282191,303.1744232117677,-599.87399468120498,599.87399468120498,-303.1744232117677,2320.2240120343968,0.0
648204.59901257406,4057374.0504322448,-32500.0,639.71362061495893,-873.34857322044854,71.149624456506587,-583.57507299864619,394.81979981680024,325.70554788706301,1106.3339849343313,516.39864296921303,-760.32492289657114,760.32492289657114,-516.39864296921303,2005.2115136081306,0.0
653204.59901257406,4057374.0504322448,-32500.0,702.10940914743605,-708.76826099193818,-257.47148241059233,-502.93849956903011,152.3212640823632,192.74389788311666,982.25911958041615,660.17977476319447,-823.69292826908031,823.69292826908031,-660.17977476319447,1739.8204933184147,0.0
658204.59901257406,4057374.0504322448,-32500.0,705.4867135238843,-512.72858699477513,-503.71297450899533,-397.52202976698356,-42.323511241738608,82.302834181098945,882.9430848284436,730.21159691547996,-806.14072082016787,806.14072082016787,-730.21159691547996,1537.8833582394254,0.0
663204.59901257406,4057374.0504322448,-32500.0,657.41594815060478,-312.33984887532307,-667.72786071280609,-283.28962492244858,-186.52571887434485,-3.4870434043223959,807.20680613251193,734.26336176921086,-730.60955960622914,730.60955960622914,-734.26336176921086,1398.1453717887205,0.0
668204.59901257406,4057374.0504322448,-32500.0,571.27848298552112,-127.46700782192211,-759.25862986999664,-172.69250466773667,-283.9581647441795,-65.676023845098314,750.0708398999368,687.04842763669933,-620.58612457125935,620.58612457125935,-687.04842763669933,1307.1559882615882,0.0
673204.59901257406,4057374.0504322448,-32500.0,462.03178413531015,30.052390670096283,-792.7965630781639,-73.91084799903787,-341.86695043511014,-107.27048705327329,705.28165007075563,605.40953929389116,-496.07450638539603,496.07450638539603,-605.40953929389116,1246.6112237745624,0.0
678204.59901257406,4057374.0504322448,-32500.0,343.23436800141309,155.29408147508352,-783.77102977332129,8.7988234747148724,-368.79514782664654,-132.14012152492131,667.36512127527601,504.92938196742671,-371.86347052795145,371.86347052795145,-504.92938196742671,1200.4095353394378,0.0
683204.59901257406,4057374.0504322448,-32500.0,225.51623328987722,248.3261238504856,-746.16786823585335,74.206521738966032,-373.02865939949396,-144.22911248344144,632.53793715099505,398.15187943167814,-257.4739905231562,257.4739905231562,-398.15187943167814,1157.8318085730707,0.0
688204.59901257406,4057374.0504322448,-32500.0,116.19313827867043,312.26150709489042,-691.41009577854891,123.09601729685946,-361.74424444312217,-147.0876950151972,598.68526037135132,294.07416736700543,-158.02194124903036,158.02194124903036,-294.07416736700543,1113.3147167049951,0.0
693204.59901257406,4057374.0504322448,-32500.0,19.580947424378181,351.68272787585329,-628.11618887277154,157.38430842925868,-340.68784576084317,-143.66027891470759,564.92292649705587,198.42104002246498,-75.390168436735564,75.390168436735564,-198.42104002246498,1064.8871832941372,0.0
698204.59901257406,4057374.0504322448,-32500.0,-62.375380564803628,371.54927457586319,-562.35459030415097,179.46730248536687,-314.18510879510097,-136.24472886927362,531.11643361191409,114.280495002333,-9.3448788158128337,9.3448788158128337,-114.280495002333,1012.626154345582,0.0
703204.59901257406,4057374.0504322448,-32500.0,-129.41573690351441,376.54005192575528,-498.10979438778116,191.79140580383873,-285.321870396804,-126.54740143550312,497.50962232928066,42.818361357758029,41.566926334440602,-41.566926334440602,-42.818361357758029,957.56244962304027,0.0
708204.59901257406,4057374.0504322448,-32500.0,-182.35880894771719,370.72318088283282,-437.78528273614688,196.60803075518433,-256.18580851614172,-115.78007809610584,464.48549689210466,-16.079432959542874,79.373465022030331,-79.373465022030331,16.079432959542874,901.02501109774846,0.0
548204.59901257406,4062374.0504322448,-32500.0,531.03354494064354,47.031826197329117,-267.02570373276757,209.81373507394659,-30.814855649613168,58.831979388910263,444.19908832999795,477.70762306510471,-198.34848706512796,198.34848706512796,-477.70762306510471,790.3025436917053,0.0
553204.59901257406,4062374.0504322448,-32500.0,617.29171209795879,119.38941979372974,-252.24160898197701,270.27442163553809,4.9789560859666917,88.128868585402827,507.67902102069161,530.59709348374236,-146.26052482272604,146.26052482272604,-530.59709348374236,915.40015641765308,0.0
558204.59901257406,4062374.0504322448,-32500.0,703.84335232796582,208.84626168252356,-218.85800147331048,340.88993042816253,56.750423716486836,126.96398670478848,583.74876273562791,576.08517734771158,-70.128955488297464,70.128955488297464,-576.08517734771158,1068.1807749544221,0.0
563204.59901257406,4062374.0504322448,-32500.0,785.32752516319647,315.77351872713842,-160.16796108773445,421.18038317366234,128.92336348328146,177.60019719778089,674.48089382534954,607.93050177029022,34.9767869852937,-34.9767869852937,-607.93050177029022,1252.9453164718125,0.0
568204.59901257406,4062374.0504322448,-32500.0,854.51943960864958,438.64746002981582,-68.44863502748214,509.34377585394924,226.33872632846271,242.42931699579441,781.83929786766225,618.32488089563697,173.34745066724952,-173.34745066724952,-618.32488089563697,1473.3636444236163,0.0
573204.59901257406,4062374.0504322448,-32500.0,902.43675666069407,573.05578441071611,64.453323255900997,601.68109347920097,353.7903496307236,323.70589090328269,907.46085733739199,598.247357646502,347.49507957741969,-347.49507957741969,-598.247357646502,1731.7392462789244,0.0
578204.59901257406,4062374.0504322448,-32500.0,918.93917823099548,710.6100845568825,245.96474865891872,692.00386484837611,515.20450259157064,423.10253328227196,1052.3764947146888,538.38189278257585,556.53839754578337,-556.53839754578337,-538.38189278257585,2028.023259291062,0.0
583204.59901257406,4062374.0504322448,-32500.0,894.05227245312881,838.01750612654541,480.88632047844214,771.181854354743,712.37703866546769,541.05039724798667,1216.4538946204057,430.80663679716031,794.18092940881752,-794.18092940881752,-430.80663679716031,2358.5791457541941,0.0
588204.59901257406,4062374.0504322448,-32500.0,820.19438327684497,936.76713632917995,768.69071456150482,827.10261047801373,943.26374710800735,675.87414042359569,1396.9572650069977,271.5707655669558,1046.5829424169292,-1046.5829424169292,-271.5707655669558,2714.8078414749721,0.0
593204.59901257406,4062374.0504322448,-32500.0,695.25608309117604,984.08225390033112,1100.2416024247434,845.4104083721013,1199.9939207377624,822.81789201121148,1586.5342384425089,63.995099159989991,1290.7802051285134,-1290.7802051285134,-63.995099159989991,3081.8810413497954,0.0
598204.59901257406,4062374.0504322448,-32500.0,526.03722641187767,955.86064760631211,1454.6423884830322,811.41392158265364,1467.0693824742814,973.20146252697805,1772.8414957981281,-177.96419909705082,1494.7040484586346,-1494.7040484586346,177.96419909705082,3438.0355570379757,0.0
603204.59901257406,4062374.0504322448,-32500.0,330.89243079280527,832.04593403034221,1797.5624469277584,713.36808521616513,1720.5727703200607,1114.1147219729728,1939.9252509739108,-427.6250846170434,1620.0990543346961,-1620.0990543346961,427.6250846170434,3755.0665508234483,0.0
608204.59901257406,4062374.0504322448,-32500.0,139.81752431767089,603.99976986071852,2082.8818957403255,546.82551406594564,1929.4611541737258,1229.1636891988646,2070.0596885392461,-646.65164457829746,1629.3151875807819,-1629.3151875807819,646.65164457829746,4000.6833326544365,0.0
613204.59901257406,4062374.0504322448,-32500.0,-9.8170130375238074,281.98201846949632,2259.3219388374373,318.94180220987624,2059.8832042016084,1300.7036195938269,2146.3346033933112,-791.0235909016792,1495.6905508898117,-1495.6905508898117,791.0235909016792,4143.1596804124947,0.0
618204.59901257406,4062374.0504322448,-32500.0,-82.464298579604602,-100.71104596085725,2282.1914369569313,50.773597125161523,2082.5151541219193,1313.5256164280611,2156.2618584780089,-822.10176864823052,1214.9390945748087,-1214.9390945748087,822.10176864823052,4157.8984056140562,0.0
623204.59901257406,4062374.0504322448,-32500.0,-56.435941723475771,-490.69072651154107,2127.5256695883722,-224.50792423279995,1981.2676774084091,1259.1897682641886,2095.7610723294811,-720.03235736783688,812.69002322592826,-812.69002322592826,720.03235736783688,4034.4877869451529,0.0
628204.59901257406,4062374.0504322448,-32500.0,66.218270445251434,-826.01608484553947,1802.9751576406259,-468.32357198685611,1760.0358069928204,1139.4012650500949,1971.9536985451605,-493.78922839234002,342.99428492801025,-342.99428492801025,493.78922839234002,3781.8322299152196,0.0
633204.59901257406,4062374.0504322448,-32500.0,257.65583715367751,-1053.2570810259681,1349.4080996518658,-646.61770516185049,1443.9392409169716,966.71740680380708,1802.5602141750055,-181.8829306729418,-124.05752605206467,124.05752605206467,181.8829306729418,3428.9718779495079,0.0
638204.59901257406,4062374.0504322448,-32500.0,472.37353232855241,-1142.9250051746897,830.93038947271839,-739.04511247123469,1073.6109984773461,761.85373938290172,1611.0233992851543,158.21387320407916,-521.56804875968555,521.56804875968555,-158.21387320407916,3020.5767929573663,0.0
643204.59901257406,4062374.0504322448,-32500.0,662.12482294947881,-1096.1119759046321,317.15641900439209,-743.34553593553164,694.60307432301443,548.51576641007216,1420.5054665679745,467.56115785147585,-803.50211754880479,803.50211754880479,-467.56115785147585,2608.1048912318602,0.0
648204.59901257406,4062374.0504322448,-32500.0,790.36888307939387,-940.00115754474291,-134.32374563965351,-673.38602217475989,346.46918933828954,347.91208761200926,1249.7207122449654,701.95726362817913,-953.28973655312507,953.28973655312507,-701.95726362817913,2238.9647980231566,0.0
653204.59901257406,4062374.0504322448,-32500.0,840.06943931576188,-715.87604324541257,-488.41215804354948,-552.65411606826558,55.673861111131941,174.99094362555238,1109.9508677408198,840.27008349468372,-981.40007090250958,981.40007090250958,-840.27008349468372,1945.9347876948034,0.0
658204.59901257406,4062374.0504322448,-32500.0,813.29272246026562,-466.05373503269476,-733.82881360847216,-406.69909733009553,-166.13288758354886,37.258360570008477,1003.5550331461742,883.55726429843173,-915.5953818046022,915.5953818046022,-883.55726429843173,1739.4901644803854,0.0
663204.59901257406,4062374.0504322448,-32500.0,725.26879137121625,-224.68312391527101,-877.77329751147806,-257.40734004194633,-319.61755728655959,-64.256937198454224,925.34309432611519,848.16397833356564,-789.62990451095925,789.62990451095925,-848.16397833356564,1607.5263994929508,0.0
668204.59901257406,4062374.0504322448,-32500.0,596.95967063967828,-13.961164229151493,-938.10786566926561,-120.2277731766938,-413.35971414100339,-132.95495464826067,866.43748143805692,757.31189246119141,-634.63801298770511,634.63801298770511,-757.31189246119141,1524.8892124201661,0.0
673204.59901257406,4062374.0504322448,-32500.0,449.0447149792887,155.36827657946611,-936.33610258267697,-3.9218984178527205,-459.54027747551709,-174.51998059928405,818.24629398206162,634.33859657762309,-474.61549494657783,474.61549494657783,-634.33859657762309,1466.3676958073931,0.0
678204.59901257406,4062374.0504322448,-32500.0,298.42256609355019,281.28216213252909,-892.86624895782415,88.209674162301425,-470.76421021137264,-195.24363325878087,774.62376102820429,498.73814850144367,-325.37317791882515,325.37317791882515,-498.73814850144367,1414.3319852457732,0.0
683204.59901257406,4062374.0504322448,-32500.0,156.97592899609785,367.24973251640813,-824.60768868058938,156.60943299451628,-458.21620648358839,-200.97448776632476,732.14357732260692,364.6950538845478,-195.56308482565674,195.56308482565674,-364.6950538845478,1359.5438762976542,0.0
688204.59901257406,4062374.0504322448,-32500.0,31.812959071824086,419.48601370859905,-744.27706899554994,203.86944219569435,-430.88884374785135,-196.60927128426536,689.42783147379441,241.2448692073084,-88.519097628966279,88.519097628966279,-241.2448692073084,1298.7708089929583,0.0
693204.59901257406,4062374.0504322448,-32500.0,-73.784677084823883,445.02176595270396,-660.69240492431152,233.52363962623178,-395.49959596953317,-185.95639684892288,646.32495668964873,133.22431569314352,-4.1154520423851721,4.1154520423851721,-133.22431569314352,1232.1531987062233,0.0
698204.59901257406,4062374.0504322448,-32500.0,-159.24246479196864,450.54834471335812,-579.49456111923666,249.25830729033109,-356.76339599390923,-171.81022171023582,603.27353624145633,42.430587924513844,59.725294912652188,-59.725294912652188,-42.430587924513844,1161.3350304650558,0.0
703204.59901257406,4062374.0504322448,-32500.0,-225.69004657823243,441.84896893192928,-503.95251669445645,254.46688455447713,-317.79539050692233,-156.11859277483589,560.90439812871125,-31.323089465898505,105.96393752166207,-105.96393752166207,31.323089465898505,1088.3762055327945,0.0
708204.59901257406,4062374.0504322448,-32500.0,-275.18398109113747,423.61154892419557,-435.68129596889895,252.04683462331954,-280.5158514407554,-140.17162604076367,519.82856918276138,-89.377826734876464,137.76630319598291,-137.76630319598291,89.377826734876464,1015.2080215234201,0.0
713204.59901257406,4062374.0504322448,-32500.0,-310.16401627855362,399.45820903579926,-375.21118754510985,244.34715351962387,-245.99834571143504,-124.77450287190996,480.54469138633772,-133.63876419919262,158.11913191649313,-158.11913191649313,133.63876419919262,943.40988148126735,0.0
543204.59901257406,4067374.0504322448,-32500.0,421.20613716019602,-87.0719370365901,-320.57467519055979,131.91935867039066,-95.599921063549928,21.886146369513561,412.78085524142182,425.38137181769059,-317.66645576588087,317.66645576588087,-425.38137181769059,718.23260467359239,0.0
548204.59901257406,4067374.0504322448,-32500.0,515.56542161717005,-36.916447726320904,-333.70194829563076,185.29766340572553,-78.689791487710295,43.049620044970624,466.53438781976263,495.40077689143396,-300.28188995267629,300.28188995267629,-495.40077689143396,817.86575345392555,0.0
553204.59901257406,4067374.0504322448,-32500.0,618.26223647194774,30.813483796341202,-336.25321493459467,251.05697550046142,-49.563972733839634,72.722932674721406,531.46224633599513,566.61486141643388,-264.2824589515908,264.2824589515908,-566.61486141643388,941.9629363781678,0.0
558204.59901257406,4067374.0504322448,-32500.0,726.07681162226322,118.88425388961588,-322.44065847768485,330.42922672165133,-3.6848452009395172,113.53586842688003,610.16958037631423,634.48137869651134,-203.68902744447715,203.68902744447715,-634.48137869651134,1096.5067101665945,0.0
563204.59901257406,4067374.0504322448,-32500.0,833.69782102759291,229.24683844814231,-284.74770357636396,423.87283606895414,64.534001897019166,168.62885714703265,705.55538881963798,692.39804019434416,-111.86373949307551,111.86373949307551,-692.39804019434416,1287.8487902342938,0.0
568204.59901257406,4067374.0504322448,-32500.0,933.26841804817059,362.12210237344925,-213.91047074645684,530.4559645556734,161.62577034411078,241.55630405781184,820.648712176809,731.4337866788361,17.843993980372488,-17.843993980372488,-731.4337866788361,1522.131409649639,0.0
573204.59901257406,4067374.0504322448,-32500.0,1014.1680865950602,514.72577184829163,-99.291295774964809,647.03862363903283,294.67430792505428,336.02128122906259,958.35948677840963,740.39444006816973,190.90563017210104,-190.90563017210104,-740.39444006816973,1804.4083817325795,0.0
578204.59901257406,4067374.0504322448,-32500.0,1063.3165364764218,679.68120717412728,70.078376821446085,767.30371866542123,470.44901514278331,455.35176163941054,1121.1338803531801,706.52338381952279,409.712099844303,-409.712099844303,-706.52338381952279,2137.386451458905,0.0
583204.59901257406,4067374.0504322448,-32500.0,1066.387720055515,843.35219424216905,303.46015581022704,880.8053978153132,693.87997476776286,601.62650343439361,1310.3414716052171,617.21474158503986,670.90252615789871,-670.90252615789871,-617.21474158503986,2519.7368491610632,0.0
588204.59901257406,4067374.0504322448,-32500.0,1010.3383724234188,984.62231191587273,605.10846350633369,972.37932441574856,965.73755394108389,774.39436351692927,1524.6771205444006,463.08575861415744,962.12755315447612,-962.12755315447612,-463.08575861415744,2944.014996136872,0.0
593204.59901257406,4067374.0504322448,-32500.0,887.47712719392132,1075.0348814011188,969.72179142752759,1022.4843914664422,1279.5845665923339,969.0466317262825,1757.2268767697321,242.49824548113071,1258.9478076303067,-1258.9478076303067,-242.49824548113071,3394.4428235870046,0.0
598204.59901257406,4067374.0504322448,-32500.0,700.74396111183796,1081.5314308662805,1377.2955842880795,1009.2119510064376,1618.4870106923699,1175.1220656660214,1993.6767273758503,-33.031087823265125,1523.2738303761453,-1523.2738303761453,33.031087823265125,3845.1232767786337,0.0
603204.59901257406,4067374.0504322448,-32500.0,468.84401641263815,972.96672177075175,1789.0775361220321,912.62240328448172,1952.6346758390202,1375.1656695223362,2213.3617114374242,-334.19701842598806,1705.4620840339171,-1705.4620840339171,334.19701842598806,4259.6780945516248,0.0
608204.59901257406,4067374.0504322448,-32500.0,228.55482700970813,730.59071163518752,2147.5006545019351,721.43177457663353,2239.7212405454948,1545.0988996001922,2391.6128454217283,-613.00919809606307,1752.2676630105095,-1752.2676630105095,613.00919809606307,4593.5822747673728,0.0
613204.59901257406,4067374.0504322448,-32500.0,30.727487995733664,360.38066527797594,2383.4265493478629,440.67807230824832,2430.1535983557928,1657.1464204902497,2503.3437215192603,-809.15351116189663,1621.3993689520696,-1621.3993689520696,809.15351116189663,4800.32403262342,0.0
618204.59901257406,4067374.0504322448,-32500.0,-72.296962889231693,-98.065089843098647,2432.3295418290732,97.134736616453267,2478.0147498716315,1685.7518125406834,2528.539061997205,-865.42359983013569,1299.7419790247836,-1299.7419790247836,865.42359983013569,4841.4317018680804,0.0
623204.59901257406,4067374.0504322448,-32500.0,-45.778112143577786,-573.18320930484526,2256.3252580670842,-261.78961630369321,2355.7303199039643,1615.4028628444883,2458.8642546182527,-749.08659285737224,817.49624868680019,-817.49624868680019,749.08659285737224,4698.3620807673551,0.0
628204.59901257406,4067374.0504322448,-32500.0,110.00692243568655,-977.94685474716698,1862.8887210198061,-578.24272319971442,2066.6176152694334,1447.3674119375862,2302.8892590330547,-469.72873441510978,248.34362158989836,-248.34362158989836,469.72873441510978,4381.9917862372213,0.0
633204.59901257406,4067374.0504322448,-32500.0,354.96588023538737,-1237.1283170402214,1308.8908975438169,-800.85337582487739,1648.0873532766811,1201.6001375706514,2086.2456983853435,-82.002415567519961,-309.26300752720056,309.26300752720056,82.002415567519961,3934.8787128739173,0.0
638204.59901257406,4067374.0504322448,-32500.0,622.41465714714673,-1312.4812423986805,684.7979275055136,-900.79391130943134,1162.0028371307353,911.91144835714192,1844.3818876280102,331.432032534212,-763.20607021794228,763.20607021794228,-331.432032534212,3423.8139749917436,0.0
643204.59901257406,4067374.0504322448,-32500.0,844.13167176921206,-1212.3681550032065,85.891297437084091,-878.76586163227307,676.13691725640365,616.26816361766373,1611.7070697644237,688.83320796897272,-1055.6031630230227,1055.6031630230227,-688.83320796897272,2924.338604374766,0.0
648204.59901257406,4067374.0504322448,-32500.0,973.28647604597279,-982.0711922797401,-414.71688624095952,-760.17958458463136,245.8742822598372,346.8712988301499,1413.3716672726928,934.61040075193068,-1173.9421070911621,1173.9421070911621,-934.61040075193068,2501.570687869611,0.0
653204.59901257406,4067374.0504322448,-32500.0,994.35104107332199,-682.79976779370418,-779.50834183868778,-582.82402966052166,-96.062306361141111,124.1618972419988,1260.7026161253775,1049.4985911915496,-1143.4750956117628,1143.4750956117628,-1049.4985911915496,2192.166758289698,0.0
658204.59901257406,4067374.0504322448,-32500.0,919.00381691266443,-371.517454705099,-1004.68375352615,-384.1754598370091,-340.05011380752006,-44.036789013145381,1150.8924065807955,1045.3167676829603,-1009.4072329096222,1009.4072329096222,-1045.3167676829603,1994.7887313827289,0.0
663204.59901257406,4067374.0504322448,-32500.0,774.52442124906781,-89.200206657756965,-1109.1633650851818,-193.25284992107598,-493.49786613063338,-159.73781504408979,1072.0383823608131,951.78052098952685,-819.47244022692075,819.47244022692075,-951.78052098952685,1878.2432465064937,0.0
668204.59901257406,4067374.0504322448,-32500.0,592.03347173248858,141.76172215210281,-1122.0455600258506,-27.955344249003517,-572.94741752441189,-230.73394021582911,1010.5335003655834,803.40174285920727,-612.91378835020475,612.91378835020475,-803.40174285920727,1803.3759074595507,0.0
673204.59901257406,4067374.0504322448,-32500.0,398.62588116836275,314.34318769623059,-1073.1552201899672,103.7634176369104,-597.53740437543945,-267.00946570456296,956.07989222274682,630.75838228161513,-416.47174172342091,416.47174172342091,-630.75838228161513,1740.5254407086045,0.0
678204.59901257406,4067374.0504322448,-32500.0,213.94634956209902,431.62218741891229,-987.83658734291828,201.06559813888103,-584.93452948326467,-278.33532767688052,902.90204262726843,456.6300872520921,-245.10383482518733,245.10383482518733,-456.6300872520921,1673.8065094124854,0.0
683204.59901257406,4067374.0504322448,-32500.0,49.95050177032256,501.91375650800887,-885.15654956613332,267.30154866705931,-549.48434748006127,-273.03048137008199,848.76059364521734,295.60023514299837,-104.81939719131822,104.81939719131822,-295.60023514299837,1597.6926716986168,0.0
688204.59901257406,4067374.0504322448,-32500.0,-87.713989674068571,535.26769881598125,-778.13259151396051,307.71791680590434,-501.83545593370326,-257.55881181651273,793.498597932086,155.42692038666374,4.1746215369982735,-4.1746215369982735,-155.42692038666374,1512.4096787563035,0.0
693204.59901257406,4067374.0504322448,-32500.0,-197.8539451391992,541.37921255632102,-674.85483278432093,327.95675814984747,-449.33624522397315,-236.60744277213757,737.90995470462292,38.952047548221472,84.876542165532456,-84.876542165532456,-38.952047548221472,1420.6324902843348,0.0
698204.59901257406,4067374.0504322448,-32500.0,-282.03194606998534,528.58020700907389,-579.79994614062684,333.22229365451949,-396.71810574102045,-213.37975671624622,683.0550846538614,-54.124159983600691,141.67235740764812,-141.67235740764812,54.124159983600691,1325.62418997697,0.0
703204.59901257406,4067374.0504322448,-32500.0,-343.26044819040305,503.52031248684875,-494.99592837722452,327.91200500871344,-346.79319546197962,-189.94009146257949,629.91556069193052,-125.86286411468188,179.21574331396675,-179.21574331396675,125.86286411468188,1230.3529783311942,0.0
708204.59901257406,4067374.0504322448,-32500.0,-385.10978650527653,471.22681509313878,-420.92670091053287,315.52993895305656,-301.04896260900944,-167.52999249343486,579.2587591667143,-179.12895938783177,201.82348984820462,-201.82348984820462,179.12895938783177,1137.1674676834964,0.0
713204.59901257406,4067374.0504322448,-32500.0,-411.1585966341155,435.3345006420584,-357.17688476314106,298.74828852984399,-260.10591267879988,-146.82493587518957,531.61361969555696,-216.98678323951742,213.20782656577057,-213.20782656577057,216.98678323951742,1047.7511085136612,0.0
543204.59901257406,4072374.0504322448,-32500.0,369.28598248095869,-175.02421931957244,-364.71907606495893,91.154915862987053,-140.89748972393122,0.92375149497697773,439.86716053634268,408.92767464917011,-404.24283740334016,404.24283740334016,-408.92767464917011,761.87847731889235,0.0
548204.59901257406,4072374.0504322448,-32500.0,473.43684343727352,-135.82674185720839,-393.63220834022485,144.75182828041682,-133.07315960850335,19.945618879346416,494.10937620483173,492.3492064967329,-406.05234415628365,406.05234415628365,-492.3492064967329,857.66322612159058,0.0
553204.59901257406,4072374.0504322448,-32500.0,591.05023830184325,-78.038285515950051,-415.64149159274848,213.25640953724874,-113.82135447861934,48.169031168790603,559.5357101593238,581.9005317581757,-391.32746695985315,391.32746695985315,-581.9005317581757,977.34586273814784,0.0
558204.59901257406,4072374.0504322448,-32500.0,719.88342041718079,2.4843715896293164,-425.11030270764695,299.02817825171786,-77.999191328041434,88.905236618359297,639.24076483386693,673.70193506829332,-353.23345268062644,353.23345268062644,-673.70193506829332,1128.3624092297002,0.0
563204.59901257406,4072374.0504322448,-32500.0,855.31811851065629,109.55517417097874,-414.21128463780144,403.87442189263606,-18.92334596108785,146.31402536827486,736.95387062559541,761.41030139493228,-283.5835130806181,283.5835130806181,-761.41030139493228,1319.3616259242917,0.0
568204.59901257406,4072374.0504322448,-32500.0,989.55924616237928,245.70658618481895,-372.60662860696368,528.32523476587596,71.721246230587852,225.40020706626018,856.94092148553011,835.59582475658567,-173.28939763905925,173.28939763905925,-835.59582475658567,1559.6323905019474,0.0
573204.59901257406,4072374.0504322448,-32500.0,1110.9454805582097,410.70302605855659,-287.46203180865507,670.56737407947776,203.67314429611298,331.81605540767066,1003.7761716027718,883.35578125689813,-13.443852112400975,13.443852112400975,-883.35578125689813,1858.0922409949951,0.0
578204.59901257406,4072374.0504322448,-32500.0,1203.7152919464529,599.45953200224494,-144.15324169708884,825.02555360275858,387.33147380567857,471.32546029837624,1181.9689247480248,888.54435247601418,202.65966423814615,-202.65966423814615,-888.54435247601418,2221.7364687712311,0.0
583204.59901257406,4072374.0504322448,-32500.0,1248.770054882661,799.49501352040159,71.837598034222239,980.71344059710907,632.10246942949993,648.74676486490876,1395.2994521130067,833.17511664969413,476.30632339624105,-476.30632339624105,-833.17511664969413,2653.4213866011164,0.0
588204.59901257406,4072374.0504322448,-32500.0,1226.1505180449747,988.42857008804685,371.2729481870407,1119.7323486722767,943.50196605331541,866.19434412561918,1645.0852625887246,700.67378023675383,798.9120417109134,-798.9120417109134,-700.67378023675383,3148.9090554827148,0.0
593204.59901257406,4072374.0504322448,-32500.0,1119.9108343080584,1132.6347237009943,755.38280877892498,1216.6829695954191,1318.8248037731314,1120.5452208598506,1926.2618111271186,481.52400765810455,1146.9171540471993,-1146.9171540471993,-481.52400765810455,3693.3109159900951,0.0
598204.59901257406,4072374.0504322448,-32500.0,925.55507090786034,1188.9117809766342,1208.2734987029319,1240.2102742267436,1741.707810140739,1400.3599747020446,2223.4499386996258,181.17588506826007,1477.6507664650749,-1477.6507664650749,-181.17588506826007,4257.5426996819915,0.0
603204.59901257406,4072374.0504322448,-32500.0,658.81731491748769,1111.4862416280398,1689.3225497155156,1158.1494156956774,2176.9575803956773,1683.0676279879983,2510.7859148137522,-171.47137601708528,1729.2275904650385,-1729.2275904650385,171.47137601708528,4796.154976348148,0.0
608204.59901257406,4072374.0504322448,-32500.0,362.19357664020379,865.95403043457372,2129.5675348542368,947.20437409112571,2568.5055825258073,1934.030051844569,2754.4745122401787,-519.13705370696493,1828.5866602964563,-1828.5866602964563,519.13705370696493,5248.7272809584365,0.0
613204.59901257406,4072374.0504322448,-32500.0,103.17431463145809,448.63705428578038,2438.0100989292996,606.03301810354162,2844.5822928329685,2109.7450811295134,2917.4810853914823,-781.11291100261451,1710.762670969194,-1710.762670969194,781.11291100261451,5547.3750630260292,0.0
618204.59901257406,4072374.0504322448,-32500.0,-41.752198610932759,-96.022559763190301,2522.7102232753236,166.85692299788533,2933.3719411312622,2166.9639478232057,2967.7330121536743,-873.53572236694356,1347.2007951003416,-1347.2007951003416,873.53572236694356,5631.6891338121441,0.0
623204.59901257406,4072374.0504322448,-32500.0,-16.900812797010005,-672.88460629717315,2324.4825704952341,-302.76144574165011,2787.5299138422833,2076.8227420011535,2889.1715971453486,-742.91402940042667,771.56102256802524,-771.56102256802524,742.91402940042667,5468.8050387645235,0.0
628204.59901257406,4072374.0504322448,-32500.0,181.72217403852036,-1158.9848449145347,1848.9943904888992,-714.95500202237054,2407.7478076023413,1838.5636779368924,2691.5886503295114,-397.91062042202134,84.492690130903526,-84.492690130903526,397.91062042202134,5071.2407454480735,0.0
633204.59901257406,4072374.0504322448,-32500.0,495.67897381633668,-1447.5481765521897,1175.8818242881964,-990.91785518946551,1850.4967956942203,1484.4926476780245,2412.6621648767718,83.139043819973949,-574.62539227543891,574.62539227543891,-83.139043819973949,4502.5316711825517,0.0
638204.59901257406,4072374.0504322448,-32500.0,825.99667126045506,-1489.8641566632593,433.41004659119955,-1089.8087466709135,1211.4371820950605,1071.1064566640714,2106.960332146647,580.20937919412813,-1078.8720595481138,1078.8720595481138,-580.20937919412813,3864.6222267478006,0.0
643204.59901257406,4072374.0504322448,-32500.0,1076.1876905257666,-1308.9318178026367,-248.88665165950289,-1019.9330483550841,592.11602636043369,660.21660296016103,1826.0955218945719,980.33343649394442,-1358.231377243668,1358.231377243668,-980.33343649394442,3269.5815159056342,0.0
648204.59901257406,4072374.0504322448,-32500.0,1188.717976721676,-979.06903139545341,-781.47728148990632,-827.31463210306674,69.002420386214283,300.61141440202471,1602.5570245883914,1216.7864216030327,-1412.4045746813797,1412.4045746813797,-1216.7864216030327,2804.2860574291863,0.0
653204.59901257406,4072374.0504322448,-32500.0,1155.7559234052301,-589.31633123694917,-1130.1251334962917,-572.18064437120506,-320.47029491044447,18.874460525773717,1443.4336813765788,1279.276832279643,-1291.9380041032384,1291.9380041032384,-1279.276832279643,2500.2265459210598,0.0
658204.59901257406,4072374.0504322448,-32500.0,1006.5177743758572,-213.37255315761692,-1306.2830811347053,-308.08462014991744,-574.01618692542957,-179.54209910444266,1335.1201747162058,1199.0109695698025,-1066.7934112807466,1066.7934112807466,-1199.0109695698025,2328.6221715979382,0.0
663204.59901257406,4072374.0504322448,-32500.0,786.00693999967712,103.41513996591627,-1346.5727420779297,-71.396296090927166,-711.4245661795768,-303.45476006764994,1256.17996255047,1025.0794318468129,-801.00206265868678,801.00206265868678,-1025.0794318468129,2230.9661846964259,0.0
668204.59901257406,4072374.0504322448,-32500.0,537.70218113639999,342.68864722728864,-1294.153390117905,119.58278248739767,-761.23828586708464,-368.32518161177461,1188.7857641743071,805.52451533816225,-540.48673523191815,540.48673523191815,-805.52451533816225,2156.508052350378,0.0
673204.59901257406,4072374.0504322448,-32500.0,294.60531753011622,505.0003717489268,-1187.3636570178428,260.35705600252351,-751.62923067938743,-390.64156131867969,1122.7472029099436,577.55020435026574,-311.67950258854648,311.67950258854648,-577.55020435026574,2076.9096585072339,0.0
678204.59901257406,4072374.0504322448,-32500.0,77.25713972002977,601.10972892427037,-1055.224010327358,354.81759337924052,-705.90777238130784,-384.83617361003655,1054.2266692746441,365.2300725727568,-125.61892020666113,125.61892020666113,-365.2300725727568,1982.2548928403055,0.0
683204.59901257406,4072374.0504322448,-32500.0,-104.4208850675776,645.45752846235393,-917.24622772850023,410.76926021218969,-641.30935012138855,-362.15197795982004,983.08202000746917,181.3150988261317,16.652434072785681,-16.652434072785681,-181.3150988261317,1872.8303330072695,0.0
688204.59901257406,4072374.0504322448,-32500.0,-248.02116762240513,652.26775358888926,-785.17143951737444,436.98251408721205,-569.52029142682636,-330.64904547720619,910.76424126736981,30.415834136518733,119.49909409793497,-119.49909409793497,-30.415834136518733,1753.0701927618688,0.0
693204.59901257406,4072374.0504322448,-32500.0,-355.70297131020754,633.70105150218251,-665.1515652270482,441.58110525381619,-497.85424206563982,-295.72073853709611,839.09165672055951,-87.944527164862663,189.51743232394426,-189.51743232394426,87.944527164862663,1628.2527269198445,0.0
698204.59901257406,4072374.0504322448,-32500.0,-431.94349465619774,599.29610668764997,-559.67694712437344,431.35241552021085,-430.48409669224151,-260.74029761341347,769.67380435289942,-176.97873554237918,233.64344097577577,-233.64344097577577,176.97873554237918,1503.0324704084298,0.0
703204.59901257406,4072374.0504322448,-32500.0,-482.04231146766364,556.08819436231374,-469.03385963875803,411.60055758767629,-369.47809795076063,-227.65395480228668,703.71269086419909,-241.05121589265107,258.18674211968852,-258.18674211968852,241.05121589265107,1380.9644993573111,0.0
708204.59901257406,4072374.0504322448,-32500.0,-511.23639140640182,509.00999780031526,-392.30568745459226,386.27056962268279,-315.57754037160458,-197.45408563213775,641.98883887896034,-284.71991215614366,268.44488940357155,-268.44488940357155,284.71991215614366,1264.4925629117129,0.0
713204.59901257406,4072374.0504322448,-32500.0,-524.24485614037053,461.35732336829432,-328.0129847260423,358.17868811094775,-268.74001035716765,-170.52731937099614,584.92046949456414,-312.22171787616804,268.64179769417052,-268.64179769417052,312.22171787616804,1155.1206109373445,0.0
718204.59901257406,4072374.0504322448,-32500.0,-525.08574783128938,415.21620032186848,-274.49692890437171,329.25896399210922,-228.49863844548062,-146.89649647758367,532.63588504472773,-327.24184858255944,262.02349373909578,-262.02349373909578,327.24184858255944,1053.629264321213,0.0
538204.59901257406,4077374.0504322448,-32500.0,196.52872335826015,-280.34109270924921,-353.16349467643164,-1.9415134563975074,-179.09548335119453,-34.980340411815369,427.78769041541238,286.00281804885412,-453.84416742382371,453.84416742382371,-286.00281804885412,748.67183738593621,0.0
543204.59901257406,4077374.0504322448,-32500.0,288.25315633196635,-270.25893494484399,-396.76393801868409,34.734116973413087,-188.42045884670142,-26.596454491326902,474.75596976141668,367.51170308127337,-485.1250214177777,485.1250214177777,-367.51170308127337,825.80093954833865,0.0
548204.59901257406,4077374.0504322448,-32500.0,398.11350001774991,-246.62024130704893,-441.18952449714334,84.996768339862399,-191.97254378932087,-11.749627050254416,529.8298939365684,461.59719788329744,-508.98575959791242,508.98575959791242,-461.59719788329744,918.21366934011155,0.0
553204.59901257406,4077374.0504322448,-32500.0,526.93615069131397,-204.74700463657197,-483.36953095139069,152.26338090606637,-185.90213750006103,12.481890358452542,595.4298834771937,567.46448552136053,-520.10260452964917,520.10260452964917,-567.46448552136053,1031.8042099030386,0.0
558204.59901257406,4077374.0504322448,-32500.0,674.04811327789753,-139.22729882746231,-518.3861599415809,240.22055487833876,-164.74208032517211,50.062202544961998,674.83380315659463,682.53312306196347,-511.28616361345814,511.28616361345814,-682.53312306196347,1174.6855123997213,0.0
563204.59901257406,4077374.0504322448,-32500.0,836.342609190453,-44.311803031770076,-538.82209612569363,352.41562818985244,-120.97566744818104,106.22664896019829,772.34804173023417,801.55967531409715,-473.2802063274612,473.2802063274612,-801.55967531409715,1357.3886148845738,0.0
568204.59901257406,4077374.0504322448,-32500.0,1007.1093365764959,85.227572618922224,-534.09381090625311,491.49627608261954,-44.66331338451068,187.64639066053627,893.39286116369772,915.61851511411487,-394.88308048690448,394.88308048690448,-915.61851511411487,1592.5919786150721,0.0
573204.59901257406,4077374.0504322448,-32500.0,1174.7633819091834,252.55064045598422,-489.97981990008844,657.95351662448081,76.687165337856229,302.40643054173989,1044.430676465332,1011.1279198340483,-263.71153081112578,263.71153081112578,-1011.1279198340483,1894.1549583684239,0.0
578204.59901257406,4077374.0504322448,-32500.0,1321.8143725736816,456.29755678638793,-388.74297536748702,848.24582785713324,257.68127101377399,459.59247989051721,1232.6806338439101,1069.3247844924183,-68.058609199390048,68.058609199390048,-1069.3247844924183,2275.288396103962,0.0
583204.59901257406,4077374.0504322448,-32500.0,1424.7368999699729,687.1625019376296,-210.50088147780892,1052.3037184546151,513.52709757241121,668.18315307872331,1465.4896396251681,1066.9012193557953,199.62366511677169,-199.62366511677169,-1066.9012193557953,2745.7180122598556,0.0
588204.59901257406,4077374.0504322448,-32500.0,1455.7813115453389,923.82744187346475,63.260077568758959,1250.7125152046131,856.79478702220797,934.86339248984189,1748.5511662314598,978.84434779394314,537.21314360920564,-537.21314360920564,-978.84434779394314,3307.6563209278788,0.0
593204.59901257406,4077374.0504322448,-32500.0,1388.052376910678,1129.3965052667468,443.08144466715447,1412.4459985967492,1291.7976304292422,1260.4041643520491,2081.0214828726953,784.68658722325472,925.54202178372316,-925.54202178372316,-784.68658722325472,3950.504287766792,0.0
598204.59901257406,4077374.0504322448,-32500.0,1204.9512706782118,1250.7298418875105,921.44378401243591,1494.8898884601431,1806.4189042854205,1634.5577228473223,2448.5864191395735,478.91827095226955,1320.6711800789296,-1320.6711800789296,-478.91827095226955,4644.7007832103654,0.0
603204.59901257406,4077374.0504322448,-32500.0,913.60805563460849,1224.4633292605306,1460.5321223069943,1448.8250377888362,2362.5766258143844,2030.2483681700849,2820.5796408306733,84.537588325440083,1649.6484709265305,-1649.6484709265305,-84.537588325440083,5336.2732599220226,0.0
608204.59901257406,4077374.0504322448,-32500.0,558.40558974815679,993.83081430281516,1982.6415794617888,1231.211579078333,2889.1616917096749,2399.4148183413949,3151.9025377081725,-335.07383923026475,1816.3544964098451,-1816.3544964098451,335.07383923026475,5945.4387807524245,0.0
613204.59901257406,4077374.0504322448,-32500.0,225.30319946918536,537.14282388842048,2372.4905689019579,826.27558760882016,3284.643687206471,2674.8624124556645,3388.5150839321782,-675.98946304329434,1724.8255922866322,-1724.8255922866322,675.98946304329434,6374.2846712467826,0.0
618204.59901257406,4077374.0504322448,-32500.0,24.239198227170093,-100.70120832910261,2502.2722695512066,268.73841852285113,3437.6415060658414,2783.2057432249917,3479.2023698509711,-817.63738623733911,1321.314976444595,-1321.314976444595,817.63738623733911,6528.0130624362901,0.0
623204.59901257406,4077374.0504322448,-32500.0,44.098911970864194,-795.32978229376704,2281.4603292282377,-346.1992446203825,3267.0608754915279,2670.0898623763292,3394.0135859301345,-673.79609096672073,639.83177280442089,-639.83177280442089,673.79609096672073,6348.5899363385379,0.0
628204.59901257406,4077374.0504322448,-32500.0,297.97466943268142,-1372.7418786689332,1711.108450332594,-883.6053708176072,2766.4762102338273,2328.6255899869388,3142.927530641055,-248.89136517915267,-182.31599947706547,182.31599947706547,248.89136517915267,5848.6423079681026,0.0
633204.59901257406,4077374.0504322448,-32500.0,699.69273869409164,-1680.7344829911681,903.08367315723945,-1220.5502666467555,2022.235449620616,1812.1822404010632,2782.3098775907565,343.85170251741062,-946.91274202945942,946.91274202945942,-343.85170251741062,5124.9266524103004,0.0
638204.59901257406,4077374.0504322448,-32500.0,1100.7180437736206,-1659.6068822836237,38.983145658678922,-1299.6769061336238,1184.3271109930529,1217.6337644837906,2397.6948716108213,929.0333876561275,-1480.2951619290698,1480.2951619290698,-929.0333876561275,4336.2819431075668,0.0
643204.59901257406,4077374.0504322448,-32500.0,1365.6003904260017,-1360.4367563140336,-708.34337949041947,-1146.9010284945662,405.13324247310851,647.15400668370364,2066.6954898635149,1352.5822185487998,-1704.2185362101202,1704.2185362101202,-1352.5822185487998,3649.4245860481833,0.0
648204.59901257406,4077374.0504322448,-32500.0,1429.4571648953433,-902.87094813899785,-1236.4889892185729,-844.7051630180282,-213.01480460592651,173.68329063209652,1827.3228326569556,1541.5912350753063,-1646.1304418729112,1646.1304418729112,-1541.5912350753063,3171.5367875211773,0.0
653204.59901257406,4077374.0504322448,-32500.0,1304.4945802931554,-412.30655795417158,-1526.0327313975192,-487.30497304873506,-634.03724900955547,-171.76974188596267,1672.519438476214,1508.3990451485415,-1397.1486477642784,1397.1486477642784,-1508.3990451485415,2905.3455785548558,0.0
658204.59901257406,4077374.0504322448,-32500.0,1049.2989757617411,21.981382537091061,-1614.858958016215,-147.81631914655119,-872.91674582810799,-392.58877187391198,1569.9629810755755,1315.9973323514669,-1059.259949187262,1059.259949187262,-1315.9973323514669,2772.7802945793101,0.0
663204.59901257406,4077374.0504322448,-32500.0,732.60848434933814,356.71915065694361,-1563.360673391785,132.50011891941472,-969.97064393274843,-511.10741828132387,1487.8444492473004,1038.8200298273259,-712.03261332668819,712.03261332668819,-1038.8200298273259,2686.9525337217733,0.0
668204.59901257406,4077374.0504322448,-32500.0,410.5650145600448,584.42507323135976,-1429.6648157542431,339.6044094368599,-970.17566533033369,-555.22420029091063,1407.2096539121744,738.43060059613174,-403.16683558303282,403.16683558303282,-738.43060059613174,2595.4372350579429,0.0
673204.59901257406,4077374.0504322448,-32500.0,119.22890350709952,717.97056154778579,-1258.5119943286541,476.74568146204416,-912.04903891667504,-550.500552165621,1321.0521426980658,455.47389949539269,-153.35625996924995,153.35625996924995,-455.47389949539269,2479.4754945535783,0.0
678204.59901257406,4077374.0504322448,-32500.0,-123.5905862139949,778.10195479669028,-1079.5531670549731,555.47287547145254,-824.06665832375586,-516.99347498643374,1229.2620485982457,211.43518549963156,34.416601841070644,-34.416601841070644,-211.43518549963156,2339.1852689372331,0.0
683204.59901257406,4077374.0504322448,-32500.0,-313.09579310625469,785.92023623835223,-909.98659030458714,589.62958140316096,-725.18406955906926,-468.91956394038425,1134.5196746483839,13.983827813557042,166.55144349003075,-166.55144349003075,-13.983827813557042,2182.0235296054889,0.0
688204.59901257406,4077374.0504322448,-32500.0,-452.25200264443487,759.3889444329061,-758.24701043557923,592.12671951763537,-626.89568068547214,-415.57556324929823,1040.0046479721973,-137.63917811791987,253.12273554213289,-253.12273554213289,137.63917811791987,2016.6934222696066,0.0
693204.59901257406,4077374.0504322448,-32500.0,-547.8135049591416,712.32869608786746,-627.25629076760731,573.61787722985912,-535.46446843641775,-362.58871742622978,948.41017615111764,-248.51715364259718,304.60883824094725,-304.60883824094725,248.51715364259718,1850.634935143476,0.0
698204.59901257406,4077374.0504322448,-32500.0,-607.75799375277961,654.64755536632674,-516.79821526001263,542.24461634154284,-453.76271999136424,-313.05695485147476,861.65161500813974,-325.38439347904364,330.32691306015181,-330.32691306015181,325.38439347904364,1689.318264173533,0.0
703204.59901257406,4077374.0504322448,-32500.0,-639.84059461517086,593.05145732902031,-425.08272853573322,503.89201220035966,-382.61674288692706,-268.44269291896427,780.89805231378409,-375.08914060698987,337.88724572963531,-337.88724572963531,375.08914060698987,1536.3381823033271,0.0
708204.59901257406,4077374.0504322448,-32500.0,-650.90143380450206,531.83009135291013,-349.69092327355645,462.61955724339555,-321.70985240886216,-229.21046320955742,706.71116270918958,-403.82665671787976,333.17749091669685,-333.17749091669685,403.82665671787976,1393.7737562620348,0.0
713204.59901257406,4077374.0504322448,-32500.0,-646.62769567161206,473.54895720748544,-288.10410694088887,421.10220837211068,-270.15458196449742,-195.25540225342405,639.20029781494713,-416.84007945966772,320.57918641295174,-320.57918641295174,416.84007945966772,1262.5870446134707,0.0
718204.59901257406,4077374.0504322448,-32500.0,-631.56173415106537,419.59546402448257,-237.97166506415752,381.01124997790942,-226.83582129899025,-166.17711785201189,578.16230283503842,-418.37917400619489,303.25432627541062,-303.25432627541062,418.37917400619489,1142.9691456389526,0.0
538204.59901257406,4082374.0504322448,-32500.0,86.540884774196712,-360.34076639540604,-359.26620864343823,-67.297594319335275,-215.4468750083515,-63.714794309732113,469.43928632301697,213.2992500742252,-503.31550128670011,503.31550128670011,-213.2992500742252,834.69219255480152,0.0
543204.59901257406,4082374.0504322448,-32500.0,174.34862159147607,-367.58235749869715,-412.42806347150491,-38.876066353533666,-235.38843644922886,-61.200526317689821,519.38211226881094,296.51016663126916,-553.15622360277257,553.15622360277257,-296.51016663126916,915.25028998356288,0.0
548204.59901257406,4082374.0504322448,-32500.0,283.81854445899069,-363.73300263864701,-470.47670669884667,3.4084739571462648,-252.16005905755529,-53.032829491607878,576.67580066385278,396.4602934578358,-600.3958944180398,600.3958944180398,-396.4602934578358,1007.9875064683092,0.0
553204.59901257406,4082374.0504322448,-32500.0,417.51206145021501,-343.73753533991953,-531.54184721241711,63.875878679294352,-262.23178371015115,-36.080930152715645,643.35350899071091,514.00853173022597,-640.36470611552431,640.36470611552431,-514.00853173022597,1117.5728657924926,0.0
558204.59901257406,4082374.0504322448,-32500.0,576.88322072213271,-301.27586487625933,-592.02872547578636,147.5990245939044,-260.24539652664214,-5.8814910345802263,722.37299473885605,648.51656699255818,-666.23582366945743,666.23582366945743,-648.51656699255818,1251.2434093860559,0.0
563204.59901257406,4082374.0504322448,-32500.0,761.22629582553429,-228.91713262134982,-645.79756694183266,260.12682040682,-238.35403134144474,43.7736633009781,817.9951606474956,796.808737649519,-668.51726510042374,668.51726510042374,-796.808737649519,1419.7275927528083,0.0
568204.59901257406,4082374.0504322448,-32500.0,966.19419056554148,-118.7277150828087,-683.17058516485633,406.81060595686245,-185.49793336694367,121.25666477941718,936.19192959313386,951.79322626089174,-634.73962357414575,634.73962357414575,-951.79322626089174,1637.899649359166,0.0
573204.59901257406,4082374.0504322448,-32500.0,1181.9220436360872,36.345459553917394,-689.91945489361285,591.49741163396027,-86.786004251814532,237.40193677560168,1084.9800158696653,1100.8468081367678,-549.68758478698373,549.68758478698373,-1100.8468081367678,1924.5994046725834,0.0
578204.59901257406,4082374.0504322448,-32500.0,1391.0135506923502,239.91912035942286,-646.60903905189446,814.3133302761762,76.658520644937667,405.43276919276951,1274.5379640642504,1224.3109495997683,-396.74486280987452,396.74486280987452,-1224.3109495997683,2301.0139872667,0.0
583204.59901257406,4082374.0504322448,-32500.0,1567.0554344591626,488.08572051981616,-529.03165824761334,1068.3112794934132,326.73955459986377,640.08139213727293,1516.9053928258425,1294.8655943260253,-161.15961105206452,161.15961105206452,-1294.8655943260253,2787.2333667976827,0.0
588204.59901257406,4082374.0504322448,-32500.0,1674.952919878438,763.76905710968788,-310.92930371596304,1335.0338779776132,685.3076315520442,955.24748715310614,1824.4418082478637,1279.1390914544186,163.86860713079261,-163.86860713079261,-1279.1390914544186,3396.8175435601415,0.0
593204.59901257406,4082374.0504322448,-32500.0,1675.1002414591155,1030.3890590776962,29.406538967910787,1579.7252443728053,1167.6538207945971,1359.3630703858612,2204.2208120973346,1143.5063213274202,567.75228642990999,-567.75228642990999,-1143.5063213274202,4129.2054644343852,0.0
598204.59901257406,4082374.0504322448,-32500.0,1533.8302535071755,1227.4402909448045,497.19212166397932,1748.254543109648,1771.4238165452743,1847.7384851626948,2647.1649488449889,866.1650172191562,1010.5896520649874,-1010.5896520649874,-866.1650172191562,4959.9802516352884,0.0
603204.59901257406,4082374.0504322448,-32500.0,1241.6604242813114,1273.1970387062022,1063.9824199828086,1769.816196168568,2461.178320870677,2392.0415336746523,3120.0950913637694,456.15823848028595,1412.7279979506654,-1412.7279979506654,-456.15823848028595,5830.2126868497826,0.0
608204.59901257406,4082374.0504322448,-32500.0,836.7175409011262,1082.1870043918152,1649.7564861121566,1571.4143001859484,3152.6143796986885,2929.5144826114988,3565.2956886777288,-24.699302782725454,1654.854376893257,-1654.854376893257,24.699302782725454,6639.100321187515,0.0
613204.59901257406,4082374.0504322448,-32500.0,421.42663800243247,603.55355600985047,2116.7065640298129,1109.1291351882335,3707.4181375528647,3359.2009279314129,3905.619806784629,-450.45180020665327,1602.4166331105766,-1602.4166331105766,450.45180020665327,7248.6083330317788,0.0
618204.59901257406,4082374.0504322448,-32500.0,149.09929775028365,-126.25159126478439,2294.565237517219,411.47603443816035,3956.2947283628132,3557.2736830963222,4060.1370167224404,-653.57978900823582,1164.0621144985546,-1164.0621144985546,653.57978900823582,7511.265844432517,0.0
623204.59901257406,4082374.0504322448,-32500.0,159.79198716835623,-949.30831436339315,2050.1077689571307,-390.71069711940601,3761.9838352213269,3420.5788960328537,3974.3372970200512,-498.39800333166238,368.30781811766985,-368.30781811766985,498.39800333166238,7325.3804384559953,0.0
628204.59901257406,4082374.0504322448,-32500.0,484.46349665835584,-1620.8359273866456,1376.1190918861198,-1088.7458876561336,3102.0538518147164,2926.1111205661919,3655.6497086339132,21.042561994948869,-598.59810615584036,598.59810615584036,-21.042561994948869,6699.6439074972959,0.0
633204.59901257406,4082374.0504322448,-32500.0,994.72661662948735,-1924.6592830544462,429.31227711537827,-1488.0626097807967,2109.9525369936896,2163.9379955821528,3189.9884073584849,740.24174144277708,-1455.3794947863228,1455.3794947863228,-740.24174144277708,5784.4159331870032,0.0
638204.59901257406,4082374.0504322448,-32500.0,1466.0744399609225,-1793.3894093202341,-536.65662280614299,-1510.2287075962386,1022.9339011197827,1304.675047798841,2713.6481362903223,1402.9079262326329,-1969.4751733270034,1969.4751733270034,-1402.9079262326329,4831.5662226318955,0.0
643204.59901257406,4082374.0504322448,-32500.0,1712.4181930642026,-1329.5859004834701,-1300.3510785356591,-1219.764444850671,67.43274145785044,519.00303796672847,2341.6277103654879,1805.3277285100339,-2068.2355475760542,2068.2355475760542,-1805.3277285100339,4084.8558524988262,0.0
648204.59901257406,4082374.0504322448,-32500.0,1673.9198229967205,-720.08770188117182,-1759.7794785758472,-762.19362673972,-628.16119526469799,-87.890716646748899,2106.9662055976623,1883.7507094702767,-1833.7691228894762,1833.7691228894762,-1883.7507094702767,3650.6020575489138,0.0
653204.59901257406,4082374.0504322448,-32500.0,1404.8745877912156,-132.01110505912524,-1929.8487429897914,-279.79449274417686,-1044.2085984607395,-489.04968270510858,1969.6080753794474,1696.3987463931414,-1416.5704483950792,1416.5704483950792,-1696.3987463931414,3456.8577993690233,0.0
658204.59901257406,4082374.0504322448,-32500.0,1008.3587901318804,338.19017116539925,-1887.6880736469025,135.35463858763231,-1229.135309060013,-710.25278174444134,1871.9226210706242,1352.8501715243633,-953.59388111024009,953.59388111024009,-1352.8501715243633,3360.6449907001711,0.0
663204.59901257406,4082374.0504322448,-32500.0,580.34971052327057,661.37493097153845,-1720.3152667424949,445.02790377605248,-1253.4774842951531,-798.07755456486314,1776.5482476991656,955.47616288014262,-532.49244732025511,532.49244732025511,-955.47616288014262,3262.1831715179014,0.0
668204.59901257406,4082374.0504322448,-32500.0,185.56759889854683,849.87982860606144,-1497.2406402004247,647.80469819235907,-1181.6788612817365,-798.73485170313029,1669.7167338883107,574.43729735168961,-192.93513881576357,192.93513881576357,-574.43729735168961,3123.977809462966,0.0
673204.59901257406,4082374.0504322448,-32500.0,-143.24366179522031,933.18101768894746,-1264.0110324167033,760.45849020826563,-1061.7095329470519,-748.98697698483443,1551.3122269943956,246.89638090790646,57.716606679150388,-57.716606679150388,-246.89638090790646,2945.0297619339053,0.0
678204.59901257406,4082374.0504322448,-32500.0,-396.53352417451805,942.84518702749097,-1045.9442341713786,805.1832856138459,-924.89027628840768,-674.57149051426882,1426.3571321467225,-14.062397868396232,228.88337414711742,-228.88337414711742,14.062397868396232,2737.9876054823858,0.0
683204.59901257406,4082374.0504322448,-32500.0,-578.31856779974567,905.68508459346697,-854.46984499913731,802.88544100559523,-789.55060019742291,-591.88626147728701,1300.5296441970447,-209.66123465395592,336.18805984732137,-336.18805984732137,209.66123465395592,2517.4468885342321,0.0
688204.59901257406,4082374.0504322448,-32500.0,-698.94348237674103,841.87716678745699,-692.69145110031138,770.55922985915345,-665.15657368546192,-510.49235846712764,1178.4153293850397,-348.06975793440409,395.658848674441,-395.658848674441,348.06975793440409,2295.4804695892503,0.0
693204.59901257406,4082374.0504322448,-32500.0,-770.58340207673734,765.42467755118832,-559.30469985226239,720.86095407872267,-555.66069999415629,-435.38228365621626,1063.1192911079791,-439.80577406702372,421.17045295969746,-421.17045295969746,439.80577406702372,2080.6250069228736,0.0
698204.59901257406,4082374.0504322448,-32500.0,-804.84725120555652,685.42626612357378,-451.03237748120961,662.64243598840653,-461.85259149363804,-368.70233317209528,956.42390693648042,-495.24800257660735,423.70089605882021,-423.70089605882021,495.24800257660735,1878.2248898622058,0.0
703204.59901257406,4082374.0504322448,-32500.0,-811.72708983578809,607.4114288201049,-363.99947093837721,601.77082365495505,-382.86937737167176,-310.9397893639532,859.10081561790435,-523.50347949185016,411.45472798616817,-411.45472798616817,523.50347949185016,1691.1619733192156,0.0
708204.59901257406,4082374.0504322448,-32500.0,-799.31294757642513,534.46456628505496,-294.43797547845043,541.92726956885417,-317.10634117592241,-261.69081098275132,771.22283074730956,-532.04843502182939,390.31787370630121,-390.31787370630121,532.04843502182939,1520.5874677854977,0.0
713204.59901257406,4082374.0504322448,-32500.0,-773.88662885888778,468.07129044947533,-238.99773638916056,485.26499529700152,-262.73064823682671,-220.12938658107421,692.41814693103333,-526.75939321417877,364.37345551592711,-364.37345551592711,526.75939321417877,1366.512107163082,0.0
718204.59901257406,4082374.0504322448,-32500.0,-740.17775179715113,408.71982061171906,-194.84507159353527,432.91195685281207,-217.95229636257989,-185.28087404272981,622.06639667853995,-512.11607019718485,336.36764897616342,-336.36764897616342,512.11607019718485,1228.2501570801508,0.0
723204.59901257406,4082374.0504322448,-32500.0,-701.65658069585345,356.30726943194611,-159.65415749312854,385.33204419823079,-181.15041970720171,-156.1707727125162,559.43435480601829,-491.45215327207768,308.08605040258692,-308.08605040258692,491.45215327207768,1104.726278771167,0.0
533204.59901257406,4087374.0504322448,-32500.0,-108.66063858891849,-403.51964815741104,-297.81659029168191,-152.78213015916327,-218.10252695458345,-90.069255329703523,470.3963803904083,52.113726107355262,-471.68125893452003,471.68125893452003,-52.113726107355262,860.73217577654077,0.0
538204.59901257406,4087374.0504322448,-32500.0,-51.356180081302391,-433.59140437451509,-348.85469494622339,-146.02093337243255,-247.29814151502757,-97.560884350702736,519.68414118334579,113.92593705430841,-533.61187923621264,533.61187923621264,-113.92593705430841,942.51492260078248,0.0
543204.59901257406,4087374.0504322448,-32500.0,25.669914535146013,-459.87791628827557,-408.18202652484621,-130.19638804160698,-278.15827846618822,-102.9901203559735,574.86911298227074,192.76997926243143,-600.3679814301521,600.3679814301521,-192.76997926243143,1032.6635372420924,0.0
548204.59901257406,4087374.0504322448,-32500.0,126.70218000131501,-478.8867938087505,-476.16651508185311,-101.48048229397348,-309.10620892796999,-104.37814066087935,636.92377361442118,291.65249148315655,-670.06260832591602,670.06260832591602,-291.65249148315655,1132.726878218311,0.0
553204.59901257406,4087374.0504322448,-32500.0,256.15811689257794,-485.71600334377143,-552.41213270506023,-54.882334126480828,-337.32533264700743,-98.655429975162306,707.24178054711206,413.3094541297005,-739.2764350225209,739.2764350225209,-413.3094541297005,1245.3707412133442,0.0
558204.59901257406,4087374.0504322448,-32500.0,417.99906541212738,-473.76059932357055,-635.15921731598939,15.885200459049448,-358.11947433153568,-81.180722908815852,787.9424679773083,559.54670242425289,-802.39164636034195,802.39164636034195,-559.54670242425289,1375.303788182071,0.0
563204.59901257406,4087374.0504322448,-32500.0,614.69851214910955,-434.55854082883894,-720.40006454336708,118.36051211458245,-364.04529416022251,-45.115203198467242,882.35991383345231,730.16922851018307,-850.80527522375883,850.80527522375883,-730.16922851018307,1530.7070044626055,0.0
568204.59901257406,4087374.0504322448,-32500.0,845.60393223249162,-358.00382312900041,-800.66814049207346,260.9076907822942,-343.82062429800601,19.328460282899137,995.76717360963698,921.38242700187732,-872.15420355141885,872.15420355141885,-921.38242700187732,1725.1159977408574,0.0
573204.59901257406,4087374.0504322448,-32500.0,1104.5741978459571,-233.30991364290892,-863.55174427545921,451.5895912458468,-281.11586099907862,125.66361547388206,1136.3271192035268,1123.6256654125282,-849.86688253494503,849.86688253494503,-1123.6256654125282,1979.22832089691,0.0
578204.59901257406,4087374.0504322448,-32500.0,1376.9633266415842,-51.291880631305531,-890.20771798341275,695.88540491274262,-153.55506891277219,291.67824232235938,1316.1420174320074,1319.0280600762412,-763.66153784119649,763.66153784119649,-1319.0280600762412,2321.3747824153825,0.0
583204.59901257406,4087374.0504322448,-32500.0,1636.4631411536257,191.34055199962276,-854.57582987541741,992.71815449020062,67.354498943533656,539.22677722956632,1552.0766817693448,1479.1550048447652,-592.01963700068234,592.01963700068234,-1479.1550048447652,2784.9337082600982,0.0
588204.59901257406,4087374.0504322448,-32500.0,1843.1382256580869,485.13382180308116,-724.66116762347917,1328.3873688314966,414.04492425135618,892.32450321027727,1865.3564076479811,1564.5321344123947,-318.05333273972042,318.05333273972042,-1564.5321344123947,3401.5209300233469,0.0
593204.59901257406,4087374.0504322448,-32500.0,1945.2058918470909,798.73812433672606,-468.05115553158799,1668.6305276257206,916.40257878893328,1372.0746757292227,2276.1380353969448,1528.5386130538327,59.805041779664862,-59.805041779664862,-1528.5386130538327,4189.9270121871814,0.0
598204.59901257406,4087374.0504322448,-32500.0,1888.4755226857121,1069.7123394019059,-64.313594974140713,1950.6511482604501,1588.4106825773479,1986.5280948780933,2787.9590048015757,1329.2686906515437,511.97550793714635,-511.97550793714635,-1329.2686906515437,5141.1666287247663,0.0
603204.59901257406,4087374.0504322448,-32500.0,1637.8354453052084,1201.3041581547925,473.99856513358026,2080.1478323079423,2406.0796874450334,2713.8741276640239,3370.9251918671789,952.70306164061765,959.88756578456935,-959.88756578456935,-952.70306164061765,6200.2264050253571,0.0
608204.59901257406,4087374.0504322448,-32500.0,1212.0341192235023,1076.5506416437345,1074.4407200859428,1943.3641272832328,3279.0506223804255,3480.1226498297519,3955.8820735585214,446.30261061914206,1266.491961372001,-1266.491961372001,-446.30261061914206,7248.3533809224464,0.0
613204.59901257406,4087374.0504322448,-32500.0,720.60493258728127,604.15056168780131,1585.5636258495551,1447.9687406847343,4029.4890546916918,4140.7860728735923,4436.6541491315529,-50.950140465195091,1256.1539324543382,-1256.1539324543382,50.950140465195091,8098.3120102155626,0.0
618204.59901257406,4087374.0504322448,-32500.0,366.85589251967417,-201.55572430054826,1795.7735487884263,597.37473616798138,4409.6929750179588,4491.0315747260383,4688.1949212862255,-319.01132711658101,788.57892698246451,-788.57892698246451,319.01132711658101,8525.6169005086413,0.0
623204.59901257406,4087374.0504322448,-32500.0,365.45153650296317,-1148.7377002794758,1522.1900771890132,-436.75810049316675,4194.1550556167194,4335.8211201973409,4614.1089342186851,-153.14067340831718,-120.61788597763115,120.61788597763115,153.14067340831718,8355.4220050959866,0.0
628204.59901257406,4087374.0504322448,-32500.0,779.55122609516081,-1899.3381706032089,747.71433802531158,-1331.9460022686665,3329.32356867409,3613.3680506944897,4213.5517597921007,472.32130630453719,-1221.5236031205309,1221.5236031205309,-472.32130630453719,7584.169993115609,0.0
633204.59901257406,4087374.0504322448,-32500.0,1416.4698168684695,-2152.2881546747017,-311.11015931348635,-1777.9567348608148,2022.5542752356528,2478.9450833793799,3620.0743784644537,1318.6209879743012,-2121.1196622942894,2121.1196622942894,-1318.6209879743012,6449.9223255677325,0.0
638204.59901257406,4087374.0504322448,-32500.0,1937.4762766099088,-1845.409389910413,-1312.9174968315344,-1674.4854574722383,647.75567677694187,1239.9212213898536,3052.8915311892752,2016.1218524960577,-2523.2611803017126,2523.2611803017126,-2016.1218524960577,5354.5670666008991,0.0
643204.59901257406,4087374.0504322448,-32500.0,2099.0005411922502,-1169.9059843263594,-1996.8431765063729,-1166.8209048076133,-469.22284293330108,180.82927948849164,2672.793494353451,2312.4426030837672,-2394.5834009247014,2394.5834009247014,-2312.4426030837672,4631.3875215193739,0.0
648204.59901257406,4087374.0504322448,-32500.0,1876.9345091174239,-402.66670489318352,-2291.4246017271612,-504.19355942994753,-1187.7668268495786,-558.99060491580792,2475.6364525004665,2187.5595204374267,-1911.9717616221833,1911.9717616221833,-2187.5595204374267,4317.0085895694929,0.0
653204.59901257406,4087374.0504322448,-32500.0,1401.7152272874218,253.70548414010432,-2271.7091214919024,112.02433777703305,-1534.1852772638103,-980.82957768717779,2362.8718025366634,1778.8862645834456,-1300.3313415714542,1300.3313415714542,-1778.8862645834456,4208.3713316430876,0.0
658204.59901257406,4087374.0504322448,-32500.0,834.63068939088112,715.83235763604966,-2061.8283696440371,582.28488319783412,-1611.5216426570541,-1157.4843745813546,2256.6118547125438,1253.7194515726414,-722.00020298594211,722.00020298594211,-1253.7194515726414,4115.013821078006,0.0
663204.59901257406,4087374.0504322448,-32500.0,294.39807508097056,985.80652311210156,-1769.3183973364476,887.93663108788689,-1527.6854277824955,-1174.0175511246696,2127.5101318668103,735.64440367188877,-254.91340288879516,254.91340288879516,-735.64440367188877,3958.1539633959878,0.0
668204.59901257406,4087374.0504322448,-32500.0,-156.95593885242545,1103.9828544605516,-1464.4836598412205,1052.1034343473063,-1364.8196642724079,-1099.9315644888079,1975.1770528307013,290.89468783771804,83.605016732573219,-83.605016732573219,-290.89468783771804,3732.4472517961835,0.0
673204.59901257406,4087374.0504322448,-32500.0,-500.18147573975699,1117.7107175158342,-1184.5363541652907,1110.9631910519063,-1175.5276053010477,-983.1538492073613,1809.2339227237178,-57.531667926117478,307.31849982094025,-307.31849982094025,57.531667926117478,3459.3676077385703,0.0
678204.59901257406,4087374.0504322448,-32500.0,-740.53557456161479,1067.2886208202026,-944.53157668981805,1099.0537921261791,-989.34299985502003,-853.23650307790456,1640.0293132584072,-311.61251531425665,440.77416583185237,-440.77416583185237,311.61251531425665,3163.6682439477327,0.0
683204.59901257406,4087374.0504322448,-32500.0,-894.10868960496236,982.2979552395858,-747.02216344005046,1043.9238997755276,-820.58776003684625,-726.66407960791912,1475.502043523798,-484.67977502582312,508.74288123591248,-508.74288123591248,484.67977502582312,2865.1693244073617,0.0
688204.59901257406,4087374.0504322448,-32500.0,-979.7246503015848,882.51336268291652,-588.53448180890109,965.45789407411951,-674.57314188435282,-611.52555837359273,1320.745514826823,-593.33811257549337,531.99807154848918,-531.99807154848918,593.33811257549337,2577.3101418530864,0.0
693204.59901257406,4087374.0504322448,-32500.0,-1014.9219682635252,780.19171505651877,-463.32437799772413,877.03431270614681,-551.75018305301182,-510.91165509416891,1178.5015875510221,-653.41734739513595,526.38235637805997,-526.38235637805997,653.41734739513595,2308.0782288241894,0.0
698204.59901257406,4087374.0504322448,-32500.0,-1014.3821267997137,682.34714235228842,-365.31725815227162,787.11760572504693,-450.23397090008871,-425.15211019599735,1049.8313922617181,-678.3394386324569,503.27879957225991,-503.27879957225991,678.3394386324569,2061.4596387663019,0.0
703204.59901257406,4087374.0504322448,-32500.0,-989.64396194666176,592.56538214997181,-288.98527923886928,700.71387778342898,-367.23399846203887,-353.19559137821381,934.7066957155813,-678.75535565200141,470.51962909476163,-470.51962909476163,678.75535565200141,1838.7603111664087,0.0
708204.59901257406,4087374.0504322448,-32500.0,-949.39198940143251,512.30212440792423,-229.65325272540861,620.51106147901692,-299.80539291479153,-293.41088225725645,832.44986248933878,-662.75686325953279,433.29696771412614,-433.29696771412614,662.75686325953279,1639.6073315880401,0.0
713204.59901257406,4087374.0504322448,-32500.0,-899.95586384602905,441.76266390979015,-183.52867560528966,547.71330375155117,-245.21038239831657,-244.02913352198422,742.04684811483492,-636.30389991605239,394.92860265504146,-394.92860265504146,636.30389991605239,1462.6690625043157,0.0
718204.59901257406,4087374.0504322448,-32500.0,-845.82199125689101,380.46654591899568,-147.61078301967046,482.61433799813267,-201.06090665855356,-203.36636372325142,662.34715845270784,-603.67685251216926,357.44233660957116,-357.44233660957116,603.67685251216926,1306.1274994013631,0.0
723204.59901257406,4087374.0504322448,-32500.0,-790.08414123830892,327.59763512903965,-119.56122582842515,424.97859517729046,-165.34875089004018,-169.92120046747971,592.18474375379901,-567.87988481008551,322.00082146129154,-322.00082146129154,567.87988481008551,1167.9774266166999,0.0
528204.59901257406,4092374.0504322448,-32500.0,-279.44457781764009,-405.06037477779284,-227.88992263589512,-217.15978778079415,-202.65467831404752,-105.95455144195692,470.48812007278917,-97.214983608395045,-406.01152849234541,406.01152849234541,97.214983608395045,883.58137774375962,0.0
533204.59901257406,4092374.0504322448,-32500.0,-254.78573922515477,-448.14200143940599,-270.15817244879418,-229.00621493608324,-234.77652768706238,-120.53914680374521,521.26093036382122,-61.395112390070949,-468.11681003929914,468.11681003929914,61.395112390070949,972.37210455476406,0.0
538204.59901257406,4092374.0504322448,-32500.0,-215.41077853545897,-493.14094774695087,-321.04836853112613,-236.93145877125605,-271.38909826434667,-135.98773256858362,577.9373041959152,-11.671012978512692,-538.97497551697779,538.97497551697779,11.671012978512692,1069.9472133183576,0.0
543204.59901257406,4092374.0504322448,-32500.0,-156.85605273203484,-538.41923421690603,-382.04791495417851,-238.28315372513151,-312.40382017753961,-151.46930097021965,641.09297692670907,55.619538266994994,-618.83648108721422,618.83648108721422,-55.619538266994994,1176.7600794225198,0.0
548204.59901257406,4092374.0504322448,-32500.0,-73.776919532602008,-581.29436686046449,-454.60508911194768,-229.29492464295652,-357.13167598926691,-165.45772145111778,711.35492864822436,144.69257208725026,-707.23887583898033,707.23887583898033,-144.69257208725026,1293.2856778076036,0.0
553204.59901257406,4092374.0504322448,-32500.0,39.944863483686035,-617.62762344618739,-539.85669805360919,-204.74779384038482,-403.8421928322349,-175.33068218550949,789.47259860611302,260.11450121197913,-802.50794949013721,802.50794949013721,-260.11450121197913,1420.252965107969,0.0
558204.59901257406,4092374.0504322448,-32500.0,190.8272628639011,-641.34414543673199,-638.14288457969008,-157.61780207727026,-449.0857440887886,-176.78096618919363,876.49133864894247,406.32515973823115,-901.04181038693309,901.04181038693309,-406.32515973823115,1559.2056110291703,0.0
563204.59901257406,4092374.0504322448,-32500.0,384.95636540762007,-643.96441185828678,-748.20287754874755,-78.805824180372113,-486.69394748332354,-162.98357738168065,974.12623266084279,586.71681743164856,-996.3507990817476,996.3507990817476,-586.71681743164856,1713.6800753319221,0.0
568204.59901257406,4092374.0504322448,-32500.0,626.43753956794762,-614.34048144697499,-865.93566890105376,42.850895058739098,-506.38443032415756,-123.47800314291196,1085.497776602981,802.05403693513324,-1077.9004004349192,1077.9004004349192,-802.05403693513324,1891.4079683872751,0.0
573204.59901257406,4092374.0504322448,-32500.0,914.83319130323719,-538.98594683842339,-982.6516924118481,219.91704468606028,-491.9700099065966,-42.788460662259403,1216.4580507677483,1048.0218264848336,-1129.9780651784649,1129.9780651784649,-1048.0218264848336,2107.8726355162817,0.0
578204.59901257406,4092374.0504322448,-32500.0,1241.3782348395287,-403.67887471210645,-1082.9186666805076,464.43780266787513,-419.3818487604845,101.0332836484792,1377.7495422142274,1311.8364652891114,-1131.1500941128388,1131.1500941128388,-1311.8364652891114,2390.7871469291981,0.0
583204.59901257406,4092374.0504322448,-32500.0,1584.1460424501417,-197.34425588714919,-1142.5390050017259,783.87794035041793,-255.17158908036555,337.42234375718272,1588.0444330668333,1568.3068519782576,-1055.4414903354161,1055.4414903354161,-1568.3068519782576,2783.0332773918935,0.0
588204.59901257406,4092374.0504322448,-32500.0,1903.2398765293904,80.629376282561708,-1128.015502381719,1173.8888154200554,43.010226863061042,702.73663500898738,1876.9593392646616,1776.6870870490718,-877.09601603680881,877.09601603680881,-1776.6870870490718,3339.129089677137,0.0
593204.59901257406,4092374.0504322448,-32500.0,2138.743087522148,409.02028215970904,-1000.061551029404,1607.206983581241,521.20598439200774,1235.9940028443732,2283.0185082544826,1881.2453535194213,-581.28818780623442,581.28818780623442,-1881.2453535194213,4110.924485661787,0.0
598204.59901257406,4092374.0504322448,-32500.0,2216.5096576054389,730.76272974386075,-724.83074182013775,2019.4918354035265,1215.0338822373089,1967.4371120584253,2834.3412015515423,1820.4219359590779,-182.54671144677707,182.54671144677707,-1820.4219359590779,5123.174764139877,0.0
603204.59901257406,4092374.0504322448,-32500.0,2069.2984549778566,942.24591663202102,-296.37361809615527,2296.8540858677538,2121.9039136609031,2895.1895543797255,3516.3956736947343,1550.8200156600949,250.67488694757458,-250.67488694757458,-1550.8200156600949,6342.6977547892538,0.0
608204.59901257406,4092374.0504322448,-32500.0,1680.7367616419358,899.80094388787279,229.96646907362688,2278.2731838297145,3157.9567015242851,3946.3198499189648,4254.7814535286698,1090.3551851075947,575.30502690754111,-575.30502690754111,-1090.3551851075947,7644.8037721021255,0.0
613204.59901257406,4092374.0504322448,-32500.0,1148.3235033589117,467.04906253909962,705.44551385244597,1799.4182010629631,4112.2009053482971,4929.5200193332103,4911.3424821895187,571.78237351833855,583.20793961704067,-583.20793961704067,-571.78237351833855,8790.1597051576427,0.0
618204.59901257406,4092374.0504322448,-32500.0,721.39909425339397,-377.39066776030052,894.28162933169494,806.45826899726615,4644.3334911314787,5519.8503782095258,5300.5097958619344,260.04449075470853,84.555924365035864,-84.555924365035864,-260.04449075470853,9450.5741291622944,0.0
623204.59901257406,4092374.0504322448,-32500.0,712.66285407067994,-1413.2506551424872,574.96061034395336,-492.01179013689114,4405.4213198807511,5358.0571121982293,5259.2592407158718,442.92040988135983,-919.90216773271254,919.90216773271254,-442.92040988135983,9337.0017135252838,0.0
628204.59901257406,4092374.0504322448,-32500.0,1236.2672423213917,-2191.4337148887162,-269.94878402365066,-1605.2633633153921,3292.3947901669153,4298.0351937596006,4769.4028202137033,1175.0112998629147,-2100.0893184724282,2100.0893184724282,-1175.0112998629147,8420.9346633194018,0.0
633204.59901257406,4092374.0504322448,-32500.0,2002.7697098357191,-2313.4509520222614,-1351.3908899037476,-2043.6145626858508,1625.3924805357194,2612.0669534821818,4042.646068911813,2114.1227684446208,-2928.8771026890186,2928.8771026890186,-2114.1227684446208,7083.5207898458229,0.0
638204.59901257406,4092374.0504322448,-32500.0,2511.342835963394,-1754.8493049087638,-2246.796988235446,-1699.1472246055721,-23.894953108737628,857.68124950022116,3427.2192410479011,2746.7453438065745,-3068.3930061120477,3068.3930061120477,-2746.7453438065745,5950.4321865470893,0.0
643204.59901257406,4092374.0504322448,-32500.0,2474.2448819768529,-843.53604943877315,-2698.6121868324944,-875.1601526258271,-1220.2577989837359,-504.89514628730177,3110.3504239067011,2799.8351577367475,-2589.0617087664596,2589.0617087664596,-2799.8351577367475,5396.5287337732052,0.0
648204.59901257406,4092374.0504322448,-32500.0,1963.2858063766816,45.725822968112404,-2714.7864633927502,25.312630442478266,-1853.7260299055174,-1325.5360110811614,2981.9823371837401,2358.5523593679277,-1805.9813819532562,1805.9813819532562,-2358.5523593679277,5256.65847150032,0.0
653204.59901257406,4092374.0504322448,-32500.0,1225.6886466514545,704.93199342794173,-2449.722401162117,748.89811022763456,-2040.0618292174386,-1686.690104044098,2877.6350869376402,1673.5644891548518,-1011.8293855875349,1011.8293855875349,-1673.5644891548518,5190.8859174365962,0.0
658204.59901257406,4092374.0504322448,-32500.0,481.56831502115057,1096.0417715826488,-2064.2995130243098,1219.9542384990489,-1953.5633300133397,-1744.0586208171051,2729.0625532401382,964.33942270608759,-362.9252471309278,362.9252471309278,-964.33942270608759,5028.5905602464372,0.0
663204.59901257406,4092374.0504322448,-32500.0,-146.83464571492954,1268.2957682890672,-1666.1308326007629,1464.8287076910306,-1735.7625898829288,-1633.7632623196832,2534.3380977293527,353.36761413859529,99.801787625807052,-99.801787625807052,-353.36761413859529,4749.9094558215957,0.0
668204.59901257406,4092374.0504322448,-32500.0,-619.26492925585785,1291.8367053164318,-1309.2618783286764,1543.3264534834582,-1476.0781134140223,-1448.1487339368732,2312.4324889235031,-116.99371801421594,395.44900814212099,-395.44900814212099,116.99371801421594,4390.8692182072709,0.0
673204.59901257406,4092374.0504322448,-32500.0,-941.83259941276162,1227.2551029133285,-1012.4989482677991,1513.854857166107,-1222.3697259150274,-1241.6793073258013,2082.6399010192167,-449.68683999776727,562.78512011135183,-562.78512011135183,449.68683999776727,3993.7464614218761,0.0
678204.59901257406,4092374.0504322448,-32500.0,-1139.8911310313226,1117.8705535753195,-776.16241590295249,1421.841075618448,-996.14118616681492,-1043.0322392015935,1858.8569052290779,-666.70698329164895,640.29461339888337,-640.29461339888337,666.70698329164895,3591.2590421459117,0.0
683204.59901257406,4092374.0504322448,-32500.0,-1242.8886809239318,991.43289051866066,-592.74240017994578,1298.8062637694147,-804.21127584893293,-865.22906103737648,1649.4440111997189,-794.47907499271196,659.09967772567984,-659.09967772567984,794.47907499271196,3204.6155725509311,0.0
688204.59901257406,4092374.0504322448,-32500.0,-1277.519780415194,864.24080793025655,-452.55499178468489,1164.992147469417,-646.06200201696788,-712.50799742020786,1458.5680786839532,-857.22826372397185,641.96164485219128,-641.96164485219128,857.22826372397185,2845.7398608962317,0.0
693204.59901257406,4092374.0504322448,-32500.0,-1265.4315297427081,744.99171829399552,-346.33244855002533,1032.518424283134,-518.00841327563637,-584.56444530045621,1287.6081357475578,-874.71971589207294,604.52681403675354,-604.52681403675354,874.71971589207294,2520.0908346935107,0.0
698204.59901257406,4092374.0504322448,-32500.0,-1223.0821061491422,637.66922718774754,-266.18396560869701,908.05123531152572,-415.38676949485301,-479.01179963687321,1136.2506808826463,-862.05816564620841,557.06776677508287,-557.06776677508287,862.05816564620841,2229.0067187523705,0.0
703204.59901257406,4092374.0504322448,-32500.0,-1162.4497159588939,543.50066281978286,-205.78036691580607,794.78062714654698,-333.60925510249393,-392.73257086276737,1003.2502298603267,-830.30256698105245,506.05616589763849,-506.05616589763849,830.30256698105245,1971.3977222509343,0.0
708204.59901257406,4092374.0504322448,-32500.0,-1091.9606244424324,462.20427966938945,-160.21363131702805,693.7842186990456,-268.60554303426773,-322.57018613269884,886.92040533039699,-787.29581400290874,455.38687633433517,-455.38687633433517,787.29581400290874,1744.8758426759132,0.0
713204.59901257406,4092374.0504322448,-32500.0,-1017.363381479267,392.74953688222507,-125.75331176847547,604.92479615149466,-216.95378131039087,-265.64753731619868,785.43423402215285,-738.45116224667311,407.26278979765164,-407.26278979765164,738.45116224667311,1546.4712294102196,0.0
718204.59901257406,4092374.0504322448,-32500.0,-942.45564413119178,333.80117969238484,-99.597292864260737,527.41956708465227,-175.86505957831645,-219.48334735066149,696.99651419205838,-687.40697855957842,362.80670131526631,-362.80670131526631,687.40697855957842,1373.0642168526733,0.0
723204.59901257406,4092374.0504322448,-32500.0,-869.64929940195373,283.96659076000594,-79.654817773821591,460.18889798845316,-143.10842565156204,-182.00592066680682,619.93452997175939,-636.53591674917175,322.47194002988709,-322.47194002988709,636.53591674917175,1221.6312155346916,0.0
528204.59901257406,4097374.0504322448,-32500.0,-420.0957142619236,-421.90510226544228,-192.04471480168723,-285.43889097313388,-206.29160801819859,-131.59399033569539,517.7033820951624,-211.63901581989876,-376.57018228499373,376.57018228499373,211.63901581989876,987.70132458390503,0.0
533204.59901257406,4097374.0504322448,-32500.0,-416.59985512637178,-474.22598589915611,-230.05065731848677,-311.82865874742242,-242.19326672379765,-153.27938718111997,576.54924782638,-192.12592162471469,-440.23059184469003,440.23059184469003,192.12592162471469,1094.2444789323135,0.0
538204.59901257406,4097374.0504322448,-32500.0,-400.98916608602269,-531.69021732071144,-276.83777372257896,-337.48792607454595,-284.37746514696556,-177.94846798199171,642.60537032686136,-160.31788217682458,-514.88665048763801,514.88665048763801,160.31788217682458,1212.3775395417699,0.0
543204.59901257406,4097374.0504322448,-32500.0,-368.59828431063642,-593.61701291759266,-334.40092268205802,-360.3373458785818,-333.49294249513724,-205.39824301148687,716.50042413713527,-112.15746533154737,-601.8702217130251,601.8702217130251,112.15746533154737,1342.5899645292182,0.0
548204.59901257406,4097374.0504322448,-32500.0,-313.48409909759846,-658.47703200485205,-405.02126121842349,-377.16196174642295,-389.85499599913538,-234.88057411618257,798.77261128742691,-42.615856494047762,-702.20357613183717,702.20357613183717,42.615856494047762,1485.0060285108527,0.0
553204.59901257406,4097374.0504322448,-32500.0,-228.30198393192771,-723.44761009447814,-491.14684314836228,-383.15508590397098,-453.070011151242,-264.69681523797669,889.81290158048569,54.323048912466049,-816.19746260947568,816.19746260947568,-54.323048912466049,1639.2729814407646,0.0
558204.59901257406,4097374.0504322448,-32500.0,-104.36868907801571,-783.82280560646996,-595.10421481424669,-371.35624624717053,-521.40690979100236,-291.55834980969348,989.83190229526735,185.47255643868067,-942.80821674681624,942.80821674681624,-185.47255643868067,1804.5628728623117,0.0
563204.59901257406,4097374.0504322448,-32500.0,67.887025149089723,-832.30091686777791,-718.52080533908293,-332.03368086327004,-590.78829708139267,-309.60850334299636,1098.9230746689359,357.86014634080038,-1078.6719444668709,1078.6719444668709,-357.86014634080038,1979.9193646582794,0.0
568204.59901257406,4097374.0504322448,-32500.0,297.76235725915205,-858.26880052243507,-861.28956232460814,-252.16444180731904,-653.2463054501435,-308.98465730054994,1217.387248677549,577.46554828361297,-1216.7639730665032,1216.7639730665032,-577.46554828361297,2165.4378138797265,0.0
573204.59901257406,4097374.0504322448,-32500.0,591.9477552916228,-847.40545553896095,-1019.8848874249115,-115.36078367813811,-694.70611866022045,-273.81877317302946,1346.6669624099541,846.90245987341632,-1344.7593257107264,1344.7593257107264,-846.90245987341632,2365.1950282717762,0.0
578204.59901257406,4097374.0504322448,-32500.0,950.48657691928622,-782.29285057453944,-1184.9203977868062,97.070690588258202,-692.10987956870451,-179.69348589796516,1491.5678680992517,1161.6654857526698,-1443.4948176013961,1443.4948176013961,-1161.6654857526698,2593.2871531095579,0.0
583204.59901257406,4097374.0504322448,-32500.0,1360.678861994825,-645.26380717160737,-1338.1981952461051,402.75687180322649,-610.34320514483534,9.0940327143740252,1664.9188674440161,1504.8667427056471,-1486.5979582985237,1486.5979582985237,-1504.8667427056471,2883.7908305341748,0.0
588204.59901257406,4097374.0504322448,-32500.0,1789.4050238164107,-425.26248491336548,-1450.389863498614,810.83189985400509,-400.43923858123009,341.3455126701262,1895.9055979661057,1841.3371774369427,-1443.4167849079711,1443.4167849079711,-1841.3371774369427,3301.1628046837304,0.0
593204.59901257406,4097374.0504322448,-32500.0,2176.3135827558394,-130.40500426850011,-1482.0967120739681,1308.4982636764228,-2.3547031133166607,877.26654322394654,2239.1027522299073,2113.9532680571401,-1288.5357063919039,1288.5357063919039,-2113.9532680571401,3937.8392781790053,0.0
598204.59901257406,4097374.0504322448,-32500.0,2433.6501144841914,194.06377700959956,-1392.8764060115716,1840.6211805119799,641.88738071494231,1678.1623760452467,2762.1745629268294,2247.969519283467,-1021.1458143881549,1021.1458143881549,-2247.969519283467,4882.0971452436215,0.0
603204.59901257406,4097374.0504322448,-32500.0,2462.7265388823535,448.10491931173937,-1163.0444666380038,2285.3140305848706,1556.8347845711473,2778.6906776151905,3490.1212201260159,2171.8991357660889,-694.049722518723,694.049722518723,-2171.8991357660889,6158.9967271536534,0.0
608204.59901257406,4097374.0504322448,-32500.0,2200.8043530972686,474.85356268639867,-828.74263208103116,2439.0629947416041,2677.5385011403537,4129.2141426431408,4359.1611060389969,1864.0510592338483,-442.56353236456516,442.56353236456516,-1864.0510592338483,7666.1794386861775,0.0
613204.59901257406,4097374.0504322448,-32500.0,1708.0290320020047,103.95429589332747,-518.77057785406464,2049.8764760195977,3776.0278628636561,5503.3008367029342,5203.6153849361235,1425.604583368023,-484.68852046310099,484.68852046310099,-1425.604583368023,9122.9158605736447,0.0
618204.59901257406,4097374.0504322448,-32500.0,1257.3776367522576,-721.53184364237381,-455.75570040225369,967.9111083117707,4425.9869122342407,6420.7238922956431,5764.9844021815034,1137.2943859976874,-1035.0571414380986,1035.0571414380986,-1137.2943859976874,10078.736615960532,0.0
623204.59901257406,4097374.0504322448,-32500.0,1267.2860503828665,-1760.2704788869651,-851.66617889525639,-579.6722734538132,4141.8989398052317,6259.658115715345,5786.9419553737789,1359.9558400479909,-2087.8493849968077,2087.8493849968077,-1359.9558400479909,10087.716892286982,0.0
628204.59901257406,4097374.0504322448,-32500.0,1915.2157131156744,-2455.8844706468008,-1687.3661617539105,-1874.9011606018519,2768.7078907338241,4718.204012162978,5227.5639560086365,2174.0682256015684,-3217.0886983943533,3217.0886983943533,-2174.0682256015684,9086.8274578953296,0.0
633204.59901257406,4097374.0504322448,-32500.0,2772.2845362827438,-2335.8779694594614,-2604.8200888484157,-2179.2287706882967,785.34529513384962,2274.943369845189,4426.7922378623925,3105.573424868051,-3775.2992069901211,3775.2992069901211,-3105.573424868051,7678.0687914665486,0.0
638204.59901257406,4097374.0504322448,-32500.0,3137.9589740258248,-1474.3762597476102,-3165.9312580145884,-1430.6696729918374,-1001.9227018626003,-88.445053964311114,3893.6482392873268,3496.3035358711054,-3462.2434967785925,3462.2434967785925,-3496.3035358711054,6744.1210457615198,0.0
643204.59901257406,4097374.0504322448,-32500.0,2741.3431168502434,-369.04907779245445,-3208.7143027825846,-205.91717980261168,-2094.2159855136447,-1687.013104693762,3732.7392672335254,3131.2313755551841,-2540.2057432556448,2540.2057432556448,-3131.2313755551841,6508.2691578679123,0.0
648204.59901257406,4097374.0504322448,-32500.0,1839.3075985555267,545.01425481834519,-2866.8633448150999,907.45164395268546,-2490.044831705995,-2442.5775628283623,3661.3210553280132,2279.061676868525,-1472.9797000969033,1472.9797000969033,-2279.061676868525,6503.3682671421038,0.0
653204.59901257406,4097374.0504322448,-32500.0,819.91525510951567,1112.4912037874274,-2358.6175509999412,1653.1310824413322,-2429.8669896427759,-2604.0550527364749,3509.3148436239076,1311.6342795476558,-569.84399295599667,569.84399295599667,-1311.6342795476558,6369.2730701919945,0.0
658204.59901257406,4097374.0504322448,-32500.0,-66.407697271555818,1371.0822146793653,-1842.3322106388937,2032.5130486332951,-2150.2082229922066,-2443.2249070695611,3265.7017438670255,463.93535099579367,69.830737286687992,-69.830737286687992,-463.93535099579367,6040.3007692325491,0.0
663204.59901257406,4097374.0504322448,-32500.0,-729.10717793640015,1418.9206898275047,-1394.184908058455,2142.7334868998323,-1803.063950495027,-2145.8651844764177,2968.5376140550488,-179.35119039490641,466.90868545009164,-466.90868545009164,179.35119039490641,5574.4348974142031,0.0
668204.59901257406,4097374.0504322448,-32500.0,-1171.2532325192601,1345.6183767760494,-1035.6078963332491,2085.0199773128788,-1466.0648031089979,-1815.5602365228174,2654.7020521528425,-620.33019308565872,681.34756942212448,-681.34756942212448,620.33019308565872,5044.1012875120605,0.0
673204.59901257406,4097374.0504322448,-32500.0,-1432.7119844361946,1213.9733301628798,-761.53268547754237,1935.9240959054939,-1171.11359605804,-1502.6501961343606,2348.8199771108207,-895.0461210398181,772.54759869318138,-772.54759869318138,895.0461210398181,4503.491457045624,0.0
678204.59901257406,4097374.0504322448,-32500.0,-1559.9392665165944,1062.4437500794591,-557.52561016097036,1745.9629543192748,-926.40125527231305,-1227.6864596696732,2064.5454582212406,-1045.6379715664987,786.81482493735621,-786.81482493735621,1045.6379715664987,3986.0190983342013,0.0
683204.59901257406,4097374.0504322448,-32500.0,-1593.797101811806,912.33336141178609,-407.97577544936354,1545.7607882819232,-729.35957204419321,-995.87659249116768,1808.0333136589938,-1109.1658249569068,756.52456694427497,-756.52456694427497,1109.1658249569068,3509.3783137334221,0.0
688204.59901257406,4097374.0504322448,-32500.0,-1566.2625839252521,774.16614409634667,-299.25934649906617,1352.4764910730175,-573.400278658258,-805.16438609012494,1580.8667948771779,-1114.6211336689969,702.89803355701667,-702.89803355701667,1114.6211336689969,3080.9406130509301,0.0
693204.59901257406,4097374.0504322448,-32500.0,-1500.7909057830291,652.1721900388826,-220.53792442945311,1174.7439932211389,-451.12940164210187,-650.53982221636932,1382.073752374145,-1083.2789164881478,639.1917826117832,-639.1917826117832,1083.2789164881478,2701.8599839779513,0.0
698204.59901257406,4097374.0504322448,-32500.0,-1413.850633340905,547.13692027999593,-163.59341007116316,1016.0645033596808,-355.72068986028671,-526.22758106549895,1209.3959610385355,-1030.1096981508538,573.31212885409047,-573.31212885409047,1030.1096981508538,2369.8333181403168,0.0
703204.59901257406,4097374.0504322448,-32500.0,-1316.6065316723239,458.10985162415056,-122.36102910252606,877.00771568957555,-281.38715010335045,-426.71786059662861,1060.0510480168409,-965.3120181569999,509.71301139599689,-509.71301139599689,965.3120181569999,2080.849902667032,0.0
708204.59901257406,4097374.0504322448,-32500.0,-1216.3763023485478,383.38322818355516,-92.434343515365825,756.58347105049495,-223.43895075921819,-347.18354587299746,931.16650862428787,-895.63016497052922,450.69046681160557,-450.69046681160557,895.63016497052922,1830.2453399819133,0.0
713204.59901257406,4097374.0504322448,-32500.0,-1117.7754066725809,321.0264206838973,-70.639555118963884,653.06773349731668,-178.1720919448739,-283.58750998825576,820.01183097533226,-825.38362163623708,397.23328777614768,-397.23328777614768,825.38362163623708,1613.3062480554104,0.0
718204.59901257406,4097374.0504322448,-32500.0,-1023.5632276451574,269.15822770347035,-54.700346032827845,564.47760057136156,-142.70420207489431,-232.64355878272193,724.10502228651535,-757.22519198821874,349.56539957736959,-349.56539957736959,757.22519198821874,1425.5852495003596,0.0
723204.59901257406,4097374.0504322448,-32500.0,-935.25670338573457,226.07377654301709,-42.986888251310205,488.83537605964364,-114.81181477849786,-191.72148001461912,641.25391892250718,-692.6879004458068,307.48733845367224,-307.48733845367224,692.6879004458068,1263.0555829067291,0.0
528204.59901257406,4102374.0504322448,-32500.0,-566.42840226532587,-419.08722091195108,-149.33362291232524,-355.599776441659,-200.85165738539459,-157.74975937599712,566.22604330779757,-334.11551457541418,-326.66470142211142,326.66470142211142,334.11551457541418,1094.4444361271806,0.0
533204.59901257406,4102374.0504322448,-32500.0,-587.45014207453903,-476.90650946079103,-180.39542666058281,-398.02905265667061,-238.28730071926748,-187.07549856461796,634.19819067055346,-334.58073866780819,-386.84649086274862,386.84649086274862,334.58073866780819,1221.0496957783046,0.0
538204.59901257406,4102374.0504322448,-32500.0,-600.33076304354904,-542.51295998933131,-219.41829495090181,-443.70303239819293,-283.25784708283561,-221.85407652317517,711.2176649557972,-325.74788690605243,-459.03008526017987,459.03008526017987,325.74788690605243,1363.2518196426854,0.0
543204.59901257406,4102374.0504322448,-32500.0,-600.69088074028093,-616.21577257392153,-268.5739199944386,-491.48892155809455,-337.06340699956252,-262.71731948421217,798.21241913009533,-303.63264439094962,-545.39032718310705,545.39032718310705,303.63264439094962,1522.1583320766765,0.0
548204.59901257406,4102374.0504322448,-32500.0,-582.60781023046377,-697.77990608374807,-330.56141971186139,-539.26015729071787,-400.96726050968505,-310.01952981769284,895.98463368325474,-262.9783090840582,-648.2136691673586,648.2136691673586,262.9783090840582,1698.3951357515193,0.0
553204.59901257406,4102374.0504322448,-32500.0,-538.25869464741436,-786.02437524544416,-408.64668492927569,-583.38087183541711,-475.93366976540386,-363.4910813806618,1005.0601634589966,-197.01116502079731,-769.65747591829177,769.65747591829177,197.01116502079731,1891.7537536583368,0.0
558204.59901257406,4102374.0504322448,-32500.0,-457.62565924876827,-878.23126646494086,-506.60967458991047,-617.99674621178212,-562.13427879367646,-421.63982287313786,1125.4746974829498,-97.287526298353271,-911.29656250331914,911.29656250331914,97.287526298353271,2100.7313950858238,0.0
563204.59901257406,4102374.0504322448,-32500.0,-328.43408651812643,-969.32836575367367,-628.49463739245709,-634.11824108462088,-658.07246269224288,-480.75367560279801,1256.5029566611365,46.203112795319271,-1073.3406984810181,1073.3406984810181,-46.203112795319271,2322.0294707549597,0.0
568204.59901257406,4102374.0504322448,-32500.0,-136.64686625174136,-1050.8673734690683,-777.98751510752243,-618.55647763510694,-759.10901990936543,-533.29887377500222,1396.3927791182477,244.38334943427424,-1253.3896786686696,1253.3896786686696,-244.38334943427424,2550.2557043037341,0.0
573204.59901257406,4102374.0504322448,-32500.0,131.93023689036426,-1109.9843411910574,-957.15707251744868,-552.95450094564569,-855.11776312937695,-565.45721613122623,1542.3153225958308,507.39829985486256,-1444.6371068725434,1444.6371068725434,-507.39829985486256,2778.5059874316244,0.0
578204.59901257406,4102374.0504322448,-32500.0,488.09716599475621,-1128.9030672430865,-1164.2518166399291,-413.53612936863834,-927.03832041045609,-553.55956672339403,1691.1208262354564,841.21619748017952,-1633.6622949224791,1633.6622949224791,-841.21619748017952,3001.4377231203662,0.0
583204.59901257406,4102374.0504322448,-32500.0,932.76419151316634,-1086.253812711328,-1390.4147029783219,-172.90308861005579,-942.4354840460943,-459.40624541856141,1842.4228764132033,1241.8374420986545,-1798.5865759227202,1798.5865759227202,-1241.8374420986545,3224.1464173440627,0.0
588204.59901257406,4102374.0504322448,-32500.0,1446.9845085646266,-962.51562077337144,-1615.9638793893428,193.71172693980208,-851.25369564601056,-225.24455286295111,2007.6512832923422,1687.1234056314161,-1909.7145225448899,1909.7145225448899,-1687.1234056314161,3481.6421091744369,0.0
593204.59901257406,4102374.0504322448,-32500.0,1980.055756576942,-752.60012242512005,-1808.8441645767448,694.21540832989888,-585.39833139598511,228.8862578701638,2231.2964403292835,2128.4967197084461,-1936.78032893007,1936.78032893007,-2128.4967197084461,3867.874196720597,0.0
598204.59901257406,4102374.0504322448,-32500.0,2441.8535639757765,-486.86908606843332,-1930.8674641494081,1294.1080585982886,-69.774405978216365,998.83379761525464,2614.2720625355205,2489.0513246477067,-1867.9830207503189,1867.9830207503189,-2489.0513246477067,4543.4512526969693,0.0
603204.59901257406,4102374.0504322448,-32500.0,2711.9067989090631,-254.4834718835576,-1958.4211402507699,1880.2119830561069,743.92951184651247,2167.8275246260473,3260.8534262359185,2679.0629272807969,-1741.7164415176399,1741.7164415176399,-2679.0629272807969,5659.2514391973364,0.0
608204.59901257406,4102374.0504322448,-32500.0,2683.0495994042772,-209.69000994253142,-1916.6855376494407,2225.8185634383531,1811.2591150144231,3733.0484052176735,4158.891569406951,2640.1931207375155,-1677.8655352568883,1677.8655352568883,-2640.1931207375155,7206.0023939933799,0.0
613204.59901257406,4102374.0504322448,-32500.0,2359.8811403057962,-528.0371498316407,-1907.8863777648485,2000.9584862095194,2902.6737069194328,5460.8643993701344,5137.7259995510794,2424.1317911703318,-1874.6647468983992,1874.6647468983992,-2424.1317911703318,8898.8050108059269,0.0
618204.59901257406,4102374.0504322448,-32500.0,1998.2925505203214,-1271.1765198563958,-2094.9816093590021,940.88391859954834,3543.4053561217897,6710.3115831826308,5869.7427102382626,2279.2788217787302,-2514.2258405526227,2514.2258405526227,-2279.2788217787302,10169.37677006227,0.0
623204.59901257406,4102374.0504322448,-32500.0,2088.5305833564107,-2173.6062938148702,-2591.4692382197632,-734.33507030580165,3164.3875900779453,6517.7396873302014,5996.0383834970198,2584.3021602715489,-3527.7463834174423,3527.7463834174423,-2584.3021602715489,10396.17587585426,0.0
628204.59901257406,4102374.0504322448,-32500.0,2849.8619040984613,-2621.0642339802653,-3273.341663274688,-2050.4175760529456,1613.474215277563,4365.303973088985,5472.9381682140629,3410.5808201217296,-4390.9159586266051,4390.9159586266051,-3410.5808201217296,9492.208060802106,0.0
633204.59901257406,4102374.0504322448,-32500.0,3676.3584100618118,-2164.8597589413353,-3760.2146481414961,-2004.7314379106454,-449.52315865349823,1064.2298636385958,4810.1020841168574,4147.9051893170817,-4434.0665105941171,4434.0665105941171,-4147.9051893170817,8332.0742059063323,0.0
638204.59901257406,4102374.0504322448,-32500.0,3695.0913359334913,-1048.0909008676385,-3750.0623479726951,-697.87548553707666,-2061.5369096554791,-1810.8586118212752,4554.3901391571344,4070.2294771982083,-3540.3359479840688,3540.3359479840688,-4070.2294771982083,7890.4709711292917,0.0
643204.59901257406,4102374.0504322448,-32500.0,2779.2625709967519,105.50139971224716,-3287.1450714143975,918.55498303623745,-2798.646677721104,-3396.7150715275097,4565.7803354528842,3148.197493042012,-2211.7560392214737,2211.7560392214737,-3148.197493042012,7971.1915446599496,0.0
648204.59901257406,4102374.0504322448,-32500.0,1446.5850311532072,902.50628288331404,-2620.0321145390762,2120.6658607034051,-2835.9961520910256,-3841.1573462007727,4465.4822924352666,1878.2079425371844,-985.57790816533998,985.57790816533998,-1878.2079425371844,7940.9204138668865,0.0
653204.59901257406,4102374.0504322448,-32500.0,195.38883638355304,1297.2949890425518,-1961.3465371589339,2746.646519643079,-2514.2346896100353,-3637.0239888143169,4185.9215801897344,702.83274114816845,-98.234787894014119,98.234787894014119,-702.83274114816845,7597.2789621555194,0.0
658204.59901257406,4102374.0504322448,-32500.0,-753.73166263203461,1402.5174524939009,-1411.8082956076973,2926.8442766797157,-2079.9764956647414,-3168.8266949759368,3798.1097713731565,-190.26739971842505,447.90360863734099,-447.90360863734099,190.26739971842505,7018.2444958779661,0.0
663204.59901257406,4102374.0504322448,-32500.0,-1379.2761620266444,1342.2443657116733,-992.20490483259141,2836.5208480176798,-1657.767151487976,-2644.3698569723019,3374.1632277384924,-788.02176231877354,736.67798287718335,-736.67798287718335,788.02176231877354,6326.6859241894226,0.0
668204.59901257406,4102374.0504322448,-32500.0,-1739.8598649303638,1204.5775932677623,-687.30868225902088,2608.1596100762345,-1294.8956079133459,-2155.3284319374593,2959.2281973490981,-1145.7138847467575,856.41697357782436,-856.41697357782436,1145.7138847467575,5613.2481817185826,0.0
673204.59901257406,4102374.0504322448,-32500.0,-1908.3379251517485,1041.6680136502364,-472.02897321818756,2324.6069518217778,-1000.9525422727288,-1734.0194113728801,2576.1662221141441,-1329.6128256382442,874.60751244054586,-874.60751244054586,1329.6128256382442,4931.056912755058,0.0
678204.59901257406,4102374.0504322448,-32500.0,-1947.4407206555497,880.9076602015117,-322.58658575485589,2032.742584136394,-770.16211734126784,-1385.6652039777043,2234.1228550733294,-1396.1305837414632,836.6076412475029,-836.6076412475029,1396.1305837414632,4306.565991382804,0.0
683204.59901257406,4102374.0504322448,-32500.0,-1904.5366756429141,734.90808870306762,-219.90571041222304,1756.8523564022366,-591.98489929760751,-1104.2440342605541,1934.7153794923584,-1387.6054354681894,770.85584955104082,-770.85584955104082,1387.6054354681894,3749.860090996317,0.0
688204.59901257406,4102374.0504322448,-32500.0,-1813.1069124088699,608.15598513020302,-149.80269762717842,1507.9221652492438,-455.61904173501182,-879.92789337543286,1675.7637646604003,-1333.8500451065242,694.31395357990743,-694.31395357990743,1333.8500451065242,3261.7569508846227,0.0
693204.59901257406,4102374.0504322448,-32500.0,-1695.8293965647606,500.98488296738145,-102.14406367615959,1289.4597782029275,-351.64238940915817,-702.45004017725819,1453.3918024308789,-1255.0216955169519,616.60782869843433,-616.60782869843433,1255.0216955169519,2838.2275461060385,0.0
698204.59901257406,4102374.0504322448,-32500.0,-1567.537531725626,411.8082858429467,-69.849312647570926,1100.9957766896057,-272.40678658480363,-562.51357522656861,1263.173655401652,-1164.3151928697605,542.84780269443127,-542.84780269443127,1164.3151928697605,2473.0305863507833,0.0
703204.59901257406,4102374.0504322448,-32500.0,-1437.5902635947916,338.31705772531359,-48.033032606037402,940.13042806126521,-211.93355930018802,-452.25695730168366,1100.7328735177109,-1070.0933953933759,475.44924395797716,-475.44924395797716,1070.0933953933759,2159.2203367434854,0.0
708204.59901257406,4102374.0504322448,-32500.0,-1311.6304429301056,278.08796371211838,-33.34785586826969,803.69447087265053,-165.64629006721384,-365.28198842383989,962.03161114586601,-977.45270695933004,415.27155090118617,-415.27155090118617,977.45270695933004,1889.965675217733,0.0
713204.59901257406,4102374.0504322448,-32500.0,-1192.8360029863984,228.86725532622646,-23.508332499462913,688.37948048876126,-130.08248251120423,-296.49868859363141,843.4869379690158,-889.32813426495898,362.31421650122604,-362.31421650122604,889.32813426495898,1658.9574148405006,0.0
718204.59901257406,4102374.0504322448,-32500.0,-1082.7870556995279,188.68205222097595,-16.956480620196118,591.05797537455578,-102.63821487619845,-241.91333041991996,741.9947009090763,-807.25391472121999,316.13379574495218,-316.13379574495218,807.25391472121999,1460.5785364598387,0.0
723204.59901257406,4102374.0504322448,-32500.0,-982.05315395351045,155.86343569101095,-12.630657458062135,508.92462783954619,-81.359673423065445,-198.41702951575533,654.90465565958982,-731.87609851640309,276.08713577488908,-276.08713577488908,731.87609851640309,1289.9388806212598,0.0
523204.59901257406,4107374.0504322448,-32500.0,-663.45405361468954,-344.03890765700606,-85.938332388827533,-372.6919909551425,-155.74438282695576,-152.88991485547308,546.40618749405257,-432.91688721148205,-215.48265630883452,215.48265630883452,432.91688721148205,1069.530990612534,0.0
528204.59901257406,4107374.0504322448,-32500.0,-711.40097701802745,-394.30169569886556,-103.39650513746633,-424.48209748163504,-185.4491380200856,-183.30305499587257,614.14783984210499,-458.40913976562416,-257.63931336488594,257.63931336488594,458.40913976562416,1199.0086480955763,0.0
533204.59901257406,4107374.0504322448,-32500.0,-758.64847278365107,-452.75480343380798,-125.64780606741851,-483.51014971725829,-221.66221773241838,-220.40364795289668,691.78071421533787,-481.12440298984018,-309.13645723297077,309.13645723297077,481.12440298984018,1346.6244278164538,0.0
538204.59901257406,4107374.0504322448,-32500.0,-802.76035677179357,-520.55698561828819,-154.19551222631864,-550.26704429726453,-265.85169157015906,-265.62449109093109,780.69802929052594,-498.66895221063606,-372.13705680332754,372.13705680332754,498.66895221063606,1514.6403560697174,0.0
543204.59901257406,4107374.0504322448,-32500.0,-840.11181682385347,-598.83078463712729,-191.03263700332619,-624.8757622297411,-319.74271876309092,-320.58647972412984,882.35782305441671,-507.61073864314471,-449.2425118316695,449.2425118316695,507.61073864314471,1705.2588006001868,0.0
548204.59901257406,4107374.0504322448,-32500.0,-865.44794831472916,-688.49118245153863,-238.78639932786226,-706.7753546358897,-385.28062818255836,-387.00708757153205,998.18465861061964,-503.11881362243923,-543.50848275932765,543.50848275932765,503.11881362243923,1920.3561860697152,0.0
553204.59901257406,4107374.0504322448,-32500.0,-871.33444424316428,-789.94929354358442,-300.88293703514603,-794.22705114655821,-464.50149620587513,-466.48253279322773,1129.3939399664446,-478.52629277676579,-658.38982982765833,658.38982982765833,478.52629277676579,2161.0428072019508,0.0
558204.59901257406,4107374.0504322448,-32500.0,-847.52628333113228,-902.62684889461832,-381.70785251764988,-883.56728435093976,-559.22537863038644,-560.041802766091,1276.6976367822406,-424.84920350174343,-797.54550497525588,797.54550497525588,424.84920350174343,2426.9727568941348,0.0
563204.59901257406,4107374.0504322448,-32500.0,-780.35179924746365,-1024.2028232689568,-486.70167985573522,-968.12400525459884,-670.42717520404403,-667.30514482627575,1439.8385957753642,-330.35972696305356,-964.39068032077557,964.39068032077557,330.35972696305356,2715.3265190599327,0.0
568204.59901257406,4107374.0504322448,-32500.0,-652.35574057947133,-1149.5209027368296,-622.25876197820196,-1036.7333331628531,-797.04755371479848,-784.97950595072587,1616.8957428877568,-180.44334350536946,-1161.2259511084746,1161.2259511084746,180.44334350536946,3019.4343517119846,0.0
573204.59901257406,4107374.0504322448,-32500.0,-442.72159918472113,-1269.1723572277313,-795.17949410712868,-1071.9045921719091,-933.88586558785005,-904.28890008585097,1803.3411656426285,41.793502773140176,-1387.7306381760918,1387.7306381760918,-41.793502773140176,3327.2135658473494,0.0
578204.59901257406,4107374.0504322448,-32500.0,-129.46225119378539,-1368.0507381041332,-1011.2601217115832,-1048.004780766777,-1068.1106583829933,-1006.7906415774463,1990.9978096508926,353.31943974735975,-1638.6631781700266,1638.6631781700266,-353.31943974735975,3620.2013681428966,0.0
583204.59901257406,4107374.0504322448,-32500.0,304.99991205018154,-1424.8995782445893,-1272.4953676805271,-930.63092684089088,-1174.0294864313248,-1058.0089855030585,2167.6413892650271,766.08663375759363,-1901.0264560781138,1901.0264560781138,-766.08663375759363,3875.6184545842998,0.0
588204.59901257406,4107374.0504322448,-32500.0,862.89271676889973,-1415.3387710148334,-1572.7202414116734,-679.96877741986577,-1206.6367344440898,-998.86096868988977,2319.9046275014721,1277.7366529357485,-2152.2651332556857,2152.2651332556857,-1277.7366529357485,4077.7894278485342,0.0
593204.59901257406,4107374.0504322448,-32500.0,1514.2796409627633,-1322.8462262212583,-1893.3136586214664,-263.48611434477317,-1097.3474041780296,-737.10808213433722,2448.2544898594083,1858.624690207203,-2363.8951140964687,2363.8951140964687,-1858.624690207203,4251.9619287455507,0.0
598204.59901257406,4107374.0504322448,-32500.0,2179.9935601344832,-1162.0265023552529,-2204.9639104271678,314.99906491602871,-761.62813559040012,-146.97354154677083,2615.8344115627419,2441.6704205009592,-2518.3010281884526,2518.3010281884526,-2441.6704205009592,4530.7613482353563,0.0
603204.59901257406,4107374.0504322448,-32500.0,2731.3666469049272,-1008.8326121772134,-2485.8856167442277,967.56461943420845,-135.68991380887798,904.13708421050956,2994.8010782892698,2930.6824248206731,-2643.0390660247303,2643.0390660247303,-2930.6824248206731,5190.6050071075933,0.0
608204.59901257406,4107374.0504322448,-32500.0,3030.7271865639609,-1008.078098058186,-2757.404786948423,1470.8207961082917,745.20096868969756,2469.5740526132313,3685.3163688966251,3242.794283418531,-2843.3689773656838,2843.3689773656838,-3242.794283418531,6463.2743586542974,0.0
613204.59901257406,4107374.0504322448,-32500.0,3029.2572762874656,-1311.6117321054887,-3099.9793877943603,1458.873582395061,1648.2562322716535,4336.5440223123005,4583.9924069374538,3381.1176025873897,-3277.7492977381048,3277.7492977381048,-3381.1176025873897,8184.4589798073212,0.0
618204.59901257406,4107374.0504322448,-32500.0,2919.9890638509573,-1929.3793073889542,-3588.039187313304,588.63753812105267,2105.1449086448179,5753.0520146192248,5397.4863901721692,3513.8032252714684,-4027.1422591641722,4027.1422591641722,-3513.8032252714684,9711.8603969719516,0.0
623204.59901257406,4107374.0504322448,-32500.0,3169.7359253594832,-2553.2057649755011,-4152.9137245792481,-939.71594016062841,1602.7003302816076,5452.3383832193131,5741.6559346268068,3937.4783422876262,-4882.5790445735729,4882.5790445735729,-3937.4783422876262,10269.269311441523,0.0
628204.59901257406,4107374.0504322448,-32500.0,3962.7401402894179,-2617.7123860848901,-4515.2164817943067,-1964.3822488873748,119.09526010606318,2742.1195099877568,5584.2203252777854,4649.1873710622576,-5265.8087269532034,5265.8087269532034,-4649.1873710622576,9756.7152651028246,0.0
633204.59901257406,4107374.0504322448,-32500.0,4540.086875137441,-1860.960533725548,-4376.6127973343118,-1352.8235205474207,-1578.9913353475906,-1154.91440215638,5304.1645022701114,4968.3411809417285,-4677.5182039105784,4677.5182039105784,-4968.3411809417285,9193.4495289996394,0.0
638204.59901257406,4107374.0504322448,-32500.0,4013.8096007448958,-696.05135946414589,-3735.2950966551339,505.37906888063748,-2636.4935773020684,-4119.0876980319063,5360.3569818214582,4272.4103720120238,-3302.6964595048194,3302.6964595048194,-4272.4103720120238,9286.7083009311591,0.0
643204.59901257406,4107374.0504322448,-32500.0,2535.0611076743726,291.3663408660239,-2865.3704726903907,2334.2361304349761,-2871.5683376874354,-5310.5292340026654,5436.7888277917573,2811.3794159475783,-1787.0431419679198,1787.0431419679198,-2811.3794159475783,9470.3087247195763,0.0
648204.59901257406,4107374.0504322448,-32500.0,855.72893977055844,863.6292449541827,-2036.2570970184606,3426.7625660623012,-2592.4085047470662,-5220.2080370585072,5210.096990410213,1248.996718481322,-593.12282834267103,593.12282834267103,-1248.996718481322,9237.774922737317,0.0
653204.59901257406,4107374.0504322448,-32500.0,-509.88865201686605,1081.4034189392428,-1373.939001768751,3801.0542026035914,-2128.358332182127,-4562.1284320646264,4758.9446408595695,2.0185977476143648,173.5274014919579,-173.5274014919579,-2.0185977476143648,8608.5979015202029,0.0
658204.59901257406,4107374.0504322448,-32500.0,-1428.7190772560105,1084.2421213641007,-893.8197316485157,3719.9186396242922,-1663.3231841130962,-3771.4299877034987,4218.6841239365631,-837.28314005958055,594.08213142056252,-594.08213142056252,837.28314005958055,7769.6579903316488,0.0
663204.59901257406,4107374.0504322448,-32500.0,-1961.2443677278732,983.30487182096977,-564.80737194205676,3412.0280215666371,-1267.1765563468118,-3033.9190289316748,3676.710305732795,-1332.7335728159283,784.48065363514979,-784.48065363514979,1332.7335728159283,6873.3012549217028,0.0
668204.59901257406,4107374.0504322448,-32500.0,-2214.4549266934487,845.27669461378264,-347.07262497805311,3018.7278283446635,-953.21453096481264,-2407.6852730319561,3175.3673932314196,-1581.8759117609395,837.60601112914242,-837.60601112914242,1581.8759117609395,6007.7262386679458,0.0
673204.59901257406,4107374.0504322448,-32500.0,-2283.4062051766787,704.50715999403928,-206.41352181343453,2615.4366175790838,-713.09456597120686,-1898.4677777189186,2730.446435704217,-1669.0098825572161,815.44999875200506,-815.44999875200506,1669.0098825572161,5215.2268023092856,0.0
678204.59901257406,4107374.0504322448,-32500.0,-2238.4900932341893,576.37003626122498,-117.30996074037846,2238.3663535842406,-532.73670573137417,-1493.5859739547232,2344.4262133334537,-1655.833692295141,755.99836945976563,-755.99836945976563,1655.833692295141,4511.440538292778,0.0
683204.59901257406,4107374.0504322448,-32500.0,-2127.9676285623509,466.21717671590363,-61.952404955324283,1902.3561351137396,-398.44210822064258,-1175.5795819032373,2013.7556871872055,-1584.3442598693673,681.33023949150402,-681.33023949150402,1584.3442598693673,3897.8242642832806,0.0
688204.59901257406,4107374.0504322448,-32500.0,-1983.536723296635,374.52198569566718,-28.353511734786679,1611.1117985536798,-298.77815257878149,-927.40896951901652,1732.510014812427,-1481.9831233078144,603.68317140232409,-603.68317140232409,1481.9831233078144,3368.8088337900977,0.0
693204.59901257406,4107374.0504322448,-32500.0,-1825.3372316550485,299.62990628433795,-8.6135541448903368,1362.8459393708376,-224.8183351394311,-734.25933210208098,1494.1713185611691,-1366.1270933857693,529.4315429914268,-529.4315429914268,1366.1270933857693,2915.7777875270672,0.0
698204.59901257406,4107374.0504322448,-32500.0,-1665.719242197086,239.15414173535814,2.4054556305840973,1153.3373546389441,-169.82307240580442,-583.94973323604324,1292.4654796449759,-1247.4227259902093,461.55437164567047,-461.55437164567047,1247.4227259902093,2529.2298712995394,0.0
703204.59901257406,4107374.0504322448,-32500.0,-1511.902053126676,190.64355510736738,8.0150497341438687,977.55997592391509,-128.79421630243269,-466.77714444397714,1121.7233701580751,-1132.1140997814239,401.12361089888628,-401.12361089888628,1132.1140997814239,2199.9091154729676,0.0
708204.59901257406,4107374.0504322448,-32500.0,-1367.7927794076668,151.87073622501129,10.334292049452072,830.51472514868237,-98.059000511267229,-375.15874717145368,976.99978323068353,-1023.6196732456867,348.18423122899782,-348.18423122899782,1023.6196732456867,1919.3451241339833,0.0
713204.59901257406,4107374.0504322448,-32500.0,-1235.2069202433322,120.93013716244081,10.709681255483206,707.61996792203001,-74.929558810346862,-303.23724718496999,854.07221300421077,-923.58120547366298,302.26578395728376,-302.26578395728376,923.58120547366298,1680.0633408335761,0.0
718204.59901257406,4107374.0504322448,-32500.0,-1114.6745749474599,96.245834620321872,9.9895675914645317,604.86057822980365,-57.440343326710739,-246.51795732999128,749.38266527061717,-832.5511047957857,262.67312439672213,-262.67312439672213,832.5511047957857,1475.6143285909125,0.0
723204.59901257406,4107374.0504322448,-32500.0,-1005.9650817166688,76.540390878856172,8.7024002823956348,518.81075771125154,-44.151968551201982,-201.56262068069458,659.95715730905431,-750.43675159853842,228.64653804608469,-228.64653804608469,750.43675159853842,1300.5113182641294,0.0
523204.59901257406,4112374.0504322448,-32500.0,-777.8301637540568,-301.39636136733907,-48.88340677457915,-424.28701612958901,-133.90457518443918,-171.09931696997086,584.15172998692367,-533.07289538652469,-142.14682728559592,142.14682728559592,533.07289538652469,1150.4695709571813,0.0
528204.59901257406,4112374.0504322448,-32500.0,-847.07406120472467,-346.93808599920902,-58.651929100696506,-488.56930593789826,-159.92622259219951,-207.01722176676429,659.56783685643177,-577.22676788267461,-172.77294282564071,172.77294282564071,577.22676788267461,1296.3697137651207,0.0
533204.59901257406,4112374.0504322448,-32500.0,-920.11412133773422,-400.51285952038222,-71.442256535866662,-563.59121495901229,-191.89689718727737,-251.53666580359504,746.77493799029537,-622.52668488119605,-210.89202859911143,210.89202859911143,622.52668488119605,1464.3930327316352,0.0
538204.59901257406,4112374.0504322448,-32500.0,-995.46249564792117,-463.53592892630036,-88.355673681515043,-650.92271096271077,-231.28462231735409,-306.83161700343112,847.69931001142368,-667.39318742191335,-258.49252996387463,258.49252996387463,667.39318742191335,1657.8808866637007,0.0
543204.59901257406,4112374.0504322448,-32500.0,-1070.5761130840126,-537.56662877502265,-110.92404698452864,-752.10662423328324,-279.8919290459321,-375.57277533984183,964.49048273408823,-709.31254376626782,-318.09037930064767,318.09037930064767,709.31254376626782,1880.4110130585432,0.0
548204.59901257406,4112374.0504322448,-32500.0,-1141.3669908735601,-624.22943698028087,-141.27944232857882,-868.4373801051305,-339.88514872710925,-460.9682258086637,1099.465447371638,-744.42486539901211,-392.84047928594578,392.84047928594578,744.42486539901211,2135.5942062375175,0.0
553204.59901257406,4112374.0504322448,-32500.0,-1201.5308148482186,-725.04703380715512,-182.38371658737125,-1000.569487818318,-413.77493250406735,-566.73128595466449,1254.9784878984433,-766.96499806238739,-486.64105321458919,486.64105321458919,766.96499806238739,2426.6857521711977,0.0
558204.59901257406,4112374.0504322448,-32500.0,-1241.6582187726162,-841.12473508898154,-238.32772594537292,-1147.8573540624891,-504.28678307984023,-696.88923495022277,1433.1632158477942,-768.53150032875158,-604.19365633244809,604.19365633244809,768.53150032875158,2755.899026649,0.0
563204.59901257406,4112374.0504322448,-32500.0,-1248.1257639671101,-972.59719426850688,-314.69597961566546,-1307.2860307584049,-614.00814926568637,-855.27653360441002,1635.4633389393871,-737.18993177289542,-750.94589379015122,750.94589379015122,737.18993177289542,3123.2625146423393,0.0
568204.59901257406,4112374.0504322448,-32500.0,-1201.8578232083285,-1117.714628428909,-418.95117371659779,-1471.8068040015285,-744.60531248561506,-1044.4339986327795,1861.8215581573611,-656.50271217392719,-932.77856369734832,932.77856369734832,656.50271217392719,3524.810904741792,0.0
573204.59901257406,4112374.0504322448,-32500.0,-1077.2878222444722,-1271.4373841251247,-560.69474565721521,-1627.8752355713107,-895.25043557534991,-1263.429026737359,2109.3355085451681,-504.7864805478099,-1155.1986272506856,1155.1986272506856,504.7864805478099,3949.897296449873,0.0
578204.59901257406,4112374.0504322448,-32500.0,-842.38150040409994,-1423.5176361753893,-751.45679511942956,-1752.1162275586616,-1059.6747193516164,-1503.7836201530627,2370.148651136873,-255.35131628964893,-1421.6868498076456,1421.6868498076456,255.35131628964893,4377.6169998620735,0.0
583204.59901257406,4112374.0504322448,-32500.0,-461.64114060373674,-1556.5342859125731,-1003.324479901326,-1807.6319931819735,-1221.0497998427893,-1742.2491332312954,2628.4586411433252,120.66764571444833,-1730.873554489702,1730.873554489702,-120.66764571444833,4773.2147150692936,0.0
588204.59901257406,4112374.0504322448,-32500.0,94.380721390489398,-1645.8105868432392,-1325.3919750004873,-1742.333667812472,-1344.1740696522795,-1928.9785443648404,2857.3583465572819,646.09482124024828,-2072.9401740782278,2072.9401740782278,-646.09482124024828,5088.290092858042,0.0
593204.59901257406,4112374.0504322448,-32500.0,828.78188782443385,-1666.3266897967651,-1717.6289090214259,-1496.0407351874187,-1366.8744922242884,-1971.3725513953041,3019.7218239881022,1321.2303705609343,-2428.4075769389528,2428.4075769389528,-1321.2303705609343,5276.7522701750768,0.0
598204.59901257406,4112374.0504322448,-32500.0,1688.5131631004249,-1615.2128061321748,-2165.7686714623192,-1029.3841576131972,-1200.8068100723908,-1722.0773308176474,3091.581793642928,2101.9380994022076,-2778.3928465269491,2778.3928465269491,-2101.9380994022076,5354.7812687417763,0.0
603204.59901257406,4112374.0504322448,-32500.0,2546.4923135304261,-1551.2602721385699,-2649.7422835462448,-385.47497266981406,-767.45692422633022,-999.5674811478832,3179.141086793109,2892.4205750933761,-3137.9796328643288,3137.9796328643288,-2892.4205750933761,5530.0274879895414,0.0
608204.59901257406,4112374.0504322448,-32500.0,3239.13424020516,-1613.2396323979801,-3177.2088781534344,237.98300083720949,-96.193087580169845,308.82730873245055,3600.8039518109881,3585.6281444630536,-3595.7382647300669,3595.7382647300669,-3585.6281444630536,6241.7622833369069,0.0
613204.59901257406,4112374.0504322448,-32500.0,3671.0379802332818,-1930.8017639149546,-3800.6184273543931,484.6275717399904,561.71971732345048,2025.8753514183113,4266.6216584471249,4139.1463071773196,-4269.1495548950497,4269.1495548950497,-4139.1463071773196,7686.0448071917353,0.0
618204.59901257406,4112374.0504322448,-32500.0,3935.3273986380905,-2428.8657972836741,-4509.8019827650096,11.177302703625742,771.16563961716213,3385.0324325274305,4918.9021260089876,4612.2659354405278,-5107.6554426947678,5107.6554426947678,-4612.2659354405278,9298.2984434107238,0.0
623204.59901257406,4112374.0504322448,-32500.0,4344.9341951362057,-2742.7017448007291,-5055.4614801002817,-1012.9955960933272,220.84823270438056,3028.3140856838654,5657.4662203227317,5122.8485319397878,-5730.8137521566023,5730.8137521566023,-5122.8485319397878,10174.292015780375,0.0
628204.59901257406,4112374.0504322448,-32500.0,4974.5982372785165,-2471.246835038552,-5046.8002756481283,-1461.5654372748807,-870.10251439331353,234.99669893348957,5841.0062079258241,5562.6311757067806,-5611.1887614524685,5611.1887614524685,-5562.6311757067806,10119.078692596957,0.0
633204.59901257406,4112374.0504322448,-32500.0,5083.2172873801483,-1642.9659168571638,-4363.5440641157502,-326.20427276371674,-1819.044373015814,-3542.8966824959557,5690.346716377976,5347.072255209845,-4584.0783105398259,4584.0783105398259,-5347.072255209845,10025.283446205203,0.0
638204.59901257406,4112374.0504322448,-32500.0,4001.3954365561849,-712.7801915881588,-3305.5219589718754,1775.5512283303049,-2177.8579900284594,-6053.2505683088375,5924.3821719609477,4119.7152060884919,-3072.6231858020228,3072.6231858020228,-4119.7152060884919,10306.773980321057,0.0
643204.59901257406,4112374.0504322448,-32500.0,2137.4739650124989,-43.826914044644354,-2262.9816038255535,3523.5112654151558,-2033.3703951220152,-6658.9605471345512,5976.2199611769756,2341.7125630019809,-1651.8156124136283,1651.8156124136283,-2341.7125630019809,10377.277721247296,0.0
648204.59901257406,4112374.0504322448,-32500.0,310.73189680225852,305.24050119110103,-1439.512111140253,4368.491057706864,-1665.6978751810977,-6074.3802739713929,5624.4638286423815,690.18040818201371,-615.31122862027519,615.31122862027519,-690.18040818201371,9925.3117377948456,0.0
653204.59901257406,4112374.0504322448,-32500.0,-1041.3346501221904,428.4504621717868,-863.03545353999141,4479.2947941839138,-1271.6746017574651,-5078.3724287302612,5049.577440405018,-510.41822419280629,25.476673044312435,-25.476673044312435,510.41822419280629,9090.8574433542071,0.0
658204.59901257406,4112374.0504322448,-32500.0,-1876.6266392913112,429.13675806136916,-486.87581045197675,4184.2538296537814,-934.42304930221985,-4078.2317470983157,4414.0066827569199,-1252.9346557498304,372.40746057171509,-372.40746057171509,1252.9346557498304,8095.3078786300803,0.0
663204.59901257406,4112374.0504322448,-32500.0,-2311.0978593448976,376.24056642187531,-252.6051817063092,3721.6724398873375,-672.38033206611271,-3215.7815217136326,3805.0839199105226,-1647.9657450073544,532.06123514649903,-532.06123514649903,1647.9657450073544,7088.8379443444228,0.0
668204.59901257406,4112374.0504322448,-32500.0,-2475.9891722267271,307.25724477909682,-112.16872547858313,3222.3278794296484,-478.23147195519459,-2515.6796272285433,3258.4700946402722,-1811.3999054158571,582.57326014774219,-582.57326014774219,1811.3999054158571,6148.379583200649,0.0
673204.59901257406,4112374.0504322448,-32500.0,-2473.520948018117,239.91952107471994,-31.322574823589143,2748.1083710626453,-337.87012222543171,-1962.6475499509093,2783.3846079134928,-1831.5217444689076,573.85920442106794,-573.85920442106794,1831.5217444689076,5305.5746141948166,0.0
678204.59901257406,4112374.0504322448,-32500.0,-2373.8930382198391,181.27973843137977,12.739968522528427,2324.1165656680955,-237.66525860783264,-1531.607297260477,2377.365746037246,-1768.3171391251553,535.71001168754037,-535.71001168754037,1768.3171391251553,4568.1320270321339,0.0
683204.59901257406,4112374.0504322448,-32500.0,-2222.6981913147461,133.14403781337455,34.647972967280957,1957.210757962644,-166.55983071985665,-1197.8894228338672,2033.4572282261724,-1660.4646526128347,485.1576493688674,-485.1576493688674,1660.4646526128347,3932.0385252435331,0.0
688204.59901257406,4112374.0504322448,-32500.0,-2048.5743503682525,94.988759744441026,43.562684347256479,1645.6697887210344,-116.22292943498917,-940.24837340571935,1743.4669758913142,-1532.1191897077579,431.56178421902075,-431.56178421902075,1532.1191897077579,3388.0574201506242,0.0
693204.59901257406,4112374.0504322448,-32500.0,-1868.9525719777332,65.423517390498915,45.119752513978568,1384.0946134235321,-80.600874276349629,-741.38762974499207,1499.37728572316,-1397.9186597752991,379.79771435475499,-379.79771435475499,1397.9186597752991,2925.118565417873,0.0
698204.59901257406,4112374.0504322448,-32500.0,-1694.0139581322269,42.880097663648051,42.730971034359342,1165.8830908993084,-55.376713851295676,-587.64686654294178,1293.9227029044084,-1266.3936188062617,332.17717864341682,-332.17717864341682,1266.3936188062617,2532.078128493612,0.0
703204.59901257406,4112374.0504322448,-32500.0,-1529.3227841681958,25.906121899083502,38.425823014757768,984.44274867905506,-37.500226899304813,-468.43207808923916,1120.7753892704438,-1142.2148894226871,289.58121753868102,-289.58121753868102,1142.2148894226871,2198.5744512134538,0.0
708204.59901257406,4112374.0504322448,-32500.0,-1377.5561474889334,13.267381788081478,33.384136772411452,833.74341061021607,-24.824567678377147,-375.61967860887086,974.55014587627193,-1027.6560476895779,252.12075422683267,-252.12075422683267,1027.6560476895779,1915.3897042527778,0.0
713204.59901257406,4112374.0504322448,-32500.0,-1239.6282518748558,3.9619597796775969,28.268935292973769,708.52264979210247,-15.839513934253512,-303.0216684580725,850.72830595370431,-923.53540818669967,219.516652663505,-219.516652663505,923.53540818669967,1674.540866780181,0.0
718204.59901257406,4112374.0504322448,-32500.0,-1115.4155884306977,-2.8019101855139654,23.432427435907925,604.31529033165668,-9.4810773678679094,-245.94045896175305,745.55227283797535,-829.81822199198018,191.31504114609663,-191.31504114609663,829.81822199198018,1469.2331036766795,0.0
723204.59901257406,4112374.0504322448,-32500.0,-1004.2144545328297,-7.6400234204561279,19.042795897520378,517.39652564476808,-4.9974141603846425,-200.8126347014599,655.91208849788529,-745.99394205020326,167.00525081240954,-167.00525081240954,745.99394205020326,1293.7428933453311,0.0
523204.59901257406,4117374.0504322448,-32500.0,-877.29027715738107,-241.84379628690786,-16.958448417289734,-469.05621657046817,-104.82992635077338,-186.90221787537706,618.2702647296212,-621.83900132106464,-60.612560452027935,60.612560452027935,621.83900132106464,1221.1953631805818,0.0
528204.59901257406,4117374.0504322448,-32500.0,-965.35960498382678,-278.40441706130844,-19.797236848302813,-544.30546464583892,-124.97901447737767,-227.64542279433141,700.65557743747991,-682.91256317376133,-77.13566344563219,77.13566344563219,682.91256317376133,1381.6465809121498,0.0
533204.59901257406,4117374.0504322448,-32500.0,-1061.3735171664441,-321.61290606215664,-23.926353953252143,-633.45121408550426,-149.75777572272227,-278.70206329488934,796.63824418595743,-748.88270920111654,-98.40301246041048,98.40301246041048,748.88270920111654,1567.8836122946786,0.0
538204.59901257406,4117374.0504322448,-32500.0,-1164.8104627126991,-372.75815567962167,-29.984212640223951,-739.08447759818444,-180.34209133523092,-342.9313577312509,908.68924303809854,-819.0481948087471,-125.8859580201115,125.8859580201115,819.0481948087471,1784.3147791289236,0.0
543204.59901257406,4117374.0504322448,-32500.0,-1274.2864801490953,-433.3353134093025,-38.924894591687192,-864.12195839299579,-218.2008052457125,-423.99025205766293,1039.6876736425547,-891.94945061694534,-161.53720905812878,161.53720905812878,891.94945061694534,2035.9253814302733,0.0
548204.59901257406,4117374.0504322448,-32500.0,-1387.0617636068757,-505.03159299514823,-52.175550508936155,-1011.7045616720746,-265.14342516035225,-526.51494328844387,1192.9307918336572,-964.95295025134294,-207.94772660406954,207.94772660406954,964.95295025134294,2328.1843018803243,0.0
553204.59901257406,4117374.0504322448,-32500.0,-1498.3158843565639,-589.66516598295982,-71.871483815751262,-1184.9567825888282,-323.34715650584241,-656.29722454230603,1372.0913985352079,-1033.6425756297585,-268.54723111393639,268.54723111393639,1033.6425756297585,2666.7937965764972,0.0
558204.59901257406,4117374.0504322448,-32500.0,-1600.1020138800045,-689.03716355577717,-101.20410872144517,-1386.5026066085661,-395.32733850458061,-820.40086807566911,1581.0732101027581,-1090.9431883693937,-347.85069833906579,347.85069833906579,1090.9431883693937,3057.1674110438939,0.0
563204.59901257406,4117374.0504322448,-32500.0,-1679.8750401037873,-804.6287052506724,-144.92644513134115,-1617.5670411009735,-483.77966499655884,-1027.1039257487394,1823.6776115139567,-1125.889249127486,-451.73860711127645,451.73860711127645,1125.889249127486,3503.4535764339007,0.0
568204.59901257406,4117374.0504322448,-32500.0,-1718.4993378257509,-937.03157224258894,-210.06206409464258,-1876.3834674929572,-591.15499144101739,-1285.4355431568918,2102.9269093000639,-1121.9623307445297,-587.72309970237529,587.72309970237529,1121.9623307445297,4006.819139211329,0.0
573204.59901257406,4117374.0504322448,-32500.0,-1687.7558446855764,-1084.9387855548391,-306.83193638244467,-2155.4668343648214,-718.69829924199041,-1603.8473227149807,2419.7709410311159,-1055.0208380660506,-765.06637013026761,765.06637013026761,1055.0208380660506,4562.5749593652317,0.0
578204.59901257406,4117374.0504322448,-32500.0,-1547.7747726906152,-1243.47149003811,-449.68801439028738,-2437.1159857199882,-864.44060343227886,-1987.0835022128003,2770.7001669277529,-891.19127376640051,-994.4414792611725,994.4414792611725,891.19127376640051,5155.6013694852882,0.0
583204.59901257406,4117374.0504322448,-32500.0,-1246.0044420329391,-1401.736291796821,-657.99320098943804,-2686.519861501341,-1019.2139808687525,-2429.3659618021215,3143.5221283335841,-586.07161000867848,-1286.5320988634794,1286.5320988634794,586.07161000867848,5753.7017468970371,0.0
588204.59901257406,4117374.0504322448,-32500.0,-722.12011067170397,-1540.3814860325813,-955.13935866174381,-2843.0682152778368,-1159.3116082303172,-2900.4409401577764,3510.5319498733638,-88.83943943579925,-1648.7933492518887,1648.7933492518887,88.83943943579925,6300.0980259974249,0.0
593204.59901257406,4117374.0504322448,-32500.0,72.149326630613913,-1633.0261327046103,-1363.8844805237227,-2815.7846294113551,-1235.2329772563619,-3320.1896603211021,3819.8506755249668,641.67531699263623,-2080.7663962225124,2080.7663962225124,-641.67531699263623,6712.8456886311269,0.0
598204.59901257406,4117374.0504322448,-32500.0,1128.6285743726003,-1662.2268463123007,-1896.3156377860198,-2502.3110940038382,-1163.1604207689345,-3524.91201522754,3992.8293869413274,1602.1456157222142,-2574.0008102361085,2574.0008102361085,-1602.1456157222142,6918.2028031729415,0.0
603204.59901257406,4117374.0504322448,-32500.0,2328.0284482563134,-1663.0585109365138,-2544.3541832904184,-1864.2897580797239,-848.93120582461734,-3262.30170910487,3960.5308161577004,2704.6895269190954,-3132.6527068397254,3132.6527068397254,-2704.6895269190954,6974.2202810398876,0.0
608204.59901257406,4117374.0504322448,-32500.0,3450.1049156034005,-1766.4053398399953,-3289.0396630846913,-1050.8573037387112,-298.87601730851321,-2310.4292742071061,3974.0482477518985,3790.9011636085133,-3814.8841299056685,3814.8841299056685,-3790.9011636085133,7260.8676039646443,0.0
613204.59901257406,4117374.0504322448,-32500.0,4309.1731088280294,-2109.9089183563651,-4115.8651113022152,-422.54380603983191,218.93009646083212,-776.29008526057532,4732.0816944389699,4729.8811913527161,-4692.3393850640414,4692.3393850640414,-4729.8811913527161,8248.1847111094285,0.0
618204.59901257406,4117374.0504322448,-32500.0,4872.3638100125036,-2567.0214091450302,-4926.1157589980803,-324.33311584996591,270.02058564756675,614.28563251711432,5548.4287432415676,5454.1500002537578,-5603.2813370750227,5603.2813370750227,-5454.1500002537578,9629.2183280731679,0.0
623204.59901257406,4117374.0504322448,-32500.0,5252.5566746115983,-2717.1047775643406,-5383.168602005001,-677.16359290076639,-241.09497632167736,606.40099253843664,6017.2543996850509,5900.2732085470197,-6041.254022723464,6041.254022723464,-5900.2732085470197,10439.740726141767,0.0
628204.59901257406,4117374.0504322448,-32500.0,5482.3345017395759,-2332.5198994461016,-5119.8546167305012,-641.96363339036293,-844.68810183443588,-1499.5218179256146,5912.1883644338486,5950.5543900087914,-5623.6489138669886,5623.6489138669886,-5950.5543900087914,10335.790429620916,0.0
633204.59901257406,4117374.0504322448,-32500.0,5103.5125516992894,-1677.2386881328382,-4192.2404747479031,564.37767880125864,-1060.5969422427454,-4473.6790753309697,5452.4174133505112,5306.9923246129474,-4518.4812457368516,4518.4812457368516,-5306.9923246129474,10093.362606352224,0.0
638204.59901257406,4117374.0504322448,-32500.0,3748.66863856598,-1121.6599018196107,-3022.4262131499272,2423.9775010001699,-899.18042140715693,-6377.5334490376654,5775.9028943707726,3870.2557187174707,-3198.9706958677007,3198.9706958677007,-3870.2557187174707,10180.82311308643,0.0
643204.59901257406,4117374.0504322448,-32500.0,1851.6795285043841,-774.9675619693511,-1979.4195984012028,3876.9592819103905,-614.40952177515544,-6674.2636403139277,5850.5910489536309,2093.1341191434485,-2029.6818046309083,2029.6818046309083,-2093.1341191434485,10135.677341767618,0.0
648204.59901257406,4117374.0504322448,-32500.0,102.41198506961962,-578.72183728208586,-1204.4618948232537,4511.9797647345749,-362.72508943771936,-5979.5305310938065,5501.8792540307149,527.1086683487905,-1154.8917051252752,1154.8917051252752,-527.1086683487905,9655.2038742310251,0.0
653204.59901257406,4117374.0504322448,-32500.0,-1157.5059556580202,-465.02690886384869,-685.67935448991807,4504.4515655505693,-181.79739772869809,-4962.4736959106867,4936.2071845192513,-585.3725531811175,-569.00637181850527,569.00637181850527,585.3725531811175,8838.2032971022509,0.0
658204.59901257406,4117374.0504322448,-32500.0,-1920.3914299814269,-393.86793565835109,-360.05316780501471,4151.4126098456472,-63.653810026335037,-3972.3621573221262,4313.792926711636,-1263.0438679607425,-205.94180497978959,205.94180497978959,1263.0438679607425,7875.7373650585105,0.0
663204.59901257406,4117374.0504322448,-32500.0,-2306.417387237786,-344.52514198180569,-164.9882130640236,3664.5709282674193,8.2291680923174511,-3127.8651998109517,3718.7076241207787,-1617.2141457669645,5.4298833752874316,-5.4298833752874316,1617.2141457669645,6903.8470341247157,0.0
668204.59901257406,4117374.0504322448,-32500.0,-2442.082811920407,-306.48368719886645,-53.135595755146234,3158.4908478475736,48.634726028467391,-2445.5816276702963,3184.9701534443839,-1757.9112350024025,120.55308895087967,-120.55308895087967,1757.9112350024025,5994.3744960234426,0.0
673204.59901257406,4117374.0504322448,-32500.0,-2423.8444528308119,-274.59058054795742,7.604088219040241,2686.0905520173283,68.748913614741809,-1907.8181441351155,2721.2048680373018,-1767.4567501655342,177.16954702829548,-177.16954702829548,1767.4567501655342,5177.7563002399957,0.0
678204.59901257406,4117374.0504322448,-32500.0,-2317.2317325153826,-246.48051325960111,37.834823604699793,2267.6828262750132,76.39899048594539,-1489.0974740859033,2324.8556470009262,-1701.2820686956611,199.33784006580879,-199.33784006580879,1701.2820686956611,4461.9231377260567,0.0
683204.59901257406,4117374.0504322448,-32500.0,-2164.4990955899061,-221.15085953503649,50.369463762822924,1907.6375102860422,76.777559043660503,-1165.0331617447462,1989.0839288486434,-1594.929632122095,201.88873054382304,-201.88873054382304,1594.929632122095,3843.5061227734259,0.0
688204.59901257406,4117374.0504322448,-32500.0,-1992.0338006208692,-198.19883400306676,53.004797785189844,1602.9912378191839,73.188103584513271,-914.84258311425435,1705.8861215430709,-1470.508564679029,193.79065171196567,-193.79065171196567,1470.508564679029,3313.9533377634643,0.0
693204.59901257406,4117374.0504322448,-32500.0,-1815.8090764116218,-177.4454596265717,50.399557793460666,1347.7765279308699,67.657703536041595,-721.69096311533269,1467.4476565845928,-1341.376711769336,180.38655854826197,-180.38655854826197,1341.376711769336,2862.8088511188917,0.0
698204.59901257406,4117374.0504322448,-32500.0,-1645.0894784087209,-158.77011359261164,45.284280475356944,1135.1757054172347,61.386830968238357,-572.31418608315039,1266.6916971846376,-1215.2926078356722,164.80478912683031,-164.80478912683031,1215.2926078356722,2479.439370440406,0.0
703204.59901257406,4117374.0504322448,-32500.0,-1484.8810831073897,-142.04936765176981,39.220649950539269,958.55947035533063,55.05704997331646,-456.43684760753024,1097.4551548240486,-1096.4822195257088,148.8306557046609,-148.8306557046609,1096.4822195257088,2153.8956975661736,0.0
708204.59901257406,4117374.0504322448,-32500.0,-1337.5356731313068,-127.14330480198942,33.069975072818636,811.94617525190404,49.032846667471084,-366.18341086565198,954.49325863125227,-986.98033360693262,133.43995015774311,-133.43995015774311,986.98033360693262,1877.2913619851183,0.0
713204.59901257406,4117374.0504322448,-32500.0,-1203.7887623887514,-113.8983332012168,27.279373827667794,690.15613647504097,43.489269065219254,-295.55507189305268,833.40401400584472,-887.49189811499741,119.12532741936838,-119.12532741936838,887.49189811499741,1641.906987189986,0.0
718204.59901257406,4117374.0504322448,-32500.0,-1083.4282977245969,-102.15544479341219,22.055202530240521,588.81504631231007,38.491470674588847,-239.9969045934474,730.52520578694316,-797.94270989310871,106.09527944822997,-106.09527944822997,797.94270989310871,1441.1565690408531,0.0
723204.59901257406,4117374.0504322448,-32500.0,-975.71850249615295,-91.75781945348605,17.467144151647595,504.28588539438124,34.043129920159565,-196.05300006313732,642.82557326469112,-717.82630307619138,94.395081919260349,-94.395081919260349,717.82630307619138,1269.4847368870819,0.0
523204.59901257406,4122374.0504322448,-32500.0,-956.18459061744625,-168.22240043194304,6.5344299435031488,-504.62554705307417,-69.746954620313147,-199.50252632944705,647.11211800127023,-693.71381251214575,24.084618241076271,-24.084618241076271,693.71381251214575,1278.4187547244146,0.0
528204.59901257406,4122374.0504322448,-32500.0,-1058.9063756276023,-192.18567236724121,8.812128652606086,-588.46584373867609,-82.175833589084192,-244.05612063337492,735.20819724637249,-768.30524546511128,22.856482121276485,-22.856482121276485,768.30524546511128,1450.4874337893743,0.0
533204.59901257406,4122374.0504322448,-32500.0,-1172.7919988000936,-220.32494054721721,11.108791815145613,-688.6677358510658,-97.253281359130298,-300.27305158088518,838.38217148170509,-850.80232292931964,20.112465376695923,-20.112465376695923,850.80232292931964,1651.280750063346,0.0
538204.59901257406,4122374.0504322448,-32500.0,-1298.0870351407991,-253.43731290651064,13.15742022347718,-808.62806162376091,-115.59504063947492,-371.55730490311328,959.56152769930429,-941.23319865154122,15.106300076725063,-15.106300076725063,941.23319865154122,1886.0881401331421,0.0
543204.59901257406,4122374.0504322448,-32500.0,-1434.3436318193062,-292.45807098535442,14.48242426662557,-952.35716869209114,-137.94924082409528,-462.35512056633183,1102.242867655089,-1039.0337153499013,6.7521580520941598,-6.7521580520941598,1039.0337153499013,2161.0770473874154,0.0
548204.59901257406,4122374.0504322448,-32500.0,-1579.9388766987449,-338.46678994542725,14.266892322055737,-1124.4833425010352,-165.20666377341303,-578.45588557785084,1270.5652636727184,-1142.6471854086419,-6.5326813537510589,6.5326813537510589,1142.6471854086419,2483.3118300170709,0.0
553204.59901257406,4122374.0504322448,-32500.0,-1731.333079820243,-392.67784408605746,11.139450106224421,-1330.1536290086506,-198.39249198045312,-727.35031570760282,1469.3575800162751,-1248.9065965707366,-27.059934494315939,27.059934494315939,1248.9065965707366,2860.6593578794386,0.0
558204.59901257406,4122374.0504322448,-32500.0,-1881.9393882927884,-456.40159165560726,2.8329088904121269,-1574.731591582334,-238.61897088201974,-918.62605715186032,1704.1215279980304,-1352.0894384100848,-58.213897333077966,58.213897333077966,1352.0894384100848,3301.4808709297972,0.0
563204.59901257406,4122374.0504322448,-32500.0,-2020.419473467608,-530.95106827271707,-14.357804528374825,-1863.1124425130922,-286.96073623730081,-1164.3404655124937,1980.8767760148874,-1442.4861436717567,-104.95711649539771,104.95711649539771,1442.4861436717567,3813.9399349587407,0.0
568204.59901257406,4122374.0504322448,-32500.0,-2128.1517991986243,-617.44666632797316,-46.425844507649593,-2198.3270306770346,-344.18293211901005,-1479.2228402547437,2305.723299620282,-1504.2628464461509,-174.56155874202705,174.56155874202705,1504.2628464461509,4404.6375013826728,0.0
573204.59901257406,4122374.0504322448,-32500.0,-2175.5776582136955,-716.43034985729798,-102.95194117851216,-2578.8229194814503,-410.1907047066461,-1880.3546582144741,2683.8303853938523,-1512.3605488600365,-277.62168230516022,277.62168230516022,1512.3605488600365,5076.0828137439921,0.0
578204.59901257406,4122374.0504322448,-32500.0,-2117.2902398399265,-827.12221519450873,-198.99428197637354,-2993.2860226442594,-482.9315369601461,-2385.4565445874396,3117.2552456673366,-1428.297012154821,-429.31705420638048,429.31705420638048,1428.297012154821,5822.1594457932279,0.0
583204.59901257406,4122374.0504322448,-32500.0,-1886.6959287572786,-946.06821751918847,-357.55245522622891,-3411.0958257916104,-556.17040913490189,-3007.5757816776731,3600.4305562927202,-1195.5078604545963,-650.58082941683233,650.58082941683233,1195.5078604545963,6620.3076594537224,0.0
588204.59901257406,4122374.0504322448,-32500.0,-1394.4263628880526,-1065.130948160079,-611.96677887125441,-3766.2382331622334,-614.94709195934468,-3740.7911875281579,4111.3780047655846,-737.52584384481611,-968.10117871173861,968.10117871173861,737.52584384481611,7419.2485745039967,0.0
593204.59901257406,4122374.0504322448,-32500.0,-543.13173844913217,-1170.4840935423783,-1005.9034385935653,-3936.6889346498738,-627.04394176014182,-4526.1349491813107,4596.8498446009235,31.031141772049637,-1411.1182158826036,1411.1182158826036,-31.031141772049637,8125.1130278065666,0.0
598204.59901257406,4122374.0504322448,-32500.0,716.67085759843417,-1250.3606511698865,-1585.3719353565698,-3740.8080731586219,-532.26612814849648,-5186.8728425660338,4955.1276221057942,1161.2161395403314,-2004.090282200094,2004.090282200094,-1161.2161395403314,8607.0948118758333,0.0
603204.59901257406,4122374.0504322448,-32500.0,2277.5670072181138,-1328.5344531865796,-2375.3022550686801,-3014.861640146843,-251.75560948596527,-5363.8796487364307,5040.3000446450551,2584.1349019406666,-2762.6186327955024,2762.6186327955024,-2584.1349019406666,8788.6047397273469,0.0
608204.59901257406,4122374.0504322448,-32500.0,3806.2033763002196,-1517.0198129583528,-3342.2138100982093,-1829.4634067379195,217.2812946464382,-4615.578243169246,4743.8622720001586,4051.6296496911905,-3703.3605881229691,3703.3605881229691,-4051.6296496911905,8883.1500797652716,0.0
613204.59901257406,4122374.0504322448,-32500.0,4917.114932843635,-1953.9520057097143,-4360.892334134558,-645.38034941238243,613.22578586462862,-2884.9607712532265,5126.2071865176658,5248.2715131098448,-4803.8585429981304,4803.8585429981304,-5248.2715131098448,9401.9976260290568,0.0
618204.59901257406,4122374.0504322448,-32500.0,5456.4708911915277,-2493.3207921538096,-5187.0261084168887,6.083176620743707,499.0980269333092,-953.77424089789099,5902.2987006682324,5966.8123627621726,-5785.4991622279513,5785.4991622279513,-5966.8123627621726,10273.519331676969,0.0
623204.59901257406,4122374.0504322448,-32500.0,5512.2719991107051,-2659.6184507564026,-5486.4106809765226,48.004467703489986,-74.662988714272686,-114.28230276946449,6109.3538282722166,6121.9688452452856,-6095.381645309827,6095.381645309827,-6121.9688452452856,10582.47591746935,0.0
628204.59901257406,4122374.0504322448,-32500.0,5275.8122233554996,-2307.4021280520046,-5084.0489754768905,69.835342629433313,-430.96754902869174,-1127.5056506721223,5690.9002985254701,5784.2830783686841,-5550.0955215830472,5550.0955215830472,-5784.2830783686841,9926.5232191231207,0.0
633204.59901257406,4122374.0504322448,-32500.0,4658.7714813679895,-1839.0661407985858,-4173.6955575645661,798.60912644611801,-214.97901117343378,-3203.251753014501,4825.987834451701,4985.6961740132865,-4565.259681038604,4565.259681038604,-4985.6961740132865,9087.4249709009782,0.0
638204.59901257406,4122374.0504322448,-32500.0,3441.7918766152425,-1567.9578862310241,-3113.0935972196048,2080.704856203954,258.06268687422289,-4799.1721419907581,4851.5984541103398,3709.8192188613275,-3556.3678126024697,3556.3678126024697,-3709.8192188613275,8799.1305900661719,0.0
643204.59901257406,4122374.0504322448,-32500.0,1849.1236632439443,-1453.9761376606705,-2159.5229621901749,3198.6729931237815,617.13837864312973,-5272.6320972978574,5041.6152771056677,2205.5001526662886,-2672.2099417316672,2672.2099417316672,-2205.5001526662886,8741.8131183647438,0.0
648204.59901257406,4122374.0504322448,-32500.0,345.28123273493725,-1368.99719958942,-1418.495081726059,3767.4047168822353,769.6000080653464,-4920.0102514824985,4846.5567112733379,840.58104393079486,-1944.9483511803342,1944.9483511803342,-840.58104393079486,8457.3478295316363,0.0
653204.59901257406,4122374.0504322448,-32500.0,-791.34548344104167,-1260.0154518546958,-893.61472086234858,3837.9904377293415,776.67803913813634,-4216.1543621260043,4429.3393932335011,-182.70950937312216,-1379.3373282899488,1379.3373282899488,182.70950937312216,7883.6943882032274,0.0
658204.59901257406,4122374.0504322448,-32500.0,-1523.2229065134795,-1129.6065658688435,-543.60137267721677,3605.9289980321423,711.69121317038741,-3458.7335115480714,3928.903702876828,-850.41795672375019,-960.31380588605089,960.31380588605089,850.41795672375019,7138.4624020610017,0.0
663204.59901257406,4122374.0504322448,-32500.0,-1928.0732837137896,-993.17819665150694,-319.34562884572574,3235.4881868676957,620.59599857580611,-2774.8511368221398,3427.0923677379619,-1235.1695540489632,-660.01604580078356,660.01604580078356,1235.1695540489632,6339.3257325377554,0.0
668204.59901257406,4122374.0504322448,-32500.0,-2103.5467518827359,-862.36659004243973,-179.73381559846374,2826.4425839380892,526.63277107398255,-2201.1743016519567,2962.7471783295236,-1421.8800884898644,-448.84173722322225,448.84173722322225,1421.8800884898644,5561.2761278271173,0.0
673204.59901257406,4122374.0504322448,-32500.0,-2130.6428539621666,-743.22481098569358,-94.920636737044418,2430.4304258539964,440.12306295166752,-1736.8678110270434,2550.2970623279075,-1479.8346804584903,-301.75629712539831,301.75629712539831,1479.8346804584903,4843.2280125987527,0.0
678204.59901257406,4122374.0504322448,-32500.0,-2067.6721868704126,-637.99528737400635,-44.726061645210429,2070.7244017912349,364.81508699302145,-1368.2074544635116,2192.0398496082967,-1458.6376795041167,-199.78319771207589,199.78319771207589,1458.6376795041167,4201.269476603351,0.0
683204.59901257406,4122374.0504322448,-32500.0,-1953.9938427867348,-546.79332068414635,-16.019418045160421,1755.3634576203381,301.27329723724256,-1078.5907073840549,1884.7676238503623,-1391.7164212195505,-129.2733764716038,129.2733764716038,1391.7164212195505,3638.5044789366098,0.0
688204.59901257406,4122374.0504322448,-32500.0,-1815.1995652321261,-468.67339847726538,-0.44433209196020873,1484.6506919516639,248.62489879921469,-852.34655754527296,1623.0920958030893,-1300.8250944458155,-80.639685729203507,80.639685729203507,1300.8250944458155,3151.198224762114,0.0
693204.59901257406,4122374.0504322448,-32500.0,-1667.4203755976675,-402.23636413802797,7.2429310595389653,1255.2413246499077,205.45325110792459,-676.01269101711955,1401.0647477926373,-1199.7312520316509,-47.211474907390198,47.211474907390198,1199.7312520316509,2732.4018845712171,0.0
698204.59901257406,4122374.0504322448,-32500.0,-1520.4637410421453,-345.96153556480414,10.298897319511102,1062.3345269847996,170.24254733648726,-538.56840744936414,1212.9427719348691,-1096.8812884961642,-24.360053020409396,24.360053020409396,1096.8812884961642,2374.0226785782202,0.0
703204.59901257406,4122374.0504322448,-32500.0,-1379.9918170894859,-298.37969548046675,10.726736123322741,900.82240385203033,141.5827412525546,-431.24439015501434,1053.5242628198389,-997.23967969992657,-8.8722225671585875,8.8722225671585875,997.23967969992657,2067.9580462733015,0.0
708204.59901257406,4122374.0504322448,-32500.0,-1248.9980689567494,-258.15521646219713,9.745324397384092,765.85909716460969,118.24854023864526,-347.1842706416009,918.26151750238819,-903.52899010679346,1.4864810780803737,-1.4864810780803737,903.52899010679346,1806.6687205391311,0.0
713204.59901257406,4122374.0504322448,-32500.0,-1128.7951253960948,-224.11687743910809,8.0855212074879272,653.11082466566836,99.214997311671112,-281.08540911127216,803.26375363199224,-817.05542712973238,8.2733842347770974,-8.2733842347770974,817.05542712973238,1583.4272375274099,0.0
718204.59901257406,4122374.0504322448,-32500.0,-1019.6667967364184,-195.26068445671444,6.1762298963280742,558.83297097417665,83.643916400068491,-228.87254392160551,705.24687829381594,-738.25191865593615,12.576385782873842,-12.576385782873842,738.25191865593615,1392.3830949504718,0.0
723204.59901257406,4122374.0504322448,-32500.0,-921.29204328900971,-170.73816132734103,4.2607496592351248,479.85781779553469,70.858790415391496,-187.42295205719026,621.46137974424516,-667.03075006549739,15.15722260850066,-15.15722260850066,667.03075006549739,1228.5297180727505,0.0
523204.59901257406,4127374.0504322448,-32500.0,-1010.1141670844441,-84.698061857644618,19.042709548726162,-529.13881982056887,-30.416770760268893,-208.27426144664372,668.6065741986821,-744.26612325206679,106.47557715897682,-106.47557715897682,744.26612325206679,1319.5273983323093,0.0
528204.59901257406,4127374.0504322448,-32500.0,-1121.9786262837233,-93.584466842249469,23.794374438407029,-618.5234618876176,-33.847664283301704,-255.35721696500252,760.64074037961245,-827.61912555433571,120.14536580248352,-120.14536580248352,827.61912555433571,1499.4338907665406,0.0
533204.59901257406,4127374.0504322448,-32500.0,-1246.8270817993653,-103.43786826575726,29.139497045191501,-725.76312279275226,-37.492857797997878,-314.96209839033315,868.70332253869958,-920.66604473903999,135.47676573700875,-135.47676573700875,920.66604473903999,1709.955009629223,0.0
538204.59901257406,4127374.0504322448,-32500.0,-1385.2884625839461,-114.3132959921351,34.958015219616804,-854.71357887554211,-41.223568691088815,-390.8266775002997,996.00429502556676,-1023.8256374589616,152.46013975361916,-152.46013975361916,1023.8256374589616,1956.9312953298188,0.0
543204.59901257406,4127374.0504322448,-32500.0,-1537.3646536439855,-126.24280121550584,40.958603393568993,-1009.9978138796761,-44.798893868192714,-487.87598506172043,1146.4193196683921,-1136.9985682743436,170.90657520110619,-170.90657520110619,1136.9985682743436,2247.2689436167343,0.0
548204.59901257406,4127374.0504322448,-32500.0,-1701.9436265249806,-139.22565560955113,46.552595067169506,-1197.0636984052835,-47.796473813655517,-612.59269815559662,1324.6016997383344,-1259.1668278560778,190.30614546349511,-190.30614546349511,1259.1668278560778,2589.0322230913794,0.0
553204.59901257406,4127374.0504322448,-32500.0,-1876.0313683881207,-153.22257646537264,50.64542680939995,-1422.1541662103432,-49.504892355866559,-773.48076519151982,1536.0853261683746,-1387.7577671245936,209.59115242349208,-209.59115242349208,1387.7577671245936,2991.4534489738794,0.0
558204.59901257406,4127374.0504322448,-32500.0,-2053.5532549011605,-168.16486709473878,51.29350599022299,-1692.0931963692331,-48.75986062092565,-981.62438910194135,1787.3501528467725,-1517.6442428888877,226.74224289646656,-226.74224289646656,1517.6442428888877,3464.7762372598477,0.0
563204.59901257406,4127374.0504322448,-32500.0,-2223.493513988039,-184.00074570881091,45.14417899239681,-2013.7022697923246,-43.701173209370722,-1251.3171445305463,2085.7881260227146,-1639.5808462502846,238.13596959757433,-238.13596959757433,1639.5808462502846,4019.7781797446378,0.0
568204.59901257406,4127374.0504322448,-32500.0,-2367.0277670473656,-200.82379132836698,26.531351335028429,-2392.4944708093112,-31.4281948527011,-1600.676752975204,2439.4436804813163,-1737.7754122959236,237.47056135696141,-237.47056135696141,1737.7754122959236,4666.707172160246,0.0
573204.59901257406,4127374.0504322448,-32500.0,-2453.1602249680018,-219.15997976165244,-13.959894981063131,-2829.9334968457551,-7.542090011442399,-2051.9902392340205,2856.2462111295172,-1786.1668626727001,214.02504833375031,-214.02504833375031,1786.1668626727001,5413.1263032503293,0.0
578204.59901257406,4127374.0504322448,-32500.0,-2432.3559515479496,-240.52902424197177,-91.703153122920142,-3317.814241436427,34.40521069739787,-2631.0433642577773,3342.1104797410485,-1742.9425888565747,149.9402424353035,-149.9402424353035,1742.9425888565747,6259.7107178709339,0.0
583204.59901257406,4127374.0504322448,-32500.0,-2228.3628953075076,-268.43525500718977,-231.23120054726243,-3826.9406144542431,103.47859916072514,-3363.163376846489,3896.5345122296003,-1543.3537729288469,16.307762844785316,-16.307762844785316,1543.3537729288469,7192.1743907910786,0.0
588204.59901257406,4127374.0504322448,-32500.0,-1731.8990476851804,-309.99111011246231,-470.25836949911866,-4285.6201290688041,211.81912985428883,-4259.4118141307572,4503.042146560143,-1093.5785299200127,-231.4057166663768,231.4057166663768,1093.5785299200127,8166.4788051267005,0.0
593204.59901257406,4127374.0504322448,-32500.0,-810.89671960412386,-378.73250055565273,-862.78222083511423,-4545.6292132905191,374.70984591254978,-5276.6791326219045,5110.8055526442431,-277.00518301563511,-655.69036380105126,655.69036380105126,277.00518301563511,9085.9213879348645,0.0
598204.59901257406,4127374.0504322448,-32500.0,625.49666088157517,-500.78535726582521,-1474.8203080876476,-4355.4138219164288,608.33319856660432,-6225.0940219635004,5608.1605458226804,997.64382807169784,-1329.1682616985477,1329.1682616985477,-997.64382807169784,9783.9136678219947,0.0
603204.59901257406,4127374.0504322448,-32500.0,2465.5349467406422,-729.00178461866801,-2356.3961802268641,-3431.0707106306604,914.09199536992207,-6633.2736066952748,5814.4927296503738,2669.0327059994875,-2304.0369792526794,2304.0369792526794,-2669.0327059994875,10078.852648051676,0.0
608204.59901257406,4127374.0504322448,-32500.0,4226.5547967652174,-1154.9110116058698,-3466.8446489536523,-1775.6405172128061,1216.3279827968215,-5792.1987346677324,5604.1346541643825,4374.914514016592,-3552.4264327908359,3552.4264327908359,-4374.914514016592,10019.18468978189,0.0
613204.59901257406,4127374.0504322448,-32500.0,5269.0266367278109,-1829.4902485771183,-4573.945204979972,-56.435786046589357,1258.3913372745758,-3429.4556502359633,5603.6012369966884,5569.6552628054123,-4881.1407030282589,4881.1407030282589,-5569.6552628054123,10086.132932548318,0.0
618204.59901257406,4127374.0504322448,-32500.0,5418.004833182551,-2511.6122846965832,-5280.0619217962794,818.9993240507431,739.37554969525502,-562.83949747687723,6015.6036028485123,5971.2621840746206,-5846.1332372753523,5846.1332372753523,-5971.2621840746206,10431.325725707045,0.0
623204.59901257406,4127374.0504322448,-32500.0,5032.031631011344,-2700.070036775845,-5318.7255767563447,698.04700450795565,-96.590675656080094,1153.0255427652166,5890.6184846110282,5714.6653978010727,-5955.799152093221,5955.799152093221,-5714.6653978010727,10266.21378735996,0.0
628204.59901257406,4127374.0504322448,-32500.0,4538.4694366824506,-2320.4070243752835,-4809.2359049500747,258.32933169011324,-466.19813823451454,934.02409565529558,5245.9194994225636,5149.2028031402742,-5286.8580810636076,5286.8580810636076,-5149.2028031402742,9147.8641726864535,0.0
633204.59901257406,4127374.0504322448,-32500.0,4009.1566393688654,-1872.198438421525,-4055.428040428551,311.02251433172489,-79.325164279330352,-605.80064890946085,4455.9358001344099,4469.6317672088599,-4420.2044818036584,4420.2044818036584,-4469.6317672088599,7742.2287761405796,0.0
638204.59901257406,4127374.0504322448,-32500.0,3198.6568349751196,-1694.6364512040275,-3254.0243947048407,991.32387609960188,608.19887753837622,-2195.4416741542559,3894.5095084045961,3588.1041414206452,-3697.2867794918534,3697.2867794918534,-3588.1041414206452,6971.3886986950029,0.0
643204.59901257406,4127374.0504322448,-32500.0,2080.7587482302106,-1708.1613333473883,-2495.1455352369439,1833.4443541119297,1122.5375027257953,-3090.0461337184547,3921.4104908130112,2509.4038354621516,-3101.0089761534891,3101.0089761534891,-2509.4038354621516,6828.8568799277864,0.0
648204.59901257406,4127374.0504322448,-32500.0,907.43506497537817,-1731.9737541394195,-1837.0615040617365,2434.6961359766383,1336.3056622796651,-3285.299765331868,3892.9703899631604,1424.6371634016607,-2560.5946545587503,2560.5946545587503,-1424.6371634016607,6763.4247216843942,0.0
653204.59901257406,4127374.0504322448,-32500.0,-85.217795497734912,-1684.5845027641153,-1311.2194565001912,2696.0792943167389,1327.6461780207508,-3060.9674073824331,3677.9462309147484,511.99822896207672,-2066.8712453794465,2066.8712453794465,-511.99822896207672,6505.2156386351571,0.0
658204.59901257406,4127374.0504322448,-32500.0,-806.00130309447161,-1568.7369246543171,-917.21568791231266,2691.6251839613801,1203.7807270921708,-2661.2337303006784,3354.0087223407131,-161.21290781490166,-1636.5497440941688,1636.5497440941688,161.21290781490166,6059.087108727249,0.0
663204.59901257406,4127374.0504322448,-32500.0,-1269.0216382174633,-1413.7197404499941,-634.64008592431139,2527.4710116440974,1038.4030774951625,-2226.8427008094454,2991.1954589105753,-609.96365016742868,-1279.2531756031613,1279.2531756031613,609.96365016742868,5506.5840287888896,0.0
668204.59901257406,4127374.0504322448,-32500.0,-1528.8750773582196,-1246.0387282315787,-437.41495937810811,2286.2086343346414,870.92695425747979,-1823.0589140155651,2631.8974213889178,-881.19530989132863,-992.65230655477876,992.65230655477876,881.19530989132863,4920.624738668027,0.0
673204.59901257406,4127374.0504322448,-32500.0,-1643.57197802668,-1082.6911841507497,-301.91149300751869,2020.1865001280692,719.01253324196739,-1473.9222668703947,2297.6877860511463,-1024.2899514392925,-767.65464737839397,767.65464737839397,1024.2899514392925,4348.8250968846041,0.0
678204.59901257406,4127374.0504322448,-32500.0,-1661.0952296593321,-932.61149971744646,-209.59029480789127,1758.994316588467,588.65659230258427,-1183.6258923046512,1997.583787444451,-1080.1589710174317,-593.21492267873293,593.21492267873293,1080.1589710174317,3817.4362916979467,0.0
683204.59901257406,4127374.0504322448,-32500.0,-1617.194301400481,-799.46353433736579,-146.92219417878002,1517.6211558772775,480.19822742051343,-947.70671172023481,1733.699254962683,-1079.4236608628696,-458.87533717931416,458.87533717931416,1079.4236608628696,3338.3084836680241,0.0
688204.59901257406,4127374.0504322448,-32500.0,-1537.0526140167322,-683.86655709945296,-104.4120062039628,1302.3524757249463,391.53894849262844,-758.56988534541108,1504.6072216308669,-1043.7977187823581,-355.72360376659157,355.72360376659157,1043.7977187823581,2914.5330778387579,0.0
693204.59901257406,4127374.0504322448,-32500.0,-1437.7500879511579,-584.84948869905361,-75.536989732513604,1114.5547844490163,319.77227018351618,-608.11292567945952,1307.2388908947812,-988.14546468852495,-276.55872433888459,276.55872433888459,988.14546468852495,2544.2850718835321,0.0
698204.59901257406,4127374.0504322448,-32500.0,-1330.5019042441961,-500.72369706392948,-55.867563174896091,952.99691767223806,261.95880282967966,-488.88612085915679,1137.9334943545689,-922.35952532925614,-215.73141098047029,215.73141098047029,922.35952532925614,2223.2648811173663,0.0
703204.59901257406,4127374.0504322448,-32500.0,-1222.4189235013312,-429.57589991519291,-42.413158221859952,815.22396850130599,215.45554623931315,-394.51225111153371,992.99421275364989,-852.84001530141563,-168.88521862708058,168.88521862708058,852.84001530141563,1946.162483654377,0.0
708204.59901257406,4127374.0504322448,-32500.0,-1117.8130285364455,-369.52973514508312,-33.159297022328005,698.34618883280257,178.02206526593068,-319.74886070620119,868.96736861864247,-783.59207981621512,-132.69411117157955,132.69411117157955,783.59207981621512,1707.4985495288204,0.0
713204.59901257406,4127374.0504322448,-32500.0,-1019.1258343241109,-318.87006034478372,-26.749359872234365,599.46669917433144,147.82076304731189,-260.3897875543056,762.76090634260947,-717.00788561434911,-104.6326867497354,104.6326867497354,717.00788561434911,1502.0678756147697,0.0
718204.59901257406,4127374.0504322448,-32500.0,-927.57812973210594,-276.09092445225349,-22.268712355362762,515.89705194360408,123.37346473826055,-213.11072444979064,671.67826035888436,-654.41428759854125,-82.788163542138761,82.788163542138761,654.41428759854125,1325.1511912618232,0.0
723204.59901257406,4127374.0504322448,-32500.0,-843.61215151970271,-239.90184145494104,-19.09962314620644,445.24771503664363,103.50441109256622,-175.30756409423137,593.40534172478624,-596.44722461772699,-65.71236372738332,65.71236372738332,596.44722461772699,1172.587386551779,0.0
523204.59901257406,4132374.0504322448,-32500.0,-1036.4267553210393,3.64850594700569,19.118621150400561,-541.45703214203195,11.027192766355585,-212.82653704923453,681.17781209773693,-770.65240182087109,181.26429762238291,-181.26429762238291,770.65240182087109,1342.7873411549397,0.0
528204.59901257406,4132374.0504322448,-32500.0,-1151.1640443363665,10.840959418184489,23.25470962128945,-632.945558075338,17.143041996543221,-260.99707578977461,774.99475588210555,-857.18326599918169,207.88204554493223,-207.88204554493223,857.18326599918169,1526.2117575408849,0.0
533204.59901257406,4132374.0504322448,-32500.0,-1279.0517138456939,20.516028785592699,27.661093185691492,-742.65227656455602,25.645084560785794,-321.98070929687566,885.14255008358123,-953.69376932762634,238.75919198765064,-238.75919198765064,953.69376932762634,1740.890368168808,0.0
538204.59901257406,4132374.0504322448,-32500.0,-1420.6207652134308,33.423997016498802,32.071709907668456,-874.47143658189168,37.463615023472052,-399.59681521247779,1014.8888055953987,-1060.5447782761319,274.43080127110716,-274.43080127110716,1060.5447782761319,1992.7956400340104,0.0
543204.59901257406,4132374.0504322448,-32500.0,-1575.6985409858412,50.516467681140192,35.984095434455661,-1033.0461305324802,53.907339891729116,-498.87284580063596,1168.1764593204803,-1177.5147030093183,315.34597886721878,-315.34597886721878,1177.5147030093183,2288.9953889854178,0.0
548204.59901257406,4132374.0504322448,-32500.0,-1742.880080633179,72.975802158953115,38.50486682105435,-1223.8033933401759,76.821055346579641,-626.41676786233813,1349.7358667919239,-1303.360087168021,361.71906993134434,-361.71906993134434,1303.360087168021,2637.7522217626124,0.0
553204.59901257406,4132374.0504322448,-32500.0,-1918.6992582764196,102.22221082828261,38.101184157244148,-1452.8851945887809,108.80611894907103,-790.879887884867,1565.1876528396451,-1435.1214613400248,413.26166169114583,-413.26166169114583,1435.1214613400248,3048.5435346177228,0.0
558204.59901257406,4132374.0504322448,-32500.0,-2096.3418060978543,139.86119395732572,32.204011237236791,-1726.8655318907636,153.52100635533219,-1003.5070995986848,1821.1060612908614,-1567.0368757191736,468.70965614932516,-468.70965614932516,1567.0368757191736,3531.9158403430392,0.0
563204.59901257406,4132374.0504322448,-32500.0,-2263.6634144607792,187.49999223601245,16.581069902922696,-2052.0525112496198,216.07474461352129,-1278.7444789482533,2124.9836218168234,-1688.8552660901692,525.00407380132719,-525.00407380132719,1688.8552660901692,4099.0262748092882,0.0
568204.59901257406,4132374.0504322448,-32500.0,-2400.1580637458737,246.29077352171831,-15.639476519371964,-2432.9870432321673,303.49809249117254,-1634.8051508543595,2484.9678502176348,-1783.2367887943492,575.88785835909982,-575.88785835909982,1783.2367887943492,4760.5970525693911,0.0
573204.59901257406,4132374.0504322448,-32500.0,-2472.3911345689521,315.93742210497487,-75.451738692566309,-2869.3747309184059,425.20112620898942,-2093.9231329294671,2909.0933375228151,-1821.8085986252818,609.54195981182067,-609.54195981182067,1821.8085986252818,5524.7771927117001,0.0
578204.59901257406,4132374.0504322448,-32500.0,-2427.4091868708279,392.6930796181,-180.12663144376012,-3349.8937520582413,593.12167343776025,-2681.5055666066273,3403.3808625112538,-1759.4232552990288,604.71155716743908,-604.71155716743908,1759.4232552990288,6392.9053010959096,0.0
583204.59901257406,4132374.0504322448,-32500.0,-2184.4302618300871,465.57396363441217,-356.08419726035214,-3839.8145287623352,820.78563340361802,-3421.779017163255,3967.4158011225682,-1526.7671524364764,524.72778968041985,-524.72778968041985,1526.7671524364764,7351.1940773045108,0.0
588204.59901257406,4132374.0504322448,-32500.0,-1628.947933369946,509.75268431375605,-641.97988358793759,-4257.4265772313038,1119.416689070458,-4322.807737045101,4584.6591082283394,-1024.4535277757275,309.54921685870477,-309.54921685870477,1024.4535277757275,8354.9750376836309,0.0
593204.59901257406,4132374.0504322448,-32500.0,-625.73797337262852,476.64086360180005,-1089.7034823355209,-4436.2010884667743,1487.1155262050561,-5332.5359572107236,5203.5745321157465,-131.490567935077,-130.60880111177332,130.60880111177332,131.490567935077,9302.7499658627748,0.0
598204.59901257406,4132374.0504322448,-32500.0,906.26842031258923,284.28082467811436,-1756.0436563891267,-4093.9008288880195,1884.3536749900786,-6233.2805337119498,5710.1750673197157,1237.4796883392507,-906.14953334204381,906.14953334204381,-1237.4796883392507,10011.405621972219,0.0
603204.59901257406,4132374.0504322448,-32500.0,2802.8016906071803,-174.18093873572045,-2667.6277706071837,-2914.3803770578775,2191.6057874082144,-6477.8367119856766,5922.4959980645199,2978.7799680643629,-2090.7212580994183,2090.7212580994183,-2978.7799680643629,10260.021132550461,0.0
608204.59901257406,4132374.0504322448,-32500.0,4450.5386141922727,-960.32404327206655,-3736.6770309040999,-938.94679795661921,2176.075688003365,-5219.2896703042034,5745.3340768258586,4615.6154168116645,-3584.9619650449476,3584.9619650449476,-4615.6154168116645,10049.107220391783,0.0
613204.59901257406,4132374.0504322448,-32500.0,5088.1863259013217,-1931.191404050732,-4664.7455263256143,933.65984169949934,1577.336855847883,-2133.1227281049414,5675.7323526790206,5474.9887413829265,-4984.0455222860082,4984.0455222860082,-5474.9887413829265,9904.8314759897203,0.0
618204.59901257406,4132374.0504322448,-32500.0,4711.9290148535101,-2649.4699089710857,-5043.2378996008338,1525.1704989300176,420.33782078369705,1453.2567108176977,5812.8753827721021,5381.8779865812721,-5708.9102815425213,5708.9102815425213,-5381.8779865812721,10127.235243015171,0.0
623204.59901257406,4132374.0504322448,-32500.0,4059.67238304497,-2690.7806305069257,-4762.8158427488424,831.10387014412947,-726.61483492733794,3532.2516466116904,5453.924698765959,4809.8536562325489,-5478.8674161617446,5478.8674161617446,-4809.8536562325489,9941.7461936380678,0.0
628204.59901257406,4132374.0504322448,-32500.0,3633.3867925690388,-2163.0991317777289,-4166.3844353873574,-155.89501347275674,-1136.2292113067342,3478.4438417731308,4552.1378498236572,4253.0013726432235,-4653.8670635712488,4653.8670635712488,-4253.0013726432235,8811.0653581797415,0.0
633204.59901257406,4132374.0504322448,-32500.0,3394.6184190062095,-1618.4910776479387,-3598.0119253376874,-600.8742195795312,-672.52875997988087,2054.0039732384466,3959.9980613960756,3842.4857680368264,-3861.4483329831951,3861.4483329831951,-3842.4857680368264,7184.5862343521931,0.0
638204.59901257406,4132374.0504322448,-32500.0,3030.363573427368,-1409.9616901465363,-3107.9586510749732,-332.09771946939105,172.16965433808616,363.54329744680899,3400.4143230431878,3392.37784387071,-3360.8826718542573,3360.8826718542573,-3392.37784387071,5899.5675863484303,0.0
643204.59901257406,4132374.0504322448,-32500.0,2378.1738416274447,-1472.175035152153,-2628.0553667346039,315.33687821983796,888.5667854015378,-895.49136198744554,3082.3093622689071,2754.8116820045889,-3035.4754417480117,3035.4754417480117,-2754.8116820045889,5344.0957355112341,0.0
648204.59901257406,4132374.0504322448,-32500.0,1544.362636300425,-1598.7821954814706,-2143.8685529353979,957.16268833407185,1285.5981999293317,-1570.7246317037086,3007.3183892154411,1987.0113780607712,-2729.6688251976252,2729.6688251976252,-1987.0113780607712,5214.6657543946267,0.0
653204.59901257406,4132374.0504322448,-32500.0,718.82383643496314,-1662.5692224960053,-1689.4125062348119,1403.4395460847891,1403.087183503492,-1797.0753389486176,2913.147072405302,1230.3762241174647,-2391.7770161190065,2391.7770161190065,-1230.3762241174647,5116.4215018948398,0.0
658204.59901257406,4132374.0504322448,-32500.0,27.791962869985063,-1635.4849409426163,-1297.4668013901503,1631.0771242750457,1346.8289295957288,-1757.351562334328,2737.1400031950211,586.78717473837946,-2038.2463306189836,2038.2463306189836,-586.78717473837946,4901.5085764003461,0.0
663204.59901257406,4132374.0504322448,-32500.0,-486.81748618125204,-1537.8424510967361,-980.60179276397423,1688.4426568039084,1206.4150283207664,-1588.6117286985257,2506.9590606985003,92.977803407290821,-1699.124109241626,1699.124109241626,-92.977803407290821,4574.6508587037251,0.0
668204.59901257406,4132374.0504322448,-32500.0,-835.08385135058506,-1399.9186701325243,-735.22694753257269,1635.1050871818688,1038.3997681996334,-1373.7142938295306,2255.5261236872807,-257.30390575151182,-1394.9210207928832,1394.9210207928832,257.30390575151182,4181.9523127631846,0.0
673204.59901257406,4132374.0504322448,-32500.0,-1047.8520341739709,-1246.4395393078594,-550.21147939283787,1519.456998891251,873.02663212481571,-1156.8066442501886,2005.5817655038406,-488.59498331921861,-1134.1248759841924,1134.1248759841924,488.59498331921861,3766.6095168613383,0.0
678204.59901257406,4132374.0504322448,-32500.0,-1159.1198534944053,-1093.6225747115773,-412.83633743402208,1375.0148736437113,724.06150148047448,-958.63773552932935,1770.2024473238325,-628.96266227077626,-917.03264564596998,917.03264564596998,628.96266227077626,3358.6216750065955,0.0
683204.59901257406,4132374.0504322448,-32500.0,-1198.647344961556,-950.61837181148348,-311.62393224045798,1222.9070878487519,596.12595643853831,-786.95787308717922,1555.7457639021538,-703.48941805885272,-739.68538739669191,739.68538739669191,703.48941805885272,2975.6932178018969,0.0
688204.59901257406,4132374.0504322448,-32500.0,-1189.9222881354544,-821.73598204128552,-237.24764883358208,1075.414539739013,489.23266652385809,-642.788136500424,1364.3991144209735,-732.29136766581394,-596.48376341165897,596.48376341165897,732.29136766581394,2626.6040990351248,0.0
693204.59901257406,4132374.0504322448,-32500.0,-1150.4075775584972,-708.30221962669418,-182.53655680983809,938.97296257988023,401.3472490833762,-523.98869597499299,1195.9458331511137,-730.55239915414438,-481.63420070175778,481.63420070175778,730.55239915414438,2314.3482592444288,0.0
698204.59901257406,4132374.0504322448,-32500.0,-1092.5749239491699,-609.96319727948526,-142.1459011569516,816.37084605366488,329.74340945549966,-427.20416646044089,1048.9008663758798,-709.29452049164627,-389.8351059571454,389.8351059571454,709.29452049164627,2038.4767407688862,0.0
703204.59901257406,4132374.0504322448,-32500.0,-1025.0505609507763,-525.51676086106102,-112.1623554072028,708.23935079611817,271.66937067214832,-348.86376242030366,921.20309578586478,-676.2897444635081,-316.53403061530298,316.53403061530298,676.2897444635081,1796.6735323855989,0.0
708204.59901257406,4132374.0504322448,-32500.0,-953.62464868620873,-453.41194840403631,-89.748433919910838,614.01508197039971,224.63920695647391,-285.65016465743793,810.61849758566029,-636.88456530594397,-257.9631983140298,257.9631983140298,636.88456530594397,1585.7502402217342,0.0
713204.59901257406,4132374.0504322448,-32500.0,-882.06055947705386,-392.03236580735802,-72.856214229210664,532.54058811760547,186.53095762123414,-234.68294533872421,714.96494453353796,-594.6706107382272,-211.07391854486349,211.07391854486349,594.6706107382272,1402.2469915215615,0.0
718204.59901257406,4132374.0504322448,-32500.0,-812.70465692432708,-339.8438151006585,-60.00943857489851,462.42161511548107,155.5904280780513,-193.55469152024116,632.22418744476226,-551.99589889387869,-173.43336387326258,173.43336387326258,551.99589889387869,1242.7684431454561,0.0
723204.59901257406,4132374.0504322448,-32500.0,-746.93337179868672,-295.46253747771368,-50.14262747866168,402.23145193209331,130.39477727682447,-160.29940593216463,560.5900838919415,-510.34321409143763,-143.1163443548661,143.1163443548661,510.34321409143763,1104.1597634901036,0.0
523204.59901257406,4137374.0504322448,-32500.0,-1034.4959862060853,91.374162789570889,6.6147212892240903,-541.27299434173506,52.297089922490343,-213.04176496488381,684.11512051008879,-771.93205978536344,243.92363870764603,-243.92363870764603,771.93205978536344,1347.4627231710381,0.0
528204.59901257406,4137374.0504322448,-32500.0,-1145.7698622230016,114.05306259668446,7.0667717104995376,-631.36355672527077,67.72042363862387,-260.82378955205706,777.39705881010002,-855.88951942126005,280.26832720437272,-280.26832720437272,855.88951942126005,1529.9038849950657,0.0
533204.59901257406,4137374.0504322448,-32500.0,-1268.7231974081678,142.36404243742967,6.5988160931608197,-738.89787181896054,87.983379869177014,-321.13262450082595,886.63317153199421,-948.58957444930513,322.47883548960419,-322.47883548960419,948.58957444930513,1742.9363145685022,0.0
538204.59901257406,4137374.0504322448,-32500.0,-1403.3293672592606,177.71944366160122,4.5273083536552683,-867.39266437093227,114.73382070459446,-397.61490050461009,1014.9169935915683,-1049.8935650782466,371.29378565448548,-371.29378565448548,1049.8935650782466,1992.2285098217346,0.0
543204.59901257406,4137374.0504322448,-32500.0,-1548.6538386643178,221.84200921035611,-0.22152324809311558,-1020.9286716105815,150.21536315784533,-495.02211927933712,1165.9381984606043,-1158.8865805906175,427.33343756979264,-427.33343756979264,1158.8865805906175,2284.4094832939159,0.0
548204.59901257406,4137374.0504322448,-32500.0,-1702.2578001631,276.78018136168509,-9.3217332238080335,-1204.0930710323159,197.48371230482638,-619.51924481909316,1344.0569126469695,-1273.3682944188331,490.89745433535165,-490.89745433535165,1273.3682944188331,2627.1067321199002,0.0
553204.59901257406,4137374.0504322448,-32500.0,-1859.289347003051,344.86593153013797,-25.367200087471048,-1421.7707766230396,260.69114547834943,-779.04217976003099,1554.3498727018889,-1389.0720693441813,561.60478546642776,-561.60478546642776,1389.0720693441813,3028.8758236505764,0.0
558204.59901257406,4137374.0504322448,-32500.0,-2011.1153526700823,428.54771251496277,-52.353212115686446,-1678.6533547099909,345.44493235813286,-983.67305827959945,1802.5892424104763,-1498.4810483123667,637.76860611217603,-637.76860611217603,1498.4810483123667,3498.9225497478051,0.0
563204.59901257406,4137374.0504322448,-32500.0,-2143.2904846823167,529.96937589358208,-96.389412760787025,-1978.2342407838128,459.22137773052208,-1245.9533125223929,2095.0801407767422,-1589.0576571082006,715.33140584537534,-715.33140584537534,1589.0576571082006,4046.44846166142,0.0
568204.59901257406,4137374.0504322448,-32500.0,-2232.5967119044576,650.05781222257531,-166.72471133002261,-2320.8741330871321,611.7551229369343,-1580.9516336656768,2438.2129287847715,-1640.6440995882181,786.08253219065148,-786.08253219065148,1640.6440995882181,4679.3249302882341,0.0
573204.59901257406,4137374.0504322448,-32500.0,-2242.8706317564615,786.6887325871013,-277.14236349847181,-2700.1684874749212,815.16617594522768,-2005.6702449269881,2837.4399219807815,-1621.7719243877891,834.7362235049701,-834.7362235049701,1621.7719243877891,5401.5678181357662,0.0
578204.59901257406,4137374.0504322448,-32500.0,-2119.5805559377172,931.18244339763646,-447.6573278985876,-3096.1766362793837,1083.2094310203686,-2536.7674372252909,3295.0712027701179,-1484.8165000708841,834.30517432412353,-834.30517432412353,1484.8165000708841,6208.6339998256053,0.0
583204.59901257406,4137374.0504322448,-32500.0,-1784.3739786538806,1061.9663837185321,-706.04172728927006,-3462.9692616875618,1428.1585036450911,-3183.9159031255049,3805.6690761356513,-1160.9641903078577,739.30526011531526,-739.30526011531526,1160.9641903078577,7078.7983086259919,0.0
588204.59901257406,4137374.0504322448,-32500.0,-1135.2775245255725,1134.1132632788447,-1087.609091201952,-3707.1229960734363,1851.9217902686914,-3931.7282338711952,4346.8884580492431,-559.60750060235875,477.56166708981942,-477.56166708981942,559.60750060235875,7958.1075408175366,0.0
593204.59901257406,4137374.0504322448,-32500.0,-70.464870345892379,1065.5344683518952,-1629.1224518224087,-3658.2119481899026,2324.5919434594007,-4693.9759876186881,4863.5996146875295,413.17156275786829,-53.541458022863281,53.541458022863281,-413.17156275786829,8738.6850295697368,0.0
598204.59901257406,4137374.0504322448,-32500.0,1424.9670407696885,730.90847941867264,-2348.0339713565254,-3059.4912722078448,2741.4340611637335,-5216.3283214569865,5250.2036955911735,1784.1222807327499,-966.21018900577326,966.21018900577326,-1784.1222807327499,9247.4456412276832,0.0
603204.59901257406,4137374.0504322448,-32500.0,3096.4770171963746,2.7552051751870024,-3195.4074418039841,-1684.1461935139271,2866.1206142269493,-4951.0064698259766,5370.2072380077025,3359.1869244564691,-2293.5057623907355,2293.5057623907355,-3359.1869244564691,9320.3526937551396,0.0
608204.59901257406,4137374.0504322448,-32500.0,4289.0935351272274,-1096.0514653702494,-3991.7496144568404,269.90111618102316,2348.5473926988889,-3159.5666008261273,5246.186649281849,4593.2991115078084,-3810.4280853040027,3810.4280853040027,-4593.2991115078084,9096.332539963083,0.0
613204.59901257406,4137374.0504322448,-32500.0,4367.4743110091331,-2191.5711843052841,-4434.1834497173049,1792.5295481552762,1007.324509447735,264.9183449011212,5331.1733185497551,4886.5886502892254,-4945.7320892821635,4945.7320892821635,-4886.5886502892254,9234.9011119101197,0.0
618204.59901257406,4137374.0504322448,-32500.0,3608.8689973884339,-2701.4712054198681,-4306.021854836511,1795.8519140247577,-735.79592101523292,3862.1323772544329,5626.025121017241,4324.4503080397653,-5157.9005277229144,5157.9005277229144,-4324.4503080397653,9894.8204013678496,0.0
623204.59901257406,4137374.0504322448,-32500.0,2944.4914674470988,-2410.4037228739767,-3746.1230517566164,536.38417156499429,-2018.5883563631407,5726.5995597816591,5646.3026741864378,3623.0792411133602,-4503.7081432715549,4503.7081432715549,-3623.0792411133602,10081.459219585511,0.0
628204.59901257406,4137374.0504322448,-32500.0,2771.1517890448172,-1680.2096496213658,-3155.0064103788732,-816.75394383763637,-2298.7033197185847,5484.64127465609,5158.0490723506846,3238.4887415596177,-3561.017827410571,3561.017827410571,-3238.4887415596177,9213.3397542881103,0.0
633204.59901257406,4137374.0504322448,-32500.0,2861.6719280093553,-1051.6881493246515,-2787.6192670098517,-1510.6062122788603,-1692.5304998832612,4013.5711783347897,4317.9863227991309,3131.8117513012626,-2867.797020760167,2867.797020760167,-3131.8117513012626,7648.966788825529,0.0
638204.59901257406,4137374.0504322448,-32500.0,2861.4873593518819,-808.55227726500732,-2592.2272379511637,-1462.8374440858718,-705.56605609915937,2275.0710769168422,3472.562332710193,3046.6425537241871,-2564.0156345938099,2564.0156345938099,-3046.6425537241871,6063.2632156914842,0.0
643204.59901257406,4137374.0504322448,-32500.0,2580.7009692212664,-891.78380758840729,-2410.0372028771653,-955.18589940064612,196.51387260026257,836.74664453758237,2855.7469281530666,2784.8350539760868,-2482.6752825848907,2482.6752825848907,-2784.8350539760868,4948.1363423488501,0.0
648204.59901257406,4137374.0504322448,-32500.0,2050.0187002568014,-1102.328903638992,-2161.0295109829358,-318.75321282561475,801.28146993682344,-126.093966166911,2528.1849769512492,2326.3532983996265,-2424.9701337953484,2424.9701337953484,-2326.3532983996265,4379.6154936936582,0.0
653204.59901257406,4137374.0504322448,-32500.0,1409.2362176261827,-1286.7881106367624,-1855.7032934164206,235.36146254542871,1104.6779357972416,-665.40736199370053,2368.179429475952,1765.6795200573354,-2297.0102334634448,2297.0102334634448,-1765.6795200573354,4121.2845331871986,0.0
658204.59901257406,4137374.0504322448,-32500.0,788.35081468512965,-1383.0555260341987,-1536.8983624076384,629.0566443299798,1189.0708269349811,-905.36077260172635,2232.8944325101211,1208.173786408812,-2094.3296041653693,2094.3296041653693,-1208.173786408812,3937.5721004091993,0.0
663204.59901257406,4137374.0504322448,-32500.0,261.97676434066813,-1390.0529081919199,-1240.3698381483327,864.35387236230872,1143.0511751838269,-961.53733195167217,2076.8350320793452,720.79913302955811,-1848.2192236885048,1848.2192236885048,-720.79913302955811,3724.7351438945402,0.0
668204.59901257406,4137374.0504322448,-32500.0,-144.86309393628062,-1330.987626731735,-984.6095171698895,974.70360500529307,1032.6495543069414,-917.45502267011511,1901.8583109707668,330.06221154417506,-1591.630018644139,1591.630018644139,-330.06221154417506,3466.5706225758272,0.0
673204.59901257406,4137374.0504322448,-32500.0,-436.79506753589499,-1232.0735223035188,-774.38399424345789,998.16137431476818,899.25740747301677,-826.32178070483656,1719.7344751801406,36.226839664541444,-1347.4070435580447,1347.4070435580447,-36.226839664541444,3178.5504516959363,0.0
678204.59901257406,4137374.0504322448,-32500.0,-631.56787960579572,-1114.3338325854611,-606.73800827501566,966.78918498799624,765.83129159232317,-719.26864805195601,1540.8428174596415,-173.1274333020437,-1127.7940929722768,1127.7940929722768,173.1274333020437,2880.8404856224588,0.0
683204.59901257406,4137374.0504322448,-32500.0,-750.20568504414018,-992.12749948651242,-475.49415831381037,904.26066733610151,643.53558267131689,-613.08818375343321,1372.0344055211644,-314.44687858324903,-937.37793333003822,937.37793333003822,314.44687858324903,2589.4066891153866,0.0
688204.59901257406,4137374.0504322448,-32500.0,-812.23910066670953,-874.19034126406768,-373.82589615363366,826.70559810383463,536.68175392023306,-515.88524841399283,1217.0323716951443,-403.73913543997685,-776.13560222841363,776.13560222841363,403.73913543997685,2314.5498293750456,0.0
693204.59901257406,4137374.0504322448,-32500.0,-833.91975328967703,-765.21698336561667,-295.46924518282088,744.44407631783963,445.91456470236488,-430.79442494427781,1077.3254899473795,-454.72402946664033,-641.66601163436417,641.66601163436417,454.72402946664033,2061.833500160616,0.0
698204.59901257406,4137374.0504322448,-32500.0,-827.94153656484036,-667.25882710882718,-235.15716448096293,663.67614099283981,370.10859504345348,-358.2814549992529,952.9756969615197,-478.37147260462115,-530.59444272610449,530.59444272610449,478.37147260462115,1833.469102894252,0.0
703204.59901257406,4137374.0504322448,-32500.0,-803.81272456103693,-580.7601660417896,-188.66819072930119,587.83503829946926,307.4278540872981,-297.50216370835204,843.21420841975532,-483.07764014543409,-439.36639551830217,439.36639551830217,483.07764014543409,1629.5189081905908,0.0
708204.59901257406,4137374.0504322448,-32500.0,-768.43980103208946,-505.2619942381163,-152.71277402736632,518.57760954761136,255.88255123630441,-247.07053996786692,746.84594555827118,-475.07810966186071,-364.65088333072777,364.65088333072777,475.07810966186071,1448.7889539192327,0.0
713204.59901257406,4137374.0504322448,-32500.0,-726.71310889365964,-439.85120532981995,-124.77021595502605,456.46763560234842,213.59679298788913,-205.46939312040337,662.50536994306265,-458.89906896440698,-303.51253517304849,303.51253517304849,458.89906896440698,1289.4329889007108,0.0
718204.59901257406,4137374.0504322448,-32500.0,-682.01378889692319,-383.43287682969321,-102.92730827843579,401.42952353238769,178.91820173433334,-171.25378500796114,588.80948205619507,-437.76388569843289,-253.45622449113375,253.45622449113375,437.76388569843289,1149.3377177499044,0.0
723204.59901257406,4137374.0504322448,-32500.0,-636.62139971650765,-334.88742268769062,-85.7392466359629,353.04014318020688,150.44590689577575,-143.13879725736206,524.44389374948344,-413.92804235746115,-212.40841001388407,212.40841001388407,413.92804235746115,1026.3567437204351,0.0
523204.59901257406,4142374.0504322448,-32500.0,-1005.7333989672251,173.27436165221243,-17.31996392712627,-529.12153838563802,91.188664686739287,-209.08062616517915,677.44343297725254,-749.12240890590351,291.17466304349705,-291.17466304349705,749.12240890590351,1333.8370940081909,0.0
528204.59901257406,4142374.0504322448,-32500.0,-1107.8274498843396,209.38235826261209,-23.141205825338062,-614.5833082981826,114.94396601837775,-255.09139021189608,767.93983646027425,-825.25806852262644,333.22583875817463,-333.22583875817463,825.25806852262644,1510.9762248691711,0.0
533204.59901257406,4142374.0504322448,-32500.0,-1218.7721997359472,253.50184158547293,-31.724207711159835,-715.71903539870016,145.56419983441674,-312.82148633911055,873.38740344115172,-907.61814798437445,381.54930593681883,-381.54930593681883,907.61814798437445,1716.8401870999226,0.0
538204.59901257406,4142374.0504322448,-32500.0,-1337.657273045492,307.39845836794336,-44.335997201625375,-835.3316880289841,185.21114064088457,-385.5266936004669,996.50679229446769,-995.24378458824583,436.69490752416334,-436.69490752416334,995.24378458824583,1956.4124950113264,0.0
543204.59901257406,4142374.0504322448,-32500.0,-1462.3997794818679,373.12659273057994,-62.820797414205117,-976.48526227347952,236.75489702319763,-477.36564288526176,1140.4665381179013,-1086.1401005892742,498.92902052420004,-498.92902052420004,1086.1401005892742,2235.3701956991172,0.0
548204.59901257406,4142374.0504322448,-32500.0,-1589.0897269512645,452.97475763914849,-89.861190862890979,-1142.31537779208,303.99152271923236,-593.59746567381717,1308.8942229096699,-1176.7013890914759,567.93842113212554,-567.93842113212554,1176.7013890914759,2560.0126636354121,0.0
553204.59901257406,4142374.0504322448,-32500.0,-1711.0353747238792,549.29712138216155,-129.35069147689237,-1335.6338267934082,391.90150628212865,-740.76412599772004,1505.831487120126,-1260.8686032325963,642.33219124885341,-642.33219124885341,1260.8686032325963,2937.0367844133057,0.0
558204.59901257406,4142374.0504322448,-32500.0,-1817.3992852597105,664.12746313276489,-186.91312345714491,-1558.179169138145,506.92312193852507,-926.78754149896031,1735.5822332811547,-1328.9185205472879,718.82136950929976,-718.82136950929976,1328.9185205472879,3373.0431755539057,0.0
563204.59901257406,4142374.0504322448,-32500.0,-1891.3034759423381,798.39350398680176,-270.59867815906682,-1809.2693530688452,657.16397977755491,-1160.8373913006105,2002.3650948419333,-1365.7705312472303,790.89464367215726,-790.89464367215726,1365.7705312472303,3873.5838290672605,0.0
568204.59901257406,4142374.0504322448,-32500.0,-1907.3153384508219,950.4193848819142,-391.74783423521365,-2083.4589407806739,852.36109892105139,-1452.6851577658222,2309.6162327341899,-1348.7242941193781,846.73162679660618,-846.73162679660618,1348.7242941193781,4441.4483625095299,0.0
573204.59901257406,4142374.0504322448,-32500.0,-1828.3985700005444,1113.1992657648632,-565.89286511764521,-2366.5507983331559,1103.1541602785621,-1810.9717981728418,2658.6653628027825,-1244.6934970153097,866.02799142837659,-866.02799142837659,1244.6934970153097,5073.6964938375968,0.0
578204.59901257406,4142374.0504322448,-32500.0,-1603.0033070195093,1269.6587336245741,-813.24932265752796,-2628.9466111582205,1418.7171429579685,-2239.1897206450276,3046.2962860307894,-1007.5217583337749,815.46793103136361,-815.46793103136361,1007.5217583337749,5756.6770806943687,0.0
583204.59901257406,4142374.0504322448,-32500.0,-1164.7257416244056,1384.958641354249,-1157.5936595394462,-2815.0319074918571,1800.7148197834738,-2726.7387403724647,3460.3965139987022,-577.50319186911656,643.15889677837049,-643.15889677837049,577.50319186911656,6458.0448048707631,0.0
588204.59901257406,4142374.0504322448,-32500.0,-441.543334491363,1395.6836712652726,-1620.7373084118083,-2828.352454717709,2229.5759233355252,-3229.3612250956166,3872.8395443820827,110.80047411472555,274.60285397786856,-274.60285397786856,-110.80047411472555,7115.5187380190555,0.0
593204.59901257406,4142374.0504322448,-32500.0,608.98055681951007,1200.3040578369471,-2207.1710783575168,-2519.6458192730111,2636.7372581486929,-3628.8901077976766,4230.702980385031,1098.1877716911499,-380.59521882249391,380.59521882249391,-1098.1877716911499,7627.6442079812923,0.0
598204.59901257406,4142374.0504322448,-32500.0,1913.433493902927,670.06166005775435,-2871.9103714825751,-1710.2312173484784,2859.7868829850759,-3666.3858644307279,4457.1895237063563,2325.5385218916472,-1388.0286571332622,1388.0286571332622,-2325.5385218916472,7873.328967390783,0.0
603204.59901257406,4142374.0504322448,-32500.0,3153.2830748117672,-273.01798460395509,-3475.5207889280382,-330.69846280069896,2608.7762752221411,-2896.2864283320691,4506.4226449053604,3517.2208822683942,-2680.0749785556136,2680.0749785556136,-3517.2208822683942,7836.182998311805,0.0
608204.59901257406,4142374.0504322448,-32500.0,3764.0213296193001,-1473.8695088407621,-3777.3546182587329,1274.4020379664189,1559.9809248318502,-864.38540937954508,4548.875670501905,4163.8093792089385,-3906.5381572635315,3906.5381572635315,-4163.8093792089385,7879.0698675839094,0.0
613204.59901257406,4142374.0504322448,-32500.0,3390.5590250759933,-2417.78839453507,-3572.3192751495289,2205.1084728709311,-282.41388292567137,2264.7745174619713,4974.0598409283648,3893.8608652619268,-4484.1100384977572,4484.1100384977572,-3893.8608652619268,8618.2509571242899,0.0
618204.59901257406,4142374.0504322448,-32500.0,2496.7152905330245,-2559.852780918683,-2934.1973378858461,1723.5982126311433,-2253.5583831559366,5238.661635276696,5641.9929202734638,3031.1440617583094,-4094.4590730005957,4094.4590730005957,-3031.1440617583094,9783.1917133240458,0.0
623204.59901257406,4142374.0504322448,-32500.0,1942.4870993204709,-1916.4215698821008,-2223.4528459525145,222.85182169046067,-3449.8896992113714,6662.4307257972059,5945.9417119222071,2332.3300373887646,-3092.1998253035522,3092.1998253035522,-2332.3300373887646,10303.79278089917,0.0
628204.59901257406,4142374.0504322448,-32500.0,1991.2115461789879,-1011.565687418114,-1775.1337522207148,-1246.9217389451285,-3524.5274844399933,6329.7338971868521,5607.870028736108,2145.7768691077267,-2126.2742822927062,2126.2742822927062,-2145.7768691077267,9713.3735236764478,0.0
633204.59901257406,4142374.0504322448,-32500.0,2329.3648585858759,-337.76042937839884,-1668.7196898686154,-2053.7582214306999,-2764.7115521209626,4973.5684239514303,4811.5008183807931,2306.0189113786628,-1583.5645309060883,1583.5645309060883,-2306.0189113786628,8335.1752643766449,0.0
638204.59901257406,4142374.0504322448,-32500.0,2591.4522035418013,-84.484199903808857,-1762.6951163329327,-2155.2714354533869,-1670.5010387915208,3363.7119604788277,3878.8910930871079,2510.9006493740653,-1476.6519096336015,1476.6519096336015,-2510.9006493740653,6726.5322083244337,0.0
643204.59901257406,4142374.0504322448,-32500.0,2589.4240305035501,-179.42403262913305,-1866.350181712535,-1787.0146081921473,-641.2572865327719,1950.6455908413318,3062.6085703325057,2551.8312248323978,-1610.3007466510885,1610.3007466510885,-2551.8312248323978,5322.2349186395259,0.0
648204.59901257406,4142374.0504322448,-32500.0,2316.2123119720077,-443.79530703850327,-1869.5841122941008,-1220.7200838378596,126.18687028481354,899.25573162701562,2487.9720913948872,2372.3913940465645,-1778.8716264763143,1778.8716264763143,-2372.3913940465645,4325.1208815747423,0.0
653204.59901257406,4142374.0504322448,-32500.0,1867.2456814874674,-722.96512680367596,-1758.4770509975704,-652.54054101889301,601.41842259080795,205.37420812607687,2144.7971527638288,2026.0335263424797,-1866.5985825974965,1866.5985825974965,-2026.0335263424797,3716.5538474820523,0.0
658204.59901257406,4142374.0504322448,-32500.0,1356.0156854607021,-933.95889805826448,-1569.6897521561682,-182.54082826937386,838.80502839660255,-205.32280224335253,1933.3277259285032,1602.2234248800121,-1846.2244700664585,1846.2244700664585,-1602.2234248800121,3355.1596737239433,0.0
663204.59901257406,4142374.0504322448,-32500.0,867.2528795460903,-1054.0076753353039,-1348.0676804626837,160.20399494667714,913.70876617829174,-418.27910036637559,1770.4725824563925,1176.734251709214,-1738.4757849932614,1738.4757849932614,-1176.734251709214,3102.7013804888416,0.0
668204.59901257406,4142374.0504322448,-32500.0,447.23486792784792,-1093.0841445298327,-1127.176954433766,384.87471104808554,891.42371860152593,-504.93381456964352,1620.8726337348216,795.77645358855239,-1577.6486187220883,1577.6486187220883,-795.77645358855239,2880.8133165221238,0.0
673204.59901257406,4142374.0504322448,-32500.0,112.16323823544654,-1072.5998860420077,-926.13715332175366,515.30840424047756,818.63597856238187,-517.00244943501843,1475.3458925686782,479.42479419106689,-1394.1871001907757,1394.1871001907757,-479.42479419106689,2660.6744601758469,0.0
678204.59901257406,4142374.0504322448,-32500.0,-139.93367516700113,-1014.0495532125283,-752.95492049197173,577.17802194399997,725.0610238571586,-488.8194350722186,1334.1675474646017,230.61975401936013,-1209.4202226190796,1209.4202226190796,-230.61975401936013,2438.2525092325232,0.0
683204.59901257406,4142374.0504322448,-32500.0,-319.77629405316532,-934.65241293982626,-608.82291809625906,592.54430686049534,627.93811410150261,-441.76950715071968,1199.8646993117518,43.21943044379816,-1036.0232545682279,1036.0232545682279,-43.21943044379816,2218.1386475501681,0.0
688204.59901257406,4142374.0504322448,-32500.0,-440.91476848691087,-846.61854938960937,-491.43992432671246,578.38340209190653,536.31514815299101,-388.41922177443865,1074.6974437165857,-92.576470115009954,-880.25446814981774,880.25446814981774,92.576470115009954,2006.1739002012857,0.0
693204.59901257406,4142374.0504322448,-32500.0,-516.56910077170892,-757.86695337324784,-397.10218785942811,546.89034896566204,454.25902614495647,-335.67649023968329,960.02164857489981,-187.13601904494902,-744.21387991719939,744.21387991719939,187.13601904494902,1806.8734612585811,0.0
698204.59901257406,4142374.0504322448,-32500.0,-558.23255136237447,-673.10862700150608,-321.85542014138326,506.39233004598043,383.00409685639022,-286.98680327359307,856.32571610346304,-249.89196608206763,-627.58040932390702,627.58040932390702,249.89196608206763,1622.939855286535,0.0
703204.59901257406,4142374.0504322448,-32500.0,-575.26383107708614,-594.84543331756845,-262.04912491989307,462.3306260768075,322.29267294621405,-243.77122965700508,763.45541369382681,-288.77554454693973,-528.78618097084791,528.78618097084791,288.77554454693973,1455.5247274947881,0.0
708204.59901257406,4142374.0504322448,-32500.0,-574.96673564188518,-524.14581868060873,-214.5482334419824,418.10057691415454,271.16563575230265,-206.32630324739154,680.84234392691371,-310.14266308949129,-445.74146637559204,445.74146637559204,310.14266308949129,1304.6592021052345,0.0
713204.59901257406,4142374.0504322448,-32500.0,-562.87470512270568,-461.20121599881406,-176.76996604351058,375.70290251818932,228.4077411578298,-174.36855163581967,607.68932152192747,-318.9273469259,-376.25331810946034,376.25331810946034,318.9273469259,1169.657137914556,0.0
718204.59901257406,4142374.0504322448,-32500.0,-543.08491534517248,-405.69987319444965,-146.63881849769251,336.21662728755825,192.78218883127218,-147.35096449990689,543.09927762881966,-318.8736821342838,-318.24452793809422,318.24452793809422,318.8736821342838,1049.421091397603,0.0
523204.59901257406,4147374.0504322448,-32500.0,-953.33688187534995,244.92743485640025,-50.439164017301358,-506.28550520983441,125.7993676236258,-201.35362848512054,661.77006714992513,-704.9890098030279,321.2683244211056,-321.2683244211056,704.9890098030279,1303.134285104712,0.0
528204.59901257406,4147374.0504322448,-32500.0,-1041.7131953333892,291.28462392456203,-64.287754753265702,-584.4374296124538,156.32430931649307,-244.41312852022054,747.49033215867962,-769.11611594937426,364.7696000090516,-364.7696000090516,769.11611594937426,1471.1559782037398,0.0
533204.59901257406,4147374.0504322448,-32500.0,-1135.2258900335705,346.95727437200298,-83.047968753616743,-675.75659144391352,195.11187722159855,-297.97311972878543,846.65610420931796,-836.10809104286386,413.7752767575268,-413.7752767575268,836.10809104286386,1665.0575357098967,0.0
538204.59901257406,4147374.0504322448,-32500.0,-1231.9579848699334,413.67610153875631,-108.58240878039706,-782.12844564452757,244.56303923713438,-364.7453730540858,961.47975139605524,-904.06062658375993,468.30998702497061,-468.30998702497061,904.06062658375993,1888.8664959575149,0.0
543204.59901257406,4147374.0504322448,-32500.0,-1328.5871314928097,493.29614392937191,-143.47714706451578,-905.35192665875275,307.77124769220512,-448.08558856536558,1094.4388722940648,-969.79950083791914,527.86389001782709,-527.86389001782709,969.79950083791914,2146.9644816205896,0.0
548204.59901257406,4147374.0504322448,-32500.0,-1419.7234656030048,587.62416811728758,-191.31317591005654,-1046.8228212221434,388.67910484397999,-552.06231715460137,1248.2191964339688,-1028.2874201334062,590.99539557235653,-590.99539557235653,1028.2874201334062,2443.894169397995,0.0
553204.59901257406,4147374.0504322448,-32500.0,-1497.0011102075048,698.06751009450079,-257.01955571608232,-1206.9755637958574,492.21923008255061,-681.44597074453475,1425.5774707561022,-1071.807665882691,654.70568268762963,-654.70568268762963,1071.807665882691,2783.9747131605627,0.0
558204.59901257406,4147374.0504322448,-32500.0,-1547.8783939659634,824.97339710230995,-347.3055961839022,-1384.3400234598814,624.37025442790048,-841.51662321918434,1629.0681157148997,-1088.8819973510156,713.47475376067564,-713.47475376067564,1088.8819973510156,3170.6045369734134,0.0
563204.59901257406,4147374.0504322448,-32500.0,-1554.1488338200045,966.45155713618999,-471.12826641359163,-1574.0021833907454,791.98173057484837,-1037.5044682753576,1860.5471389427992,-1062.9227478566097,757.81864498358198,-757.81864498358198,1062.9227478566097,3605.0739406393927,0.0
568204.59901257406,4147374.0504322448,-32500.0,-1490.3055311862215,1116.3619060723636,-640.04814336537402,-1765.1713697738203,1002.0674657839531,-1273.3268821453617,2120.3199103186689,-970.74861026030089,772.21936572812274,-772.21936572812274,970.74861026030089,4084.6332623971625,0.0
573204.59901257406,4147374.0504322448,-32500.0,-1322.2490672136571,1261.0293178883276,-868.10115049144406,-1937.4770175721621,1259.9784038839412,-1549.0190032193486,2405.7397476572869,-781.41644496530796,732.36673515849554,-732.36673515849554,781.41644496530796,4599.4929248228882,0.0
578204.59901257406,4147374.0504322448,-32500.0,-1007.6553234242592,1374.2163406714151,-1170.3379160602312,-2055.6575256595142,1565.3371299045325,-1855.7708574788035,2709.0204359678833,-456.58831117616506,602.02712951894591,-602.02712951894591,456.58831117616506,5128.4723050043494,0.0
583204.59901257406,4147374.0504322448,-32500.0,-501.12213641231017,1410.323633294832,-1558.2918700444131,-2062.875497186938,1903.7448510501029,-2166.630780037854,3014.1471728349507,44.68367717633015,330.99619160250762,-330.99619160250762,-44.68367717633015,5633.5547512052717,0.0
588204.59901257406,4147374.0504322448,-32500.0,229.3753135602669,1297.8160655704858,-2029.2798959369643,-1875.3424655832277,2231.251932264774,-2419.8007346736963,3293.6591387822573,750.74049005674237,-141.47513091112171,141.47513091112171,-750.74049005674237,6056.0090053788999,0.0
593204.59901257406,4147374.0504322448,-32500.0,1164.1861483243983,941.06627763271558,-2545.5984293739275,-1388.5281082489305,2449.2333411338868,-2491.9370082395267,3509.6206235221866,1641.9297971404658,-867.32988768649511,867.32988768649511,-1641.9297971404658,6324.8232279926106,0.0
598204.59901257406,4147374.0504322448,-32500.0,2166.3219944527159,251.99283818807308,-3004.1531717858984,-521.60063846750882,2376.6932210159835,-2169.6042456457053,3633.5740530592784,2589.4768137337851,-1836.7827033008959,1836.7827033008959,-2589.4768137337851,6408.4308303442267,0.0
603204.59901257406,4147374.0504322448,-32500.0,2926.5168392369037,-756.48850515160848,-3218.7549243807794,661.56344120478377,1759.8908749787302,-1167.3900922711452,3717.4820782202355,3301.6529737821829,-2884.9261673199035,2884.9261673199035,-3301.6529737821829,6456.6043052433652,0.0
608204.59901257406,4147374.0504322448,-32500.0,3057.2922633156136,-1829.8998101618317,-2979.7476881860293,1784.4949938270333,409.05956050017699,696.62828811723296,3993.3953159491143,3402.1235796268966,-3628.2825426325062,3628.2825426325062,-3402.1235796268966,6918.6717884479131,0.0
613204.59901257406,4147374.0504322448,-32500.0,2458.8614235884293,-2467.7876294120269,-2242.3134901299104,2198.8625648912503,-1509.6854937458756,3142.9971264674718,4657.5509864665237,2762.7692474575188,-3626.2325618780224,3626.2325618780224,-2762.7692474575188,8086.8842450501343,0.0
618204.59901257406,4147374.0504322448,-32500.0,1611.9832157979445,-2285.964310273057,-1286.4869456525023,1511.2265140220684,-3336.9761016929078,5305.464364183541,5410.1181486488058,1802.040605357583,-2807.2887115564686,2807.2887115564686,-1802.040605357583,9417.1609784562406,0.0
623204.59901257406,4147374.0504322448,-32500.0,1173.7898197511786,-1433.4428139556464,-550.76941705315051,86.968240797607365,-4345.094603483265,6332.340697012085,5765.8309725956951,1163.847293326146,-1642.9362216244185,1642.9362216244185,-1163.847293326146,10065.161943330335,0.0
628204.59901257406,4147374.0504322448,-32500.0,1321.8662810829831,-438.58713545736083,-279.50882586333586,-1297.5011858310852,-4313.3473893004402,6088.2083961310927,5548.2266312044621,1103.108168550146,-720.7261345396571,720.7261345396571,-1103.108168550146,9713.7851590034952,0.0
633204.59901257406,4147374.0504322448,-32500.0,1775.0112933998309,267.35284082567284,-420.17380902993222,-2140.489248513748,-3533.0038562549976,5037.9472529225313,4898.9717069196477,1428.8565945295613,-309.76316319880164,309.76316319880164,-1428.8565945295613,8604.3129392672599,0.0
638204.59901257406,4147374.0504322448,-32500.0,2195.252178549877,545.05822339921519,-766.66924583178911,-2375.1683864342349,-2443.9658662291563,3722.4026806358538,4065.6380277670564,1833.4996717374938,-350.78207318603427,350.78207318603427,-1833.4996717374938,7166.7924784335009,0.0
643204.59901257406,4147374.0504322448,-32500.0,2392.9320778678325,469.05297244729064,-1116.5236283725444,-2166.2273659922002,-1386.418441098981,2492.5245947749445,3256.148682117353,2103.1229798460918,-639.91633580030862,639.91633580030862,-2103.1229798460918,5760.1941727782896,0.0
648204.59901257406,4147374.0504322448,-32500.0,2331.3565046807189,195.82375686841769,-1350.6461065519338,-1724.4444866935462,-538.93747344017311,1503.8546862914704,2595.9054813337525,2158.1984396279458,-979.47661607204168,979.47661607204168,-2158.1984396279458,4593.7530002833555,0.0
653204.59901257406,4147374.0504322448,-32500.0,2067.4757949018986,-130.68011545710678,-1438.7111356897344,-1218.6451443264007,51.016880752401654,785.5694339887857,2125.7692203077245,2019.1297263588008,-1246.7829962198316,1246.7829962198316,-2019.1297263588008,3735.8205777297371,0.0
658204.59901257406,4147374.0504322448,-32500.0,1690.0731145453665,-419.13663712973084,-1405.2822791828658,-752.14836733045217,411.30037404087699,303.98170747090364,1812.8230617333988,1752.4349680023097,-1397.1268476203941,1397.1268476203941,-1752.4349680023097,3153.3697758755125,0.0
663204.59901257406,4147374.0504322448,-32500.0,1279.0637076156083,-630.29136798657498,-1293.5001040619622,-371.82414137111556,597.94818163425089,4.4633371305125378,1596.1203064216011,1428.463487407105,-1436.3446498444484,1436.3446498444484,-1428.463487407105,2764.5772132256275,0.0
668204.59901257406,4147374.0504322448,-32500.0,889.26529063029488,-759.57937713577292,-1143.1822030262654,-87.60297454250869,667.40647300140267,-166.40019144528796,1429.9844247659375,1100.6812524822953,-1392.0258194965681,1392.0258194965681,-1100.6812524822953,2487.9484110208055,0.0
673204.59901257406,4147374.0504322448,-32500.0,550.27730403105704,-819.5257134601876,-982.8729605801791,109.83271297132876,665.04571847776879,-252.03986132524284,1290.0160364855767,801.5142956008242,-1294.9848879791059,1294.9848879791059,-801.5142956008242,2267.6207963226066,0.0
678204.59901257406,4147374.0504322448,-32500.0,272.94282421016163,-827.91911379520957,-829.75676101995828,237.12673527649014,623.08984261240937,-284.36197756280484,1165.2140031071053,546.14980326140642,-1170.8217215259915,1170.8217215259915,-546.14980326140642,2074.0673909483621,0.0
683204.59901257406,4147374.0504322448,-32500.0,56.5540499735475,-801.66837153432255,-692.43704809637882,311.6624375132763,562.55729226523886,-285.28543402912919,1051.2644073503204,338.29936713021516,-1037.7459392941762,1037.7459392941762,-338.29936713021516,1894.8974239236295,0.0
688204.59901257406,4147374.0504322448,-32500.0,-105.52173498580055,-754.42254973631702,-573.97882978242876,348.5975739808718,496.21163707797683,-269.12069996575929,946.72563858108197,175.18360554747005,-907.29699878524184,907.29699878524184,-175.18360554747005,1726.3477337675531,0.0
693204.59901257406,4147374.0504322448,-32500.0,-222.16657355952947,-696.18995256841708,-474.28788359881969,359.95812572828584,431.24218909968596,-244.80604904432019,851.16731957694822,51.0132504406713,-785.97105774868987,785.97105774868987,-51.0132504406713,1568.1295197119077,0.0
698204.59901257406,4147374.0504322448,-32500.0,-302.41416026338499,-633.81086861963411,-391.70086522228985,354.73319170169862,371.30143500992602,-217.67831744892027,764.36832954839667,-40.891459386439294,-676.83061286551401,676.83061286551401,40.891459386439294,1420.9039000874595,0.0
703204.59901257406,4147374.0504322448,-32500.0,-354.41722978936122,-571.67447649330529,-323.94380146030682,339.36132288463574,317.91475185384553,-190.75445878958598,686.02996383552795,-106.96005907774781,-580.78191482610089,580.78191482610089,106.96005907774781,1285.2507843583849,0.0
708204.59901257406,4147374.0504322448,-32500.0,-385.0559576710375,-512.40437599244467,-268.65906827071672,318.29906670186364,271.3979712461188,-165.60797226448295,615.7146019049386,-152.85153541885643,-497.48129206520446,497.48129206520446,152.85153541885643,1161.3573045633093,0.0
713204.59901257406,4147374.0504322448,-32500.0,-399.89439200802173,-457.41717774625926,-223.66491150738977,294.53694554709051,231.42819191757511,-142.94500101251748,552.87046846319424,-183.29069016795637,-425.93366785089501,425.93366785089501,183.29069016795637,1049.0101267632233,0.0
718204.59901257406,4147374.0504322448,-32500.0,-403.30165863017345,-407.33878667780198,-187.05960806317597,270.01720709616126,197.38381527863763,-122.9707436564787,496.87705113736843,-202.0895417509301,-364.86361623702811,364.86361623702811,202.0895417509301,947.68684902476821,0.0
523204.59901257406,4152374.0504322448,-32500.0,-881.83181929511784,303.09369554253169,-89.747295045892059,-474.61809044267017,154.6923622391372,-190.4653412148715,638.15123741480932,-643.6216576882041,334.03425867174639,-334.03425867174639,643.6216576882041,1257.3537106402284,0.0
528204.59901257406,4152374.0504322448,-32500.0,-953.4767359342186,355.87383578938937,-112.3513536345117,-543.51427328794875,190.05222851176563,-229.67265458843869,717.50616905930872,-692.97178807197656,375.03634074455545,-375.03634074455545,692.97178807197656,1413.1863563514851,0.0
533204.59901257406,4152374.0504322448,-32500.0,-1026.2138850853651,418.10316232034626,-141.94083661966664,-622.65387029197927,234.3541236326686,-277.89169760526278,808.46982790669563,-741.51748756857228,419.83058918023215,-419.83058918023215,741.51748756857228,1591.381046118983,0.0
538204.59901257406,4152374.0504322448,-32500.0,-1097.2099520194238,491.11064175976247,-180.83343215130014,-712.95183054178813,289.95294566377083,-337.21528413982639,912.69145890050413,-786.49396900150123,467.71726168141231,-467.71726168141231,786.49396900150123,1794.8773244893944,0.0
543204.59901257406,4152374.0504322448,-32500.0,-1162.1052029053917,576.08062916910433,-232.11512975623648,-814.91905359036366,359.76400686248451,-410.11046413883759,1031.9074828986024,-823.74099011563578,517.20280285181855,-517.20280285181855,823.74099011563578,2026.6243531305865,0.0
548204.59901257406,4152374.0504322448,-32500.0,-1214.4196750654733,673.74850281523436,-299.86004184671287,-928.26132186602672,447.31492536350078,-499.37020785480104,1167.8309325991784,-847.16707770115818,565.53748327448943,-565.53748327448943,847.16707770115818,2289.2902813578703,0.0
553204.59901257406,4152374.0504322448,-32500.0,-1244.8077053345507,783.86871640066215,-389.36805040630776,-1051.2376445123164,556.71352413799025,-607.93868074132013,1321.9502938689077,-848.0780120531864,608.03691304581264,-608.03691304581264,848.0780120531864,2584.766572115605,0.0
558204.59901257406,4152374.0504322448,-32500.0,-1240.1937355144462,904.32555145597723,-507.36656376568953,-1179.6677521813942,692.42750861819889,-738.49855244695254,1495.1904092876598,-814.40172729507071,637.1194297638117,-637.1194297638117,814.40172729507071,2913.3670465650712,0.0
563204.59901257406,4152374.0504322448,-32500.0,-1182.9236675556847,1029.7036587387595,-662.04502506918652,-1305.4539263695817,858.68001911694591,-892.63193954395126,1687.3725337286585,-729.93845001302373,641.00892016667069,-641.00892016667069,729.93845001302373,3272.5937646020279,0.0
568204.59901257406,4152374.0504322448,-32500.0,-1050.2776286715371,1149.0962835958492,-862.64315402672571,-1414.4869520811556,1058.1121431543072,-1069.249218537354,1896.4025591120735,-573.96753513350916,602.13852477967805,-602.13852477967805,573.96753513350916,3655.3408984404746,0.0
573204.59901257406,4152374.0504322448,-32500.0,-815.11116169509933,1242.9652836323826,-1118.0387199207778,-1483.9050998844673,1289.1166308520376,-1261.805960814974,2117.1409506837454,-321.94849133870434,495.54225647798853,-495.54225647798853,321.94849133870434,4047.5006329186826,0.0
578204.59901257406,4152374.0504322448,-32500.0,-449.1699978157078,1279.1617580241252,-1433.3253783093207,-1479.0379297315119,1540.8985166787838,-1453.6039256486415,2340.0469470782332,51.196069791090395,288.13828675767604,-288.13828675767604,-51.196069791090395,4425.3202135377132,0.0
583204.59901257406,4152374.0504322448,-32500.0,68.127063977111476,1209.2195512791172,-1802.7618554699002,-1351.4012534048509,1784.998511767159,-1610.2970793076397,2550.1783092114874,562.52246890035076,-58.847430357703558,58.847430357703558,-562.52246890035076,4754.0865258848125,0.0
588204.59901257406,4152374.0504322448,-32500.0,731.32436419490182,968.64686239745151,-2197.1821402486207,-1041.6362191979908,1962.3562743235984,-1669.1075036521806,2728.5452813137281,1203.2638783596699,-579.60666057692754,579.60666057692754,-1203.2638783596699,4993.0870084492099,0.0
593204.59901257406,4152374.0504322448,-32500.0,1478.0597800944859,490.23586981837599,-2545.8141267497181,-496.28178142216728,1968.0888979163033,-1527.0414370445244,2861.2868670524745,1908.8993017302082,-1277.9240879010858,1277.9240879010858,-1908.8993017302082,5119.5750158142237,0.0
598204.59901257406,4152374.0504322448,-32500.0,2154.4147684767231,-254.39138144670335,-2721.0008654728763,287.31873550278118,1646.5927656811441,-1039.9318015614076,2967.4404367576744,2525.1880196086372,-2079.8422086552396,2079.8422086552396,-2525.1880196086372,5193.7813494229467,0.0
603204.59901257406,4152374.0504322448,-32500.0,2518.3230090796792,-1176.8869639260686,-2554.0428995805241,1182.950294613601,830.14954765585128,-63.446714129855188,3147.3466821607408,2809.8796231196425,-2780.9592322697849,2780.9592322697849,-2809.8796231196425,5451.5592152683066,0.0
608204.59901257406,4152374.0504322448,-32500.0,2356.9894323228359,-2002.617628875297,-1925.4171580673367,1876.4533706278321,-537.80247566481194,1425.901497274936,3569.6792766656281,2544.1853919092282,-3060.595728465948,3060.595728465948,-2544.1853919092282,6219.4044896829637,0.0
613204.59901257406,4152374.0504322448,-32500.0,1716.7630528539073,-2342.0724591281332,-917.65176186738552,1965.818851301854,-2232.4987186822336,3171.5113508752174,4250.5181700262237,1759.3713992285843,-2661.8189312674644,2661.8189312674644,-1759.3713992285843,7475.977364946405,0.0
618204.59901257406,4152374.0504322448,-32500.0,995.87155611815967,-1973.7603923167537,129.85540434614586,1275.8154792760126,-3737.8848013574775,4647.4389121234271,4914.9540515780809,845.89574230928633,-1662.9536322358247,1662.9536322358247,-845.89574230928633,8702.4076251995302,0.0
623204.59901257406,4152374.0504322448,-32500.0,648.52643645426576,-1077.2599642220644,820.82870499804119,79.466902886841339,-4550.4183145896177,5378.2145954166353,5249.2624738354898,286.2781821560788,-503.33693652490973,503.33693652490973,-286.2781821560788,9338.3100571917566,0.0
628204.59901257406,4152374.0504322448,-32500.0,802.6835042154039,-89.918194522989836,978.98693932703759,-1109.288527412109,-4519.7322711597189,5265.2232501861972,5136.5403779530916,268.73694888547965,348.36234260541374,-348.36234260541374,-268.73694888547965,9173.7855416515704,0.0
633204.59901257406,4152374.0504322448,-32500.0,1257.6125587229008,629.20140752028499,698.5719931465527,-1917.5903422109195,-3854.712348771458,4554.4729273530238,4660.2349165162996,641.86677615537133,691.05192932756768,-691.05192932756768,-641.86677615537133,8355.8636058710872,0.0
638204.59901257406,4152374.0504322448,-32500.0,1736.2243744078448,952.98237605138263,198.85759964003975,-2249.7689246350051,-2891.7179185395526,3583.4342027782327,3989.7334118920685,1137.5458713671649,591.28972134655783,-591.28972134655783,-1137.5458713671649,7184.0465058009731,0.0
643204.59901257406,4152374.0504322448,-32500.0,2055.2314271508726,933.93277702349008,-317.55943423347827,-2193.9911309210879,-1909.563478988485,2607.8958933198828,3283.910424312714,1548.2482638105312,234.41632946059497,-234.41632946059497,-1548.2482638105312,5936.6414969501147,0.0
648204.59901257406,4152374.0504322448,-32500.0,2152.3608552815645,699.81613555897741,-726.50605665580736,-1898.4036546787074,-1070.9046066842584,1766.5346041539656,2652.2585226095443,1776.144646492774,-197.80539027122529,197.80539027122529,-1776.144646492774,4800.7854954673958,0.0
653204.59901257406,4152374.0504322448,-32500.0,2050.012249653993,377.92958454001996,-983.72546318671846,-1498.332618595344,-436.7117018898706,1108.2855870780645,2149.587583144058,1812.7895893293748,-582.56895424445258,582.56895424445258,-1812.7895893293748,3868.9930832231948,0.0
658204.59901257406,4152374.0504322448,-32500.0,1809.7541586722339,59.612361531013391,-1098.9404304220757,-1089.0858365197616,-2.9139484361633068,629.09553485399124,1779.7201459804958,1699.6383467412147,-862.4143538650419,862.4143538650419,-1699.6383467412147,3160.5844238221935,0.0
663204.59901257406,4152374.0504322448,-32500.0,1498.2827892984576,-205.47220748341772,-1106.5428060298643,-724.68407855273517,265.54036232253333,300.49292417910181,1513.473201156022,1493.5271502214036,-1027.8207609629535,1027.8207609629535,-1493.5271502214036,2648.2967775359666,0.0
668204.59901257406,4152374.0504322448,-32500.0,1169.4102835361095,-400.02434654982045,-1044.8901930734414,-427.63880150497738,411.68765481019813,87.436105987328943,1316.7360213514776,1245.6844796120745,-1095.2338685631898,1095.2338685631898,-1245.6844796120745,2283.6642106700328,0.0
673204.59901257406,4152374.0504322448,-32500.0,858.79092613347257,-526.30880097529121,-946.01444332535721,-200.71079760179131,474.54474813955494,-42.503710174452515,1164.026155899036,993.36568278510049,-1090.2198233107097,1090.2198233107097,-993.36568278510049,2017.5303052807812,0.0
678204.59901257406,4152374.0504322448,-32500.0,585.76070073767926,-595.70146749093124,-832.68934339700218,-36.454045997911429,484.72003765785195,-115.59849680310987,1039.1582581622083,759.39617579764979,-1037.7749497392645,1037.7749497392645,-759.39617579764979,1811.7643939588922,0.0
683204.59901257406,4152374.0504322448,-32500.0,357.74306377840156,-622.04566120837501,-719.23914911569921,76.470533640627082,464.15197001799788,-151.49097920647506,932.66435141029683,555.16746407072424,-958.19147656676614,958.19147656676614,-555.16746407072424,1641.7828072480361,0.0
688204.59901257406,4152374.0504322448,-32500.0,174.67288067930309,-618.20633981069045,-613.61579333000884,149.73211621235492,427.55738482657523,-164.07712568056803,839.27721990013629,384.32635405002793,-866.19045718478742,866.19045718478742,-384.32635405002793,1493.7637412348731,0.0
693204.59901257406,4152374.0504322448,-32500.0,32.439950940709465,-594.70626108550368,-519.49409705594439,193.6488086807704,384.2669657290661,-162.78282107897545,756.11274728674186,245.91176820649605,-771.56739943208856,771.56739943208856,-245.91176820649605,1360.6992784286624,0.0
698204.59901257406,4152374.0504322448,-32500.0,-74.792015175269881,-559.50045599182693,-437.93001553903429,216.61863784601968,339.86801275305703,-153.78078257429917,681.53543048430765,136.60515956883796,-680.31882618739576,680.31882618739576,-136.60515956883796,1239.2935856644494,0.0
703204.59901257406,4152374.0504322448,-32500.0,-153.19143521409293,-518.26720657275848,-368.51846372430913,225.12511869798837,297.47719947711209,-140.98209301541993,614.51947534994315,52.171174937591161,-595.75025567162561,595.75025567162561,-52.171174937591161,1128.0374553526342,0.0
708204.59901257406,4152374.0504322448,-32500.0,-208.51594241241042,-474.86653194250664,-310.1362924366714,223.99096792320273,258.64984433325316,-126.7786282220308,554.31850570440452,-11.708176801320803,-519.3795147447413,519.3795147447413,11.708176801320803,1026.1693890775819,0.0
713204.59901257406,4152374.0504322448,-32500.0,-245.78245601794097,-431.79712645051308,-261.38763311541283,216.70275358905997,223.99570185167539,-112.57006262068079,500.30946824372955,-59.004198900116023,-451.6048421714471,451.6048421714471,59.004198900116023,933.17555428412834,0.0
523204.59901257406,4157374.0504322448,-32500.0,-796.49806855383872,345.91676337764591,-131.92118141832484,-436.31691571695222,176.98536510688047,-177.14234703850096,607.96024427305679,-569.88574843563356,330.71185754064868,-330.71185754064868,569.88574843563356,1199.0489915010105,0.0
528204.59901257406,4157374.0504322448,-32500.0,-850.02188590345315,401.15730805733631,-162.97654272319033,-494.82043144861444,215.10971449585921,-211.91134934682358,679.84840848365366,-603.22465784790802,365.99918449190756,-365.99918449190756,603.22465784790802,1340.5019176587023,0.0
533204.59901257406,4157374.0504322448,-32500.0,-900.79010683695242,464.91747391637955,-202.67751095138988,-560.54861558285893,262.15638687370836,-254.08204755188646,761.37206546869675,-632.29011299352737,402.78214424088105,-402.78214424088105,632.29011299352737,1500.4613976776266,0.0
538204.59901257406,4157374.0504322448,-32500.0,-945.3095852571746,537.86077771007092,-253.54925051172967,-633.52660654366468,320.19220306963183,-305.12789893544885,853.64370099708958,-653.7085766106228,439.60678559975952,-439.60678559975952,653.7085766106228,1680.7832482249557,0.0
543204.59901257406,4157374.0504322448,-32500.0,-978.5934772912168,620.20296541137077,-318.8035347566522,-713.14362921211227,391.63586191552599,-366.65558483791136,957.72153650227347,-662.73880530423526,474.03463723263968,-474.03463723263968,662.73880530423526,1883.0435186636184,0.0
548204.59901257406,4157374.0504322448,-32500.0,-993.70746557842619,711.30268132374522,-402.44961971941842,-797.72834795959841,479.1912139492826,-440.27047113714463,1074.4684809297612,-652.86773497976219,502.1804409580559,-502.1804409580559,652.86773497976219,2108.1966476879375,0.0
553204.59901257406,4157374.0504322448,-32500.0,-981.28002755190073,809.01502354305569,-509.34237304475164,-883.92282195930045,585.64117672768953,-527.29692182808424,1204.3279699440309,-615.38231636021942,518.09012501552297,-518.09012501552297,615.38231636021942,2356.050814829076,0.0
558204.59901257406,4157374.0504322448,-32500.0,-929.08059291923485,908.70884803641968,-645.0660095222504,-965.79606671066688,713.38180214800116,-628.25293656690906,1346.9906910227364,-539.020287360986,512.95380888057548,-512.95380888057548,539.020287360986,2624.5007804806619,0.0
563204.59901257406,4157374.0504322448,-32500.0,-821.89234180097128,1001.8425672995185,-815.4611472243223,-1033.6576185489778,863.49703853764936,-741.92537626588808,1500.9309527615408,-409.92352873350978,474.21454092098043,-474.21454092098043,409.92352873350978,2908.4726241668982,0.0
568204.59901257406,4157374.0504322448,-32500.0,-642.12824769750728,1074.0435394011888,-1025.453141232611,-1072.6121368533998,1034.0629739904005,-863.82912861153397,1662.8235566394137,-212.33561969460959,384.79364433517469,-384.79364433517469,212.33561969460959,3198.6189914596439,0.0
573204.59901257406,4157374.0504322448,-32500.0,-371.99280190738932,1102.8279650759998,-1276.6188103821064,-1061.1069373433331,1217.2366544656054,-983.77568068171456,1826.9489844003058,69.164424843969073,222.98787382237504,-222.98787382237504,-69.164424843969073,3480.0458876731527,0.0
578204.59901257406,4157374.0504322448,-32500.0,1.5262536026810229,1055.6201424201945,-1562.6810165596551,-970.20241251165305,1394.6084606990369,-1082.2899617300975,1984.9556030657409,444.62043243378025,-35.772924353220134,35.772924353220134,-444.62043243378025,3731.9923451212512,0.0
583204.59901257406,4157374.0504322448,-32500.0,477.15059952734305,889.89209012805361,-1862.0738794919762,-765.25964256331781,1530.5286971592434,-1125.8794235479681,2126.9608402253634,909.17443376430947,-413.10056879959711,413.10056879959711,-909.17443376430947,3930.8999457952523,0.0
588204.59901257406,4157374.0504322448,-32500.0,1024.1403928766224,559.37290567258117,-2127.5878322662179,-413.36983695889757,1564.3254801380144,-1062.1341539041018,2246.2014110907667,1427.9046103318722,-914.42406969469698,914.42406969469698,-1427.9046103318722,4062.4158511620149,0.0
593204.59901257406,4157374.0504322448,-32500.0,1564.0434593423356,32.887802536665248,-2276.4866666441835,98.392581007467982,1405.8267996429493,-818.25049370838144,2350.9804284291513,1917.5563643285652,-1505.4551201139664,1505.4551201139664,-1917.5563643285652,4151.7537892012906,0.0
598204.59901257406,4157374.0504322448,-32500.0,1962.3952661209621,-668.25363069434866,-2192.3256136056962,730.21630179473129,945.60476650173109,-311.7217322915161,2485.2680805228574,2238.0892337555847,-2082.0353778444646,2082.0353778444646,-2238.0892337555847,4313.5639261497963,0.0
603204.59901257406,4157374.0504322448,-32500.0,2059.2037954411385,-1422.3582998718828,-1759.4790559278986,1351.656594272707,98.306104082917003,513.13025992648863,2738.3624788632642,2223.0077002241205,-2456.2433894106962,2456.2433894106962,-2223.0077002241205,4758.9858075013526,0.0
608204.59901257406,4157374.0504322448,-32500.0,1764.4733120135222,-1992.5890525919908,-944.84358581113804,1738.6083306821627,-1113.6542725544468,1618.5917585121974,3187.1250188106214,1776.1448421825085,-2405.9601512482491,2405.9601512482491,-1776.1448421825085,5627.3108869978987,0.0
613204.59901257406,4157374.0504322448,-32500.0,1178.4012435536406,-2114.1526228525145,111.35315459124553,1662.910655909054,-2482.5262562653365,2816.1665982029995,3777.337190444759,997.74012686558694,-1814.8833621427036,1814.8833621427036,-997.74012686558694,6764.7609491234753,0.0
618204.59901257406,4157374.0504322448,-32500.0,596.20549445261361,-1677.2972914973616,1103.1981359039262,1059.0679087292363,-3649.8385064461613,3803.6893369318605,4314.4481211642442,199.85036250631015,-815.02514419958584,815.02514419958584,-199.85036250631015,7790.2272059321285,0.0
623204.59901257406,4157374.0504322448,-32500.0,318.52361077369682,-841.30052630652813,1720.8749762895186,112.86129712881115,-4291.1240581659586,4321.906359295398,4603.9158770305485,-278.9433720862184,243.87793303641419,-243.87793303641419,278.9433720862184,8353.581466115309,0.0
628204.59901257406,4157374.0504322448,-32500.0,439.94127449911019,67.395706653080126,1834.2673366688878,-851.6107945358799,-4300.1230908956277,4300.6121214732766,4565.1548568186427,-299.32511163943752,1012.975518066862,-1012.975518066862,299.32511163943752,8314.3499894714623,0.0
633204.59901257406,4157374.0504322448,-32500.0,834.54882742912707,766.28517809525727,1525.3719059063221,-1572.3725365349039,-3801.5365049145234,3857.2552925873233,4239.4985282506896,40.538640694961259,1333.2809352545062,-1333.2809352545062,-40.538640694961259,7749.8077403712805,0.0
638204.59901257406,4157374.0504322448,-32500.0,1296.7276351234807,1133.1826826258996,984.51100345311193,-1947.9109669459394,-3025.6850832023447,3186.41146706167,3733.7026527689709,534.57485244131726,1247.4655869488863,-1247.4655869488863,-534.57485244131726,6852.5955652514567,0.0
643204.59901257406,4157374.0504322448,-32500.0,1665.0681673960005,1188.5948545674967,397.23141453720325,-2008.8199332587012,-2185.8225599461498,2460.7335624991824,3161.2759546955172,999.65369125391464,902.22094503385904,-902.22094503385904,-999.65369125391464,5824.6951707491153,0.0
648204.59901257406,4157374.0504322448,-32500.0,1862.9728844609647,1025.3712598010918,-112.06001518598642,-1847.3791290800123,-1423.4265529150139,1792.1615673649831,2610.8258798906722,1330.0618253903372,453.90036402980849,-453.90036402980849,-1330.0618253903372,4820.4700571598687,0.0
653204.59901257406,4157374.0504322448,-32500.0,1884.9698704008736,748.64365921520459,-486.80263003684411,-1563.3314992220301,-806.3113006365694,1234.6978483927016,2136.9116596687595,1494.4110815998556,19.043637883426982,-19.043637883426982,-1494.4110815998556,3933.1530674851288,0.0
658204.59901257406,4157374.0504322448,-32500.0,1766.5925371327523,443.0120503845751,-720.85042285373277,-1236.7625158775352,-348.82307653708853,801.71260434029023,1759.5935966595891,1510.1494656777677,-337.14205612992862,337.14205612992862,-1510.1494656777677,3203.2543102923455,0.0
663204.59901257406,4157374.0504322448,-32500.0,1557.5035199086356,162.44030640123023,-835.8810337247844,-920.57197679113926,-34.915259558079178,483.50765958884779,1471.2069040816589,1416.9335458956321,-591.80795461072239,591.80795461072239,-1416.9335458956321,2633.7136719165414,0.0
668204.59901257406,4157374.0504322448,-32500.0,1304.2974937915676,-66.621278892511839,-863.31901732733775,-643.37083501220718,163.96482184642372,260.35519763457091,1252.405464374503,1257.6135327736897,-749.03697493708512,749.03697493708512,-1257.6135327736897,2204.825835757028,0.0
673204.59901257406,4157374.0504322448,-32500.0,1042.6650054010565,-237.08370090815089,-833.46282823287061,-416.18173019528808,277.84654948741115,110.53164744334153,1084.2640518545472,1068.1496472191807,-825.96418745135622,825.96418745135622,-1068.1496472191807,1886.7354780600438,0.0
678204.59901257406,4157374.0504322448,-32500.0,795.95076716220683,-353.04014109111552,-770.69182225297664,-239.18322347535897,332.83238015271979,14.424701514018498,951.86711888506022,874.28894745625848,-843.32530761419889,843.32530761419889,-874.28894745625848,1648.8329271790933,0.0
683204.59901257406,4157374.0504322448,-32500.0,576.97620970975936,-423.62857468222501,-692.48077512655857,-106.93682908386275,349.32623123482199,-43.909065372003191,844.45041052673344,692.09254755638267,-820.30092063953043,820.30092063953043,-692.09254755638267,1465.4722186108127,0.0
688204.59901257406,4157374.0504322448,-32500.0,390.9132512762294,-459.20445836474988,-610.2544564235285,-11.8381926244904,342.18511090364871,-76.595765852284572,754.69278211942992,530.0400454539149,-772.40749962163727,772.40749962163727,-530.0400454539149,1318.0080089142841,0.0
693204.59901257406,4157374.0504322448,-32500.0,238.01922857282077,-469.33254834131537,-530.83357645905392,53.893375805001916,321.66254483258683,-92.436803480753809,677.81800297597215,391.37439678343571,-711.14962174327229,711.14962174327229,-391.37439678343571,1194.2348038183468,0.0
698204.59901257406,4157374.0504322448,-32500.0,115.77306765318768,-461.96225517026539,-457.84097336178638,97.234003239344744,294.51898767232973,-97.597765592025581,610.76976948770459,276.08538406949214,-644.4973480128881,644.4973480128881,-276.08538406949214,1086.7302824064514,0.0
703204.59901257406,4157374.0504322448,-32500.0,20.352371901857911,-443.27318739886027,-392.8335131933851,123.99123305863246,265.01818800328903,-96.275056598643019,551.5801033997418,182.36768738180274,-577.63767715842937,577.63767715842937,-182.36768738180274,991.17832855308745,0.0
708204.59901257406,4157374.0504322448,-32500.0,-52.43929973917745,-417.84089604377931,-336.12074819575759,138.77414019712768,235.71556761787852,-91.252495029605953,498.93774155984454,107.59337015700558,-513.716612309467,513.716612309467,-107.59337015700558,905.09908877563055,0.0
713204.59901257406,4157374.0504322448,-32500.0,-106.64511546255854,-388.92137738736466,-287.31764711019537,145.12046825397914,208.03939819452023,-84.330792097282981,451.91795907004104,48.90929317752088,-454.46192302934617,454.46192302934617,-48.90929317752088,827.02636953271156,0.0
528204.59901257406,4162374.0504322448,-32500.0,-738.29876640989323,426.97329979012949,-212.04755692912107,-441.44062048208258,231.26059182738499,-192.21293469740567,636.60657355923172,-506.37201204245935,340.96499205122575,-340.96499205122575,506.37201204245935,1256.8787475691415,0.0
533204.59901257406,4162374.0504322448,-32500.0,-767.81257282887782,487.8084693879278,-260.03570448317879,-493.57747560142076,278.4718996160812,-228.07292409168372,708.17201891347588,-516.74743307005929,367.32170932551168,-367.32170932551168,516.74743307005929,1397.3031905060882,0.0
538204.59901257406,4162374.0504322448,-32500.0,-787.51852884313905,555.30538773035801,-320.13473075942949,-549.40942591253111,335.6087232197977,-270.64988001804801,788.1218791832041,-516.3368428485486,390.60465148080203,-390.60465148080203,516.3368428485486,1553.2446042805141,0.0
543204.59901257406,4162374.0504322448,-32500.0,-792.29500669457218,628.6309401531804,-395.2844257819155,-607.48861731028592,404.40258130561563,-320.80190112392398,876.96764075625208,-500.30862405514313,407.66945467101766,-407.66945467101766,500.30862405514313,1725.1137871910319,0.0
548204.59901257406,4162374.0504322448,-32500.0,-775.43656345124964,705.78276730047855,-488.89012400018083,-665.2199730986739,486.53310844524538,-379.15067932417901,974.91716203468422,-462.41465402119832,413.92118191660575,-413.92118191660575,462.41465402119832,1912.5065315816496,0.0
553204.59901257406,4162374.0504322448,-32500.0,-728.45605339615997,782.92907698035879,-604.65864442935788,-718.33354989262148,583.29120183772784,-445.76141730351316,1081.6699873202251,-394.84768916068896,402.84771962672329,-402.84771962672329,394.84768916068896,2113.7346465763449,0.0
558204.59901257406,4162374.0504322448,-32500.0,-641.10405528629099,853.49878193163352,-746.17223094270366,-760.21215242014478,694.9626757846346,-519.60866577801653,1196.1583967917766,-288.32755087629556,365.53627802510738,-365.53627802510738,288.32755087629556,2325.216801649517,0.0
563204.59901257406,4162374.0504322448,-32500.0,-501.86198156404782,907.01757760562964,-915.9977713802017,-781.11750179276441,819.77182448182407,-597.72806103912797,1316.2526984453734,-132.67305944072501,290.32482961877429,-290.32482961877429,132.67305944072501,2540.7776425301408,0.0
568204.59901257406,4162374.0504322448,-32500.0,-299.33515053018937,927.80411742136516,-1114.0232704519626,-767.47380271707027,952.17317100890102,-673.94066293456092,1438.5077167571226,81.713256571293215,162.92153469420506,-162.92153469420506,-81.713256571293215,2751.0489198309288,0.0
573204.59901257406,4162374.0504322448,-32500.0,-25.166172573591968,893.9153278811583,-1334.6210071699277,-701.59546064445317,1080.273839841348,-737.0668054606889,1558.1654215997844,360.82473459228265,-32.372099809369246,32.372099809369246,-360.82473459228265,2943.5029927038672,0.0
578204.59901257406,4162374.0504322448,-32500.0,320.79032283283868,777.27164557007438,-1562.2610195233628,-562.64766993117735,1182.307606633773,-768.68884662953462,1669.9037858427946,701.74799195990806,-309.26041815512656,309.26041815512656,-701.74799195990806,3104.3560798799322,0.0
583204.59901257406,4162374.0504322448,-32500.0,722.57921662686579,546.79013180604159,-1765.6350124229596,-330.22379077923125,1222.6019967625957,-740.91505912710056,1770.2899058093462,1084.6208422275006,-672.37725849382366,672.37725849382366,-1084.6208422275006,3224.8855471041975,0.0
588204.59901257406,4162374.0504322448,-32500.0,1138.5038086233196,177.42144866888924,-1891.7675927527714,7.4938473537933525,1148.7768446931257,-615.46242926554078,1863.3642853342658,1462.8285929303056,-1105.2084134612369,1105.2084134612369,-1462.8285929303056,3316.2655052475902,0.0
593204.59901257406,4162374.0504322448,-32500.0,1494.3223211669736,-331.90197235422283,-1864.7010710585296,439.33926799578813,894.36615712924652,-346.89584708908319,1969.890577285214,1756.1307920455988,-1553.9319307512696,1553.9319307512696,-1756.1307920455988,3434.7683763673408,0.0
598204.59901257406,4162374.0504322448,-32500.0,1689.870274741709,-932.24542351431342,-1597.7924066521311,912.25993469532591,394.01302050283419,105.44794782235579,2134.5220242573032,1857.6355285930533,-1914.6351064733619,1914.6351064733619,-1857.6355285930533,3698.6094408856866,0.0
603204.59901257406,4162374.0504322448,-32500.0,1633.2035056388529,-1503.2002195370578,-1029.8590388279217,1318.6348706286999,-382.20268333382694,753.13272252338572,2412.3180475243335,1669.4558706303474,-2042.008097442806,2042.008097442806,-1669.4558706303474,4237.4764069722441,0.0
608204.59901257406,4162374.0504322448,-32500.0,1303.5318301323309,-1865.1235115028981,-182.32954026715529,1512.0027175984578,-1381.3190540804089,1546.9703642102647,2821.7061822714113,1169.3254547660836,-1801.3905638564888,1801.3905638564888,-1169.3254547660836,5064.3265126596434,0.0
613204.59901257406,4162374.0504322448,-32500.0,805.4073811631406,-1851.518432602453,798.28539220610696,1368.7325044279564,-2439.7307705987555,2361.0524100279104,3300.0218146326024,470.56233126989991,-1159.1433872045955,1159.1433872045955,-470.56233126989991,6016.034216086794,0.0
618204.59901257406,4162374.0504322448,-32500.0,346.70780110427415,-1416.1193962543941,1669.8391732938214,871.47346440898832,-3321.1337340447903,3023.2335880192481,3719.9757846517209,-195.64041756864759,-247.98958522562549,247.98958522562549,195.64041756864759,6837.9412068277579,0.0
623204.59901257406,4162374.0504322448,-32500.0,124.10918796910336,-684.50369938855761,2206.2305744416344,142.68722217329372,-3821.34072225828,3390.4059266876397,3960.6849999492651,-598.20405661284485,673.06090585617676,-673.06090585617676,598.20405661284485,7312.8480894540071,0.0
628204.59901257406,4162374.0504322448,-32500.0,207.17219776292302,111.24762982212482,2310.3999806904062,-615.52974072855545,-3865.251952407325,3414.8226948425122,3965.9125812115785,-634.84101211764084,1353.0630993139603,-1353.0630993139603,634.84101211764084,7345.7774151050298,0.0
633204.59901257406,4162374.0504322448,-32500.0,522.49081770624275,758.53031166567348,2037.9300089887031,-1225.3490587128063,-3519.9956475649756,3149.6776571571686,3752.8513073474614,-361.62745059601536,1665.4758772553992,-1665.4758772553992,361.62745059601536,6972.7310615980796,0.0
638204.59901257406,4162374.0504322448,-32500.0,927.47728303285805,1146.3743792965586,1534.2879492842592,-1597.1357786848494,-2932.6517463694922,2702.7861391748247,3385.4848139417059,76.056817379745212,1626.5295340410335,-1626.5295340410335,-76.056817379745212,6311.8185893778345,0.0
643204.59901257406,4162374.0504322448,-32500.0,1291.9445357871537,1268.9331273880703,954.67212597239018,-1728.7063833909779,-2256.0671774620555,2184.2438839831493,2940.9340679774032,530.40279369482596,1339.7917002758609,-1339.7917002758609,-530.40279369482596,5502.3874099884142,0.0
648204.59901257406,4162374.0504322448,-32500.0,1538.257025118394,1185.0674599778588,414.99870906931079,-1670.5397672379092,-1605.1214405012306,1676.8022776794762,2486.6374489345289,900.47414707085113,929.89502305573319,-929.89502305573319,-900.47414707085113,4663.8004514348822,0.0
653204.59901257406,4162374.0504322448,-32500.0,1642.9156220985144,974.79138781542747,-21.089651331210884,-1490.2044586951756,-1045.9448409498177,1229.2145255474434,2070.5024597008724,1141.1888502773984,500.23165462187421,-500.23165462187421,-1141.1888502773984,3878.9748526325602,0.0
658204.59901257406,4162374.0504322448,-32500.0,1620.0130146690585,710.64569764218345,-333.74932911294781,-1249.6008553865788,-603.87399448357098,861.96947060167452,1717.9620080155428,1250.5254055794526,117.548581976935,-117.548581976935,-1250.5254055794526,3194.4217941684178,0.0
663204.59901257406,4162374.0504322448,-32500.0,1502.0537276590874,445.2150024387592,-531.2121019868448,-995.06440229598809,-277.34140533759165,576.66581500855807,1433.4116520628272,1251.0701771621145,-186.07822269362396,186.07822269362396,-1251.0701771621145,2627.7017630639343,0.0
668204.59901257406,4162374.0504322448,-32500.0,1325.3242877600733,209.74723071567931,-635.19434104009451,-756.00094022574808,-50.671281831906811,364.54618760288224,1208.6569490490851,1174.4248756911209,-403.78332740374543,403.78332740374543,-1174.4248756911209,2176.5571878003911,0.0
673204.59901257406,4162374.0504322448,-32500.0,1121.4421301105358,18.294599331808737,-670.70598128617235,-547.76027320068988,96.784647102457484,212.65563634422412,1032.1221716056796,1051.2158669258838,-543.51653670551013,543.51653670551013,-1051.2158669258838,1827.0844472814547,0.0
678204.59901257406,4162374.0504322448,-32500.0,913.99426563847339,-126.63636314704475,-660.40434958429069,-375.78412252363449,185.26259461019222,107.5974338537219,892.88657278227197,906.26794347579175,-619.81961386401758,619.81961386401758,-906.26794347579175,1560.1714351848996,0.0
683204.59901257406,4162374.0504322448,-32500.0,718.38356575242574,-229.070960210636,-622.31579180426752,-239.43500344996747,232.04765408356914,37.442028292597627,781.74699516105079,757.32769142514053,-648.52110807115673,648.52110807115673,-757.32769142514053,1356.1579853943335,0.0
688204.59901257406,4162374.0504322448,-32500.0,543.22146839177231,-295.93980748724897,-569.55879828383593,-134.89898321287939,250.72157366738355,-7.5631490331382478,691.44425553565839,615.71072358631329,-643.91250051837085,643.91250051837085,-615.71072358631329,1197.7727671494083,0.0
693204.59901257406,4162374.0504322448,-32500.0,392.16390579174811,-334.81994775222984,-511.01381936439861,-57.112221480172011,251.35373723518711,-34.955200400637068,616.55543401620525,487.70254358710793,-617.61902746126987,617.61902746126987,-487.70254358710793,1071.462078107832,0.0
698204.59901257406,4162374.0504322448,-32500.0,265.61028057468616,-352.72398337476773,-452.28895122530002,-0.89792956042583383,241.08360107483458,-50.330177896623212,553.19513320018086,376.04083606113664,-578.4507535074531,578.4507535074531,-376.04083606113664,967.46742590352312,0.0
703204.59901257406,4162374.0504322448,-32500.0,162.04029578293526,-355.58007754250656,-396.64857741053515,38.449702709485848,224.78578240896945,-57.718900318193292,498.65081089580531,281.17282025898186,-532.72550543621492,532.72550543621492,-281.17282025898186,879.19451836777694,0.0
708204.59901257406,4162374.0504322448,-32500.0,78.962131484298538,-348.11417769701114,-345.77433236165058,64.92857324838721,205.67210770456094,-59.955037039688911,451.04511995608948,202.20133559985098,-484.75569193220042,484.75569193220042,-202.20133559985098,802.36930722756017,0.0
528204.59901257406,4167374.0504322448,-32500.0,-624.63474490569365,434.69330841917019,-256.13165332925956,-386.24742563359126,238.94266916150733,-171.60280320450707,589.95680903690823,-408.3427976767494,303.97959530148563,-303.97959530148563,408.3427976767494,1166.1070420935609,0.0
533204.59901257406,4167374.0504322448,-32500.0,-635.0670696597922,489.11883721624423,-309.87070453712352,-425.47446247664828,284.15037238187966,-201.27018656389109,651.73156419779104,-402.20992002420064,318.90580799943416,-318.90580799943416,402.20992002420064,1286.8118782018444,0.0
538204.59901257406,4167374.0504322448,-32500.0,-633.33039258465271,547.23020660771317,-375.66913107313218,-465.43625603951506,337.71331120146118,-235.70887107453788,719.83758605567766,-383.33339374080259,328.03088052417894,-328.03088052417894,383.33339374080259,1418.6143948526922,0.0
543204.59901257406,4167374.0504322448,-32500.0,-614.62365989937064,607.26103654433587,-455.86894383116982,-504.17320101714279,400.61926260809349,-275.18614647877831,794.35989956546905,-347.24579025837363,327.85343734616879,-327.85343734616879,347.24579025837363,1561.0543582557741,0.0
548204.59901257406,4167374.0504322448,-32500.0,-573.03508293800428,666.11950459977538,-552.88330424666299,-538.63815189516095,473.52101036808892,-319.59545092412117,875.03476975265926,-288.53249164570826,313.59494932435911,-313.59494932435911,288.53249164570826,1712.8151339008245,0.0
553204.59901257406,4167374.0504322448,-32500.0,-501.60984332549032,718.81172833768426,-668.85254374886244,-564.31349995490154,556.33397977157335,-368.14859915980588,961.11406102618207,-200.95207176663001,278.94382815950712,-278.94382815950712,200.95207176663001,1871.3751669941009,0.0
558204.59901257406,4167374.0504322448,-32500.0,-392.71587045376538,757.73760915360083,-804.99929419612897,-574.79138064470794,647.58349369484893,-418.90680181656001,1051.2237586294125,-77.86774213681808,215.91498059546439,-215.91498059546439,77.86774213681808,2032.6369302487328,0.0
563204.59901257406,4167374.0504322448,-32500.0,-238.93536506074997,771.94052877810395,-960.51609613147866,-561.40967050386155,743.39969222501156,-468.10138132623638,1143.2638076350695,86.779740474607124,115.02018517088437,-115.02018517088437,-86.779740474607124,2190.6579683801142,0.0
568204.59901257406,4167374.0504322448,-32500.0,-34.793711978401433,746.53875898624744,-1130.7856799766596,-513.14776967011881,836.06661505466309,-509.21591928328502,1234.4734162622563,296.6426854639285,-33.906266366020844,33.906266366020844,-296.6426854639285,2337.7887644181837,0.0
573204.59901257406,4167374.0504322448,-32500.0,220.32913769535296,662.82698016211236,-1304.7691558718084,-417.16222296048636,912.10893579607659,-531.87065427270284,1321.9124135873285,549.93220106977981,-239.68861837659128,239.68861837659128,-549.93220106977981,2465.8610307338554,0.0
578204.59901257406,4167374.0504322448,-32500.0,517.91092690552512,499.93521971870342,-1461.6213808526161,-260.58174237738166,950.13435965618828,-520.71552106364493,1403.7979688822961,834.98614913614574,-505.8913523570468,505.8913523570468,-834.98614913614574,2569.6456089813164,0.0
583204.59901257406,4167374.0504322448,-32500.0,835.02180321136575,239.38949733809085,-1567.2238770666343,-34.399179951461939,919.17539831455304,-454.86513407153842,1482.2908306908296,1124.8599750705912,-824.38124315644768,824.38124315644768,-1124.8599750705912,2654.4471062547109,0.0
588204.59901257406,4167374.0504322448,-32500.0,1129.88335493257,-125.95979132117346,-1572.6191287118697,259.79718776658666,779.20414361288647,-308.9294695368842,1567.9503191206527,1372.821613005169,-1166.6058057447165,1166.6058057447165,-1372.821613005169,2748.9753403782533,0.0
593204.59901257406,4167374.0504322448,-32500.0,1342.3872288466732,-578.34698989867093,-1418.2493686886764,600.53754337823057,486.67667424587825,-57.281703899986567,1683.8949870431718,1513.0908279051771,-1475.2141763629668,1475.2141763629668,-1513.0908279051771,2917.5614073630018,0.0
598204.59901257406,4167374.0504322448,-32500.0,1405.8608519623508,-1060.4704729101145,-1049.2326983931839,937.71505187005141,8.389790083727803,316.74861413524252,1862.9855362687256,1473.5076372406104,-1662.8751436175523,1662.8751436175523,-1473.5076372406104,3248.3395712064976,0.0
603204.59901257406,4167374.0504322448,-32500.0,1274.5396172799008,-1470.4187663555658,-444.2076536495378,1191.9039115012708,-655.81204642570015,806.91737290263723,2130.4904756692185,1205.1038500285104,-1628.8742859107501,1628.8742859107501,-1205.1038500285104,3795.7351668989841,0.0
608204.59901257406,4167374.0504322448,-32500.0,960.08844902420924,-1681.6022083730034,350.63468645309717,1271.7256395472712,-1449.3100740820357,1370.5195623921293,2478.9750074905678,722.06498998071925,-1300.0402003678594,1300.0402003678594,-722.06498998071925,4519.5953043185755,0.0
613204.59901257406,4167374.0504322448,-32500.0,552.32420688755246,-1593.8846196502118,1206.6657038384619,1111.760890106576,-2252.5579521822988,1926.5063979148883,2856.5905085052377,126.05340072397854,-683.25441470113151,683.25441470113151,-126.05340072397854,5288.5582546864189,0.0
618204.59901257406,4167374.0504322448,-32500.0,194.68576184020884,-1193.2631766010602,1943.4424296953553,713.53617546855457,-2912.3220688953684,2375.3814102245742,3181.5875511828158,-417.48828399955755,108.0995031990492,-108.0995031990492,417.48828399955755,5936.6631607750423,0.0
623204.59901257406,4167374.0504322448,-32500.0,16.348336520208314,-573.97356470073464,2400.7050976641704,157.52529980972494,-3300.0082117327584,2636.0125799989796,3377.7104741010307,-751.89894458517301,887.91981701523287,-887.91981701523287,751.89894458517301,6327.2842494853667,0.0
628204.59901257406,4167374.0504322448,-32500.0,67.899010840645602,101.97945492838976,2506.1431379563728,-429.29012706382338,-3363.0485757576116,2676.8870237635365,3405.5272768417381,-802.74383734154435,1478.1451687457466,-1478.1451687457466,802.74383734154435,6395.690721942934,0.0
633204.59901257406,4167374.0504322448,-32500.0,308.34194446760034,678.92353010110469,2292.5990510536576,-928.03467352446057,-3135.304130418901,2521.4323270896134,3270.0748792235117,-599.03476620022491,1779.6446804711541,-1779.6446804711541,599.03476620022491,6156.3509892701559,0.0
638204.59901257406,4167374.0504322448,-32500.0,642.70662083017123,1062.6169313077244,1863.1622206224743,-1267.302283438831,-2707.2459060118831,2228.6754802210794,3008.6410950551276,-238.08894355201983,1790.4904888634956,-1790.4904888634956,238.08894355201983,5679.9978139317882,0.0
643204.59901257406,4167374.0504322448,-32500.0,972.52444469825889,1231.8020100534106,1338.8033339510828,-1430.673896684546,-2183.4893914730574,1866.5598054332365,2672.00592128874,168.41575928977238,1577.5979637636901,-1577.5979637636901,-168.41575928977238,5059.7789390425642,0.0
648204.59901257406,4167374.0504322448,-32500.0,1228.3547457152686,1218.2225954166033,819.7822845559125,-1441.6530276827555,-1651.8015348804061,1492.6320335124601,2309.2564861232077,532.99877964300458,1233.8435564654624,-1233.8435564654624,-532.99877964300458,4383.7637399041168,0.0
653204.59901257406,4167374.0504322448,-32500.0,1378.3966215540431,1077.9938635928818,369.94890365572996,-1342.6039692502561,-1170.3566692400968,1146.0309852766736,1959.3624925092618,806.27376438475744,845.00977196337112,-845.00977196337112,-806.27376438475744,3720.1888066750957,0.0
658204.59901257406,4167374.0504322448,-32500.0,1421.7358776321787,868.9261899953101,18.128742766316481,-1178.0777038049616,-768.49006235556089,847.75624528818037,1647.4263009199633,973.29207014360304,473.56267474974953,-473.56267474974953,-973.29207014360304,3113.5757622981587,0.0
663204.59901257406,4167374.0504322448,-32500.0,1376.2463237461641,637.95184105617352,-232.49402470008155,-985.38425756660865,-453.80323236614481,604.85753133161177,1383.6231957312123,1042.4539001751855,155.84701327044849,-155.84701327044849,-1042.4539001751855,2587.2433368170596,0.0
668204.59901257406,4167374.0504322448,-32500.0,1267.4317021639906,417.03141140117384,-393.68437649250768,-791.22525966802959,-220.45249780176096,415.43274433708399,1166.9087199208338,1034.0027598703668,-93.369405711912691,93.369405711912691,-1034.0027598703668,2148.3936844353066,0.0
673204.59901257406,4167374.0504322448,-32500.0,1120.716355607263,224.22802974765139,-483.52975285458973,-612.07353272208672,-56.021257541228962,272.86323375550035,991.4335012127043,971.35061606976205,-273.94603792889257,273.94603792889257,-971.35061606976205,1793.4456283117656,0.0
678204.59901257406,4167374.0504322448,-32500.0,957.33421740991332,67.016377548352153,-520.82168481562303,-456.27048799810507,53.793833578976532,168.79314681882832,850.30484427627641,875.89307050680861,-393.90856135643492,393.90856135643492,-875.89307050680861,1512.5668390118269,0.0
683204.59901257406,4167374.0504322448,-32500.0,792.92381860022886,-54.075879734499125,-522.09027358236654,-326.50596570913893,122.49141577249428,94.926793301326768,736.85979246798206,764.68704846829667,-464.65039921060509,464.65039921060509,-764.68704846829667,1293.131650470031,0.0
688204.59901257406,4167374.0504322448,-32500.0,637.74788487796411,-142.42524966466829,-500.49035743662091,-221.99541940562636,161.52836692490342,43.936211346426177,645.16096528053799,649.99727739069385,-497.91471812612622,497.91471812612622,-649.99727739069385,1122.1739785991069,0.0
693204.59901257406,4167374.0504322448,-32500.0,497.6654519304613,-203.14337398645762,-465.76547958030636,-140.11426773381524,179.98740065687437,9.791096525605326,570.2382181979649,539.82962334427373,-504.20074955215648,504.20074955215648,-539.82962334427373,987.96326358964563,0.0
698204.59901257406,4167374.0504322448,-32500.0,375.2952498545888,-241.71429903631449,-424.72044314697104,-77.493305623649917,184.72594181496433,-12.238766068157648,508.1442506859504,438.84041691962682,-492.13007382381147,492.13007382381147,-438.84041691962682,880.81694653283762,0.0
703204.59901257406,4167374.0504322448,-32500.0,271.07692925849892,-263.24458689921408,-381.85298472204539,-30.68090823208053,180.72880654969913,-25.737486357323657,455.87120638118029,349.27244008319639,-468.37474214319485,468.37474214319485,-349.27244008319639,793.29884379561815,0.0
528204.59901257406,4172374.0504322448,-32500.0,-514.28000395225047,426.78629491216856,-292.74122659390048,-331.69453800685142,239.09830289611455,-150.97403102950159,542.03363628234422,-314.03995991489074,259.25936926820833,-259.25936926820833,314.03995991489074,1071.7237136198851,0.0
533204.59901257406,4172374.0504322448,-32500.0,-508.72751962525251,472.46707519767563,-349.40743337185961,-359.30720824253314,280.66806263974541,-174.85618730466356,594.69693116102701,-294.4489247435846,262.9788873858073,-262.9788873858073,294.4489247435846,1173.4413714570383,0.0
538204.59901257406,4172374.0504322448,-32500.0,-489.86313733160523,518.84125336647855,-417.1982419696505,-385.39785224516692,328.77265287468327,-201.86018237935934,651.94242252078868,-261.35096566528534,258.84988014048247,-258.84988014048247,261.35096566528534,1282.4803345309745,0.0
543204.59901257406,4172374.0504322448,-32500.0,-453.54416671374992,563.45515478386267,-497.66015433836412,-407.7970586286167,383.70901630158488,-231.83139620706567,713.53854687632258,-210.97786245756478,243.37591525246219,-243.37591525246219,210.97786245756478,1397.8276488248118,0.0
548204.59901257406,4172374.0504322448,-32500.0,-395.00835950644904,602.53790792675204,-592.03544923853713,-423.40735604763807,445.24497310020655,-264.18811526924407,778.95269738718241,-139.10341584479067,212.08027630784045,-212.08027630784045,139.10341584479067,1517.7006159106882,0.0
553204.59901257406,4172374.0504322448,-32500.0,-309.13534449895991,630.57356155558261,-700.80754895455721,-427.97211428127559,512.21546797575149,-297.65908004999727,847.28591911981891,-41.355647433467809,159.46221772895859,-159.46221772895859,41.355647433467809,1639.3526931356585,0.0
558204.59901257406,4172374.0504322448,-32500.0,-191.01844112969451,639.86514406405354,-822.96383190918891,-415.88663706144854,581.9261145435355,-329.91545472317074,917.23815760668776,86.147623708378731,79.155702877003407,-79.155702877003407,-86.147623708378731,1758.9637092804351,0.0
563204.59901257406,4172374.0504322448,-32500.0,-37.006766423138167,620.22305646040343,-954.87558084781097,-380.15855313470689,649.32260025983351,-357.08675049567245,987.17787953178981,245.67770803040983,-35.521532607013484,35.521532607013484,-245.67770803040983,1871.7889663847666,0.0
568204.59901257406,4172374.0504322448,-32500.0,153.61349510486252,559.03950223310085,-1088.7209535846573,-312.70585253651529,705.92542666017073,-373.18281879357619,1055.4477126057664,436.1183895017553,-190.35084110410406,190.35084110410406,-436.1183895017553,1972.910160234846,0.0
573204.59901257406,4172374.0504322448,-32500.0,376.20761024728478,442.19730686999446,-1210.495498950308,-205.28466067951896,738.63951276944056,-369.5164276694764,1121.1180127415391,650.44623063560027,-387.97999611629086,387.97999611629086,-650.44623063560027,2059.1974620495366,0.0
578204.59901257406,4172374.0504322448,-32500.0,617.82482417949154,256.46677728773091,-1297.948953962549,-51.42882210817622,728.77387400538555,-334.35278945426671,1185.453554907846,872.65888631794326,-624.3719089863406,624.3719089863406,-872.65888631794326,2133.3703254883594,0.0
583204.59901257406,4172374.0504322448,-32500.0,854.43511567925214,-5.8793474625413511,-1319.3548126481328,150.24438205117289,651.98652122957822,-253.2124962352795,1254.1919114778736,1074.9597473923245,-883.98437067247301,883.98437067247301,-1074.9597473923245,2210.7771838316426,0.0
588204.59901257406,4172374.0504322448,-32500.0,1050.0984642408837,-339.89162669187215,-1234.8661707019253,391.35689256913196,480.36317958231257,-110.48325672086172,1339.8950516305285,1217.0369311255213,-1134.6730431190667,1134.6730431190667,-1217.0369311255213,2326.8930109217154,0.0
593204.59901257406,4172374.0504322448,-32500.0,1160.8529962956188,-719.26001057662404,-1002.9800950997761,648.67279632684586,188.15475792849935,106.91752895496253,1461.7686489852003,1250.4233184289108,-1325.0226526543886,1325.0226526543886,-1250.4233184289108,2536.3268507095568,0.0
598204.59901257406,4172374.0504322448,-32500.0,1146.1581164555244,-1089.8996068650758,-594.24387765673453,881.19878402657059,-237.87445780667144,403.51026552944472,1639.1690028849516,1131.0451560647584,-1388.7788755033534,1388.7788755033534,-1131.0451560647584,2889.8009021374173,0.0
603204.59901257406,4172374.0504322448,-32500.0,987.82174462049034,-1372.6777515928775,-11.064595889870706,1033.7401710449431,-784.98677675053432,767.92843311515207,1879.1780291976045,840.06505164657597,-1261.2126844089432,1261.2126844089432,-840.06505164657597,3396.1272261710965,0.0
608204.59901257406,4172374.0504322448,-32500.0,709.40633694665576,-1482.0472403483741,694.3036097535944,1050.5913200141636,-1403.8196164054489,1167.6987643824541,2166.3778664556735,405.71788391331773,-907.22985406489511,907.22985406489511,-405.71788391331773,4003.7393129515935,0.0
613204.59901257406,4172374.0504322448,-32500.0,381.92531723346087,-1359.4149814959756,1417.8010134589895,897.68068711959131,-2009.9497924935506,1551.1557678127374,2462.1068054017487,-89.199123802075178,-350.0168241298523,350.0168241298523,89.199123802075178,4616.2944583740382,0.0
618204.59901257406,4172374.0504322448,-32500.0,103.9233744362008,-1005.7437081036413,2028.4745558924199,582.72352644213458,-2503.875631140756,1859.4860454212478,2713.6607341105655,-527.83508755482944,320.16201074146306,-320.16201074146306,527.83508755482944,5125.2968891445898,0.0
623204.59901257406,4172374.0504322448,-32500.0,-38.829408207087006,-490.40523249289231,2413.721654113886,159.06479268014914,-2803.6544457911132,2045.3167424674307,2872.0188199806071,-803.54603883387153,970.8332459063688,-970.8332459063688,803.54603883387153,5442.9797436686631,0.0
628204.59901257406,4172374.0504322448,-32500.0,-9.8126737465181293,73.780554123017168,2519.8855065957009,-292.2678795813892,-2872.7329703430896,2088.1164689996717,2909.3859156389744,-862.43146062251901,1475.9327350461849,-1475.9327350461849,862.43146062251901,5524.8464634062329,0.0
633204.59901257406,4172374.0504322448,-32500.0,168.75939026003928,574.35521496729609,2364.4466859211293,-692.01563549236073,-2727.2751330293167,1997.9427352519529,2825.27054720558,-717.88924593915851,1759.1429314347488,-1759.1429314347488,717.88924593915851,5375.0383617038515,0.0
638204.59901257406,4172374.0504322448,-32500.0,434.95574676971597,935.15400870809867,2017.3996026501043,-986.4061917882749,-2422.0340846520485,1807.2356744569379,2641.0604039565569,-433.15422687827049,1809.0259598332632,-1809.0259598332632,433.15422687827049,5035.5737234283752,0.0
643204.59901257406,4172374.0504322448,-32500.0,717.34774813506021,1128.7904164801275,1568.6318686635184,-1155.3207310363407,-2026.6611249535947,1557.320901084797,2389.6390145020973,-89.013412508318197,1665.7739854455097,-1665.7739854455097,89.013412508318197,4567.7183668279677,0.0
648204.59901257406,4172374.0504322448,-32500.0,958.65269063408959,1168.4231838390876,1099.8560317457652,-1206.8137011782035,-1605.3164246556016,1286.7432751825872,2105.7142818708862,243.73119864940384,1395.0499430270993,-1395.0499430270993,-243.73119864940384,4034.5028114929346,0.0
653204.59901257406,4172374.0504322448,-32500.0,1125.8804177398401,1090.4440117344702,669.64721078704065,-1165.5715994780103,-1205.5423509201491,1024.7534383137418,1819.4422155137513,518.14990789347019,1064.1286016269619,-1064.1286016269619,-518.14990789347019,3489.2851541912396,0.0
658204.59901257406,4172374.0504322448,-32500.0,1209.3469461504023,938.04173921122981,310.63563567990718,-1061.8190282040489,-855.7878142306422,789.65632372167079,1552.9321274827994,712.70062472223697,727.3651154377286,-727.3651154377286,-712.70062472223697,2970.842597190222,0.0
663204.59901257406,4172374.0504322448,-32500.0,1216.0515744594979,750.21223467840946,33.961525031777882,-923.71197709520459,-568.21328217940925,590.19410770524382,1318.3138448316556,825.71232166566244,420.99961835288116,-420.99961835288116,-825.71232166566244,2503.1979971716269,0.0
668204.59901257406,4172374.0504322448,-32500.0,1161.9952710223438,556.58601207076958,-163.69867918255838,-773.53629069159103,-343.50519537915972,428.15764941651452,1118.6543536009167,867.76265780880442,164.21932494625901,-164.21932494625901,-867.76265780880442,2097.9906130402596,0.0
673204.59901257406,4172374.0504322448,-32500.0,1065.9401200862533,376.51033902640904,-293.49480402920784,-626.75574918721907,-175.60177418222747,301.04195331546487,951.99466609584579,854.91331194625627,-36.836165985977402,36.836165985977402,-854.91331194625627,1757.7143112636074,0.0
678204.59901257406,4172374.0504322448,-32500.0,945.3941423461423,220.48958090860182,-369.44086894695886,-492.70955823129316,-55.372532574403756,204.17943074479848,814.57926005194849,803.96435963431577,-184.48897950572785,184.48897950572785,-803.96435963431577,1478.8335762328766,0.0
683204.59901257406,4172374.0504322448,-32500.0,814.61643744620835,92.499259282342493,-405.31229303911795,-375.99684976013759,26.944025984160636,132.20788329958887,702.13249648523117,729.75558717621368,-285.61107995581722,285.61107995581722,-729.75558717621368,1254.3464093719488,0.0
688204.59901257406,4172374.0504322448,-32500.0,684.05803578976122,-7.7249239777599188,-413.05819789946315,-277.94249733394946,80.361983893472555,79.948102894537001,610.37505501970054,644.03869486299095,-348.8156116410276,348.8156116410276,-644.03869486299095,1075.7059501205761,0.0
693204.59901257406,4172374.0504322448,-32500.0,560.63884258977066,-82.834584145492883,-402.24139068903281,-197.84551675057915,112.52593808790506,42.844431968747095,535.34337129774531,555.34658250441248,-382.70902175704106,382.70902175704106,-555.34658250441248,934.17070342333818,0.0
698204.59901257406,4172374.0504322448,-32500.0,448.39991287490517,-136.55234766975687,-380.07312653556409,-133.91338524379367,129.55949268948959,17.120900477236805,473.58621334752752,469.3820446198921,-394.96580921107682,394.96580921107682,-469.3820446198921,821.68189159326482,0.0
703204.59901257406,4172374.0504322448,-32500.0,349.24061533843712,-172.83301440835066,-351.73178473497859,-83.896560971797868,136.16726386738759,-0.22576087847769105,422.24588132790916,389.60238398877499,-391.95744927565244,391.95744927565244,-389.60238398877499,731.35285052677898,0.0
533204.59901257406,4177374.0504322448,-32500.0,-393.1543580139911,442.07911904190803,-377.26693879657847,-297.35761763785058,269.84285194419101,-149.73929198631379,539.07504534836823,-197.4764338110071,204.39254476447496,-204.39254476447496,197.4764338110071,1060.9656272836262,0.0
538204.59901257406,4177374.0504322448,-32500.0,-361.73824239344901,475.83236941474428,-443.6477155506085,-311.93553584872524,311.38854436297629,-170.23434791973361,586.57695331682714,-154.6070294412209,188.95558666903355,-188.95558666903355,154.6070294412209,1149.3989864712303,0.0
543204.59901257406,4177374.0504322448,-32500.0,-313.64141918192519,504.76329126348764,-520.24717500938289,-321.29794053258757,357.34948001764582,-192.10762008127739,636.79638016923025,-95.618073237777338,161.23322918977286,-161.23322918977286,95.618073237777338,1240.8533265806163,0.0
548204.59901257406,4177374.0504322448,-32500.0,-245.3836863504921,524.85402803483532,-607.15770443878648,-322.58460973599239,406.82756300861439,-214.51833245418686,689.1372218018289,-17.596445075499972,117.40494569400862,-117.40494569400862,17.596445075499972,1333.4628359849419,0.0
553204.59901257406,4177374.0504322448,-32500.0,-153.66852010325906,530.65448031480639,-703.38366870711116,-312.11455301321172,457.93885560928794,-236.00325541464429,742.78106708579912,81.981787556094773,53.148310999217827,-53.148310999217827,-81.981787556094773,1424.7308880834541,0.0
558204.59901257406,4177374.0504322448,-32500.0,-36.022150439649529,515.10857577199215,-806.13017109872521,-285.37224511799263,507.32894297778455,-254.21487977011333,796.74503550675911,204.55428627223603,-35.99674353926379,35.99674353926379,-204.55428627223603,1511.6589953460741,0.0
563204.59901257406,4177374.0504322448,-32500.0,108.21210920635521,469.6071038881197,-909.83593708706337,-237.17612774796086,549.56575659899977,-265.61311621042705,850.07789135359155,349.40939671741717,-153.88171679414097,153.88171679414097,-349.40939671741717,1591.2299295182986,0.0
568204.59901257406,4177374.0504322448,-32500.0,276.47878180262927,384.50025393927399,-1004.9790180114597,-162.17167332735042,576.46470234214462,-265.15358398357597,902.29925453291742,512.21489669616631,-302.4441098402645,302.4441098402645,-512.21489669616631,1661.5581971359802,0.0
573204.59901257406,4177374.0504322448,-32500.0,461.29254747198536,250.40085831191712,-1076.8276326599416,-55.832495048699258,576.50347228954729,-246.07216643972541,954.20752425670366,683.22812345318539,-479.68811411166388,479.68811411166388,-683.22812345318539,1724.1487518661063,0.0
578204.59901257406,4177374.0504322448,-32500.0,648.53526023497034,60.654454068230791,-1104.5712422092913,83.852530104585512,534.64959201586987,-199.94887684713058,1009.1056210623965,845.55309094320603,-676.95027080654074,676.95027080654074,-845.55309094320603,1787.5977929587089,0.0
583204.59901257406,4177374.0504322448,-32500.0,816.53152939599181,-184.78642390997206,-1061.6545986336982,253.95656971953116,433.13873996874906,-117.32985503495377,1074.1450460413935,974.26622387697455,-875.84635895872964,875.84635895872964,-974.26622387697455,1872.0208622219532,0.0
588204.59901257406,4177374.0504322448,-32500.0,937.17187972221984,-474.36854138135237,-918.53723288640799,443.7578518608945,253.91777730641596,10.756166637513827,1160.7073975128533,1037.7805799532057,-1046.0186850945502,1046.0186850945502,-1037.7805799532057,2010.4742347396364,0.0
593204.59901257406,4177374.0504322448,-32500.0,980.59985703714483,-780.20129415353745,-649.15569423032832,632.39500186355156,-16.626310107275721,190.14618266333665,1282.0014289074024,1003.1053125658384,-1145.7447459252005,1145.7447459252005,-1003.1053125658384,2240.4052535855271,0.0
598204.59901257406,4177374.0504322448,-32500.0,924.27788077222226,-1056.4530527189941,-241.42204333896012,788.77042466039995,-380.75280863323258,419.92520547813223,1447.0993361444207,845.94013643470714,-1128.0210876263079,1128.0210876263079,-845.94013643470714,2583.5978148571239,0.0
603204.59901257406,4177374.0504322448,-32500.0,764.89211281475832,-1244.6872912398458,290.42813827252382,875.77906999550646,-821.96947965659513,688.81762279796123,1654.1633579325871,564.03299580085024,-953.68239021035276,953.68239021035276,-564.03299580085024,3028.2695652772436,0.0
608204.59901257406,4177374.0504322448,-32500.0,527.90482049832531,-1288.4439430470557,897.37826131128963,859.82839532196317,-1300.8635434494261,973.49490694613257,1887.413663366179,188.2214036228979,-609.33136528269949,609.33136528269949,-188.2214036228979,3527.7958151701273,0.0
613204.59901257406,4177374.0504322448,-32500.0,267.27704750261915,-1154.1719503590884,1498.6425714482841,723.50555734400439,-1758.6119917520055,1240.9364744057882,2119.081640474355,-217.13656993434589,-122.30393113532764,122.30393113532764,217.13656993434589,4013.7527381389718,0.0
618204.59901257406,4177374.0504322448,-32500.0,50.955522657803222,-848.95099174805227,2000.0527481308577,475.58313743774511,-2129.9947510557604,1455.5540584594096,2314.7615621798022,-569.65965295862793,437.86608931414133,-437.86608931414133,569.65965295862793,4414.2385721298533,0.0
623204.59901257406,4177374.0504322448,-32500.0,-63.333066591267873,-423.59244254201684,2322.3702716507282,151.87653180083328,-2361.9656175291939,1588.9137138761121,2442.3320452413082,-796.08348032612378,976.79106670516887,-976.79106670516887,796.08348032612378,4671.6019770465364,0.0
628204.59901257406,4177374.0504322448,-32500.0,-49.277113288259358,42.903003950667866,2425.8674783175888,-194.98286754366137,-2429.1372816238209,1627.6572782565913,2482.0552940697121,-857.39398617966799,1404.8661145703522,-1404.8661145703522,857.39398617966799,4754.9443079037665,0.0
633204.59901257406,4177374.0504322448,-32500.0,81.449145877848665,469.62717854443207,2318.7728184493371,-511.90018333481322,-2338.6745123378532,1575.9019875499971,2431.2397427470987,-758.58959422642261,1664.0456119687008,-1664.0456119687008,758.58959422642261,4663.839798832013,0.0
638204.59901257406,4177374.0504322448,-32500.0,288.82154384497403,796.93982597991305,2047.5337781022649,-759.56059000902815,-2123.5859150172209,1451.6770077106855,2302.0041031740038,-540.12423516012757,1739.3067010172354,-1739.3067010172354,540.12423516012757,4423.2523063416711,0.0
643204.59901257406,4177374.0504322448,-32500.0,522.30770587125528,997.11862396178537,1676.9792968047479,-919.0243255824073,-1829.5981784331925,1280.0413305079062,2115.4928168122306,-258.9098386446874,1653.1181820588715,-1653.1181820588715,258.9098386446874,4073.246310539048,0.0
648204.59901257406,4177374.0504322448,-32500.0,737.0440648391002,1072.0612013017849,1270.9432205198852,-990.42706329675423,-1502.2922986797043,1086.2825887159602,1895.8330367416456,30.319760574286761,1450.1065395098067,-1450.1065395098067,-30.319760574286761,3658.1398435716087,0.0
653204.59901257406,4177374.0504322448,-32500.0,902.90241577850054,1043.527210116727,879.78526205390676,-987.04145965922896,-1178.6216646680116,891.32769944973154,1665.616827210411,286.66729190891687,1180.7941713828211,-1180.7941713828211,-286.66729190891687,3218.2988567957414,0.0
658204.59901257406,4177374.0504322448,-32500.0,1006.242632043473,942.03128363705696,535.85025260234943,-928.3752539067458,-883.56118162268024,709.80500100210611,1443.0847616188764,486.77031087060038,889.90310904274668,-889.90310904274668,-486.77031087060038,2785.6155507132617,0.0
663204.59901257406,4177374.0504322448,-32500.0,1046.9383685871508,798.15575755833333,254.68777172931121,-834.6298592207055,-630.57278773431847,550.12920737949264,1240.1827991480034,622.88285082544769,610.589640706963,-610.589640706963,-622.88285082544769,2382.1687522008624,0.0
668204.59901257406,4177374.0504322448,-32500.0,1033.581971737497,637.45783043915094,39.127521595130837,-723.30278457833026,-424.06180075593034,415.68931639524914,1062.0356018604116,698.36899671295214,363.44549792785728,-363.44549792785728,-698.36899671295214,2020.9671768735934,0.0
673204.59901257406,4177374.0504322448,-32500.0,978.89021172089872,478.52550755265065,-116.05494223359516,-607.72870671551573,-262.36123598305937,306.37869157400979,909.11137879536852,722.89719452127065,158.31056015020806,-158.31056015020806,-722.89719452127065,1707.7108029197695,0.0
678204.59901257406,4177374.0504322448,-32500.0,896.26910677508386,333.12875416446263,-220.1529283019328,-496.9596824043636,-140.38935630644391,220.00546818813234,779.82509917596826,708.55303876644189,-2.8123715349962595,2.8123715349962595,-708.55303876644189,1442.8075526877419,0.0
683204.59901257406,4177374.0504322448,-32500.0,797.72253406625418,207.43603361285292,-283.68433630535242,-396.37249209155641,-51.636034937336269,153.38164693474812,671.75529384702406,667.24311875218007,-122.85099408434712,122.85099408434712,-667.24311875218007,1223.2100219532383,0.0
688204.59901257406,4177374.0504322448,-32500.0,692.88379469877361,103.55303713878695,-316.65771015349168,-308.54538967815859,10.545321052147132,103.06040787709753,582.11466048753857,609.27541503686018,-207.30515172821347,207.30515172821347,-609.27541503686018,1043.8958599867005,0.0
693204.59901257406,4177374.0504322448,-32500.0,588.8148569231389,20.953746297382615,-327.70348274842144,-234.12500042245239,52.214416638828766,65.773733627410635,508.0424168293257,542.80565064233929,-262.58454079063455,262.58454079063455,-542.80565064233929,898.96655307344315,0.0
698204.59901257406,4177374.0504322448,-32500.0,490.24467682215158,-42.380714292693504,-323.78439139143052,-172.55127459794596,78.521816334519542,38.651274660476901,446.82317963949424,473.82553718160034,-294.97590749568224,294.97590749568224,-473.82553718160034,782.41740602377911,0.0
533204.59901257406,4182374.0504322448,-32500.0,-290.96614138088603,402.2206914097377,-393.29444723063062,-241.12431813890566,253.58237428046726,-126.54699882732844,486.06037469817699,-113.61104699324048,147.06077245229361,-147.06077245229361,113.61104699324048,952.37009337142376,0.0
538204.59901257406,4182374.0504322448,-32500.0,-251.3191889226195,423.6527781544861,-455.48322490340109,-246.60848429711203,288.15152726110205,-141.5500190960278,524.99356574594958,-65.116364562659214,122.81652382932677,-122.81652382932677,65.116364562659214,1022.8046303449914,0.0
543204.59901257406,4182374.0504322448,-32500.0,-196.64039758843015,438.01161955580227,-525.0964700218093,-246.14249903137346,325.00885343927223,-156.78764058272651,565.47382699311629,-2.4818209315657711,86.327128637741339,-86.327128637741339,2.4818209315657711,1093.9719851663037,0.0
548204.59901257406,4182374.0504322448,-32500.0,-124.68129521763763,441.40124623912618,-601.24342335328799,-237.27130544340835,362.82662142811455,-171.3238175234637,606.97657469225896,75.956829692750119,34.620767248714309,-34.620767248714309,-75.956829692750119,1164.2107182654652,0.0
553204.59901257406,4182374.0504322448,-32500.0,-33.741103086846572,428.87556477646353,-681.78862559233119,-217.02794453951603,399.34558430397902,-183.7039586591921,648.89793947750616,171.12339738934156,-35.324511235770217,35.324511235770217,-171.12339738934156,1231.5876809569004,0.0
558204.59901257406,4182374.0504322448,-32500.0,76.731834048405204,394.47531396991121,-762.74864851710652,-182.03079357945182,431.02072862876543,-191.78596249896356,690.68221672219192,282.55170101152373,-126.11516717276706,126.11516717276706,-282.55170101152373,1294.2134264484964,0.0
563204.59901257406,4182374.0504322448,-32500.0,205.31218118131312,331.52536714191069,-837.56023245033543,-128.7534043204638,452.6293602002911,-192.56766575704623,732.08624447400393,407.50523823080778,-239.15996742362131,239.15996742362131,-407.50523823080778,1350.9377724734895,0.0
568204.59901257406,4182374.0504322448,-32500.0,347.57929118886216,233.3658642787957,-896.31028632469861,-54.058281005396665,456.9179574146043,-182.05595312402232,773.64285229740551,539.90941257291661,-373.48941085921814,373.48941085921814,-539.90941257291661,1402.6527885659852,0.0
573204.59901257406,4182374.0504322448,-32500.0,495.06490277459267,94.716287341099843,-925.14529600290973,43.913557036673645,434.44002038471461,-155.25929760615716,817.34917089546389,669.26927819412685,-524.1654179578054,524.1654179578054,-669.26927819412685,1454.3846235069411,0.0
578204.59901257406,4182374.0504322448,-32500.0,634.51922328697913,-86.178724646144985,-906.2618243554914,164.45385698318137,373.83541231105971,-106.42798886934951,867.4510435255163,779.95618338340819,-680.44518159213885,680.44518159213885,-779.95618338340819,1517.9083844720835,0.0
583204.59901257406,4182374.0504322448,-32500.0,748.09310509049988,-304.68068003900584,-819.0854047276714,302.69296597895749,262.89363467525209,-29.698866405769699,930.85060765181436,851.51321185988888,-824.18394047903382,824.18394047903382,-851.51321185988888,1613.3100150022933,0.0
588204.59901257406,4182374.0504322448,-32500.0,815.21615389173587,-546.67547115448735,-643.34391210184162,448.053479434596,90.749897938130246,79.715165838133615,1016.2617726397598,860.83241957729774,-929.40619033035341,929.40619033035341,-860.83241957729774,1766.1006215328841,0.0
593204.59901257406,4182374.0504322448,-32500.0,816.81965923864311,-786.47761837535006,-364.48457986465115,583.46275053486113,-148.6510134326405,223.77474548437115,1131.4181083690564,786.92809827612382,-964.35930968017351,964.35930968017351,-786.92809827612382,1997.4569713116518,0.0
598204.59901257406,4182374.0504322448,-32500.0,741.78819175465821,-987.58019231802052,19.014861510747256,686.3262100087544,-452.25232185996214,399.56582937204558,1279.0407946902308,618.21557101938129,-897.26211793292418,897.26211793292418,-618.21557101938129,2311.8909212975882,0.0
603204.59901257406,4182374.0504322448,-32500.0,594.00144198988914,-1108.0978867834674,488.48593767131086,732.14548898887494,-804.06637077729033,597.62212425105929,1453.8240060328078,360.5442480363231,-705.80874180511296,705.80874180511296,-360.5442480363231,2691.254481867802,0.0
608204.59901257406,4182374.0504322448,-32500.0,396.6220854268563,-1111.2670154062082,1001.7305139301385,700.76192432848495,-1173.9621316113537,801.61164785671986,1642.2003198146035,42.311503286554426,-388.1154356742403,388.1154356742403,-42.311503286554426,3098.0019980574971,0.0
613204.59901257406,4182374.0504322448,-32500.0,189.88349910449134,-978.33710778978434,1497.3081387150537,583.56206261932903,-1521.065950046845,990.26076337636164,1824.450542803572,-287.59652840465515,29.759433885918185,-29.759433885918185,287.59652840465515,3483.894286933481,0.0
618204.59901257406,4182374.0504322448,-32500.0,20.990609664227012,-718.22302607558879,1907.5206784514585,388.50423745123987,-1802.0870282758433,1141.5593528349057,1977.763748753373,-570.86438962289753,495.04110118526887,-495.04110118526887,570.86438962289753,3800.4704874558988,0.0
623204.59901257406,4182374.0504322448,-32500.0,-70.645381328695834,-368.20741891456044,2176.2417343375214,139.96477258871758,-1982.1077444010559,1238.0177318599563,2080.7076311245005,-756.58475273544093,940.08099256001799,-940.08099256001799,756.58475273544093,4009.0443275884068,0.0
628204.59901257406,4182374.0504322448,-32500.0,-66.027126427414373,15.882842561567129,2274.0389062899444,-127.2574996043888,-2043.4387560123364,1270.8983809236281,2119.1370399437665,-816.43225734395276,1300.7303206252896,-1300.7303206252896,816.43225734395276,4087.9152312710371,0.0
633204.59901257406,4182374.0504322448,-32500.0,28.978676933712237,375.73770043590133,2203.9520836732363,-377.28580140912186,-1988.8134143728798,1241.7019993783024,2089.7261121436991,-751.15778298969622,1533.1204991107572,-1533.1204991107572,751.15778298969622,4034.8820030783154,0.0
638204.59901257406,4182374.0504322448,-32500.0,188.5498141674322,665.50686038627066,1996.4574852082249,-581.77645470142704,-1838.1828773254772,1160.5846780600589,1999.2319861434685,-586.45134145743702,1621.9633206996755,-1621.9633206996755,586.45134145743702,3864.8248578113471,0.0
643204.59901257406,4182374.0504322448,-32500.0,377.41823269619783,860.02631186171539,1697.5155100021104,-724.70955742658032,-1621.4172555652744,1042.7960089617156,1861.231453790811,-361.81565870945633,1578.7013558680392,-1578.7013558680392,361.81565870945633,3603.9631470042414,0.0
648204.59901257406,4182374.0504322448,-32500.0,561.57795745527926,955.15678069923149,1355.601763863049,-802.69365736934367,-1370.3548637000631,904.76479902199515,1692.351385660158,-118.32889817303362,1432.7613182830426,-1432.7613182830426,118.32889817303362,3283.1836071725093,0.0
653204.59901257406,4182374.0504322448,-32500.0,715.45987560215406,962.64195320503143,1012.0933882229047,-822.09551347496256,-1112.786859074399,761.07854450746788,1509.1757945172642,110.28960613574213,1220.8909551596159,-1220.8909551596159,-110.28960613574213,2932.4027603636123,0.0
658204.59901257406,4182374.0504322448,-32500.0,824.60116683029116,902.99356826978806,696.52311682343122,-794.94750095922961,-869.3248949746328,622.84128463609318,1326.1442416427649,301.8076666039766,978.38452992737928,-978.38452992737928,-301.8076666039766,2576.909793647671,0.0
663204.59901257406,4182374.0504322448,-32500.0,884.80248471667778,799.09806776710047,426.00536630585606,-735.17217253851368,-652.80370559089795,497.27513763019033,1153.9650419292473,445.55661115948772,733.79556540062674,-733.79556540062674,-445.55661115948772,2235.7194323316266,0.0
668204.59901257406,4182374.0504322448,-32500.0,899.43200931005276,671.8222032780784,207.22424413283764,-655.89179140851627,-469.3038201907446,388.14480541047783,998.53029899271485,540.12059102944693,506.98331226486573,-506.98331226486573,-540.12059102944693,1921.4590273457254,0.0
673204.59901257406,4182374.0504322448,-32500.0,876.30454382574317,537.74957216672487,39.434360773739527,-567.9449892331553,-319.88010901725801,296.56621688732224,861.71019245286516,590.20324722702014,309.49710244671098,-309.49710244671098,-590.20324722702014,1641.1766215529472,0.0
678204.59901257406,4182374.0504322448,-32500.0,825.00486620850916,408.57633820909086,-82.586281350570971,-479.37772443292249,-202.34725006708359,221.87743408839597,743.30462078888297,603.70714552058757,146.18578148385978,-146.18578148385978,-603.70714552058757,1397.5469156957836,0.0
683204.59901257406,4182374.0504322448,-32500.0,755.00112915469504,291.53320851245201,-166.16468975137101,-395.56619424010222,-112.77550052953565,162.39147140825767,642.19055180597786,589.51054590864101,17.171686106977688,-17.171686106977688,-589.51054590864101,1190.1212246398029,0.0
688204.59901257406,4182374.0504322448,-32500.0,674.54878317047735,190.28508557615805,-219.09040589177135,-319.66147248227418,-46.578271823956143,115.96132716882494,556.7414116288835,556.0349436403726,-80.331656666635894,80.331656666635894,-556.0349436403726,1016.424873561088,0.0
693204.59901257406,4182374.0504322448,-32500.0,590.21936645465405,105.9345536826723,-248.63008300521489,-253.13550544463084,0.7888317809416393,80.357949267214877,485.06268272536846,510.4864678529176,-150.58911949802211,150.58911949802211,-510.4864678529176,872.82936625419541,0.0
698204.59901257406,4182374.0504322448,-32500.0,506.84689301219032,37.920710972553039,-261.04113512719238,-196.29803938008178,33.438663262505571,53.493864112219242,425.18399248574963,458.58155478058427,-198.34494202330959,198.34494202330959,-458.58155478058427,755.19783071542611,0.0
538204.59901257406,4187374.0504322448,-32500.0,-159.1538036553072,367.03102381727774,-454.25590588426513,-190.06724818299901,261.4001767544172,-116.16964704690909,467.95293720050006,6.8672225414320174,63.42283164357498,-63.42283164357498,-6.8672225414320174,905.0523490314439,0.0
543204.59901257406,4187374.0504322448,-32500.0,-102.13078312601188,368.79099018997499,-514.85505930221711,-182.63942776547469,289.65921921360757,-126.15748824640414,500.34648231718904,69.184704690069225,21.565241089880374,-21.565241089880374,-69.184704690069225,959.58400419667237,0.0
548204.59901257406,4187374.0504322448,-32500.0,-31.035778297942461,358.55630133106905,-578.44287493087973,-167.14376912680638,316.92456432830676,-134.69372161415913,533.15202870357268,143.82745493114112,-33.81731041855403,33.81731041855403,-143.82745493114112,1012.1654635648433,0.0
553204.59901257406,4187374.0504322448,-32500.0,54.574318684691207,332.14494650637221,-642.13850726037742,-141.3351242752712,340.83960041689528,-140.45212386782657,566.03925419856955,230.48079142426806,-104.51502631503698,104.51502631503698,-230.48079142426806,1061.5880554029438,0.0
558204.59901257406,4187374.0504322448,-32500.0,153.89702254902568,284.8811334517975,-701.35233342091692,-102.85803198176642,358.0034391069139,-141.60308700726875,598.88984485975311,327.37489813248203,-191.55079277482574,191.55079277482574,-327.37489813248203,1107.1386495397392,0.0
563204.59901257406,4187374.0504322448,-32500.0,264.26711407003404,212.01760403257842,-749.30302358274969,-49.54020623500066,363.75519730880632,-135.73452516092107,632.07310267395178,430.63386529753853,-294.47213949294263,294.47213949294263,-430.63386529753853,1149.3766305525564,0.0
568204.59901257406,4187374.0504322448,-32500.0,380.5006290488684,109.51128009323192,-776.6212915775069,20.123931750180994,352.0495735084902,-119.82902260575364,666.84712588569266,533.59743588819572,-410.40368633142759,410.40368633142759,-533.59743588819572,1191.3556471359618,0.0
573204.59901257406,4187374.0504322448,-32500.0,494.36900040989877,-24.757851779438067,-771.2442575555549,106.27005176633891,315.54511611023173,-90.35482920197957,705.82758632870082,626.30169018152458,-532.93022674828933,532.93022674828933,-626.30169018152458,1240.1893528543546,0.0
578204.59901257406,4187374.0504322448,-32500.0,594.4942679850808,-189.32085306050016,-718.91095752002127,206.76715106372856,246.07396225536149,-43.545539630956334,753.307300145878,695.43746884359484,-651.0289271530412,651.0289271530412,-695.43746884359484,1308.2681568667422,0.0
583204.59901257406,4187374.0504322448,-32500.0,667.06492312357227,-377.19677906422612,-604.64146472783466,316.26212735512041,135.68071007614478,24.05586488548601,814.99860117116702,725.2249311052343,-748.48156814329161,748.48156814329161,-725.2249311052343,1412.4815943359235,0.0
588204.59901257406,4187374.0504322448,-32500.0,697.77749741082698,-574.21788585192803,-415.52690512362227,425.46144197878181,-21.641586477439056,114.74974217695808,896.74903790174324,699.65301464344532,-804.41946032858743,804.41946032858743,-699.65301464344532,1569.6867908275638,0.0
593204.59901257406,4187374.0504322448,-32500.0,675.16975178265068,-758.47610672246287,-144.8392710111244,521.11308281748711,-227.59093589161512,228.58876192299064,1002.2957123781335,606.27788621663854,-795.72942281408586,795.72942281408586,-606.27788621663854,1789.2949415430187,0.0
598204.59901257406,4187374.0504322448,-32500.0,594.91882220500554,-901.96719082942684,203.19543586330397,587.21129123144169,-477.01166330129382,362.2667029446776,1131.0023157187723,441.12951673278837,-701.74191432731834,701.74191432731834,-441.12951673278837,2067.4005578094389,0.0
603204.59901257406,4187374.0504322448,-32500.0,463.80729569760967,-975.19708000536593,609.51148398889109,607.73149441213945,-756.05299895312089,508.3947533126248,1276.8055158092229,213.30795555257751,-510.73051210498977,510.73051210498977,-213.30795555257751,2385.9191785713651,0.0
608204.59901257406,4187374.0504322448,-32500.0,301.35873580573781,-954.42189087413453,1039.389836269653,570.60919138200052,-1042.1816794162721,655.66178231078811,1428.83230083428,-52.966039547502746,-226.4101181131017,226.4101181131017,52.966039547502746,2716.0099098946239,0.0
613204.59901257406,4187374.0504322448,-32500.0,137.33488951524384,-829.5335021663002,1446.534573206399,471.84809606177856,-1306.9128193816521,790.21988605893011,1573.0793773797984,-320.94797789447711,128.46579793468447,-128.46579793468447,320.94797789447711,3023.5523019851503,0.0
618204.59901257406,4187374.0504322448,-32500.0,4.8433599931957954,-609.33827884975005,1782.0647581287774,318.07116371154859,-1521.1192672787988,898.18403787358136,1694.1802213827027,-549.06442545831999,514.05894597772669,-514.05894597772669,549.06442545831999,3275.3179970534716,0.0
623204.59901257406,4187374.0504322448,-32500.0,-68.824381515956944,-321.33290606157175,2005.8695939922761,126.09395402482569,-1661.4377088573867,968.56017513797383,1777.5919001170253,-701.51121610847963,881.48522790851348,-881.48522790851348,701.51121610847963,3444.8302812965467,0.0
628204.59901257406,4187374.0504322448,-32500.0,-69.883387700483894,-5.391110205326104,2096.0769458505124,-80.682583974537025,-1715.46582262328,995.58157515520816,1813.070452239926,-757.61120953059219,1184.4144284588506,-1184.4144284588506,757.61120953059219,3516.6646276407232,0.0
633204.59901257406,4187374.0504322448,-32500.0,-1.0474104485723479,296.24607355500899,2052.9916574800322,-277.7576273655863,-1683.8339649391257,979.62128381308378,1797.3428367573943,-716.13653364102538,1389.7530134712351,-1389.7530134712351,716.13653364102538,3488.1340772956692,0.0
638204.59901257406,4187374.0504322448,-32500.0,120.9830667797996,548.66092440892999,1896.5153033216448,-444.79679807446922,-1578.6680054964386,926.47740906066633,1734.0722970712725,-593.3514978397036,1483.5205426393466,-1483.5205426393466,593.3514978397036,3368.1377208718791,0.0
643204.59901257406,4187374.0504322448,-32500.0,271.73906299836807,730.31470621501103,1658.9474072082423,-568.95543687323891,-1419.4912315700267,845.49591311569009,1631.9881076213467,-416.48032020428172,1470.6320711088836,-1470.6320711088836,416.48032020428172,3173.9091465523866,0.0
648204.59901257406,4187374.0504322448,-32500.0,425.95404558342142,834.34647765287366,1376.4478546113103,-645.66121138577375,-1228.3492758308405,747.32106962577257,1502.513220099233,-215.79368403827436,1370.0113370164445,-1370.0113370164445,215.79368403827436,2926.9132277275271,0.0
653204.59901257406,4187374.0504322448,-32500.0,562.88739973325801,866.07617684357569,1081.9775161554344,-677.33697976730878,-1025.7097770387418,641.9731755202539,1357.6750366657959,-18.108558107529234,1207.7721617247005,-1207.7721617247005,18.108558107529234,2649.0598500686729,0.0
658204.59901257406,4187374.0504322448,-32500.0,668.99353941688719,838.63476103862035,801.0852744989262,-671.06177592041035,-827.91959368179209,537.61955570547411,1208.5965325833445,156.94377933950727,1010.9336082639381,-1010.9336082639381,-156.94377933950727,2359.9385239671424,0.0
663204.59901257406,4187374.0504322448,-32500.0,738.16742206494393,768.49582775337001,550.53360691202874,-636.11437728282885,-646.25705785126661,440.07469197999649,1064.3418169737804,297.91432643363828,803.04296511953135,-803.04296511953135,-297.91432643363828,2075.2734801350043,0.0
668204.59901257406,4187374.0504322448,-32500.0,770.42395674847933,671.98448261689759,338.96991864961007,-581.9936620703387,-487.17107147872059,352.85767060599312,930.80562595120989,400.61198832411606,601.98088416758651,-601.98088416758651,-400.61198832411606,1806.4328914591672,0.0
673204.59901257406,4187374.0504322448,-32500.0,769.93035595090316,563.11994008734541,168.6747095016145,-517.1361087705809,-353.18374894506866,277.57530532624349,810.59991334345534,466.23414209142254,419.54021459081741,-419.54021459081741,-466.23414209142254,1560.6756041306601,0.0
678204.59901257406,4187374.0504322448,-32500.0,743.06748071439495,452.6646330259519,37.59735079071914,-448.28770729408348,-244.01285794087164,214.42707903223038,704.34859670120284,499.32648914881463,262.12436511240173,-262.12436511240173,-499.32648914881463,1341.8036390170951,0.0
683204.59901257406,4187374.0504322448,-32500.0,696.88388825624759,348.03963589004246,-58.808999832155791,-380.36469222107445,-157.62765368342758,162.69579515158696,611.76605352050728,506.03175033386015,131.96055031572203,-131.96055031572203,-506.03175033386015,1150.9616024852578,0.0
688204.59901257406,4187374.0504322448,-32500.0,638.05381411208145,253.74267659887207,-126.17206701410487,-316.61425711563606,-91.097634689550745,121.15323396364046,532.05151530901185,492.81159527226168,28.39685954826561,-28.39685954826561,-492.81159527226168,987.41315778641604,0.0
693204.59901257406,4187374.0504322448,-32500.0,572.29697233777551,171.97865588279183,-170.23921654340793,-258.91887564058584,-41.198839351665526,88.358990208253857,464.0661583849905,465.64526834997241,-50.960876172941909,50.960876172941909,-465.64526834997241,849.20754663330911,0.0
543204.59901257406,4192374.0504322443,-32500.0,-28.304015612815984,301.28427044421102,-492.71857019169141,-130.28213595086581,253.64892309250052,-100.14513245023265,441.76982439873098,121.46186161283958,-31.802512769054488,31.802512769054488,-121.46186161283958,838.88511284302899,0.0
548204.59901257406,4192374.0504322443,-32500.0,38.784002682461519,280.71485058685244,-543.22739316130162,-110.96945822083707,271.84697715447396,-104.2779178303754,467.80360000816626,189.55755483722766,-87.436240680448293,87.436240680448293,-189.55755483722766,878.05910444605706,0.0
553204.59901257406,4192374.0504322443,-32500.0,116.32645806379888,244.71595009548972,-590.41612831924499,-82.73819246921137,285.42245944778574,-105.43353866492023,493.94864954171817,265.45647592914031,-155.20672961613718,155.20672961613718,-265.45647592914031,914.61893767648712,0.0
558204.59901257406,4192374.0504322443,-32500.0,202.68430105690655,189.8783784102221,-629.56968892011025,-44.078209904271851,291.32044245282162,-102.12224921648719,520.46756680857811,346.63003514887555,-234.92049106291461,234.92049106291461,-346.63003514887555,948.93104669779541,0.0
563204.59901257406,4192374.0504322443,-32500.0,294.62012204107299,113.15447855739028,-654.24887169008241,6.1643178194930384,285.60061738631919,-92.483658558834435,548.18022802568669,428.76187912508942,-324.86860609930807,324.86860609930807,-428.76187912508942,982.91396973561211,0.0
568204.59901257406,4192374.0504322443,-32500.0,386.93637427333857,12.567965453603327,-656.17537800045727,68.393367827542093,263.4548725418328,-74.319446179443844,578.75103955638269,505.38650613426677,-421.13725957670925,421.13725957670925,-505.38650613426677,1020.9945747493949,0.0
573204.59901257406,4192374.0504322443,-32500.0,472.31141707637113,-111.80324302566976,-625.42971531815408,141.75150132490182,219.41610486018047,-45.216562242326624,614.91726643306333,567.75762544019801,-516.90820045350836,516.90820045350836,-567.75762544019801,1070.9667100886725,0.0
578204.59901257406,4192374.0504322443,-32500.0,541.54101984183308,-256.64048252199302,-551.17085701208407,223.54225652358352,147.85888900522914,-2.8009346554547387,660.44480767163168,605.17517644121688,-601.95531806680867,601.95531806680867,-605.17517644121688,1143.9456616598486,0.0
583204.59901257406,4192374.0504322443,-32500.0,584.419888748468,-414.21020103437559,-423.08459660367839,308.71188696269422,43.87833229596616,54.848648096665748,719.54705727179135,606.03069008059992,-662.66394465196254,662.66394465196254,-606.03069008059992,1252.3421537959314,0.0
588204.59901257406,4192374.0504322443,-32500.0,591.429667790096,-571.60931723107706,-233.65637042587323,389.60282928385305,-95.438171972848551,128.63176164563839,795.67851482581591,559.75806289920206,-682.97841975369579,682.97841975369579,-559.75806289920206,1405.7058169894165,0.0
593204.59901257406,4192374.0504322443,-32500.0,556.17648841829168,-710.99974136837784,18.906214164121305,456.25353754729775,-269.47942157623055,217.7727309155789,890.04784213727964,459.63379785069878,-646.62506988325686,646.62506988325686,-459.63379785069878,1606.3260613266332,0.0
598204.59901257406,4192374.0504322443,-32500.0,478.12701496204033,-811.39795118809275,327.70732648128222,497.49191528444481,-472.66719531830887,319.24031157942096,1000.5246955980574,305.93455006455019,-540.64867111739466,540.64867111739466,-305.93455006455019,1847.1082085939054,0.0
603204.59901257406,4192374.0504322443,-32500.0,364.73709335988326,-852.25079091138525,675.21479969306472,502.88131597638585,-693.65422934430387,427.47490219776807,1121.4538450620482,108.44470982836212,-359.704089338198,359.704089338198,-108.44470982836212,2112.3412137158921,0.0
608204.59901257406,4192374.0504322443,-32500.0,231.82976603299207,-818.31326276902394,1033.572695890866,465.22264644595509,-915.76520632179279,534.66433921440262,1244.3973914192457,-112.98569914395753,-109.83377399078728,109.83377399078728,112.98569914395753,2380.291764894529,0.0
613204.59901257406,4192374.0504322443,-32500.0,101.38528970820738,-704.47024332897684,1367.9940003073964,382.91117582543632,-1119.0291578107788,631.69155116093179,1359.3603661140796,-330.83330438786709,189.94820679554027,-189.94820679554027,330.83330438786709,2626.6344381501804,0.0
618204.59901257406,4192374.0504322443,-32500.0,-3.1338632750831801,-518.63300337803844,1642.9453222669063,261.23931373940218,-1283.5800822249562,709.63735707670708,1455.8323239363531,-515.20347591371137,509.57520688142222,-509.57520688142222,515.20347591371137,2828.2067859199515,0.0
623204.59901257406,4192374.0504322443,-32500.0,-62.566700840718404,-281.21937960297856,1829.4760463866744,111.95835690508,-1393.5401919685323,761.45477999376624,1523.7895893380105,-640.60475864233501,813.3950740374238,-813.3950740374238,640.60475864233501,2966.559140008937,0.0
628204.59901257406,4192374.0504322443,-32500.0,-66.84277797410742,-21.028333640789832,1911.2532806884662,-48.942687158522133,-1440.143907010598,783.29622324347372,1555.7272747383452,-691.83826896178323,1067.6262621056326,-1067.6262621056326,691.83826896178323,3030.5939817285125,0.0
633204.59901257406,4192374.0504322443,-32500.0,-16.995637084121935,231.12046275397716,1887.2504974999686,-204.53794491450452,-1423.0843557302614,775.07557317084104,1548.6918611090935,-666.88954844369096,1247.2686246164576,-1247.2686246164576,666.88954844369096,3017.6971635607974,0.0
638204.59901257406,4192374.0504322443,-32500.0,76.122977314890989,448.73049820658025,1770.4452987273623,-340.23090520696059,-1349.7787577217994,740.14343484915867,1504.5650666351019,-576.0421391294683,1340.2256820639495,-1340.2256820639495,576.0421391294683,2933.1967347610293,0.0
643204.59901257406,4192374.0504322443,-32500.0,195.55307705843515,613.97986630796095,1583.4618165113284,-446.01321469328849,-1233.0379772361562,684.27868403690775,1428.9729399185771,-438.0173850947416,1347.728842929751,-1347.728842929751,438.0173850947416,2788.490989496649,0.0
648204.59901257406,4192374.0504322443,-32500.0,322.734346460268,719.20789297329134,1352.9914889077106,-517.2782652993958,-1088.07858842428,614.38967148988388,1329.7682681398464,-274.88840674549857,1281.6605566883709,-1281.6605566883709,274.88840674549857,2598.5126633130599,0.0
653204.59901257406,4192374.0504322443,-32500.0,441.31640842687966,765.85558719994651,1104.7546456772241,-554.33337540244486,-929.78602925076564,537.30935337630842,1215.6192214610339,-107.48980941607954,1160.2625123830694,-1160.2625123830694,107.48980941607954,2379.2113283819986,0.0
658204.59901257406,4192374.0504322443,-32500.0,539.45531041891388,761.87716516245587,860.06528387225046,-561.1053689981818,-770.79403322538974,458.93097032584188,1094.9416933306736,47.637016268329489,1003.7692848016763,-1003.7692848016763,-47.637016268329489,2145.5419608285574,0.0
663204.59901257406,4192374.0504322443,-32500.0,610.51674933058871,718.73286446590475,634.24187381853733,-543.5932866222845,-620.52947508804493,383.7568053087557,975.10842601517299,179.53502005887213,831.00252075818116,-831.00252075818116,-179.53502005887213,1910.1688734709376,0.0
668204.59901257406,4192374.0504322443,-32500.0,652.58025991765032,648.76705972236778,436.53799706385752,-508.48174490022524,-485.07529204685676,314.80532185298358,861.58123532093919,282.69616841764059,657.32018875459653,-657.32018875459653,-282.69616841764059,1682.8677223907321,0.0
673204.59901257406,4192374.0504322443,-32500.0,667.292207316651,563.35823230912683,271.03114029619752,-462.12577044168677,-367.57059740927684,253.76080338602529,757.31478176051451,356.06231280997031,493.8252136926701,-493.8252136926701,-356.06231280997031,1470.4717844946249,0.0
678204.59901257406,4192374.0504322443,-32500.0,658.54589946346528,471.88896419789273,137.93029809242964,-409.94892782928116,-268.86947697483367,201.24699087484254,663.3979036905987,401.69280283601239,347.49161269834536,-347.49161269834536,-401.69280283601239,1277.1727724598031,0.0
683204.59901257406,4192374.0504322443,-32500.0,631.30083651754728,381.3855100673303,34.909040291974577,-356.19064903107318,-188.24562055780558,157.13085185885242,580.03984500372758,423.47327124627236,221.81668237096721,-221.81668237096721,-423.47327124627236,1104.9970852027645,0.0
688204.59901257406,4192374.0504322443,-32500.0,590.68859668736627,296.60981203837434,-41.75837562625032,-303.90019312138992,-124.016840084075,120.79918315962829,506.98329796297389,426.06640157865695,117.677195167554,-117.677195167554,-426.06640157865695,954.32895305002353,0.0
548204.59901257406,4197374.0504322443,-32500.0,88.578897454460474,210.53722638664368,-499.81278352723831,-67.035081707941956,229.43130030428003,-79.468360320106697,410.65946181625668,217.15987672257677,-127.09617228992363,127.09617228992363,-217.15987672257677,761.53928651654633,0.0
553204.59901257406,4197374.0504322443,-32500.0,156.74874113887202,168.71237366510346,-531.85143319148608,-38.578196883605656,234.90084605498598,-77.587468371770981,431.91681978324755,281.50325376769518,-189.48920975884144,189.48920975884144,-281.50325376769518,789.37402655156302,0.0
558204.59901257406,4197374.0504322443,-32500.0,229.86207353784465,110.57057695507888,-553.56397119648875,-1.8271020109083469,232.48719782468413,-71.630322440363926,454.0766951977705,347.29634744496479,-259.90041603610302,259.90041603610302,-347.29634744496479,816.88157093241534,0.0
563204.59901257406,4197374.0504322443,-32500.0,304.57847174936859,34.435494393987213,-559.19067467393154,43.659937282004677,218.99465977713393,-60.207627798778027,478.22847889079412,410.26777653122866,-335.89173531546481,335.89173531546481,-410.26777653122866,846.89256823294158,0.0
568204.59901257406,4197374.0504322443,-32500.0,376.12791024286105,-60.169980812939912,-541.77755954250506,97.606980606791453,190.73926498593096,-41.76540964312732,506.15922124554936,464.59532576409322,-413.16621252692414,413.16621252692414,-464.59532576409322,884.4126658646652,0.0
573204.59901257406,4197374.0504322443,-32500.0,438.36501385950493,-171.7899395351026,-493.52898490623289,158.67229802918061,143.79426649076137,-14.705635601536388,540.37979428405038,503.00692576542923,-485.18935770879744,485.18935770879744,-503.00692576542923,936.79348672899152,0.0
578204.59901257406,4197374.0504322443,-32500.0,484.16056277719889,-296.25183595034997,-406.56817245617094,224.10322319645024,74.441477042332238,22.408789248380113,583.8684920061844,517.26377806129869,-543.05442016189033,543.05442016189033,-517.26377806129869,1012.8690054819843,0.0
583204.59901257406,4197374.0504322443,-32500.0,506.24849562607341,-426.02411510047693,-274.19335654075758,289.49188771151438,-20.144064922395852,70.558392547108653,639.43497172641457,499.15741547302355,-575.8124345300148,575.8124345300148,-499.15741547302355,1120.7177203316637,0.0
588204.59901257406,4197374.0504322443,-32500.0,498.56470940882053,-550.00684973043349,-92.608152237779322,348.77063869706689,-141.00795171404945,129.90013918677332,708.80704514647675,442.06324136071913,-571.49367393724174,571.49367393724174,-442.06324136071913,1264.7330293627181,0.0
593204.59901257406,4197374.0504322443,-32500.0,457.94367700788837,-654.09862631321403,137.09385396547512,394.59868654955972,-286.45838930397673,199.38773261989775,791.77072582519838,342.9047070438105,-518.94913352301933,518.94913352301933,-342.9047070438105,1443.4932600617028,0.0
598204.59901257406,4197374.0504322443,-32500.0,385.79946112089414,-722.80553113654616,407.16539799284249,419.24178449566148,-451.28181816546549,276.48134372087884,885.72618159834929,204.11370772869793,-410.39689459682279,410.39689459682279,-204.11370772869793,1649.3462357527865,0.0
603204.59901257406,4197374.0504322443,-32500.0,289.20021406416532,-741.89033562559007,702.34685436270786,415.91280355133443,-626.46098026748473,357.07670937165307,985.82490048696923,34.920900664067588,-244.19199322694584,244.19199322694584,-34.920900664067588,1869.4300439343838,0.0
608204.59901257406,4197374.0504322443,-32500.0,180.70139039976584,-701.62098836282394,1000.5966150108123,380.33804428265819,-799.70237738539174,435.76818685012762,1085.6142251347903,-148.75726368429457,-26.981111774561768,26.981111774561768,148.75726368429457,2087.4668851343376,0.0
613204.59901257406,4197374.0504322443,-32500.0,76.570722586894973,-599.72773972527284,1275.7480839268007,312.11989807767793,-956.896269239155,506.48248695819456,1177.9089650247856,-326.28927785222515,225.71752092764837,-225.71752092764837,326.28927785222515,2285.9435692629586,0.0
618204.59901257406,4197374.0504322443,-32500.0,-6.3853919215642465,-442.99301725557331,1501.7635079405136,215.4023622809392,-1084.3116498024076,563.39362082076707,1255.4193196513343,-475.97623300347817,491.14830513743726,-491.14830513743726,475.97623300347817,2448.4623482947104,0.0
623204.59901257406,4197374.0504322443,-32500.0,-54.535188090370809,-246.694680173828,1657.5319914222391,98.500607088778025,-1170.9976032932366,601.90331339992713,1311.1344391805246,-579.4499578742732,743.05817022673591,-743.05817022673591,579.4499578742732,2561.9537046670839,0.0
628204.59901257406,4197374.0504322443,-32500.0,-60.464139706422536,-31.866065506373619,1730.7830592387277,-27.496076768675358,-1210.7026548893236,619.41420492009343,1339.4861752220488,-625.45084108413891,956.57314941845141,-956.57314941845141,625.45084108413891,2618.3368972611161,0.0
633204.59901257406,4197374.0504322443,-32500.0,-24.337607956474514,178.82038463515599,1719.9320250504068,-150.75531596868589,-1202.7560806976562,615.67919755485377,1337.9141576351574,-611.77881134581548,1112.7397441047565,-1112.7397441047565,611.77881134581548,2615.2847723004506,0.0
638204.59901257406,4197374.0504322443,-32500.0,46.752806862247631,365.25392562372105,1633.4402298717337,-260.7586440660919,-1151.7219249391944,592.65448737019062,1307.2799887459585,-544.9271550163287,1201.4116186121307,-1201.4116186121307,544.9271550163287,2555.9767157643068,0.0
643204.59901257406,4197374.0504322443,-32500.0,141.02551932388553,512.97790551071841,1487.1578896752769,-349.82553189793049,-1066.0566869297866,553.9486788031503,1251.2190875773651,-437.78243415931559,1221.8627512754852,-1221.8627512754852,437.78243415931559,2448.0057076877952,0.0
648204.59901257406,4197374.0504322443,-32500.0,244.92317739502045,614.55024697115516,1300.6813198994175,-413.80830551434286,-956.26854939975544,504.06554990303715,1175.1465446979973,-306.35590375334698,1181.3554221099839,-1181.3554221099839,306.35590375334698,2301.7960226437062,0.0
653204.59901257406,4197374.0504322443,-32500.0,345.7850333148603,669.22315324284739,1093.8167145579673,-451.97400240089769,-833.11047134405135,447.65377368208652,1085.2972851147301,-166.59656921866429,1092.466094615535,-1092.466094615535,166.59656921866429,2128.9356840265195,0.0
658204.59901257406,4197374.0504322443,-32500.0,433.68078797634035,681.46488192864808,883.91212686120878,-466.31243739389322,-706.18561405326284,388.91823028402121,987.96878736478209,-32.023636457240627,970.11069396487051,-970.11069396487051,32.023636457240627,1940.7433729282893,0.0
663204.59901257406,4197374.0504322443,-32500.0,502.23029561388051,658.99353322566265,684.35339574365344,-460.58509889908044,-583.12313641607716,331.2610159610565,888.98502218017882,87.539691572710751,828.99835143633686,-828.99835143633686,-87.539691572710751,1747.2457985577576,0.0
668204.59901257406,4197374.0504322443,-32500.0,548.55857858345439,610.88387141795647,504.13466044158281,-439.38557882602311,-469.29406090359089,277.14434139708584,793.1352225049668,186.22710853856577,681.88688193625183,-681.88688193625183,-186.22710853856577,1556.6017503876797,0.0
673204.59901257406,4197374.0504322443,-32500.0,572.69210080963182,546.08316983847942,348.20382708307903,-407.38043150851024,-367.92978614511821,228.12288967485816,703.47188589952486,261.6847992517778,538.69028617099184,-538.69028617099184,-261.6847992517778,1374.9127588995909,0.0
678204.59901257406,4197374.0504322443,-32500.0,576.71007799070435,472.45090840431573,218.2377172223903,-368.79538600261844,-280.47661623073412,184.97897773713993,621.35233580003842,314.26033776797323,406.28520718408782,-406.28520718408782,-314.26033776797323,1206.3133944252588,0.0
683204.59901257406,4197374.0504322443,-32500.0,563.89186148800445,396.28418371576578,113.55705498739016,-327.13780734462711,-207.04212421554621,147.90169175917373,547.25014271266139,346.10325578668943,288.78411700235739,-288.78411700235739,-346.10325578668943,1053.2305673676567,0.0
553204.59901257406,4202374.0504322443,-32500.0,180.69332465358266,104.71522773021945,-470.64739220483608,-6.2067318948381125,190.15811033082241,-55.788349229081284,378.96547260231205,283.56839593190472,-210.04449355992202,210.04449355992202,-283.56839593190472,683.83469977865172,0.0
558204.59901257406,4202374.0504322443,-32500.0,241.25943349025516,46.465843376574639,-477.91320823761606,27.451824506338756,181.93715084052573,-48.46475533245853,398.18296008308732,335.25220081811375,-270.39731773311934,270.39731773311934,-335.25220081811375,707.69279798999173,0.0
563204.59901257406,4202374.0504322443,-32500.0,300.71981115787327,-26.083117677175665,-468.70324382337611,67.492777748480307,163.60351188533204,-36.557709695866812,420.00950170731073,381.69506317085984,-332.72597014755956,332.72597014755956,-381.69506317085984,736.38577027919314,0.0
568204.59901257406,4202374.0504322443,-32500.0,354.94271875975318,-112.40771736221826,-437.40510556950426,113.2664228831633,132.42155878015507,-18.997311409254376,446.14251877329878,417.91850619079821,-392.79160085047283,392.79160085047283,-417.91850619079821,774.82668491951813,0.0
573204.59901257406,4202374.0504322443,-32500.0,398.98173079040851,-210.29866918052196,-378.12278672926749,163.27163531930191,85.662739294687654,5.2427065826819979,478.67669638348042,438.11507742092431,-444.71957383171161,444.71957383171161,-438.11507742092431,829.22208248764684,0.0
578204.59901257406,4202374.0504322443,-32500.0,427.49802471919708,-315.38281849645119,-285.37582591623158,214.96708941902219,20.977101899550693,36.990303098488212,519.7723992379432,436.15753959513148,-481.07868876207482,481.07868876207482,-436.15753959513148,905.89971628819058,0.0
583204.59901257406,4202374.0504322443,-32500.0,435.48545468975556,-420.8280035617783,-155.11248206396544,264.68586506678747,-63.100723169482521,76.672505560774923,571.11419379987331,406.45154102118295,-493.33207733430299,493.33207733430299,-406.45154102118295,1009.4790829738213,0.0
588204.59901257406,4202374.0504322443,-32500.0,419.27365674145159,-517.42486716025883,14.033027039432081,307.73821121735671,-166.55583261090564,124.08539929075536,633.3082866860816,345.10520570704495,-472.77092437611299,472.77092437611299,-345.10520570704495,1141.1617919889584,0.0
593204.59901257406,4202374.0504322443,-32500.0,377.66809203139866,-594.23766258793796,219.44070293590977,338.78004094084099,-287.31176864474247,178.17941290078318,705.43910960233939,251.25887736157796,-411.94824914677969,411.94824914677969,-251.25887736157796,1297.9145470512231,0.0
598204.59901257406,4202374.0504322443,-32500.0,312.9505564218083,-639.92857095110946,453.50464720988981,352.47897620696,-420.82647420521516,236.92292471624435,784.9436279491988,128.26410480164287,-306.45915823690359,306.45915823690359,-128.26410480164287,1472.6698291903224,0.0
603204.59901257406,4202374.0504322443,-32500.0,231.36971672009972,-644.66882155926226,703.35648504488245,344.42183113902246,-560.05500481060642,297.31427374982417,867.83432586152026,-15.71087333288321,-156.70039724277817,156.70039724277817,15.71087333288321,1655.1896938786117,0.0
608204.59901257406,4202374.0504322443,-32500.0,142.77753713919648,-602.29146625864507,951.6788396856233,312.09544581936564,-695.93177146149833,355.59554086507234,949.20504177461487,-168.05355318746109,30.927720054754118,-30.927720054754118,168.05355318746109,1833.2765432493079,0.0
613204.59901257406,4202374.0504322443,-32500.0,59.266664211299286,-512.11366188027807,1178.7221362159073,255.68118604362874,-818.40177216158497,407.67261986449728,1023.8501349161929,-313.24762327610705,243.92058356903561,-243.92058356903561,313.24762327610705,1994.1881824380805,0.0
618204.59901257406,4202374.0504322443,-32500.0,-6.9942841561682165,-379.80521452812303,1365.2425421981814,178.3921015854753,-917.85191335871559,449.68010523420838,1086.6517145652849,-435.39031823784296,464.97667650358017,-464.97667650358017,435.39031823784296,2126.147601648353,0.0
623204.59901257406,4202374.0504322443,-32500.0,-46.183832570603194,-216.89000656516819,1495.6873392142556,86.182598193043106,-986.62319441945453,478.56748378602782,1132.6374619039539,-521.09143784277546,674.57654970764918,-674.57654970764918,521.09143784277546,2219.7553595361715,0.0
628204.59901257406,4202374.0504322443,-32500.0,-52.797171802342724,-38.898730569952576,1560.7752885918212,-13.146923980357602,-1020.214490929108,492.56024234777448,1157.618298032836,-561.94045680680131,854.22470161059243,-854.22470161059243,561.94045680680131,2269.058785184307,0.0
633204.59901257406,4202374.0504322443,-32500.0,-26.57574923043742,137.34317081342726,1558.7725361170544,-111.22646831372113,-1017.8645038655051,491.37929239934704,1159.4162023328122,-555.83562549705823,989.4805412701204,-989.4805412701204,555.83562549705823,2272.0729169692331,0.0
638204.59901257406,4202374.0504322443,-32500.0,27.818484090955845,296.53018724859032,1495.1949886168575,-200.43131550505925,-982.39519415007896,476.17631951036401,1138.3174077026724,-506.86549414703262,1071.9843282836189,-1071.9843282836189,506.86549414703262,2230.6766566053307,0.0
643204.59901257406,4202374.0504322443,-32500.0,102.16619633669725,427.06775796734007,1381.1735656271858,-274.91061760687461,-919.42793380424303,449.22762333041044,1096.6759091860356,-423.92593692409082,1100.0666374005261,-1100.0666374005261,423.92593692409082,2149.9648116116241,0.0
648204.59901257406,4202374.0504322443,-32500.0,186.58141611235519,522.20759434621959,1231.0689706731466,-331.13464300454046,-836.24111399900619,413.48790254194682,1038.2439573252193,-318.61207310253457,1078.008606361316,-1078.008606361316,318.61207310253457,2037.2506415485814,0.0
653204.59901257406,4202374.0504322443,-32500.0,271.36623344243009,580.08182978916943,1060.0112374218093,-367.93567388250187,-740.58147555181245,372.12298083127592,967.5117173177191,-203.0245648619117,1014.3871432707064,-1014.3871432707064,203.0245648619117,1900.9600450543023,0.0
658204.59901257406,4202374.0504322443,-32500.0,348.41464218854543,602.89458047289327,881.88811091404443,-386.15417095132972,-639.67432832205054,328.11570017507512,889.16568044108749,-87.993078252146233,920.07287656654091,-920.07287656654091,87.993078252146233,1749.6215109420523,0.0
663204.59901257406,4202374.0504322443,-32500.0,411.98598337674207,595.66661823454649,708.04943605512199,-388.06597720743844,-539.56411080371925,283.99765891859522,807.71199396165935,18.029500014628297,806.37568568763061,-806.37568568763061,-18.029500014628297,1591.0868303421116,0.0
668204.59901257406,4202374.0504322443,-32500.0,458.87880508524881,564.90727474904509,546.7460458081988,-376.76086865931904,-444.80197385681805,241.71530918946448,727.15835488827076,109.38906939022621,683.64172193921172,-683.64172193921172,-109.38906939022621,1432.0319565585016,0.0
673204.59901257406,4202374.0504322443,-32500.0,488.16345657846034,517.47542909171443,403.15932525936512,-355.59536629321758,-358.4199290974654,202.6092141252459,650.47158601149215,183.11306826680612,560.40445569858025,-560.40445569858025,-183.11306826680612,1277.7225155922572,0.0
678204.59901257406,4202374.0504322443,-32500.0,500.66913898472131,459.75672538216355,279.81249724853762,-327.78354611178929,-282.09805838262662,167.47143093888317,579.19420244837693,238.45864050650778,443.04217172793767,-443.04217172793767,-238.45864050650778,1131.9904083294077,0.0
558204.59901257406,4207374.0504322443,-32500.0,241.60792065372451,-3.8404032754959685,-405.74739816961983,46.821553520767601,139.406325897389,-31.132287107006018,351.23236372636859,315.15086574285135,-270.05528463169298,270.05528463169298,-315.15086574285135,617.91560621352187,0.0
563204.59901257406,4207374.0504322443,-32500.0,288.04839155358184,-70.98762596565463,-385.54068689247993,81.358298741127967,118.44143040085596,-19.541738659804764,371.46939282805636,347.86449573941246,-319.79121162484654,319.79121162484654,-347.86449573941246,646.68767361535276,0.0
568204.59901257406,4207374.0504322443,-32500.0,328.23723245814369,-148.01889499678043,-344.94318220170146,119.59209498819975,86.551123032874585,-3.4694627833853979,396.18397634488883,369.87647063713723,-364.94850363671731,364.94850363671731,-369.87647063713723,686.30287029523413,0.0
573204.59901257406,4207374.0504322443,-32500.0,358.31817379564404,-232.40859548507078,-279.64928233703614,160.05207796882178,41.901668220932059,17.721641250364193,426.99409555164385,376.69399676999524,-400.46979958754116,400.46979958754116,-376.69399676999524,741.53724638906817,0.0
578204.59901257406,4207374.0504322443,-32500.0,374.40403728820297,-319.9710641160674,-186.02173874001207,200.52337868645768,-16.90997445896425,44.475588579489241,465.3437282514451,363.89588052821239,-420.34363499030144,420.34363499030144,-363.89588052821239,816.49285871072391,0.0
583204.59901257406,4207374.0504322443,-32500.0,373.15681058641024,-404.77554955027659,-61.869825174249428,238.04621687377201,-90.495740843012641,76.908437729885847,512.10468965136431,327.81567746371866,-418.06751643658606,418.06751643658606,-327.81567746371866,913.36275226502426,0.0
588204.59901257406,4207374.0504322443,-32500.0,352.51096116560853,-479.36166612416747,92.668122828282137,269.05347235522868,-178.28689892050795,114.66743174315971,567.21836562348597,266.38929413067746,-387.43254855153674,387.43254855153674,-266.38929413067746,1031.5894028853409,0.0
593204.59901257406,4207374.0504322443,-32500.0,312.41881296528044,-535.35393358586066,274.30023510070623,289.68246258654597,-278.19171373733303,156.81302863025616,629.49494481703846,180.03074850687796,-323.59743793934734,323.59743793934734,-180.03074850687796,1167.6754230843019,0.0
598204.59901257406,4207374.0504322443,-32500.0,255.4258595640986,-564.49974880410264,476.04832477492965,296.26219424901245,-386.4038701270743,201.761445671361,696.62588082808031,72.3176500461541,-224.30899623330714,224.30899623330714,-72.3176500461541,1315.5270167245567,0.0
603204.59901257406,4207374.0504322443,-32500.0,186.84978793624194,-560.02752078483684,687.26343513307052,285.92243175052698,-497.46922391666811,247.32520317283482,765.40230728190045,-49.774993716078853,-91.005999968503005,91.005999968503005,49.774993716078853,1467.1000784953212,0.0
608204.59901257406,4207374.0504322443,-32500.0,114.38103121315008,-518.07207146211579,894.37835737610192,257.20991351949039,-604.6835693611057,290.87510350044471,832.0974860543638,-176.31045246427823,70.530804247771115,-70.530804247771115,176.31045246427823,1613.2186992461131,0.0
613204.59901257406,4207374.0504322443,-32500.0,47.060576272881562,-438.80368270249812,1082.4143615590353,210.55529956306469,-700.81614728190937,329.61839755490382,892.91154596506442,-295.5625480868249,250.28952273854694,-250.28952273854694,295.5625480868249,1744.5129717209729,0.0
618204.59901257406,4207374.0504322443,-32500.0,-6.2072228557929963,-326.89633994109744,1237.0230342375123,148.44017337881942,-779.05311331945791,360.95226410931906,944.21473202227696,-395.76313927314089,435.04096713904227,-435.04096713904227,395.76313927314089,1852.4098207966738,0.0
623204.59901257406,4207374.0504322443,-32500.0,-38.26040825051961,-191.11363014344343,1346.6307989128559,75.177598254874482,-833.9668923496896,382.82158375665858,982.43318661151602,-467.04119304806488,610.13337629643354,-610.13337629643354,467.04119304806488,1930.0548066751139,0.0
628204.59901257406,4207374.0504322443,-32500.0,-44.976782437234071,-43.04490995623555,1404.1667082342383,-3.6720711649043962,-862.28496424165326,393.99938354749128,1004.3658401126113,-503.06108141438278,761.68116715243389,-761.68116715243389,503.06108141438278,1973.0135836259446,0.0
633204.59901257406,4207374.0504322443,-32500.0,-25.914027773861939,104.71082997730356,1407.9522143595921,-82.118648977016576,-863.27834734791281,394.22648684655019,1008.1743707389832,-501.93751966527412,878.61733519040718,-878.61733519040718,501.93751966527412,1979.6305609281999,0.0
638204.59901257406,4207374.0504322443,-32500.0,15.845788710069426,240.45500652269132,1361.5788603715657,-154.59564328726174,-838.69716623892771,384.18512749487508,993.83047592148819,-466.2303421759002,954.123604462397,-954.123604462397,466.2303421759002,1950.9943664938105,0.0
643204.59901257406,4207374.0504322443,-32500.0,74.536769041841055,354.94349177368292,1272.8921653415991,-216.65728179571553,-792.30623968685086,365.32574065351349,962.86051658683175,-402.10499342564287,986.16367318735604,-986.16367318735604,402.10499342564287,1890.5471856579977,0.0
648204.59901257406,4207374.0504322443,-32500.0,142.94313651378511,442.29113286991594,1152.4225411146654,-265.39250260344181,-729.17032036862804,339.60129207692194,917.88063904630019,-317.96544903279545,977.12397194575374,-977.12397194575374,317.96544903279545,1803.4502180417783,0.0
653204.59901257406,4207374.0504322443,-32500.0,213.68106455877381,500.15614652365326,1011.6781579639589,-299.52324259176856,-654.87089574289007,309.17471645614819,862.13575503659149,-222.94853078686231,932.79455278011744,-932.79455278011744,222.94853078686231,1695.8459374396573,0.0
658204.59901257406,4207374.0504322443,-32500.0,280.2470279238338,529.32519113341584,861.65591992597911,-319.23583749840577,-574.8129625135947,276.15760715740254,799.10981634468544,-125.61657119931851,861.03206152061102,-861.03206152061102,125.61657119931851,1574.1507259517057,0.0
663204.59901257406,4207374.0504322443,-32500.0,337.68119736306619,532.92870471256265,711.78302383571088,-325.84247848743092,-493.71938939868181,242.41649584763917,732.24734280525195,-33.049800951845896,770.43182827473856,-770.43182827473856,33.049800951845896,1444.4728174822922,0.0
668204.59901257406,4207374.0504322443,-32500.0,382.82631705336047,515.52935303117363,569.34837943517573,-321.37753340752209,-415.34379498266736,209.45931374847174,664.77190861500719,49.607993221087838,669.23929977671878,-669.23929977671878,-49.607993221087838,1312.2030601758277,0.0
673204.59901257406,4207374.0504322443,-32500.0,414.25555684037465,482.27508999138433,439.36674888117665,-308.21335875811809,-342.38108428839274,178.39543611102982,599.39434851618171,119.20886934073485,564.60962777713985,-564.60962777713985,-119.20886934073485,1181.7833679518151,0.0
563204.59901257406,4212374.0504322443,-32500.0,270.21428462359393,-102.99508488919513,-311.08567728289319,88.145954003347981,82.226532604594482,-7.5381382418435754,330.80520516819661,312.146745929681,-300.62234589883184,300.62234589883184,-312.146745929681,573.59853507221669,0.0
568204.59901257406,4212374.0504322443,-32500.0,299.29426394652126,-170.59254569217478,-264.85055743379866,119.71334745891026,51.08971012022284,6.7948063961188598,354.21647147229555,323.32653124112448,-333.28917524350766,333.28917524350766,-323.32653124112448,613.9487274855037,0.0
573204.59901257406,4212374.0504322443,-32500.0,318.89062696930546,-242.40808938164477,-197.26181110265367,152.16147427451367,9.632890843205173,25.019723620412936,383.1653130619502,320.65113270217449,-355.79302988606349,355.79302988606349,-320.65113270217449,668.66585813239476,0.0
578204.59901257406,4212374.0504322443,-32500.0,326.2442844743635,-314.64583233507676,-106.0460038202941,183.62880970217341,-42.912171085967465,47.346082766957046,418.5320398122476,301.02127674689643,-363.38196935155497,363.38196935155497,-301.02127674689643,740.12370466422124,0.0
583204.59901257406,4212374.0504322443,-32500.0,319.21134924753744,-382.30494886604345,9.7314252753689576,211.77351656651985,-106.64552590496895,73.726051290985879,460.64704902532549,262.14741939115254,-351.19421143924546,351.19421143924546,-262.14741939115254,828.9771871605717,0.0
588204.59901257406,4212374.0504322443,-32500.0,296.77002702822227,-439.43812856410858,149.06376640540708,233.90996513796088,-180.75014332523054,103.76994358045189,509.09627480084185,203.14679197599236,-314.88470839589553,314.88470839589553,-203.14679197599236,933.8254204232386,0.0
593204.59901257406,4212374.0504322443,-32500.0,259.49673482126769,-479.68180303099871,308.49664733019569,247.25684654640804,-263.2969745989883,136.6837150956413,562.64883401879888,125.1068346619965,-251.40965988290151,251.40965988290151,-125.1068346619965,1051.2704161774438,0.0
598204.59901257406,4212374.0504322443,-32500.0,209.88241549136998,-497.04662941400267,481.87238933677816,249.28667358645305,-351.16829368157698,171.25053572667491,619.31977886806715,31.466845486733902,-159.85198725567091,159.85198725567091,-31.466845486733902,1176.2370321299736,0.0
603204.59901257406,4212374.0504322443,-32500.0,152.35354423371115,-486.87458448787015,660.47684888965898,238.13313866660971,-440.15915411328217,205.87605348370778,676.55570125857503,-71.940562223522676,-42.10590110170547,42.10590110170547,71.940562223522676,1302.4365314904262,0.0
608204.59901257406,4212374.0504322443,-32500.0,92.904417052541078,-446.78440304359174,833.68154139860997,212.98012139476302,-525.28939665785651,238.70698328479489,731.52092241009427,-177.30237975541257,96.788906982066351,-96.788906982066351,177.30237975541257,1422.9263108113159,0.0
613204.59901257406,4212374.0504322443,-32500.0,38.338963547033408,-377.37490025721195,990.06078289153163,174.33824031399936,-601.3109189002256,267.81589311313741,781.42316574418294,-275.70513790065905,248.83623146885185,-248.83623146885185,275.70513790065905,1530.744020867276,0.0
618204.59901257406,4212374.0504322443,-32500.0,-4.75948996955682,-282.47063866742957,1118.8217020380446,124.12363015321016,-663.33663149190943,291.42552825833883,823.66848778259964,-358.35690918014046,403.85722111624403,-403.85722111624403,358.35690918014046,1619.570256602806,0.0
623204.59901257406,4212374.0504322443,-32500.0,-31.108195915390098,-168.79049785895208,1211.2670892154379,65.494968102104323,-707.47182683107212,308.13101374774993,855.65365020801551,-417.90254551491228,550.75119580284945,-550.75119580284945,417.90254551491228,1684.3413570192843,0.0
628204.59901257406,4212374.0504322443,-32500.0,-37.593640850350141,-45.070966029783513,1261.9699732427641,2.4659312027232989,-731.31414219725548,317.07394370809419,874.88912512845263,-449.52898676158901,678.99543024159482,-678.99543024159482,449.52898676158901,1721.7186578360054,0.0
633204.59901257406,4212374.0504322443,-32500.0,-23.716686322830238,79.168803929333535,1269.3998873896924,-60.627630196704366,-734.21574034306366,318.03242952360614,879.82627627855186,-451.60183718718554,780.05427917325073,-780.05427917325073,451.60183718718554,1730.3381094220731,0.0
638204.59901257406,4212374.0504322443,-32500.0,8.4750097386356273,194.93944618340998,1235.8873007897082,-119.68996629024826,-717.2621600728238,311.41180637744128,870.27517639040684,-425.70705752255355,848.39545918426859,-848.39545918426859,425.70705752255355,1710.8066908094793,0.0
643204.59901257406,4212374.0504322443,-32500.0,54.911207990273894,294.888055071407,1166.9869319601314,-171.34095077109305,-682.99443439286938,298.14563047869746,847.22670379559133,-376.13723755236731,881.93063193768273,-881.93063193768273,376.13723755236731,1665.4652668797623,0.0
648204.59901257406,4212374.0504322443,-32500.0,110.31056669537993,374.00138044802827,1070.4377278147215,-213.22303535180615,-634.95679072304233,279.53517716884886,812.51777866434497,-308.99836651267475,881.86103768691055,-881.86103768691055,308.99836651267475,1597.9792407489176,0.0
653204.59901257406,4212374.0504322443,-32500.0,169.06607635713817,429.83619676274981,954.97896718860306,-244.10995601192624,-577.17915821790268,257.06537059016097,768.50557179348073,-231.17631262406462,852.05308757770717,-852.05308757770717,231.17631262406462,1512.8440071920786,0.0
658204.59901257406,4212374.0504322443,-32500.0,226.01687744279232,462.32957249404728,829.25899755462046,-263.83701897694249,-513.69434500061845,232.23182066645896,717.78560003890482,-149.38514402863973,798.1491717821973,-798.1491717821973,149.38514402863973,1414.8894035513918,0.0
663204.59901257406,4212374.0504322443,-32500.0,276.98843548503726,473.31905327770187,700.99816107838899,-273.10516907611606,-448.16011658935975,206.40379853060745,662.97952146930425,-69.448992435138678,726.62725686604267,-726.62725686604267,69.448992435138678,1308.8504727192637,0.0
668204.59901257406,4212374.0504322443,-32500.0,319.06484646270991,465.92761605666976,576.47252419351366,-273.22237496585427,-383.61685577689832,180.73443471756909,606.61043134966633,4.1211738031173013,643.97610876218482,-643.97610876218482,-4.1211738031173013,1199.0429643187808,0.0
573204.59901257406,4217374.0504322443,-32500.0,282.0971289730964,-243.74516451881462,-129.43601186830182,141.73888009390464,-13.631976598914225,28.794323183034816,345.55326593841016,270.77500904186894,-312.81022238998645,312.81022238998645,-270.77500904186894,606.91158879106592,0.0
578204.59901257406,4217374.0504322443,-32500.0,283.47186170425903,-302.88350381483184,-42.700046971855919,166.07538163573312,-60.014310647452049,47.310932156081741,377.84252302187372,247.21535140229162,-311.49679600743957,311.49679600743957,-247.21535140229162,673.71695671275916,0.0
583204.59901257406,4217374.0504322443,-32500.0,273.04445309981253,-356.51064451240461,63.639013848436235,187.06855642611893,-114.83461798609345,68.71705395815583,415.4583622859588,207.91445711565311,-292.86586510097749,292.86586510097749,-207.91445711565311,754.09381186013479,0.0
588204.59901257406,4217374.0504322443,-32500.0,250.45054255196607,-399.93650133945698,188.125393217848,202.70914286739099,-177.20370729507377,92.640916254469403,457.82550230538504,152.72463738388825,-253.93408124230166,253.93408124230166,-152.72463738388825,846.33141299417127,0.0
593204.59901257406,4217374.0504322443,-32500.0,216.56896242641213,-428.3499333107012,327.427020888556,210.99761515702281,-245.42601197466757,118.43293719889773,503.7878095904689,83.037423929707103,-192.8765161251068,192.8765161251068,-83.037423929707103,947.37116103691574,0.0
598204.59901257406,4217374.0504322443,-32500.0,173.68394495017742,-437.41029445616323,476.23851152758272,210.1920954101756,-316.98235954225123,145.16545298198602,551.6820549230805,1.9824762912220635,-109.57938538457384,109.57938538457384,-1.9824762912220635,1053.0621381989868,0.0
603204.59901257406,4217374.0504322443,-32500.0,125.43252092991673,-423.91929094065063,627.47404407139652,199.08075295602407,-388.6340334444842,171.67349908138382,599.48699069146653,-85.623224851917115,-6.0592642887207759,6.0592642887207759,85.623224851917115,1158.4905688253905,0.0
608204.59901257406,4217374.0504322443,-32500.0,76.491295977013976,-386.4501853554861,772.79252476356874,177.22889493246751,-456.66117889991193,196.64008894043167,645.03839496322189,-173.63364830307154,113.38052869880596,-113.38052869880596,173.63364830307154,1258.3684513313951,0.0
613204.59901257406,4217374.0504322443,-32500.0,32.016669101019872,-325.78778914802928,903.42391315981706,145.14359696291396,-517.21928080253667,218.71969449836348,686.27339691684347,-255.23014691709852,242.35356246751388,-242.35356246751388,255.23014691709852,1347.4697143406577,0.0
618204.59901257406,4217374.0504322443,-32500.0,-3.0751673570585072,-245.0510346447291,1011.1789717324066,104.30739900637282,-566.76333700694147,236.68257593436178,721.3299205264351,-323.78284127871649,372.97613421106206,-372.97613421106206,323.78284127871649,1421.0813208067107,0.0
623204.59901257406,4217374.0504322443,-32500.0,-24.845054594677588,-149.43241617257158,1089.4601006563396,57.057932972631477,-602.46533646701869,249.55507617823551,748.28492256174593,-373.75498294075271,496.76213706926444,-496.76213706926444,373.75498294075271,1475.417344195592,0.0
628204.59901257406,4217374.0504322443,-32500.0,-30.921222403310125,-45.582320809467724,1134.0710041623461,6.3271282311799961,-622.5448529989618,256.7297521765056,765.16315921108151,-401.4595511086585,605.66457762025539,-605.66457762025539,401.4595511086585,1507.9384753159504,0.0
633204.59901257406,4217374.0504322443,-32500.0,-20.812175571131363,59.243459810799401,1143.6617741072075,-44.712134075141201,-626.44791953474021,258.02411889124767,770.6583615367523,-405.50711879173673,693.05638108365565,-693.05638108365565,405.50711879173673,1517.5274404512879,0.0
638204.59901257406,4217374.0504322443,-32500.0,4.1164392128573635,158.09618591957786,1119.7346224491055,-93.021563773946099,-614.8457663938085,253.67899557420878,764.50924734628404,-386.86268472402355,754.45790896089841,-754.45790896089841,386.86268472402355,1504.4989431429617,0.0
643204.59901257406,4217374.0504322443,-32500.0,40.972210323616039,245.12708249291069,1066.241189707762,-136.0245417529492,-589.46640525752684,244.30100863917343,747.35969291333697,-348.52895023750324,787.88998481114663,-787.88998481114663,348.52895023750324,1470.4537351297083,0.0
648204.59901257406,4217374.0504322443,-32500.0,85.874193138073025,316.12652680618424,988.88820369116536,-171.83141628633604,-552.80572548124053,230.76460421545841,720.50967122951261,-294.95807833185313,793.82703425094905,-793.82703425094905,294.95807833185313,1418.0119969078994,0.0
653204.59901257406,4217374.0504322443,-32500.0,134.56602083851269,368.75154753300774,894.31399185553789,-199.33943965901503,-507.78339715757642,214.09517469244417,685.68202505900251,-231.34015242304156,774.8168781595158,-774.8168781595158,231.34015242304156,1350.4789653383443,0.0
658204.59901257406,4217374.0504322443,-32500.0,182.97943260826094,402.46031922853592,789.29360223471099,-218.21364754831001,-457.40755278052649,195.35461588529694,644.81854128279065,-162.91471968527009,734.89082951642922,-734.89082951642922,162.91471968527009,1271.497656344671,0.0
583204.59901257406,4222374.0504322443,-32500.0,233.81216287068543,-329.48203055779095,103.33739806253986,164.50745910113113,-117.50836370002297,62.886775881031852,375.57057103378389,163.48497815361566,-242.65579481225495,242.65579481225495,-163.48497815361566,687.18679178345997,0.0
588204.59901257406,4222374.0504322443,-32500.0,212.04196919518608,-362.21619276095754,213.87850861857302,175.41226886201329,-169.93713417565201,81.974927154158749,412.5012369761323,112.75976782986868,-203.15981708298648,203.15981708298648,-112.75976782986868,767.92296056631596,0.0
593204.59901257406,4222374.0504322443,-32500.0,181.69008914521538,-381.79369402919082,335.26639465046787,180.21346628854209,-226.39781333216814,102.26998210889418,451.93267778009658,51.01565785118526,-145.68555208490085,145.68555208490085,-51.01565785118526,854.74449163308179,0.0
598204.59901257406,4222374.0504322443,-32500.0,144.7751966822407,-385.07040658290657,462.99829964487736,177.70900697756659,-284.87085113000524,123.06717348729801,492.49153273335219,-18.989621028311994,-70.580102147217417,70.580102147217417,18.989621028311994,944.28730218176463,0.0
603204.59901257406,4222374.0504322443,-32500.0,104.26355982841822,-369.85636567216437,591.33025019958586,167.11469019232919,-342.85881884376903,143.51176689428226,532.58042163295045,-93.306276060524169,20.197647061826963,-20.197647061826963,93.306276060524169,1032.7039992196064,0.0
608204.59901257406,4222374.0504322443,-32500.0,63.812886264144453,-335.33625053282714,713.69682525402266,148.22210329838731,-397.56620530660558,162.65999369370923,570.54170365812308,-167.08959228295404,123.01874945454985,-123.01874945454985,167.08959228295404,1115.9381607233579,0.0
613204.59901257406,4222374.0504322443,-32500.0,27.359419341605356,-282.34572672466373,823.32218487466275,121.49710174013997,-446.15082657307647,179.56204608248623,604.84626449082089,-235.08844184680802,232.77371285955101,-232.77371285955101,235.08844184680802,1190.0287330766873,0.0
618204.59901257406,4222374.0504322443,-32500.0,-1.3902442900334282,-213.42597853189284,913.93967520605747,88.090588792287747,-486.01319856166094,193.35615794167174,634.15655843742888,-292.25810870646615,343.31539140890231,-343.31539140890231,292.25810870646615,1251.4216323831968,0.0
623204.59901257406,4222374.0504322443,-32500.0,-19.468337255506995,-132.6213853596397,980.49894225148068,49.750078633614805,-515.07683436107641,203.35878236180699,657.02891049385562,-334.38989411245467,448.09996562467796,-448.09996562467796,334.38989411245467,1297.2546392825184,0.0
628204.59901257406,4222374.0504322443,-32500.0,-25.053064705316114,-45.041478119128762,1019.7313750518921,8.6414519108301722,-532.00995763084359,209.13529066955766,671.86058123772091,-358.6363461231669,540.91991916430709,-540.91991916430709,358.6363461231669,1325.5777514223512,0.0
633204.59901257406,4222374.0504322443,-32500.0,-17.690707012057732,43.735280266302773,1030.4693173569804,-32.888844347145636,-536.34891379234932,210.53880638684964,677.54767036233818,-363.82957620593004,616.59498319671275,-616.59498319671275,363.82957620593004,1335.4777870079906,0.0
638204.59901257406,4222374.0504322443,-32500.0,1.7057080635318504,128.30372602118118,1013.66989456956,-72.568209589818153,-528.50538775888276,207.71172726845654,673.8101682082397,-350.53895409968715,671.49773482634419,-671.49773482634419,350.53895409968715,1327.093474180278,0.0
643204.59901257406,4222374.0504322443,-32500.0,31.066858712369449,204.00386817798343,972.15810282238635,-108.42484350351717,-509.66319117932795,201.0519216108641,661.0673668195775,-320.8744856774037,703.83154083813611,-703.83154083813611,320.8744856774037,1301.5246740328034,0.0
648204.59901257406,4222374.0504322443,-32500.0,67.527158778895583,267.33142755735213,910.15925007882333,-138.95234179131901,-481.59154672492053,191.15201796853805,640.24688729353738,-278.09621718603285,713.6372586371134,-713.6372586371134,278.09621718603285,1260.6563621545154,0.0
598204.59901257406,4227374.0504322443,-32500.0,121.56361563268672,-339.34285928847976,444.93380953317063,150.71790592354614,-255.32722557741468,104.44717406639602,440.65464321890829,-33.614968280595114,-40.488000014183775,40.488000014183775,33.614968280595114,848.280948869339,0.0
603204.59901257406,4227374.0504322443,-32500.0,87.486623141984978,-323.46038894240047,554.11776767395679,140.88111941602887,-302.5051640966621,120.33163254476837,474.41612076021136,-96.787302166054744,39.026589074005429,-39.026589074005429,96.787302166054744,922.73906243509339,0.0
608204.59901257406,4227374.0504322443,-32500.0,53.912228934348811,-291.95732374371323,657.55747519530075,124.58767331833633,-346.77830644608127,135.13921292045902,506.22734486687483,-158.88470257229045,127.69671719784452,-127.69671719784452,158.88470257229045,992.47277376552495,0.0
613204.59901257406,4227374.0504322443,-32500.0,23.867164977584494,-245.64750978516517,749.98302081278325,102.24816905626355,-386.02659358278061,148.19217706539825,534.95419752363978,-215.83574214366365,221.42330486362908,-221.42330486362908,215.83574214366365,1054.4516757293629,0.0
618204.59901257406,4227374.0504322443,-32500.0,0.17194558493589907,-186.60323988631086,826.55932242363599,74.759968884761733,-418.32415909278347,158.87934289218333,559.64057595160159,-263.76832608181138,315.38077563055953,-315.38077563055953,263.76832608181138,1105.9679549182081,0.0
623204.59901257406,4227374.0504322443,-32500.0,-14.915591436322639,-117.99849585864344,883.38677726905689,43.441996301851866,-442.13009182151285,166.71491953649215,579.17985001783393,-299.45354339547714,404.48100547547756,-404.48100547547756,299.45354339547714,1144.835045055386,0.0
628204.59901257406,4227374.0504322443,-32500.0,-19.984729806335015,-43.793829685837302,917.90081564410775,9.911317670856004,-456.4391616013956,171.38457263962442,592.2395648409522,-320.67484944894181,483.89519222863066,-483.89519222863066,320.67484944894181,1169.5415895196966,0.0
633204.59901257406,4227374.0504322443,-32500.0,-14.631262373023315,31.685986335656665,929.10342874952801,-24.079195934086769,-460.86816964290728,172.77152790323191,597.88685170080657,-326.45689113983383,549.54667486130825,-549.54667486130825,326.45689113983383,1179.341467186385,0.0
603204.59901257406,4017374.0504322448,-37500.0,6.7882103074329345,135.55333151892762,801.50586251097377,82.308082149454378,468.82345249811812,205.85673106552801,567.72412749159412,-275.85004875395441,557.28278431350475,-557.28278431350475,275.85004875395441,1117.0655407324982,0.0
608204.59901257406,4017374.0504322448,-37500.0,-12.962067704740827,71.553988050596246,824.22396757787965,49.245418344940283,480.30783617701525,210.4028885480968,574.46269393997966,-293.01845699584948,522.1737747591178,-522.1737747591178,293.01845699584948,1130.7061709341444,0.0
613204.59901257406,4017374.0504322448,-37500.0,-24.137767804248686,2.5239473830310137,827.54957941844918,13.786127776416814,482.2771667232563,211.26482028774367,574.17734707200566,-296.93345015107661,470.77091825848481,-470.77091825848481,296.93345015107661,1130.7782230103448,0.0
618204.59901257406,4017374.0504322448,-37500.0,-25.60907793467937,-67.910348390308428,810.08701893657053,-22.393405888239055,474.08274787395828,208.19768827103533,566.79306191764886,-286.57779068522791,405.00101109269292,-405.00101109269292,286.57779068522791,1116.8103527196033,0.0
623204.59901257406,4017374.0504322448,-37500.0,-17.125593999762021,-135.78412574736083,771.78256033191371,-57.465373958258873,455.68686301934173,201.18174448308389,552.73453170796267,-262.06143989562634,327.95682645530223,-327.95682645530223,262.06143989562634,1089.027123601405,0.0
628204.59901257406,4017374.0504322448,-37500.0,0.60311147308029944,-197.18969725210056,714.01289312945812,-89.622553364006222,427.70274380713232,190.43734261898791,532.89880113038771,-224.6795806980081,243.64433618754421,-243.64433618754421,224.6795806980081,1048.3786539161681,0.0
633204.59901257406,4017374.0504322448,-37500.0,25.963635116526358,-248.68582061396199,639.49709177715704,-117.2567889517711,391.35803711452979,176.41252810064816,508.39023850995568,-176.80928225919757,156.59755904727461,-156.59755904727461,176.80928225919757,996.50261309760208,0.0
638204.59901257406,4017374.0504322448,-37500.0,56.6276170138403,-287.65280597710722,552.03851470957125,-139.1153762305853,348.38395478496182,159.7439113309205,480.26676333460495,-121.65528631868766,71.419698135399997,-71.419698135399997,121.65528631868766,935.62054578785717,0.0
643204.59901257406,4017374.0504322448,-37500.0,89.840793593502212,-312.53399823214357,456.13661446157926,-154.41022818231443,300.8466804288704,141.19646491389128,449.58849154162476,-62.887065226077425,-7.6743366767841827,7.6743366767841827,62.887065226077425,868.38061747698964,0.0
648204.59901257406,4017374.0504322448,-37500.0,122.7587619450188,-322.92798384311948,356.5339217956215,-162.86427839695995,250.94849589086647,121.59187457065688,417.5051634808359,-4.2313702549953192,-77.240269623823508,77.240269623823508,4.2313702549953192,797.66671412419237,0.0
653204.59901257406,4017374.0504322448,-37500.0,152.76961928365048,-319.52743210053461,257.77131725577135,-164.69243693519005,200.82954113355163,101.73639725453341,385.20877388535871,50.910659262585504,-134.85765342972982,134.85765342972982,-50.910659262585504,726.39518928385394,0.0
658204.59901257406,4017374.0504322448,-37500.0,177.75123878078344,-303.92985157105755,163.81692307281332,-160.52660728096924,152.39858697057778,82.358329518231443,353.82971499340249,99.76329390360857,-179.22894124724516,179.22894124724516,-99.76329390360857,657.31816061415338,0.0
593204.59901257406,4022374.0504322448,-37500.0,80.670667907505134,275.51977614183312,757.72519974045042,165.08238005667826,477.51238172689392,222.93702793924828,596.29233803626869,-217.6730583545212,632.4193643375304,-632.4193643375304,217.6730583545212,1172.972597439549,0.0
598204.59901257406,4022374.0504322448,-37500.0,43.26273842896574,225.17835313991768,822.37200988367385,136.95892690970783,511.43562363635152,236.88319347304648,620.17522684184644,-263.0663502327572,634.61581016325931,-634.61581016325931,263.0663502327572,1219.3182325923542,0.0
603204.59901257406,4022374.0504322448,-37500.0,10.764040464977372,162.1093849474762,871.58273591059492,102.55770795764593,537.21061268623407,247.47310068395205,637.28907756055469,-298.63451663834115,617.19235574059007,-617.19235574059007,298.63451663834115,1252.7788139960981,0.0
608204.59901257406,4022374.0504322448,-37500.0,-13.886528373000589,88.740019067719686,901.09178200519978,63.087501212241129,552.7758110762918,253.90189292196393,646.57278702073563,-320.96496004766846,579.21422566273122,-579.21422566273122,320.96496004766846,1271.2683088554013,0.0
613204.59901257406,4022374.0504322448,-37500.0,-28.244891467815293,8.6768809541206142,907.55072000271218,20.300482953139475,556.51732547932443,255.53916002613454,647.34007852230275,-327.4119581140302,521.28295453738872,-521.28295453738872,327.4119581140302,1273.2948357022829,0.0
618204.59901257406,4022374.0504322448,-37500.0,-30.737669749678847,-73.547146724054187,889.00646464147064,-23.625037833667431,547.48874443685327,252.01223440873116,639.42408072511591,-316.51492325209011,445.66373475227959,-445.66373475227959,316.51492325209011,1258.1545877458618,0.0
623204.59901257406,4022374.0504322448,-37500.0,-20.94851160342828,-152.89880636082961,845.25055093018261,-66.278089157862127,525.57164365331846,243.26719883683174,623.29251174918363,-288.29359722057751,356.18811292039578,-356.18811292039578,288.29359722057751,1226.0654570584134,0.0
628204.59901257406,4022374.0504322448,-37500.0,0.25378847691871398,-224.38714105653861,777.96090706874315,-105.26021939280646,491.54227964157877,229.59488496032702,600.01936867532925,-244.34747938630505,257.92135186915232,-257.92135186915232,244.34747938630505,1178.2168069264565,0.0
633204.59901257406,4022374.0504322448,-37500.0,30.785421709702923,-283.63306108057708,690.59093685648918,-138.44336947919052,447.02395805209329,211.61414913627215,570.99233817105005,-187.72183511787892,156.63433310502933,-156.63433310502933,187.72183511787892,1116.7204895216848,0.0
638204.59901257406,4022374.0504322448,-37500.0,67.611954829595859,-327.36255057191227,588.01297852584867,-164.19562821842695,394.32800912638322,190.21330974754167,537.61292956961063,-122.55375079572156,58.166997570449148,-58.166997570449148,122.55375079572156,1044.4661387329331,0.0
643204.59901257406,4022374.0504322448,-37500.0,107.15765453994649,-353.73345266043071,475.97652556246948,-181.53522669979591,336.20884618796089,166.45885506423087,501.30225328891532,-53.562046178752581,-32.20291934175421,32.20291934175421,53.562046178752581,964.89840767589067,0.0
648204.59901257406,4022374.0504322448,-37500.0,145.77774663814969,-362.44399504432232,360.47920619853534,-190.18919029544816,275.57608234812795,141.48704753492626,463.56676600792861,14.521396575379633,-110.27618934879294,110.27618934879294,-14.521396575379633,881.74577437601522,0.0
653204.59901257406,4022374.0504322448,-37500.0,180.20196049546007,-354.62039904418685,247.16211031302504,-190.55391953773182,215.21307355092949,116.39674762791019,425.92830666485986,77.473512292034826,-173.25380572023849,173.25380572023849,-77.473512292034826,798.73427718827861,0.0
658204.59901257406,4022374.0504322448,-37500.0,207.87332293544432,-332.52763482772309,140.82310205259787,-183.5751289384707,157.54428241149401,92.159245149973117,389.78927204881057,131.97100836130468,-219.83437220821887,219.83437220821887,-131.97100836130468,719.31272466970506,0.0
663204.59901257406,4022374.0504322448,-37500.0,227.13856588330421,-299.17646656755136,45.106605785192144,-170.57775533799318,104.47922596814428,69.555948734414841,356.30627946416655,175.80428710399596,-250.1056163513978,250.1056163513978,-175.80428710399596,646.40587506329121,0.0
668204.59901257406,4022374.0504322448,-37500.0,237.28416978118932,-257.90731913182071,-37.615651238887935,-153.08058854470394,57.341980166859813,49.14778472109672,326.29843744899171,207.91139697782191,-265.28517998995574,265.28517998995574,-207.91139697782191,582.2030711196935,0.0
583204.59901257406,4027374.0504322448,-37500.0,192.5151244782474,377.87251610815741,620.57375651985819,238.34871463581061,436.3421084048988,220.71359001374881,588.09643717706217,-97.076790588738504,618.95657581004127,-618.95657581004127,97.076790588738504,1158.4193112332632,0.0
588204.59901257406,4027374.0504322448,-37500.0,148.26305326225418,357.07157940776256,716.10432458714399,223.95138579504891,489.8441538536328,244.00478698118175,628.71711082873639,-160.25410112700584,663.17800828429097,-663.17800828429097,160.25410112700584,1236.9514842774322,0.0
593204.59901257406,4027374.0504322448,-37500.0,101.84039688691999,319.47838520920578,805.94795124043026,200.72740959247449,539.67219673919908,265.57306988808705,664.95947979925756,-221.79025437065098,691.15763563351538,-691.15763563351538,221.79025437065098,1306.9439386920435,0.0
598204.59901257406,4027374.0504322448,-37500.0,56.7184419243695,264.72407255326431,884.39565573459367,168.59452515160586,582.87971787843207,284.20154576627482,694.97871827600932,-277.17324549977099,698.83289706603978,-698.83289706603978,277.17324549977099,1365.016737355407,0.0
603204.59901257406,4027374.0504322448,-37500.0,16.787967855109162,193.91088278158725,945.4940659774943,128.19245335030345,616.43061533468892,298.64395389344668,717.0481014864223,-321.61549784049237,683.10988603333101,-683.10988603333101,321.61549784049237,1407.9207214066657,0.0
608204.59901257406,4027374.0504322448,-37500.0,-14.083500554892096,109.79644037964262,983.66370545745815,80.962347577271018,637.50218093109584,307.74574865555951,729.72126289303424,-350.60313735365446,642.42929408703947,-642.42929408703947,350.60313735365446,1432.8387525299333,0.0
613204.59901257406,4027374.0504322448,-37500.0,-32.590142977175006,16.755341020418083,994.40434419651285,29.121967773313152,643.82575403353235,310.57927159251466,732.0195945297304,-360.52759305751601,577.21905371218634,-577.21905371218634,360.52759305751601,1437.6964641054096,0.0
618204.59901257406,4027374.0504322448,-37500.0,-36.529221892854473,-79.527465663009963,974.97801623685143,-24.482914266412969,634.01476879590189,306.57375607932948,723.62840196193213,-349.29067917196886,490.12091159967912,-490.12091159967912,349.29067917196886,1421.4470354011376,0.0
623204.59901257406,4027374.0504322448,-37500.0,-25.228916223562255,-172.62394083609286,924.92596684486637,-76.64687010500721,607.81283755696541,295.61389453318606,705.04991583598166,-316.74945620262542,385.89738594622361,-385.89738594622361,316.74945620262542,1384.2740650363742,0.0
628204.59901257406,4027374.0504322448,-37500.0,0.24715571530019464,-256.11343134881116,846.29553577085517,-124.15758683595936,566.20477450180545,278.08490895054689,677.58329698439582,-264.88427716202244,270.99349249603716,-270.99349249603716,264.88427716202244,1327.6741413987763,0.0
633204.59901257406,4027374.0504322448,-37500.0,37.185888142379341,-324.38364104809926,743.50197828635737,-164.17317969680579,511.35578460193619,254.85056942878128,643.00025694302565,-197.62569930448723,152.80613987048253,-152.80613987048253,197.62569930448723,1254.3951609835194,0.0
638204.59901257406,4027374.0504322448,-37500.0,81.598944135263167,-373.32283812074604,622.83124351204026,-194.55209700378913,446.3802693454528,227.16421167027241,603.17347989051871,-120.35644842491374,38.791998580652944,-38.791998580652944,120.35644842491374,1168.2313293435943,0.0
643204.59901257406,4027374.0504322448,-37500.0,128.80941130918552,-400.76586639172075,491.67521518556902,-214.07278527210772,374.98137003022475,196.52823537010067,560.01479836772569,-39.186063906108132,-64.412824664567154,64.412824664567154,39.186063906108132,1073.7033948025155,0.0
648204.59901257406,4027374.0504322448,-37500.0,174.12258346754209,-406.61623533275065,357.65132997823679,-222.5060422511273,301.02995269099267,164.52818516842802,515.5060616614893,39.849893737156506,-151.69321234603285,151.69321234603285,-39.849893737156506,975.66895176725347,0.0
653204.59901257406,4027374.0504322448,-37500.0,213.43994705626608,-392.64784485614905,227.7750482409709,-220.53904266886369,228.16121132364893,132.67161201280163,471.59479000316219,111.5056962456452,-219.86097222414566,219.86097222414566,-111.5056962456452,878.91345115403362,0.0
658204.59901257406,4027374.0504322448,-37500.0,243.70375994423452,-362.06161476736418,107.82338250421893,-209.58229929181718,159.45440965754892,102.25754079832389,430.01572872075423,171.83270876790479,-267.73049603181403,267.73049603181403,-171.83270876790479,787.76134057835395,0.0
663204.59901257406,4027374.0504322448,-37500.0,263.11531483380628,-318.91433627584246,1.9657207652461384,-191.51083186638661,97.234304930756394,74.292296109728795,392.12631714886714,218.41966732905837,-295.90571965464483,295.90571965464483,-218.41966732905837,705.72939301902773,0.0
668204.59901257406,4027374.0504322448,-37500.0,271.13014970554718,-267.5416644723083,-87.330178103224725,-168.39464136359763,43.001942629646344,49.455772379631057,358.79504047476695,250.37533575364677,-306.37176525249384,306.37176525249384,-250.37533575364677,635.23638106462806,0.0
673204.59901257406,4027374.0504322448,-37500.0,268.27985390886539,-212.07055248619497,-159.16515616503432,-142.26321360451311,-2.523920857457302,28.111865625517687,330.35985381274077,268.11387779277305,-302.00237496906851,302.00237496906851,-268.11387779277305,577.39815129776514,0.0
678204.59901257406,4027374.0504322448,-37500.0,255.89214151515691,-156.07441322618783,-213.92598839608786,-114.93085695346568,-39.288468824250238,10.350613639752639,306.66505188115536,273.02606026139279,-286.08071676703514,286.08071676703514,-273.02606026139279,531.97328884282092,0.0
573204.59901257406,4032374.0504322448,-37500.0,312.786638929795,410.17493163382727,418.62362916655832,282.48776850036961,350.95600455888086,197.95983059224699,544.63267117372129,57.0963081442072,511.8396751761378,-511.8396751761378,-57.0963081442072,1072.4636969592507,0.0
578204.59901257406,4032374.0504322448,-37500.0,278.32947243855187,424.96241564790864,522.86849010738899,287.1171449080569,414.60850373454173,227.69171254548743,596.38504782917084,-4.6050698528726457,587.76766629538565,-587.76766629538565,4.6050698528726457,1174.5360721995705,0.0
583204.59901257406,4032374.0504322448,-37500.0,234.72148837341626,425.15671352088771,632.97950596247551,283.29920113828973,480.69675303898487,258.25249251558029,648.02941156021325,-73.877840389040443,656.8269668533685,-656.8269668533685,73.877840389040443,1275.1665993380873,0.0
588204.59901257406,4032374.0504322448,-37500.0,183.97528009765921,407.57742380930335,744.37875554388484,269.47257998025583,546.60708718641911,288.47581163641007,697.42818150310347,-147.44470724941544,713.58296536825787,-713.58296536825787,147.44470724941544,1370.7488325334418,0.0
593204.59901257406,4032374.0504322448,-37500.0,129.27953920230181,369.85938893242457,851.11677050095739,244.53001687038869,609.03892295802109,316.91145891240041,742.23052755696267,-220.76348176027994,752.29089308205494,-752.29089308205494,220.76348176027994,1457.1797897260697,0.0
598204.59901257406,4032374.0504322448,-37500.0,74.882155038070835,311.00193942853662,946.15623828934872,208.08591177190641,664.16560435297254,341.89620352158676,780.02719293771827,-288.25218472608537,767.51232767675754,-767.51232767675754,288.25218472608537,1530.0935654268471,0.0
603204.59901257406,4032374.0504322448,-37500.0,25.744658869410848,231.86978637129323,1021.9212554379878,160.71491031741778,707.92529370588613,361.67770971165135,808.51302529183704,-343.76838033061483,754.87926204243388,-754.87926204243388,343.76838033061483,1585.1887862436179,0.0
608204.59901257406,4032374.0504322448,-37500.0,-13.033718762530029,135.52281666436818,1071.1047795725906,104.10364778070139,736.43710490590081,374.58929790561336,825.70530337957962,-381.33186128531571,711.90395149649999,-711.90395149649999,381.33186128531571,1618.6419276086801,0.0
613204.59901257406,4032374.0504322448,-37500.0,-36.961171848368259,27.24501516120349,1087.6411751406249,41.054953006850944,746.49403956782351,379.25530791948449,830.2032453786735,-396.00395598490223,638.66879502387997,-638.66879502387997,396.00395598490223,1627.5539991854403,0.0
618204.59901257406,4032374.0504322448,-37500.0,-42.937175627543851,-85.815522596890034,1067.6841880747734,-24.695573795241437,736.05499525324308,374.79547554142175,821.45877468388255,-384.766547638585,538.21522364351404,-538.21522364351404,384.766547638585,1610.3698235570303,0.0
623204.59901257406,4032374.0504322448,-37500.0,-29.896995968735684,-195.40112441626547,1010.3771123789411,-88.85208307875817,704.63124298628543,360.98568684462174,799.98894862096938,-347.19722695123068,416.47851816236863,-416.47851816236863,347.19722695123068,1567.1881826821655,0.0
628204.59901257406,4032374.0504322448,-37500.0,0.85963612633546593,-293.19126911189795,918.21891413056255,-147.07142543944124,653.47438080620338,338.33786953940319,767.38115427341427,-285.75242035837442,281.71145129087182,-281.71145129087182,285.75242035837442,1499.9034925370843,0.0
633204.59901257406,4032374.0504322448,-37500.0,45.770770935663712,-371.94053370638539,796.89238512578947,-195.52203257871577,585.49798230769943,308.07056664890331,725.92917345695184,-205.54437151702334,143.46326676726218,-143.46326676726218,205.54437151702334,1412.1244122061591,0.0
638204.59901257406,4032374.0504322448,-37500.0,99.548010743813535,-426.46179946000728,654.56505683804073,-231.37294331314013,504.93893222090708,271.972737423838,678.15750279438862,-113.63306903286914,11.315851409138716,-11.315851409138716,113.63306903286914,1308.8830494187091,0.0
643204.59901257406,4032374.0504322448,-37500.0,156.02783883232479,-454.23904582383273,500.79762496189244,-253.11008013579507,416.81927475378842,232.18389511705041,626.65228779115432,-17.982496663531812,-106.356048414779,106.356048414779,17.982496663531812,1196.1680637642944,0.0
648204.59901257406,4032374.0504322448,-37500.0,209.1345454736597,-455.55417130338367,345.30029515216336,-260.62205972101941,326.3233178674044,190.93655564282253,574.03312217583721,73.678312121840975,-203.34033175488139,203.34033175488139,-73.678312121840975,1080.3570370552231,0.0
653204.59901257406,4032374.0504322448,-37500.0,253.73472670437013,-433.14459730218289,196.79555708936408,-255.05884019112568,238.21518504087808,150.31171403575155,522.79599081441893,154.84142764871953,-276.09134669216837,276.09134669216837,-154.84142764871953,967.62428332115689,0.0
658204.59901257406,4032374.0504322448,-37500.0,286.21653285192542,-391.52175097361965,62.18991742154779,-238.51995820683865,156.39788740246271,112.04909307721044,475.07309097940026,220.87241645736844,-323.74504963835454,323.74504963835454,-220.87241645736844,863.38180015862565,0.0
663204.59901257406,4032374.0504322448,-37500.0,304.72219650674231,-336.13984713722795,-53.847310531980384,-213.65909298592467,83.667302619418564,77.435569390376401,432.41901639172363,269.25816438991058,-347.7299942630242,347.7299942630242,-269.25816438991058,771.78657382217136,0.0
668204.59901257406,4032374.0504322448,-37500.0,309.05918141051797,-272.59930585908228,-148.91061544415717,-183.2925707174515,21.661866036807083,47.274009316767497,395.68213887803734,299.48754267135246,-351.1323247731732,351.1323247731732,-299.48754267135246,695.34557056309177,0.0
673204.59901257406,4032374.0504322448,-37500.0,300.38227040675048,-206.01613535227705,-222.5823732538951,-150.07699383309188,-29.031222230545964,21.91823093177797,364.9895122337316,312.67435477143505,-337.98621239858147,337.98621239858147,-312.67435477143505,634.69133011763051,0.0
678204.59901257406,4032374.0504322448,-37500.0,280.76273356253745,-140.61790053124608,-275.98118919367954,-116.28953406864458,-68.671835213533654,1.3511615256924694,339.85257635401479,311.05568238906142,-312.62810132737923,312.62810132737923,-311.05568238906142,588.65213780359716,0.0
683204.59901257406,4032374.0504322448,-37500.0,252.74954806849033,-79.563994040026159,-311.2558296619124,-83.714864577109097,-98.123529173855886,-14.717509093815819,319.36911705893988,297.48371997315405,-279.19807423253587,279.19807423253587,-297.48371997315405,554.6966181612305,0.0
568204.59901257406,4037374.0504322448,-37500.0,392.38175883259265,407.44571940645216,290.43147091936999,308.84657482632031,301.86149533673046,190.63108650854147,532.7975667379369,159.18868221996985,424.78126496609372,-424.78126496609372,-159.18868221996985,1043.1128443717037,0.0
573204.59901257406,4037374.0504322448,-37500.0,369.55352937783948,443.18100382556736,393.89030386466413,326.29704777254176,370.91939086817911,225.28119007121262,590.89477969234645,104.67179887924647,515.10107665842702,-515.10107665842702,-104.67179887924647,1160.3012496953647,0.0
578204.59901257406,4037374.0504322448,-37500.0,334.08592518325628,467.38654705041637,509.71978375972628,336.28104541864582,446.39854215352915,262.63983207146532,651.69887498907497,37.578167079642071,605.21438674527951,-605.21438674527951,-37.578167079642071,1280.9841928915164,0.0
583204.59901257406,4037374.0504322448,-37500.0,286.54845742731368,475.52870534376569,634.71824596727163,336.37085011557213,526.21731515052954,301.68834027939766,713.39450025578537,-40.235759947215456,689.61330087908277,-689.61330087908277,40.235759947215456,1401.6821506413185,0.0
588204.59901257406,4037374.0504322448,-37500.0,228.93256738190198,463.23974450625462,763.82878678195493,324.29079938624102,607.28357028905816,340.96044364186758,773.4381876961645,-125.25319997082602,761.65021348884659,-761.65021348884659,125.25319997082602,1518.020974067339,0.0
593204.59901257406,4037374.0504322448,-37500.0,164.83034142681882,426.96816038823908,890.09285715728311,298.25936490063225,685.49519450448997,378.54884848092087,828.86133525556261,-212.20095390851964,814.00172145760814,-814.00172145760814,212.20095390851964,1624.8605036038884,0.0
598204.59901257406,4037374.0504322448,-37500.0,99.377573570417283,364.7438062534564,1004.905067700385,257.38190122196903,755.90120449196468,412.18202088059542,876.51910226982352,-294.23759323560705,839.43144851169325,-839.43144851169325,294.23759323560705,1716.5616773785671,0.0
603204.59901257406,4037374.0504322448,-37500.0,38.873830495600053,276.93547933867296,1098.6598410955646,202.03136310080657,813.06745305228742,439.38936557375115,913.32608494929821,-363.51120543334468,831.81919857360344,-831.81919857360344,363.51120543334468,1787.4182959833654,0.0
608204.59901257406,4037374.0504322448,-37500.0,-9.9536020776549776,166.81361401516116,1161.7896398308444,134.12321639337472,851.64156710240184,457.7514530992047,936.55210853531241,-412.09624502670715,787.3121551436501,-787.3121551436501,412.09624502670715,1832.2192934869224,0.0
613204.59901257406,4037374.0504322448,-37500.0,-40.977512264094393,40.713554922547573,1186.1006694116911,57.184432872331215,867.06579205418518,465.21248234129524,944.1846563874534,-433.21419198162982,705.37166757468833,-705.37166757468833,433.21419198162982,1846.8910900278447,0.0
618204.59901257406,4037374.0504322448,-37500.0,-49.810115062472512,-92.362917565549097,1166.1782126880212,-23.86149354423176,856.31948492505376,460.40428411116523,935.31071514366079,-422.51561276292523,589.42898040050898,-589.42898040050898,422.51561276292523,1829.1204474657372,0.0
623204.59901257406,4037374.0504322448,-37500.0,-34.782364874191643,-221.748812300276,1100.5443055350024,-103.21172254360718,818.52954530061788,442.91305882670019,910.42580822433536,-379.11325251013056,446.89503716393392,-446.89503716393392,379.11325251013056,1778.8385669807906,0.0
628204.59901257406,4037374.0504322448,-37500.0,2.524802645281409,-336.58165763099606,992.24273646818642,-174.93668330179415,755.28422411203587,413.41874481572955,871.48415409653444,-306.05489126963818,288.40232067816493,-288.40232067816493,306.05489126963818,1698.4520189308005,0.0
633204.59901257406,4037374.0504322448,-37500.0,57.394549613118791,-427.43862692404599,848.63794063918544,-233.81913902899723,670.54107290030811,373.66028604195242,821.49450252014469,-210.04253715451705,126.36878973998995,-126.36878973998995,210.04253715451705,1592.7487077853209,0.0
638204.59901257406,4037374.0504322448,-37500.0,122.75086072865082,-487.74962090161938,680.41732236578628,-276.08952778564884,570.12083919989084,326.22199729059986,763.8913884329022,-100.41220989377811,-26.815635674759214,26.815635674759214,100.41220989377811,1468.472686526582,0.0
643204.59901257406,4037374.0504322448,-37500.0,190.40979352272294,-514.64510839782884,500.01755459214826,-299.88605377220512,460.89430815882139,274.18483165579045,702.19762445160109,12.385624203168604,-160.55189617510757,160.55189617510757,-12.385624203168604,1333.6349609818151,0.0
648204.59901257406,4037374.0504322448,-37500.0,252.47670822332478,-509.06538524875242,319.85147828015516,-305.3487662292419,349.84931228267624,220.720735438773,639.89363101472713,118.42218690556697,-267.34092434081651,267.34092434081651,-118.42218690556697,1196.6734237938606,0.0
653204.59901257406,4037374.0504322448,-37500.0,302.54074283475495,-475.17632795275551,150.74000991089929,-294.3612169447203,243.24344865480987,168.71760111541371,580.17760544456155,209.65329032126454,-343.39148827789131,343.39148827789131,-209.65329032126454,1065.5810512507555,0.0
658204.59901257406,4037374.0504322448,-37500.0,336.41900806464992,-419.31916520513943,0.846212509253778,-270.04464125435408,145.99991284763775,120.50365506794753,525.6390729265529,280.74434137853586,-388.50133600985305,388.50133600985305,-280.74434137853586,947.0898360547734,0.0
663204.59901257406,4037374.0504322448,-37500.0,352.36822703787647,-348.80103699317272,-124.77086335087253,-236.15213858863081,61.416409801400484,77.704230621956398,477.98505654490293,329.28135406366812,-405.37704081017262,405.37704081017262,-329.28135406366812,845.96395146182613,0.0
668204.59901257406,4037374.0504322448,-37500.0,350.83673062373998,-270.80370211418585,-224.03984228435419,-196.50180389746649,-8.8303064340046689,41.227012155654023,437.90955113893227,355.46288609691032,-398.6578138908003,398.6578138908003,-355.46288609691032,764.48061645325367,0.0
673204.59901257406,4037374.0504322448,-37500.0,333.92357237072167,-191.58647060513226,-297.3681713244344,-154.54244365492664,-64.462232311225037,11.345169181768139,405.14914286424084,361.46699686909318,-373.90622549882011,373.90622549882011,-361.46699686909318,702.26588643261982,0.0
678204.59901257406,4037374.0504322448,-37500.0,304.73019700224847,-116.04109061157124,-346.94394039807895,-113.08899672905537,-106.26035297129563,-12.163212724500548,378.71662013874891,350.70294594005935,-336.75602081459971,336.75602081459971,-350.70294594005935,656.67886410973585,0.0
683204.59901257406,4037374.0504322448,-37500.0,266.75377752613457,-47.563160403507332,-376.02281686529182,-74.218132255428827,-135.69770671769214,-29.858322399793344,357.24043567367869,327.11354577787273,-292.31086470359247,292.31086470359247,-327.11354577787273,623.72953405199326,0.0
688204.59901257406,4037374.0504322448,-37500.0,223.41103446133476,11.845732078177008,-388.31532429811665,-39.286884660319011,-154.60896660045762,-42.493023347739033,339.29842363451564,294.62570595407425,-244.80464895185565,244.80464895185565,-294.62570595407425,599.18004354421623,0.0
693204.59901257406,4037374.0504322448,-37500.0,177.72299682117259,61.342413497961083,-387.52776646204427,-9.0283893919252254,-164.93003032340974,-50.894576159982947,323.65439018366999,256.78191575223087,-197.48061664896221,197.48061664896221,-256.78191575223087,579.38512034245616,0.0
563204.59901257406,4042374.0504322448,-37500.0,459.53843999252666,371.23352578835005,150.91983919316689,318.71205560472782,237.10030617206382,174.23680540481936,510.30821789928018,258.56876099522708,306.66033287236655,-306.66033287236655,-258.56876099522708,987.63244829102564,0.0
568204.59901257406,4042374.0504322448,-37500.0,454.58614097881048,425.09702952507348,243.9534577643858,349.36797830652802,306.52939922093788,212.08106272677989,572.22735999309293,219.31227810670646,402.69742113663688,-402.69742113663688,-219.31227810670646,1114.572819057654,0.0
573204.59901257406,4042374.0504322448,-37500.0,435.30897266781324,472.61078536951163,354.47736705141853,374.918904037657,386.2041140392239,254.71025639506743,639.26835676323344,164.10257168986431,505.80946974368538,-505.80946974368538,-164.10257168986431,1250.5150262339594,0.0
578204.59901257406,4042374.0504322448,-37500.0,400.39609192858245,508.66558132061533,481.41776077582449,392.37327517402304,475.09881621801236,301.51958474677843,710.48194067337613,92.738285576511885,611.52870758893778,-611.52870758893778,-92.738285576511885,1392.6956780665612,0.0
583204.59901257406,4042374.0504322448,-37500.0,349.81921995794664,527.49588571321658,621.76378512170606,398.44853968002184,571.0279796471973,351.34991972267051,783.99494218236191,6.6680810547653095,713.56818984061397,-713.56818984061397,-6.6680810547653095,1537.1396258487321,0.0
588204.59901257406,4042374.0504322448,-37500.0,285.32582594414964,523.22252865090286,770.13217927659082,389.88734637385375,670.42797526909601,402.39447432855542,856.87793889455281,-90.541896817817189,803.9304869865457,-803.9304869865457,90.541896817817189,1678.6094025336504,0.0
593204.59901257406,4042374.0504322448,-37500.0,210.80199295603106,490.67514685117038,918.54993105050232,363.91690205975817,768.27037249554928,452.16840604612219,925.43731470188368,-192.93215333394619,873.3831333579692,-873.3831333579692,192.93215333394619,1810.7040724108122,0.0
598204.59901257406,4042374.0504322448,-37500.0,132.34698624432329,426.44228686105293,1056.6237472543096,318.81957057766613,858.19622196239254,497.58120916452884,985.58828771988613,-292.23480992165884,912.37962866806811,-912.37962866806811,292.23480992165884,1926.163325877626,0.0
603204.59901257406,4042374.0504322448,-37500.0,57.899810984678759,329.99303968822363,1172.2489589731135,254.52868740534237,932.94865597460614,535.1454166155105,1033.1966413931384,-378.47625413290734,912.41298005872773,-912.41298005872773,378.47625413290734,2017.4091103739715,0.0
608204.59901257406,4042374.0504322448,-37500.0,-3.675103079378661,204.60769261287581,1252.9226412636797,173.11098017802772,985.13164396211312,561.33219812796403,1064.4895717916372,-441.16705528902691,867.64373362462379,-867.64373362462379,441.16705528902691,2077.3137623097136,0.0
613204.59901257406,4042374.0504322448,-37500.0,-43.994942395444959,57.791288498795211,1287.5640052447388,78.967456742582883,1008.2367885964497,573.04637958747321,1076.5658742111393,-470.98526622805434,776.48005503459785,-776.48005503459785,470.98526622805434,2100.1222995613975,0.0
618204.59901257406,4042374.0504322448,-37500.0,-56.818583917575474,-99.119804595709255,1268.5383171672311,-21.394578746043486,997.77082100324981,568.14485387379455,1067.9464904641995,-461.65119792126472,642.66916917501283,-642.66916917501283,461.65119792126472,2082.3875319814001,0.0
623204.59901257406,4042374.0504322448,-37500.0,-39.545853935680739,-252.27640072687458,1193.4029256823105,-120.07615105780678,952.22521217240387,545.8823103992371,1039.034863878599,-411.51704670115589,475.46858562239663,-475.46858562239663,411.51704670115589,2023.726623170071,0.0
628204.59901257406,4042374.0504322448,-37500.0,5.9163693942564501,-387.39335808546366,1065.8538412987691,-208.90053251153111,873.61052941565822,507.16073132133295,992.25469763739864,-324.36057036350348,288.66077754887021,-288.66077754887021,324.36057036350348,1927.2132428349378,0.0
633204.59901257406,4042374.0504322448,-37500.0,73.266762887677032,-492.12550368390401,895.49540321453469,-280.69068973321447,767.35100780728692,454.48959844456965,931.5978225401451,-209.03710017052205,98.509863623786003,-98.509863623786003,209.03710017052205,1799.2624836771333,0.0
638204.59901257406,4042374.0504322448,-37500.0,152.94892226997305,-558.12465446895533,696.41184855082895,-330.39211921775853,641.52663474046449,391.65062599131898,861.78495770992231,-77.996062125812301,-78.866309261883004,78.866309261883004,77.996062125812301,1649.0180246239727,0.0
643204.59901257406,4042374.0504322448,-37500.0,234.016136918283,-582.21870169552881,484.8638610405265,-355.74857253846943,505.61939990916767,323.13096775586331,787.65308582469481,54.9628970619261,-230.03242185793906,230.03242185793906,-54.9628970619261,1487.3035010939934,0.0
648204.59901257406,4042374.0504322448,-37500.0,306.18011841666709,-566.45475196158759,276.7436485748384,-357.38731836227691,369.10234522559182,253.47685812080624,713.84949847325856,177.06119092279329,-346.03097135815432,346.03097135815432,-177.06119092279329,1325.3650098223975,0.0
653204.59901257406,4042374.0504322448,-37500.0,361.48515119501195,-517.10956820309525,85.408883245087665,-338.35231514867291,240.19932114251259,186.71293928964189,644.46030915221718,278.42734785813946,-423.08018695733688,423.08018695733688,-278.42734785813946,1173.5646115524328,0.0
658204.59901257406,4042374.0504322448,-37500.0,395.24036787766323,-443.06660655581044,-79.663511866706898,-303.27860650807969,125.06437085150246,125.94287624671364,582.56364787525536,353.10995790240372,-462.18605461584286,462.18605461584286,-353.10995790240372,1040.1660896292237,0.0
663204.59901257406,4042374.0504322448,-37500.0,406.13369223441316,-354.06111077481432,-213.27996772448955,-257.46324774459208,27.467419034427063,73.176932315292945,529.89344765526846,399.15898288388547,-467.98667721109285,467.98667721109285,-399.15898288388547,930.32181554667739,0.0
668204.59901257406,4042374.0504322448,-37500.0,395.69746275077654,-259.20474528044326,-314.14185446650714,-206.05086905660369,-51.077125611524465,29.363885773231239,486.75168725125957,417.9846215432741,-447.27049348420337,447.27049348420337,-417.9846215432741,845.4542979132616,0.0
673204.59901257406,4042374.0504322448,-37500.0,367.4201426453227,-166.01379831839373,-383.96901684808472,-153.46330749893772,-110.88781489775697,-5.4352142172853686,452.22174304609325,413.33051590786539,-407.5649054018341,407.5649054018341,-413.33051590786539,783.37113768633446,0.0
678204.59901257406,4042374.0504322448,-37500.0,325.79330250365285,-79.971010186973217,-426.45293111166029,-103.10405861110914,-153.56728383274003,-31.805586373967589,424.61997835414593,390.18389747266002,-356.04450554284455,356.04450554284455,-390.18389747266002,739.30717845848244,0.0
683204.59901257406,4042374.0504322448,-37500.0,275.49734703986974,-4.5198280555875598,-446.28104927442797,-57.297174113209763,-181.46211900647805,-50.731937366986941,402.01846213237036,353.84609128374416,-298.84675848694189,298.84675848694189,-353.84609128374416,707.5450774224247,0.0
688204.59901257406,4042374.0504322448,-37500.0,220.82379277055594,58.663356836778647,-448.36742313931705,-17.387370278749327,-197.21400646874204,-63.386454639407752,382.66135027517026,309.26882575520506,-240.7636089182181,240.7636089182181,-309.26882575520506,682.87082997409971,0.0
693204.59901257406,4042374.0504322448,-37500.0,165.3442785670621,109.26766073418973,-437.33015963271748,16.074438130140372,-203.43482063375333,-70.969602101036514,365.18691328240328,260.66579859038177,-185.21481883426216,185.21481883426216,-260.66579859038177,661.3554262685135,0.0
698204.59901257406,4042374.0504322448,-37500.0,111.78466378316759,147.92796071838862,-417.19446704881801,43.120458183307704,-202.50289043926503,-74.605221906155279,348.67377557794612,211.35288206073596,-134.39571178298155,134.39571178298155,-211.35288206073596,640.47808623927176,0.0
558204.59901257406,4047374.0504322448,-37500.0,502.72510775740892,302.48524456016565,13.798104171403972,308.71276747528884,161.71053150851304,149.29719511298288,479.17340798437721,342.04125180338309,167.79817899461932,-167.79817899461932,-342.04125180338309,911.05105778864731,0.0
563204.59901257406,4047374.0504322448,-37500.0,519.7286349374823,368.26573250802284,87.848978252247846,350.94728159233347,225.89986441509143,187.92445545878167,542.01347317299701,324.42661843737369,259.12989725628006,-259.12989725628006,-324.42661843737369,1040.5564641462429,0.0
568204.59901257406,4047374.0504322448,-37500.0,523.28854023231099,434.05906034297436,181.95426449311194,391.58067453109913,303.23003964750131,233.26816012616689,612.02575083196211,290.14229955469352,363.91102083594137,-363.91102083594137,-290.14229955469352,1184.35655978604,0.0
573204.59901257406,4047374.0504322448,-37500.0,510.2828938764045,495.23509620315548,297.41920609308829,427.59305947268467,394.08163423115025,285.37598832984099,688.95501858303817,236.81235274656825,479.68529159919166,-479.68529159919166,-236.81235274656825,1340.9703318094812,0.0
578204.59901257406,4047374.0504322448,-37500.0,478.31332517775905,545.78278931068007,434.02277822033187,455.21272868433954,497.79750195887323,343.75137181647011,771.97748825205247,163.21750160241376,601.9202761854732,-601.9202761854732,-163.21750160241376,1507.5835806314728,0.0
583204.59901257406,4047374.0504322448,-37500.0,426.38208876573771,578.53455890465216,589.29380344998276,470.08148855409905,612.26533137955903,407.15421234223487,859.23965001812212,70.020488594129461,723.67028391300857,-723.67028391300857,-70.020488594129461,1679.787313186906,0.0
588204.59901257406,4047374.0504322448,-37500.0,355.63601170777514,585.74532366040285,757.80890010855808,467.62154849074574,733.53244683814717,473.42288073801581,947.4832298569703,-39.494599972591061,835.52369622367246,-835.52369622367246,39.494599972591061,1851.4205722765466,0.0
593204.59901257406,4047374.0504322448,-37500.0,270.01520706674006,560.09332856134859,930.70060969072006,443.63338271659484,855.56185657903131,539.36952920191857,1032.207863264864,-158.85730846634476,926.02030738955648,-926.02030738955648,158.85730846634476,2014.597254912826,0.0
598204.59901257406,4047374.0504322448,-37500.0,176.57273412427324,496.0826944179052,1095.6306972371883,395.10569158683541,970.27494767639587,600.81796667715287,1108.1502631499511,-278.27679587190755,982.70370888620505,-982.70370888620505,278.27679587190755,2160.0151993807158,0.0
603204.59901257406,4047374.0504322448,-37500.0,85.195821720268,391.67284992177719,1237.4930005065817,321.13343416360419,1068.0248112880195,652.85028027019041,1169.7784240821361,-385.21271076980531,993.86128586337156,-993.86128586337156,385.21271076980531,2277.6188543584399,0.0
608204.59901257406,4047374.0504322448,-37500.0,7.5220419580685567,249.7759340986666,1340.0196818470333,223.74261207367485,1138.5891797712745,690.30194480731564,1211.8669818508736,-465.83354533776674,950.79652544441728,-950.79652544441728,465.83354533776674,2357.6339896065624,0.0
613204.59901257406,4047374.0504322448,-37500.0,-44.962049761382239,79.115059961995996,1388.2346823825089,108.34475320209116,1172.6394973423508,708.48121714857461,1230.2219229491188,-507.31273911505497,850.19947003895027,-850.19947003895027,507.31273911505497,2391.8906138133298,0.0
618204.59901257406,4047374.0504322448,-37500.0,-63.339049624319784,-106.06405719406258,1371.363212634395,-16.451278667603887,1163.4571405519926,704.00308541859772,1222.4871359097963,-500.56898323215148,695.94202352740069,-695.94202352740069,500.56898323215148,2375.2337309345035,0.0
623204.59901257406,4047374.0504322448,-37500.0,-43.571561692207936,-287.70296705468223,1285.479800224683,-139.81450315162024,1108.4886293686975,675.54404668601398,1188.8491450208055,-442.72723783903433,499.57485427290425,-499.57485427290425,442.72723783903433,2306.7222641847106,0.0
628204.59901257406,4047374.0504322448,-37500.0,12.074030256367973,-446.8813546588537,1135.0407031343425,-250.35456240613686,1010.2592174862641,624.29147540312567,1132.326564980521,-338.4519993158338,279.06397661835757,-279.06397661835757,338.4519993158338,2190.291459328671,0.0
633204.59901257406,4047374.0504322448,-37500.0,95.103472538355874,-567.31007984481187,932.65606157044454,-338.09503870339029,876.27875913477556,553.91333609884191,1058.2810231551166,-199.53910979195405,55.863430119393598,-55.863430119393598,199.53910979195405,2034.6409457190887,0.0
638204.59901257406,4047374.0504322448,-37500.0,192.48825256465125,-638.35868327199682,697.00369601369687,-396.21284748116244,717.87491017581476,470.01357064588251,973.26353732791563,-42.725516929423001,-148.94609618885809,148.94609618885809,42.725516929423001,1852.3047192533024,0.0
643204.59901257406,4047374.0504322448,-37500.0,289.48377643733699,-656.70962039095298,449.43921560311821,-422.04425776129796,548.24884436335435,379.2057635956736,883.9782342028841,113.66100096624585,-318.33710143478504,318.33710143478504,-113.66100096624585,1658.0655254684068,0.0
648204.59901257406,4047374.0504322448,-37500.0,372.66515024028047,-626.23019775505929,210.30211817845759,-417.11564578777086,380.30407642455867,288.06010835691211,796.65761894803165,253.17443127592685,-441.79899516799219,441.79899516799219,-253.17443127592685,1467.0125341740513,0.0
653204.59901257406,4047374.0504322448,-37500.0,432.27240642178083,-556.30258188618723,-4.0669362316394286,-386.30272673363413,224.82636549279798,202.19850416886788,716.48144279412872,363.85283268226436,-516.06037222706686,516.06037222706686,-363.85283268226436,1292.5492210827788,0.0
658204.59901257406,4047374.0504322448,-37500.0,463.32625051781406,-459.31354426606242,-182.97100203926723,-336.47765189021925,89.390873065177544,125.72292237267015,646.9701142194956,439.39721816593897,-544.19051484321369,544.19051484321369,-439.39721816593897,1144.558715605566,0.0
663204.59901257406,4047374.0504322448,-37500.0,465.4901925489674,-348.12351819727979,-321.57127999414104,-275.08567661116797,-21.912488383171542,61.033346428207757,589.61108541347528,478.9426410534262,-533.67813633255457,533.67813633255457,-478.9426410534262,1027.981280318463,0.0
668204.59901257406,4047374.0504322448,-37500.0,442.03961575233893,-234.1140480025752,-420.01377863215549,-208.99121357661704,-108.09853499514713,8.9687405082785769,543.92309405201308,485.84998237680918,-494.21616349260626,494.21616349260626,-485.84998237680918,942.26972997051575,0.0
673204.59901257406,4047374.0504322448,-37500.0,398.44725355227592,-126.07171051114106,-481.99207512997043,-143.75998801615265,-170.52861756455636,-30.853778223922507,507.98465306236761,466.09088788537184,-435.77513949072551,435.77513949072551,-466.09088788537184,882.28245727611818,0.0
678204.59901257406,4047374.0504322448,-37500.0,341.02073128045919,-29.856828237982516,-513.22740917305418,-83.37473169052069,-212.04884835256206,-59.631729922485412,479.2190556807393,426.70509941646452,-367.26478735362554,367.26478735362554,-426.70509941646452,840.49279037905103,0.0
683204.59901257406,4047374.0504322448,-37500.0,275.85269466910205,51.363823934255073,-520.18217545814503,-30.282023198344323,-236.21771184003148,-78.997976436590321,455.11638818954532,374.61132983837177,-295.82723527546506,295.82723527546506,-374.61132983837177,809.43137913581086,0.0
688204.59901257406,4047374.0504322448,-37500.0,208.16655535890615,116.58005259096883,-509.14222568012639,14.364247262905902,-246.71945036689118,-90.721431923490641,433.67186585799772,315.85804293031345,-226.64415613161387,226.64415613161387,-315.85804293031345,783.24588784450725,0.0
693204.59901257406,4047374.0504322448,-37500.0,142.01958578469549,166.31063143441031,-485.66949957180753,50.381149439509834,-246.98153183278239,-96.502393428436818,413.51929756979911,255.26960042290153,-163.08204797225693,163.08204797225693,-255.26960042290153,758.1297842150758,0.0
698204.59901257406,4047374.0504322448,-37500.0,80.268761194891283,202.02276831386965,-454.35457134233815,78.23853812407539,-239.96881451202592,-97.853563850164122,393.86532949558364,196.38345272365777,-107.01091032691349,107.01091032691349,-196.38345272365777,732.03812637573685,0.0
703204.59901257406,4047374.0504322448,-37500.0,24.696554667848062,225.66560162960403,-418.77689022747421,98.789179974899341,-228.10845201946617,-96.047178621083773,374.34344610420828,141.56624249424294,-59.174472315021156,59.174472315021156,-141.56624249424294,704.16922772139947,0.0
553204.59901257406,4052374.0504322448,-37500.0,512.4668924473749,207.53473713568718,-107.19529219636387,277.96492613607904,82.490040062165122,117.47313824601213,443.15284451211306,397.49221942667248,22.498018585626909,-22.498018585626909,-397.49221942667248,822.59219437963634,0.0
558204.59901257406,4052374.0504322448,-37500.0,551.99015295156983,276.68233486895252,-57.777494702745216,328.16828126870195,136.27351514303598,154.12235107969926,503.65400910829135,404.51382759972262,99.037401127740708,-99.037401127740708,-404.51382759972262,946.55294454875184,0.0
563204.59901257406,4052374.0504322448,-37500.0,581.61505418845366,352.00257851658307,11.143018286860402,380.81571222120061,204.53075782869468,198.89943583569337,572.89844666105409,397.17910006121446,193.05777864675161,-193.05777864675161,-397.17910006121446,1088.9714362040631,0.0
568204.59901257406,4052374.0504322448,-37500.0,597.05150356650108,430.32606498739915,102.86067570859426,433.48532960478974,289.07550199903682,252.62905705846109,651.28316220908084,371.46539421978531,304.57468160895661,-304.57468160895661,-371.46539421978531,1250.0420309586136,0.0
573204.59901257406,4052374.0504322448,-37500.0,593.91018228919665,506.74478282809929,219.93314266896272,482.68576284575357,391.07809580912357,315.74594776327518,738.83552521090633,323.66236801136807,431.81861450358605,-431.81861450358605,-323.66236801136807,1428.7619897567954,0.0
578204.59901257406,4052374.0504322448,-37500.0,568.32775504381959,574.4262250963485,363.40237739486957,523.78738740627796,510.55908502108144,388.02967195666099,834.97207962121115,251.11002115288525,570.54807786881508,-570.54807786881508,-251.11002115288525,1622.5048659862778,0.0
583204.59901257406,4052374.0504322448,-37500.0,517.8461406972981,624.70549971548883,531.81973386081359,551.13151959562026,645.77966467187218,468.29250080406445,937.97987583949111,153.16812694739247,713.43324191961233,-713.43324191961233,-153.16812694739247,1826.5941346251566,0.0
588204.59901257406,4052374.0504322448,-37500.0,442.47922221950688,647.62917658693959,720.18953457899374,558.41519017850044,792.60837902466585,554.06349704859736,1044.3827748799849,32.315680482475955,849.7239454960303,-849.7239454960303,-32.315680482475955,2033.9673833740242,0.0
593204.59901257406,4052374.0504322448,-37500.0,345.78063910642067,633.10608567300335,919.0646216734126,539.43374647830512,944.01375996371223,641.34695538351389,1148.8397262863737,-104.84794302786975,965.48716897325482,-965.48716897325482,104.84794302786975,2235.0598922058912,0.0
598204.59901257406,4052374.0504322448,-37500.0,235.58255293965195,572.71517405789814,1114.1530916560337,489.19624182080321,1089.9000482518529,724.56384195485782,1244.6522672573885,-247.06846289326518,1044.7091218294042,-1044.7091218294042,247.06846289326518,2418.0524362297274,0.0
603204.59901257406,4052374.0504322448,-37500.0,123.97842494067477,462.01709728965955,1286.8737266892674,405.31310258557136,1217.5475507335257,796.80734484132779,1324.4489112624683,-378.81888416117926,1071.454419069787,-1071.454419069787,378.81888416117926,2569.6451683624941,0.0
608204.59901257406,4052374.0504322448,-37500.0,26.137245583668854,302.90053948234032,1416.2219923277739,289.37243517126939,1312.8577379662427,850.50666993510197,1380.9876444278889,-481.98748469588901,1032.9781232408056,-1032.9781232408056,481.98748469588901,2676.4190512779278,0.0
613204.59901257406,4052374.0504322448,-37500.0,-42.2088756237168,105.20321135113703,1482.0159896852801,147.86540716307522,1362.4294673645436,878.50833715400074,1408.1920575202316,-538.95157910242153,923.2487598702379,-923.2487598702379,538.95157910242153,2726.726865652221,0.0
618204.59901257406,4052374.0504322448,-37500.0,-68.273555806567245,-113.26545479549013,1469.0598209316574,-7.8377918983413828,1356.171720079808,875.42225105988973,1402.3497697084283,-536.5689283995456,745.87254316919427,-745.87254316919427,536.5689283995456,2712.8319725842325,0.0
623204.59901257406,4052374.0504322448,-37500.0,-45.797169235555849,-328.88453716371572,1371.164398856555,-162.78883800433118,1289.8127559045013,838.91182158158563,1363.2087602629829,-470.00217205726722,515.20746574334783,-515.20746574334783,470.00217205726722,2632.8194040844805,0.0
628204.59901257406,4052374.0504322448,-37500.0,22.592802311470482,-516.42781761607864,1193.6469859910885,-300.95877731996893,1166.4833886128586,770.51843911453591,1294.5393313899281,-344.96942400683076,254.79299489385903,-254.79299489385903,344.96942400683076,2491.740622603294,0.0
633204.59901257406,4052374.0504322448,-37500.0,125.34162744822503,-654.25436831384752,953.1581234153565,-408.33025473156653,996.67797661201234,675.66850943487782,1203.6211487672344,-177.30622683541577,-6.8821642909293104,6.8821642909293104,177.30622683541577,2301.5252008832495,0.0
638204.59901257406,4052374.0504322448,-37500.0,244.5183118153368,-728.82654472137085,674.6178893869394,-475.64023390549852,796.44659216484604,562.78284401342228,1099.6488430895567,10.303665958854936,-242.11845084365828,242.11845084365828,-10.303665958854936,2079.5767198979738,0.0
643204.59901257406,4052374.0504322448,-37500.0,360.13739677861946,-737.03287865883522,386.15529673201326,-499.888639473713,584.31724489566693,441.72358034272889,992.00048358461379,193.40271551935473,-429.40044738318466,429.40044738318466,-193.40271551935473,1846.2959707612988,0.0
648204.59901257406,4052374.0504322448,-37500.0,454.70258244149034,-685.68821940524742,113.72177694365078,-484.21503330286299,377.92536491778492,322.05844033620332,889.06037601492926,350.88479555960816,-556.75858448502186,556.75858448502186,-350.88479555960816,1622.0399545636328,0.0
653204.59901257406,4052374.0504322448,-37500.0,516.47278810830858,-588.71311664587938,-122.99359912748756,-436.3799043261144,191.33376629186111,211.63723902930047,797.28763598717183,468.55695771128342,-622.34131209233999,622.34131209233999,-468.55695771128342,1423.9969730719636,0.0
658204.59901257406,4052374.0504322448,-37500.0,540.68680565417196,-463.26057026902657,-312.45425716758928,-366.54351997631039,33.632667906576458,115.79569621058874,720.42433792706947,540.37377934630535,-632.58446347322752,632.58446347322752,-540.37377934630535,1263.3990138994066,0.0
663204.59901257406,4052374.0504322448,-37500.0,528.87697608318763,-326.10356810631919,-451.02386417288358,-285.09442873974098,-91.148832113333782,37.224633344944991,659.18396536345199,567.56161091786885,-599.07622051339308,599.07622051339308,-567.56161091786885,1143.6557957570521,0.0
668204.59901257406,4052374.0504322448,-37500.0,487.0071348873397,-191.1406916779361,-541.27016842365367,-201.05442036287138,-183.18128696366202,-23.655541397582702,611.70883707877715,556.47769044156382,-535.31295613674831,535.31295613674831,-556.47769044156382,1060.4559516320683,0.0
673204.59901257406,4052374.0504322448,-37500.0,423.28865443884655,-68.245912164576808,-589.70717312388501,-121.23917641930812,-245.53305309399983,-68.062941339199824,574.66291306860717,516.14866512101889,-454.16003117676621,454.16003117676621,-516.14866512101889,1004.3797034521803,0.0
678204.59901257406,4052374.0504322448,-37500.0,346.30242226060869,36.772165299922328,-604.67096376748759,-50.081704719511244,-282.85885641231266,-98.185531212190568,544.45188060987743,456.16714425793128,-366.32236074819212,366.32236074819212,-456.16714425793128,964.79646214705247,0.0
683204.59901257406,4052374.0504322448,-37500.0,263.72103281698708,121.52710325954676,-594.7047141261163,10.102210308633463,-300.33602550154586,-116.61566183603661,518.07733215594794,385.2562139611299,-279.74378533756237,279.74378533756237,-385.2562139611299,932.88681639229071,0.0
688204.59901257406,4052374.0504322448,-37500.0,181.64914444574987,186.13409192402901,-567.54373408313415,58.636756017981369,-302.93811390382467,-125.94526415998568,493.46836958106888,310.51370983422197,-199.66475825071365,199.66475825071365,-310.51370983422197,902.78666339622714,0.0
693204.59901257406,4052374.0504322448,-37500.0,104.44884650741194,232.29711059507324,-529.61924937971764,95.970155657088355,-295.02422025292242,-128.52054014946589,469.43158576352914,237.18821908141007,-129.04370891548848,129.04370891548848,-237.18821908141007,871.33986288601773,0.0
698204.59901257406,4052374.0504322448,-37500.0,34.873594993524257,262.55389247442019,-485.93178711844848,123.22103641533364,-280.16995389254464,-126.32452891993115,445.43313082335214,168.79465967601138,-69.110015170897015,69.110015170897015,-168.79465967601138,837.32296676264798,0.0
703204.59901257406,4052374.0504322448,-37500.0,-25.644695625849511,279.72712230183248,-440.14727531493656,141.8287923278059,-261.15740519923276,-120.94815960394537,421.3618025463997,107.40155490686027,-19.902297110411503,19.902297110411503,-107.40155490686027,800.68045178296859,0.0
553204.59901257406,4057374.0504322448,-37500.0,542.26458912843464,160.5870866533275,-177.86559449561966,281.61341022587277,46.457367291329263,113.37020009365472,462.53440994713679,446.9781602367965,-59.47707069335695,59.47707069335695,-446.9781602367965,845.83445174836675,0.0
558204.59901257406,4057374.0504322448,-37500.0,596.46417776585304,234.76131076835799,-138.57654524182556,340.96493093488516,100.07422092400428,154.11264395882958,527.19181161540905,467.83501059924686,13.009955018974495,-13.009955018974495,-467.83501059924686,977.22452551702384,0.0
563204.59901257406,4057374.0504322448,-37500.0,641.84544741085415,318.52486878931239,-78.79543074786794,405.21976417818979,170.5717385568307,205.13038400706,602.38606460799269,474.52869262774561,106.08518584290547,-106.08518584290547,-474.52869262774561,1131.1923784296066,0.0
568204.59901257406,4057374.0504322448,-37500.0,673.09137347018498,409.1177593556601,6.0033962192102672,471.94485098973126,260.7740897813963,267.85967398033404,688.98351299102228,461.83235060981769,220.94849097992471,-220.94849097992471,-461.83235060981769,1308.9045545131489,0.0
573204.59901257406,4057374.0504322448,-37500.0,684.33877100698112,501.66224336156637,119.91592849439125,537.28987904818052,372.97645237109276,343.36272993005645,787.47660952761964,424.42838498369019,356.95700038450445,-356.95700038450445,-424.42838498369019,1510.2164424683101,0.0
578204.59901257406,4057374.0504322448,-37500.0,669.85593694023578,588.73739022590235,265.70508027126874,595.76806911523272,508.29945465514504,431.96215966461415,897.714981006926,357.74598979200374,510.66857583310349,-510.66857583310349,-357.74598979200374,1733.0739504189123,0.0
583204.59901257406,4057374.0504322448,-37500.0,625.11916955140498,660.23081699899217,443.55884296442014,640.23426149380191,665.84098468916761,532.7728155196146,1018.3273469434773,259.18490511632302,674.85184532248468,-674.85184532248468,-259.18490511632302,1972.8588752591363,0.0
588204.59901257406,4057374.0504322448,-37500.0,548.2659618109725,703.72656655960031,649.59740101262537,662.21838826996145,841.69789170227682,643.17515045808909,1145.8208004361629,129.65914688416768,837.7220851588836,-837.7220851588836,-129.65914688416768,2221.7824770673028,0.0
593204.59901257406,4057374.0504322448,-37500.0,441.73651172380187,705.71247437490183,874.38838344897363,652.77901450536547,1028.0401616444824,758.33282716592839,1274.0651854945172,-24.787822160750522,982.80507765619109,-982.80507765619109,24.787822160750522,2468.5008035778251,0.0
598204.59901257406,4057374.0504322448,-37500.0,313.68572873029797,653.80633013668046,1101.948056626308,603.98314311309707,1212.5561803673195,870.92850716889382,1394.687398346809,-191.78121461233928,1089.9239340624656,-1089.9239340624656,191.78121461233928,2698.1986689423775,0.0
603204.59901257406,4057374.0504322448,-37500.0,178.50825441884203,539.92679112831581,1309.8938034050507,510.94263052202433,1378.6914694236277,971.34041885754675,1497.9376058794246,-352.52937478566474,1137.7298739301875,-1137.7298739301875,352.52937478566474,2893.395528748028,0.0
608204.59901257406,4057374.0504322448,-37500.0,55.73997912030255,363.87320649223119,1471.4358632177168,374.06070224934081,1507.1083140588009,1048.4831227455152,1573.7957266156359,-483.58707934878021,1107.8549822798477,-1107.8549822798477,483.58707934878021,3035.6899005160585,0.0
613204.59901257406,4057374.0504322448,-37500.0,-33.144065254184923,136.20751173548408,1559.5466206468641,200.80096174322182,1578.5526797226223,1091.4013956012798,1613.4468763081384,-560.84831333234911,990.07147899319216,-990.07147899319216,560.84831333234911,3108.4271357969324,0.0
618204.59901257406,4057374.0504322448,-37500.0,-69.774070886330023,-121.0163473347872,1552.8550969555658,6.0964608167461387,1577.8143752153765,1091.443388991501,1611.0782854829088,-565.30870834841392,787.00057713650187,-787.00057713650187,565.30870834841392,3099.9462998946378,0.0
623204.59901257406,4057374.0504322448,-37500.0,-44.451493854260093,-376.85844160444071,1441.7584810800342,-189.31213862862666,1497.8046319470757,1044.4919671569667,1565.6201337344348,-489.02263750317485,516.36630507163659,-516.36630507163659,489.02263750317485,3006.6691829909214,0.0
628204.59901257406,4057374.0504322448,-37500.0,39.905686535056034,-597.48603217122695,1232.4921702429272,-362.64037813480701,1342.3096854579767,952.48921717959809,1481.77315437787,-338.91046344439269,209.13789358238773,-209.13789358238773,338.91046344439269,2835.0688034205755,0.0
633204.59901257406,4057374.0504322448,-37500.0,167.43685038601942,-753.97377864759562,947.15606542198736,-493.9805976392733,1126.1365841972686,823.56813789550984,1369.5362943527441,-136.39269959286929,-96.62641132276255,96.62641132276255,136.39269959286929,2601.7115205738628,0.0
638204.59901257406,4057374.0504322448,-37500.0,313.2334587479906,-829.12771500893007,619.15794613375192,-570.70101205981973,872.26188131476636,670.56436204367594,1241.9632751918095,87.554679077802206,-364.41354756889496,364.41354756889496,-87.554679077802206,2331.0809725715135,0.0
643204.59901257406,4057374.0504322448,-37500.0,450.06712908116816,-820.74871249105558,285.58186747538645,-589.72790276170701,606.88264710812587,508.35953294896098,1112.2992062790802,300.18903658343118,-567.23444589253234,567.23444589253234,-300.18903658343118,2051.6295070190599,0.0
648204.59901257406,4057374.0504322448,-37500.0,555.24720462454968,-740.35803138941731,-20.701497609865893,-557.04078793350459,354.12281169163873,350.97135695763222,991.81744630751655,474.6144752496358,-692.14798780175363,692.14798780175363,-474.6144752496358,1790.886757910255,0.0
653204.59901257406,4057374.0504322448,-37500.0,615.11497078957359,-608.44818134671016,-276.54471399660571,-484.93042855310711,132.10896008832785,209.31344463915144,888.32544380812419,594.57712094535373,-740.29354910282768,740.29354910282768,-594.57712094535373,1570.4628212648913,0.0
658204.59901257406,4057374.0504322448,-37500.0,626.12910610486051,-448.52179931185702,-470.45180956555805,-388.3387528408752,-48.70944006907397,90.131726874275529,805.20454672183337,655.44507154416704,-723.3933577941724,723.3933577941724,-655.44507154416704,1401.810472619032,0.0
663204.59901257406,4057374.0504322448,-37500.0,593.09462043978101,-282.04314746955941,-601.34919053104932,-281.58933320620378,-185.14171487451802,-3.9126717210498096,741.46872365388208,662.09061689174541,-658.74752504818753,658.74752504818753,-662.09061689174541,1284.2807682994987,0.0
668204.59901257406,4057374.0504322448,-37500.0,525.95746391057037,-125.42947833924353,-675.56275110292904,-176.2704941763327,-279.52457051528961,-73.399455691564569,693.08228475091937,625.2714662678286,-564.61707801585931,564.61707801585931,-625.2714662678286,1207.2918326887666,0.0
673204.59901257406,4057374.0504322448,-37500.0,436.55059752845784,10.87558485084409,-703.42244700865592,-80.387843681423206,-337.57327829767394,-121.01527322047423,654.93242762881221,558.01480272069853,-457.05109744466142,457.05109744466142,-558.01480272069853,1156.0349411770781,0.0
678204.59901257406,4057374.0504322448,-37500.0,336.13313286664777,121.84762439030131,-696.43553203410067,1.514434751034299,-366.46065633309917,-150.48955974484178,622.46806756319847,472.89435123022588,-348.34325150264397,348.34325150264397,-472.89435123022588,1117.1195092047672,0.0
683204.59901257406,4057374.0504322448,-37500.0,233.97071329546358,206.5939105372133,-665.39722736075066,67.693928610593375,-373.42571232850815,-165.78559135652975,592.4737728076509,380.4487047753413,-246.76822675512986,246.76822675512986,-380.4487047753413,1081.3281716109861,0.0
688204.59901257406,4057374.0504322448,-37500.0,136.81488078450096,266.92152415027238,-619.39873978389721,118.37847190624903,-364.94540722563028,-170.58683603586741,563.10339358634246,288.57612061164764,-157.08278999667931,157.08278999667931,-288.57612061164764,1043.662123943154,0.0
693204.59901257406,4057374.0504322448,-37500.0,48.987124336347826,306.10035617287855,-565.50505188830209,154.99402738458988,-346.36136913212226,-168.03541088144391,533.55700353154543,202.58540414182445,-81.345377010209774,81.345377010209774,-202.58540414182445,1002.1981287556374,0.0
698204.59901257406,4057374.0504322448,-37500.0,-27.220605871860684,327.94999267747835,-508.84409215869636,179.55738188507974,-321.81266938242504,-160.64946130540528,503.69686782401629,125.59317539239294,-19.759517881071929,19.759517881071929,-125.59317539239294,956.85333634005747,0.0
703204.59901257406,4057374.0504322448,-37500.0,-91.040979932358923,336.2485946631009,-452.89790984564684,194.25409285021726,-294.34113369049459,-150.34875552166432,473.73629598190229,59.040788556594066,28.609298435794315,-28.609298435794315,-59.040788556594066,908.46042254432791,0.0
708204.59901257406,4057374.0504322448,-37500.0,-142.7485217200354,334.40215024435798,-399.85644263023585,201.17767830221044,-266.07284882898438,-138.53433457304564,444.03020407339005,3.1954908351151765,65.292930447375099,-65.292930447375099,-3.1954908351151765,858.18517519299587,0.0
548204.59901257406,4062374.0504322448,-37500.0,487.78976008884797,34.480714867039971,-262.09405532157535,215.42563428657911,-34.873412015407872,69.30553215286092,425.03628240087249,445.16125490644009,-198.59915276380883,198.59915276380883,-445.16125490644009,755.03647032795038,0.0
553204.59901257406,4062374.0504322448,-37500.0,560.36022671070486,97.376452802144584,-251.77946965154032,274.91811400636487,0.80426584638469545,102.9871741666211,482.18226257554329,490.2145584742737,-154.35771080906812,154.35771080906812,-490.2145584742737,867.46674461994053,0.0
558204.59901257406,4062374.0504322448,-37500.0,631.2027373887214,173.90749464314837,-226.18331937052946,343.37125075710458,51.706826814876649,147.10776423624219,550.01522980095729,527.76806744460316,-90.373360026666461,90.373360026666461,-527.76806744460316,1003.4272263921056,0.0
563204.59901257406,4062374.0504322448,-37500.0,695.43541715120773,263.80597263438801,-180.11035869275463,419.91198568953672,121.70156284360462,203.92666331236592,630.17669563327638,552.49344643100471,-3.1520306528441893,3.1520306528441893,-552.49344643100471,1166.1970928835881,0.0
568204.59901257406,4062374.0504322448,-37500.0,746.78155666725434,365.11237246303364,-107.77154828968609,502.35962918107225,214.85787805398891,275.73322816730291,724.18443448132939,557.96750930529879,110.00972517053555,-110.00972517053555,-557.96750930529879,1358.352006375708,0.0
573204.59901257406,4062374.0504322448,-37500.0,777.79581553012645,473.43244710867015,-3.3258976115945731,586.7462422686225,334.97404370425249,364.54170154769838,833.23780849979653,537.08018156971571,250.09088589530538,-250.09088589530538,-537.08018156971571,1581.1323367225575,0.0
578204.59901257406,4062374.0504322448,-37500.0,780.51349594357146,581.19350891804265,138.15098903305426,666.86867549306578,484.8042150754913,471.61420434373275,957.90864417035255,482.89817436008241,415.1035076046428,-415.1035076046428,-482.89817436008241,1833.6378038348275,0.0
583204.59901257406,4062374.0504322448,-37500.0,747.6695209728415,677.12021863353164,319.18488358563428,734.0234976539864,664.94049745387395,596.79132197588785,1097.4925282229756,390.10434349161244,598.64483599023754,-598.64483599023754,-390.10434349161244,2111.8709187014065,0.0
588204.59901257406,4062374.0504322448,-37500.0,674.56164679759672,746.28462781915994,537.92521524744166,777.16187901353362,872.38805306042764,737.66152952235404,1248.8274628370261,257.03369584302618,788.52498091447319,-788.52498091447319,-257.03369584302618,2407.7415960883673,0.0
593204.59901257406,4062374.0504322448,-37500.0,561.42401594055116,771.18773717762008,785.91025112487739,783.75508340708689,1099.02403148958,888.68704503727201,1405.2077628751058,88.090875877410383,965.99067300965203,-965.99067300965203,-88.090875877410383,2708.2463422438964,0.0
598204.59901257406,4062374.0504322448,-37500.0,415.83414343564448,734.31128356815634,1046.1489472099397,741.63780402628538,1330.3602091440728,1040.5336217578692,1556.4206825662859,-104.03037856528834,1106.2945733171405,-1106.2945733171405,104.03037856528834,2995.1765890857632,0.0
603204.59901257406,4062374.0504322448,-37500.0,254.23299049130051,622.29280066848992,1292.4764967869282,641.89655234236625,1545.2773577326461,1179.986596153431,1689.7275982555313,-297.338825827584,1181.4186735749629,-1181.4186735749629,297.338825827584,3245.8121518712574,0.0
608204.59901257406,4062374.0504322448,-37500.0,101.30891281688308,431.20537457968857,1491.350686465287,482.4292209222354,1717.5157429257843,1290.8911484743724,1791.3253165534761,-462.02162174886212,1165.3956376256815,-1165.3956376256815,462.02162174886212,3435.0199553302978,0.0
613204.59901257406,4062374.0504322448,-37500.0,-13.839306633819461,171.45297347899745,1606.9718248880395,271.18665960730146,1819.4971839824223,1356.4343965988164,1848.4316699672167,-565.38423272463604,1041.7112356713976,-1041.7112356713976,565.38423272463604,3538.961551268404,0.0
618204.59901257406,4062374.0504322448,-37500.0,-64.832020641517332,-130.08229060892444,1609.4799689658769,27.55462492852455,1828.2609340834158,1362.6305608697724,1851.985017815522,-580.03780010184596,810.77520198222419,-810.77520198222419,580.03780010184596,3540.0011940053646,0.0
623204.59901257406,4062374.0504322448,-37500.0,-36.655328381424503,-432.91556952674892,1484.1920630779491,-219.58839008517452,1732.1017085100843,1302.2085043449833,1799.4398376652921,-493.15914636444592,494.2140450562826,-494.2140450562826,493.15914636444592,3431.7283434499341,0.0
628204.59901257406,4062374.0504322448,-37500.0,67.698673036425916,-691.46787681765477,1238.2457112180221,-437.54498641101566,1535.4141047662904,1177.4843198815001,1696.6300337727932,-312.95360529209614,132.88797128191845,-132.88797128191845,312.95360529209614,3222.4149309743302,0.0
633204.59901257406,4062374.0504322448,-37500.0,226.2655007605504,-866.88749501718985,901.07894000709655,-597.737508527057,1259.276630965516,1000.8054371042975,1557.4431211053702,-68.596873276702112,-222.11550237483425,222.11550237483425,68.596873276702112,2935.3535403321894,0.0
638204.59901257406,4062374.0504322448,-37500.0,404.13767951796837,-937.49284058254739,517.60963963051779,-682.90070659094795,936.90911206757357,792.03112126778262,1400.6359694355497,197.33155429482656,-522.62014679955917,522.62014679955917,-197.33155429482656,2605.4667211802462,0.0
643204.59901257406,4062374.0504322448,-37500.0,564.09667537518499,-903.32442927453758,136.61099420439766,-690.55030590423894,605.57322392120284,573.88008723542544,1245.0834366225422,440.96212255153876,-735.24219453024432,735.24219453024432,-440.96212255153876,2272.8271004090275,0.0
648204.59901257406,4062374.0504322448,-37500.0,677.0325188981916,-783.32365360937592,-200.84662532366403,-631.60741430168707,298.18244648038632,366.97381610383508,1105.8531142105805,628.48866411624601,-847.31686076006974,847.31686076006974,-628.48866411624601,1974.5693335135302,0.0
653204.59901257406,4062374.0504322448,-37500.0,727.96611440238053,-607.34630911489978,-468.62768956576542,-525.42659863005713,37.622132871806102,186.31835727088514,991.80301528506436,742.41521736220216,-865.56236553246413,865.56236553246413,-742.41521736220216,1736.7097910300236,0.0
658204.59901257406,4062374.0504322448,-37500.0,716.39611366995609,-407.08432777614485,-656.95921836351647,-393.78374893650954,-164.97993343005936,40.02098545985654,904.69678921221816,781.57708292255006,-809.69456017652919,809.69456017652919,-781.57708292255006,1568.020982369158,0.0
663204.59901257406,4062374.0504322448,-37500.0,652.50030578590827,-209.23942724449984,-769.35696935884278,-256.058259691106,-308.69585570479313,-70.043813505426854,840.38281881963189,756.76660202546134,-704.63930691111943,704.63930691111943,-756.76660202546134,1459.5594566080476,0.0
668204.59901257406,4062374.0504322448,-37500.0,551.85845855041202,-32.256474126438412,-817.58293741392174,-126.6231024037328,-399.56351204904348,-146.48551929679934,791.75644020805157,684.88624678774431,-574.24014176897686,574.24014176897686,-684.88624678774431,1391.7210810823349,0.0
673204.59901257406,4062374.0504322448,-37500.0,430.8220098959938,113.87896953490623,-816.79517775803447,-14.279121312997047,-447.18753358108955,-194.43704121297139,751.82804434049115,583.88493350718738,-437.62345787641328,437.62345787641328,-583.88493350718738,1344.1951490085291,0.0
678204.59901257406,4062374.0504322448,-37500.0,303.52402222887463,226.03580845759703,-782.03226837406805,76.989608469770431,-462.06435662542452,-219.92908054609128,715.47342305997313,469.49570642025947,-308.02067135836751,308.02067135836751,-469.49570642025947,1302.2161767013165,0.0
683204.59901257406,4062374.0504322448,-37500.0,180.54417914594364,305.72962323292893,-726.23327752815692,146.70878212209632,-453.89544640882593,-228.79990867983324,679.74372388650568,353.75842523659622,-193.2016630523629,193.2016630523629,-353.75842523659622,1257.6443789643895,0.0
688204.59901257406,4062374.0504322448,-37500.0,68.772414281072372,357.07893183255766,-659.48287728711819,196.58904629921105,-430.76634954454789,-226.10723646060453,643.39766848811757,244.82595534079039,-96.659363223248903,96.659363223248903,-244.82595534079039,1207.3520223367109,0.0
693204.59901257406,4062374.0504322448,-37500.0,-28.062943870164858,385.2586236865971,-589.03366518881512,229.45063922657232,-398.92890805061677,-215.91096489346842,606.26359317766992,147.4829243328852,-18.941690784716357,18.941690784716357,-147.4829243328852,1151.1933023006636,0.0
698204.59901257406,4062374.0504322448,-37500.0,-108.62004119290829,395.49451333155406,-519.71689561423591,248.47026396088947,-362.92884313297185,-201.28404003294261,568.71642064450782,63.934777357098852,41.190138866777261,-41.190138866777261,-63.934777357098852,1090.4611611299501,0.0
703204.59901257406,4062374.0504322448,-37500.0,-173.17564806624591,392.50524560523525,-454.47977356982165,256.71874900055491,-325.88819971864899,-184.43869940409559,531.33310536761053,-5.4011487877339448,85.890327283649498,-85.890327283649498,5.4011487877339448,1026.9345317201912,0.0
708204.59901257406,4062374.0504322448,-37500.0,-222.98518201959041,380.25939112027976,-394.90320236059,256.91870419065833,-289.82411119550557,-166.89330784700877,494.69776082981298,-61.230245010314832,117.64035258108245,-117.64035258108245,61.230245010314832,962.36824013287151,0.0
713204.59901257406,4062374.0504322448,-37500.0,-259.80436870073908,361.92815576254759,-341.63527174966538,251.34939482947553,-255.94162057440576,-149.63712206767033,459.3081643255764,-104.87821455770023,138.89037837240812,-138.89037837240812,104.87821455770023,898.26057927203908,0.0
543204.59901257406,4067374.0504322448,-37500.0,392.97284254542262,-86.056393792065236,-306.695534517873,136.51070047135218,-100.82805377396981,25.835628885909951,396.6590771551397,399.81308349535936,-304.49396826325153,304.49396826325153,-399.81308349535936,689.98027879492849,0.0
548204.59901257406,4067374.0504322448,-37500.0,474.37977886773803,-41.771951731226338,-320.24886810621013,189.66542783290274,-83.614637376757813,50.40182320881275,445.27971445139337,460.89225063757038,-289.93848304944805,289.93848304944805,-460.89225063757038,780.00948607994428,0.0
553204.59901257406,4067374.0504322448,-37500.0,561.08918043670133,16.991663558964522,-325.07593748922761,254.17720029585846,-54.57651657868697,84.39193078962505,503.38224917703621,521.79660577954917,-259.78601616987999,259.78601616987999,-521.79660577954917,890.90768064323697,0.0
558204.59901257406,4067374.0504322448,-37500.0,649.79823331215096,92.031951798917291,-316.59075147717652,330.78675492092168,-9.6312210910637059,130.51001243702765,573.05865912179695,578.40419472428766,-209.49216671079895,209.49216671079895,-578.40419472428766,1027.4634120422209,0.0
563204.59901257406,4067374.0504322448,-37500.0,735.48196838236424,184.26378422739703,-288.99677847647058,419.36989766203664,56.099871037301234,191.891152359285,656.60308634767625,624.98527220525989,-134.25827322457371,134.25827322457371,-624.98527220525989,1194.5981694053446,0.0
568204.59901257406,4067374.0504322448,-37500.0,811.14783596959774,292.97138496824186,-235.37687107871091,518.37679489301104,148.11672751055485,271.95255344666782,756.37047081653918,654.11070078582952,-29.63907120434493,29.63907120434493,-654.11070078582952,1396.8250522738983,0.0
573204.59901257406,4067374.0504322448,-37500.0,867.84628296366077,414.8317208494517,-148.1093753826529,624.13291546654182,272.0929351207181,374.06749930245962,874.55893826426882,656.87701460918481,107.44263197008877,-107.44263197008877,-656.87701460918481,1637.4710660316227,0.0
578204.59901257406,4067374.0504322448,-37500.0,895.16015600252706,542.79107174813282,-19.796290073270381,730.07425404648473,433.023994015889,500.98521128864843,1012.8574386230539,623.66858654902308,277.19906937125461,-277.19906937125461,-623.66858654902308,1917.6254349746666,0.0
583204.59901257406,4067374.0504322448,-37500.0,882.44126619912049,665.02239942288838,155.10600278682361,826.09340553810955,633.84927433773169,653.92982843146365,1171.7233355003391,545.70095213814579,475.02961147060842,-475.02961147060842,-545.70095213814579,2234.8108785243567,0.0
588204.59901257406,4067374.0504322448,-37500.0,821.02146551368196,764.39779051533662,377.84802837379596,898.31170579028117,873.50004632555738,831.36110379700324,1348.9025165993412,417.51414895674679,689.37237423996976,-689.37237423996976,-417.51414895674679,2581.4535746452971,0.0
593204.59901257406,4067374.0504322448,-37500.0,707.42301161527075,819.14258149161731,642.27947037689205,929.74448293112789,1144.5202241481236,1027.5028936869953,1537.5961606246615,240.33493697776845,899.96125562236125,-899.96125562236125,-240.33493697776845,2943.3966257340376,0.0
598204.59901257406,4067374.0504322448,-37500.0,547.12706871277476,805.46082427317606,931.66996270797551,902.39204191954809,1430.7475647734016,1230.9511853128188,1725.7871379859384,25.719044686599545,1077.525478816754,-1077.525478816754,-25.719044686599545,3298.921088412947,0.0
603204.59901257406,4067374.0504322448,-37500.0,357.73137848316651,702.71592842441385,1216.7101368947567,801.1258650001555,1706.0182368743911,1423.9593011070458,1897.129342523858,-201.85612490915844,1186.2896438693529,-1186.2896438693529,201.85612490915844,3618.9986197525468,0.0
608204.59901257406,4067374.0504322448,-37500.0,169.55078620214368,500.90953748275223,1456.5300876389156,619.13965120417822,1935.2568399942979,1583.2267986494558,2032.774421948136,-405.48189497984646,1190.4160156295864,-1190.4160156295864,405.48189497984646,3869.6012392849548,0.0
613204.59901257406,4067374.0504322448,-37500.0,21.499848869470561,208.63065098302314,1604.5417918614191,363.65156691261387,2079.2592401146758,1682.9798169686583,2114.2371716956713,-541.44925388340994,1064.2947349731785,-1064.2947349731785,541.44925388340994,4016.6664779981716,0.0
618204.59901257406,4067374.0504322448,-37500.0,-48.690643732605039,-142.15759711704774,1619.5212386676667,59.310175459278689,2103.4220931266259,1700.487190359331,2127.4443611018423,-570.57289803844674,804.17043208248379,-804.17043208248379,570.57289803844674,4033.4709216938168,0.0
623204.59901257406,4067374.0504322448,-37500.0,-17.830321509519575,-498.72616371752235,1479.4050538746451,-253.64861696142265,1988.5187442397626,1622.8605100290158,2067.257537393215,-472.4808142335396,435.9711064251112,-435.9711064251112,472.4808142335396,3908.8228958748673,0.0
628204.59901257406,4067374.0504322448,-37500.0,111.50244903194066,-799.5245294788856,1192.0812051020046,-527.89162686379916,1739.2684899142339,1452.5432107830895,1940.8280145829413,-256.58572504129677,13.65505772452326,-13.65505772452326,256.58572504129677,3653.1948187107905,0.0
633204.59901257406,4067374.0504322448,-37500.0,308.63676014950988,-992.23177057325131,796.83116557204119,-721.97907621121135,1385.934951224948,1208.5382877942684,1767.6807820289664,37.139380327631613,-394.00595293554136,394.00595293554136,-37.139380327631613,3299.7893465889201,0.0
638204.59901257406,4067374.0504322448,-37500.0,524.26697925577116,-1049.892919498433,354.02584764860973,-812.33772570297981,976.96675806892267,922.04522022729077,1575.0918858675866,349.87794416893524,-723.61929760733597,723.61929760733597,-349.87794416893524,2899.1072932728421,0.0
643204.59901257406,4067374.0504322448,-37500.0,707.50259582821195,-977.17886406588639,-72.67435815509765,-798.54554535730335,565.54850073873638,628.12882968836709,1390.154034540788,623.03026256973646,-934.92217724750287,934.92217724750287,-623.03026256973646,2508.0363977441584,0.0
648204.59901257406,4067374.0504322448,-37500.0,821.74604387859972,-804.53516006466907,-433.1590716987165,-700.02876176587608,196.21299172725648,357.14208426404252,1232.6580135591969,815.13129262492248,-1018.1399554257034,1018.1399554257034,-815.13129262492248,2176.0192302368987,0.0
653204.59901257406,4067374.0504322448,-37500.0,852.35963104867812,-574.82310768750642,-699.88677414659844,-547.02491455232359,-103.16363887822885,129.27184706886101,1111.3274177915769,909.48832259069809,-989.6332346237682,989.6332346237682,-909.48832259069809,1931.5320935559162,0.0
658204.59901257406,4067374.0504322448,-37500.0,804.96414424875218,-329.75187344571299,-867.65854998663372,-370.7932140330131,-322.44781915316094,-46.648281262350451,1023.9044910909388,911.78078289236532,-880.6699502277595,880.6699502277595,-911.78078289236532,1774.5629422550758,0.0
663204.59901257406,4067374.0504322448,-37500.0,698.06321355361263,-101.15974766380977,-947.34015441433633,-196.79530933965313,-465.36990232933482,-171.08661070982416,961.08607697203115,841.82026256442884,-725.74951751031688,725.74951751031688,-841.82026256442884,1682.0416508470148,0.0
668204.59901257406,4067374.0504322448,-37500.0,554.75082036826393,91.814152393335462,-957.9594016197666,-41.905874117561268,-543.83255518869146,-250.40100135547254,912.08242162442707,724.55158749227667,-554.56600325418913,554.56600325418913,-724.55158749227667,1623.7055298308628,0.0
673204.59901257406,4067374.0504322448,-37500.0,396.54992809947419,241.35072488399115,-920.24156788907214,85.256222619663447,-572.81103365289209,-293.59165005864946,868.50390398058153,583.44117387625806,-388.48079484408009,388.48079484408009,-583.44117387625806,1575.5495895652712,0.0
678204.59901257406,4067374.0504322448,-37500.0,240.20330029889314,347.70487077827352,-852.65541283953598,182.40681874862395,-566.88701545077583,-309.95722650637919,825.46403194989671,437.03481951342542,-240.3725194071244,240.3725194071244,-437.03481951342542,1523.9306039712312,0.0
683204.59901257406,4067374.0504322448,-37500.0,96.862448608039756,415.82712447727317,-769.71725877340953,251.32499300860158,-538.4402006349751,-307.75668993091102,780.95334256781348,298.05465089261986,-116.24880389928761,116.24880389928761,-298.05465089261986,1463.5659190846966,0.0
688204.59901257406,4067374.0504322448,-37500.0,-27.308437745763111,452.70165799116143,-681.78566481661835,295.91474429319828,-497.05146160713224,-293.6561867000612,734.75019858304881,173.98496058202221,-17.352584613846219,17.352584613846219,-173.98496058202221,1394.1508080285753,0.0
693204.59901257406,4067374.0504322448,-37500.0,-129.94767499964405,465.59902196750789,-595.62260400398611,320.82864974001103,-449.61765073557007,-272.6716165902501,687.51209451267823,68.272435940005096,57.936936647654058,-57.936936647654058,-68.272435940005096,1317.7134788910478,0.0
698204.59901257406,4067374.0504322448,-37500.0,-211.25777171588464,461.11198033756989,-515.21549881469662,330.62651174311259,-400.79031200327,-248.36484607775421,640.19115968518906,-18.408003480767618,112.67297631371922,-112.67297631371922,18.408003480767618,1237.0130643894795,0.0
703204.59901257406,4067374.0504322448,-37500.0,-272.96501194378499,444.74127649670902,-442.57965176482259,329.34040470480466,-353.49625898934255,-223.13112903908581,593.71690210958934,-87.08320450825255,150.3916538600223,-150.3916538600223,87.08320450825255,1154.7136566951413,0.0
708204.59901257406,4067374.0504322448,-37500.0,-317.55049130734631,420.81701471110466,-378.42368663243121,320.3090478158058,-309.41845064459017,-198.48858316772308,548.85562817072332,-139.68449869635569,174.55111042077775,-174.55111042077775,139.68449869635569,1073.0344045816489,0.0
713204.59901257406,4067374.0504322448,-37500.0,-347.7350772387714,392.59577240675452,-322.64985305798808,306.16931863070721,-269.38843538337949,-175.32787483040727,506.16971127839332,-178.50710066748127,188.2446674252721,-188.2446674252721,178.50710066748127,993.65602825824124,0.0
543204.59901257406,4072374.0504322448,-37500.0,347.93070833483029,-165.22401485408113,-344.04140515915913,94.762323251805441,-146.62735785914444,1.083565717553499,421.28656956453688,385.44468685562487,-381.35461069518232,381.35461069518232,-385.44468685562487,729.69525218058311,0.0
548204.59901257406,4072374.0504322448,-37500.0,438.21088385006266,-130.33052074987211,-371.16461340460597,148.17852095468268,-138.29008099787279,23.208387958860865,470.09334016552003,458.37858755077207,-383.34957028762994,383.34957028762994,-458.37858755077207,815.85789897459756,0.0
553204.59901257406,4072374.0504322448,-37500.0,537.94967519207796,-80.054323490838172,-392.64532350406824,215.314561275822,-118.85494777979125,55.505556424277941,528.28122302307884,535.16925772493585,-371.43099780714635,371.43099780714635,-535.16925772493585,922.21795477661976,0.0
558204.59901257406,4072374.0504322448,-37500.0,644.46718363985553,-11.516451731780316,-404.02487580895269,297.87234927809362,-83.693902059324586,101.37638758282181,598.31687584238966,612.11151803060943,-340.36386289913469,340.36386289913469,-612.11151803060943,1054.7286510586994,0.0
563204.59901257406,4072374.0504322448,-37500.0,753.06102522475226,77.605467848409191,-399.28868043047027,396.82639990731667,-26.974703155561734,164.97028919328451,683.13701093825671,683.52890374879382,-284.15615507309747,284.15615507309747,-683.52890374879382,1220.1387937879836,0.0
568204.59901257406,4072374.0504322448,-37500.0,856.49368674926052,188.26544486048661,-370.7523962603413,511.74275104045478,58.300697868439485,251.10502730840534,786.055301005601,741.42145445609026,-196.55974036841809,196.55974036841809,-741.42145445609026,1425.425548134147,0.0
573204.59901257406,4072374.0504322448,-37500.0,944.67144309506511,318.8751560733441,-309.25147458322442,639.8423837876087,179.96150916404699,364.97322059609741,910.55956381868657,775.38551451373701,-72.061602712754109,72.061602712754109,-775.38551451373701,1676.8640923508694,0.0
578204.59901257406,4072374.0504322448,-37500.0,1004.8007593812454,463.78578635385128,-204.88516383394528,774.84493008032985,345.83713387392669,511.50582612531173,1059.9421026518341,773.09950741600733,92.461615795106752,-92.461615795106752,-773.09950741600733,1978.687373141961,0.0
583204.59901257406,4072374.0504322448,-37500.0,1022.4224186941231,611.6106239886758,-48.624380830000291,905.75669839967361,562.19594042383596,694.24594094044141,1236.5158847776365,721.76039805872347,295.33481259126233,-295.33481259126233,-721.76039805872347,2331.2935816080112,0.0
588204.59901257406,4072374.0504322448,-37500.0,983.77889739310353,743.85859321193936,164.92773994350983,1015.981724963535,831.25682587663619,913.61858787315441,1439.8399593025713,610.86686960762745,527.06061359720661,-527.06061359720661,-610.86686960762745,2729.0265635563019,0.0
593204.59901257406,4072374.0504322448,-37500.0,879.82480122465859,834.74195830194537,433.55598634583589,1083.4170229018578,1147.7744727021595,1164.616936989888,1663.9447791581733,436.53196026943488,767.28178547493258,-767.28178547493258,-436.53196026943488,3157.7325302488575,0.0
598204.59901257406,4072374.0504322448,-37500.0,711.67089513581288,853.39762451862862,742.714343238933,1082.4581304831263,1495.1566436062228,1434.2302062197828,1895.4437908676575,206.91109041002994,983.02254739632383,-983.02254739632383,-206.91109041002994,3592.647271489072,0.0
603204.59901257406,4072374.0504322448,-37500.0,496.18947660936487,769.80358583844657,1061.5184487292231,988.84536420517475,1842.3527776111007,1699.4447194535903,2113.9235262516459,-52.782082885220916,1130.2515929092233,-1130.2515929092233,52.782082885220916,3997.6511094977577,0.0
608204.59901257406,4072374.0504322448,-37500.0,269.01978581278712,564.81397747373262,1342.0731789032109,787.61876963025315,2143.6740660588375,1927.2479412687089,2294.008188148,-298.62511183087202,1161.0251912952413,-1161.0251912952413,298.62511183087202,4327.3417731893978,0.0
613204.59901257406,4072374.0504322448,-37500.0,81.114744182680241,242.46883591885879,1525.3762669494888,482.74998583999474,2344.1690074175926,2078.3716097958354,2409.1431709927911,-473.49266596175846,1037.1836753247439,-1037.1836753247439,473.49266596175846,4533.3504335060288,0.0
618204.59901257406,4072374.0504322448,-37500.0,-14.055860562684963,-160.65317999095572,1555.6575674768826,104.48253148879191,2392.0336382758151,2115.7773462789432,2437.5790501111978,-522.05954542206644,747.93810059985833,-747.93810059985833,522.05954542206644,4575.2174660534765,0.0
623204.59901257406,4072374.0504322448,-37500.0,19.139861666594108,-576.53678002343884,1400.5477140028818,-291.3204513267479,2255.935413274472,2016.5374678432102,2369.7116385297272,-412.51497106197775,323.61200327888258,-323.61200327888258,412.51497106197775,4433.755143564762,0.0
628204.59901257406,4072374.0504322448,-37500.0,179.4981283384158,-922.15457975400091,1068.3790886045597,-635.65882137110248,1940.1854499374781,1782.4546821653767,2214.1177659026312,-155.10182504812371,-164.67283137934953,164.67283137934953,155.10182504812371,4122.0133276157258,0.0
633204.59901257406,4072374.0504322448,-37500.0,423.87328549253317,-1127.1178938381918,611.47351965882842,-867.903301922183,1488.5331274924581,1443.1690700355928,1998.5841903758596,195.19189100062721,-624.3860628230525,624.3860628230525,-195.19189100062721,3687.9646006438229,0.0
638204.59901257406,4072374.0504322448,-37500.0,682.20466067518123,-1158.7918152899138,110.5106237809434,-956.09282431640952,972.09948411021821,1048.4627174334005,1763.2525321468643,556.95831250234937,-972.83867807980073,972.83867807980073,-556.95831250234937,3205.6254746418231,0.0
643204.59901257406,4072374.0504322448,-37500.0,885.21481326635819,-1030.6125660557184,-352.74883824051227,-904.92564712251465,466.73166555282012,652.96136919125172,1547.1349511987382,852.63532099088184,-1163.6206634724285,1163.6206634724285,-852.63532099088184,2756.0202739312358,0.0
648204.59901257406,4072374.0504322448,-37500.0,988.5280275783573,-790.43620926785843,-719.59066286311281,-748.28096638428724,31.637599540927908,301.10275974696947,1375.1873556205951,1033.497601422416,-1194.7581629594313,1194.7581629594313,-1033.497601422416,2402.7407769175561,0.0
653204.59901257406,4072374.0504322448,-37500.0,981.44422704943929,-498.44841026648362,-964.5343759847259,-532.80743321639716,-301.30780002940082,18.951076324744971,1252.8903876414552,1087.815551706891,-1098.2292333732082,1098.2292333732082,-1087.815551706891,2170.1607356646941,0.0
658204.59901257406,4072374.0504322448,-37500.0,880.57450187502207,-207.55632933624727,-1091.2745989021382,-302.29582983533095,-526.32267009473708,-185.85785073766951,1169.9596483659784,1033.2499957873656,-921.00964842043663,921.00964842043663,-1033.2499957873656,2038.8862200507394,0.0
663204.59901257406,4072374.0504322448,-37500.0,716.50930785745993,46.685780337529991,-1121.2903166812266,-88.689195002184448,-655.47263231353998,-319.04909746609144,1109.9260174894043,902.3918059442417,-708.4801567513623,708.4801567513623,-902.3918059442417,1966.1660518946483,0.0
668204.59901257406,4072374.0504322448,-37500.0,521.57657615569497,247.00302640224953,-1082.3652642528746,89.91982162175033,-709.2607243922954,-393.40374260316003,1058.6803161970538,729.79625543277734,-495.25912144791965,495.25912144791965,-729.79625543277734,1912.768602924858,0.0
673204.59901257406,4072374.0504322448,-37500.0,322.42030355555693,390.19433495195653,-1000.762624105985,226.95732442378969,-709.50093115439461,-423.68363958487578,1007.7881888939742,544.20684812380773,-302.96221325610611,302.96221325610611,-544.20684812380773,1855.1847904027691,0.0
678204.59901257406,4072374.0504322448,-37500.0,137.33670420953314,481.63094515586647,-897.48109865877063,323.54411763771321,-675.30135823044156,-423.53511043934986,953.82589610833986,365.76371526431603,-142.05814544393152,142.05814544393152,-365.76371526431603,1784.1155237617704,0.0
683204.59901257406,4072374.0504322448,-37500.0,-23.3175634654948,530.62109309289121,-787.42718390999687,384.95184697796742,-621.53608427270638,-404.09740715890899,896.47852263693983,206.39101606543773,-15.168207330787865,15.168207330787865,-206.39101606543773,1698.8409515081767,0.0
688204.59901257406,4072374.0504322448,-37500.0,-155.35009713694686,547.30966728510953,-680.12784572534395,418.02709918227436,-558.82003922700119,-373.7193173097819,836.90032952231377,71.590155828536979,79.772572760048604,-79.772572760048604,-71.590155828536979,1602.5618819245476,0.0
693204.59901257406,4072374.0504322448,-37500.0,-258.71218805334041,540.97093270232313,-580.9892478896902,429.61772311387796,-494.17881742129435,-338.24874546527502,776.68531591251178,-37.512009742667885,147.11938391416899,-147.11938391416899,37.512009742667885,1499.6188463340711,0.0
698204.59901257406,4072374.0504322448,-37500.0,-335.7764308556944,519.28480920438835,-492.55419194688494,425.77157726684112,-431.90973391667183,-301.53512246158016,717.33786460593285,-122.41273542843814,191.95530095283661,-191.95530095283661,122.41273542843814,1394.1206946431416,0.0
703204.59901257406,4072374.0504322448,-37500.0,-390.07736211689809,488.2000215291838,-415.53207502205646,411.4392597502104,-374.38198716853287,-265.94694028108268,660.0576677682335,-185.94718708437969,219.19987510661068,-219.19987510661068,185.94718708437969,1289.4053674808079,0.0
708204.59901257406,4072374.0504322448,-37500.0,-425.48766328010771,452.09286672990908,-349.55369563078864,390.46202975365611,-322.68063028079177,-232.8155468191749,605.6926329319225,-231.43934054254117,233.17859437964398,-233.17859437964398,231.43934054254117,1187.9276878681196,0.0
713204.59901257406,4072374.0504322448,-37500.0,-445.73450585589245,414.04089524409545,-293.68339796328206,365.69781758820483,-277.08321351301305,-202.78055979742419,554.76975274764891,-262.19444516267924,237.47534947585214,-237.47534947585214,262.19444516267924,1091.3406133988133,0.0
718204.59901257406,4072374.0504322448,-37500.0,-454.15213002435956,376.11230154162399,-246.74521960404388,339.19603940302045,-237.39222201098852,-176.04205751317122,507.55334291439152,-281.22954108589505,234.94011705775125,-234.94011705775125,281.22954108589505,1000.6444617309413,0.0
538204.59901257406,4077374.0504322448,-37500.0,196.26937098916702,-260.07420266805934,-330.2206631210492,0.25723730306192288,-185.64887577322219,-41.222473844411617,410.26473447542594,276.48017211809088,-424.74398892372108,424.74398892372108,-276.48017211809088,717.54409572754435,0.0
543204.59901257406,4077374.0504322448,-37500.0,278.11551413206462,-249.96169845730992,-369.72752585314277,37.74103367746558,-194.14936768627507,-31.057712813999022,452.72928501509807,349.32583242441405,-452.10362766279655,452.10362766279655,-349.32583242441405,787.2678104468672,0.0
548204.59901257406,4077374.0504322448,-37500.0,374.09719337219718,-228.19044392008146,-409.93948753642826,88.118721028039275,-196.76685661282744,-13.58174252585861,501.96719411450539,431.90872501495465,-472.84298904098711,472.84298904098711,-431.90872501495465,869.89247545292972,0.0
553204.59901257406,4077374.0504322448,-37500.0,484.08005956411057,-191.19605401486055,-448.34038566471429,154.22344022033084,-189.9177782740675,14.289904253384638,559.90194595327534,523.00063461269133,-482.68297712667646,482.68297712667646,-523.00063461269133,970.20483414331909,0.0
558204.59901257406,4077374.0504322448,-37500.0,606.46905811714805,-135.07962721281251,-481.02829305326645,238.9039954436596,-168.66522526916654,56.632035736431504,629.11639285362344,619.80322270739646,-476.06294406892982,476.06294406892982,-619.80322270739646,1094.6842848030158,0.0
563204.59901257406,4077374.0504322448,-37500.0,737.49087148479896,-56.033832749365388,-502.30837477183917,344.57510941466859,-126.44189786506482,118.66683276317606,712.97194528920102,717.31549880211924,-446.13591338219516,446.13591338219516,-717.31549880211924,1251.5613588933677,0.0
568204.59901257406,4077374.0504322448,-37500.0,870.37926762603217,48.868347738910273,-504.34026411655475,472.46326930952432,-54.882407630166036,206.81883972222826,815.65583915810248,807.67669982136204,-385.06808336006657,385.06808336006657,-807.67669982136204,1450.4557754297732,0.0
573204.59901257406,4077374.0504322448,-37500.0,994.62130990853382,180.39290449729415,-477.01344306317861,621.45872941804248,56.066018250851094,328.54271317939714,942.0972128624461,879.66967638662663,-284.8687890771107,284.8687890771107,-879.66967638662663,1701.4208721870168,0.0
578204.59901257406,4077374.0504322448,-37500.0,1095.5815051219456,335.29104453994375,-408.34463130397944,786.53334945081849,217.48643392804684,491.73177653141914,1097.6680054150647,918.72398667336745,-139.03203141379697,139.03203141379697,-918.72398667336745,2013.2929143848189,0.0
583204.59901257406,4077374.0504322448,-37500.0,1155.0327012932935,503.95136715722549,-285.8259359746458,956.82264200360248,439.91767968218926,703.44921865636957,1287.4101006898227,907.94676269078514,54.747075448903331,-54.747075448903331,-907.94676269078514,2391.3062609789704,0.0
588204.59901257406,4077374.0504322448,-37500.0,1153.3136676512408,667.97671496352768,-99.228206023766788,1113.7463933099502,730.44594368338426,967.69764074144734,1514.0181320605029,830.84900446141057,290.71526279583566,-290.71526279583566,-830.84900446141057,2833.9633377284645,0.0
593204.59901257406,4077374.0504322448,-37500.0,1073.8635217278554,798.6712206455403,154.75329781055237,1229.998530039544,1088.1788492345561,1282.0456478238639,1773.9470529427267,676.37299938416515,550.51104003823536,-550.51104003823536,-676.37299938416515,3329.2884605260351,0.0
598204.59901257406,4077374.0504322448,-37500.0,910.43454661807527,858.14863971499665,466.17838415228039,1270.8118180332658,1498.3347645023089,1633.2958036242339,2053.6053449791498,446.25175174258322,799.33216450131124,-799.33216450131124,-446.25175174258322,3850.9990906833305,0.0
603204.59901257406,4077374.0504322448,-37500.0,675.96211744892446,805.2972282208566,805.27333813168104,1199.3178882317907,1926.2937435554429,1993.1663832264705,2328.5132736006567,163.29722410998056,985.55951826180512,-985.55951826180512,-163.29722410998056,4355.8974971757771,0.0
608204.59901257406,4077374.0504322448,-37500.0,409.65810387382419,608.320136734264,1118.9167626462199,987.41258454963656,2314.694038859905,2316.209604704397,2565.2531843294714,-123.17565201342694,1047.6417996875107,-1047.6417996875107,123.17565201342694,4784.7972572779145,0.0
613204.59901257406,4077374.0504322448,-37500.0,176.11383803751391,262.73898377630638,1335.3449756529158,631.24000797934877,2588.2750590926394,2543.4007217995809,2726.1501046031353,-341.01585217127626,931.24857185048995,-931.24857185048995,341.01585217127626,5069.8739492708501,0.0
618204.59901257406,4077374.0504322448,-37500.0,49.843211108107973,-191.94387915785819,1381.5456689318039,165.72053714295092,2670.5910817613149,2614.5418380986803,2777.8756942081454,-413.80587888125723,614.83504480149952,-614.83504480149952,413.80587888125723,5150.2215917182793,0.0
623204.59901257406,4077374.0504322448,-37500.0,85.015663635538843,-669.43989334917364,1211.7162210259746,-332.33468891916067,2511.2968168217662,2488.8105602210007,2703.3037157574886,-292.98440507128305,132.76108036552398,-132.76108036552398,292.98440507128305,4993.4908086803916,0.0
628204.59901257406,4077374.0504322448,-37500.0,283.50908580754981,-1058.4918748359528,834.29271824021748,-761.94446748767416,2112.8047000879337,2165.4463371685501,2512.3512209312021,11.216124453684046,-421.76741999431999,421.76741999431999,-11.216124453684046,4615.5427152750281,0.0
633204.59901257406,4077374.0504322448,-37500.0,584.28525081124747,-1265.0995758453084,318.45511520995456,-1033.8502003892734,1538.6241138108751,1691.289010233234,2245.0628609849782,423.07536225337606,-925.01748468333301,925.01748468333301,-423.07536225337606,4086.6196245300566,0.0
638204.59901257406,4077374.0504322448,-37500.0,887.52958075689082,-1251.6240193555263,-229.5732292781515,-1105.4588845317382,893.36216804109074,1146.9251289420324,1961.1355303879573,830.25004565372728,-1271.1470225371108,1271.1470225371108,-830.25004565372728,3516.4001788632363,0.0
643204.59901257406,4077374.0504322448,-37500.0,1100.0738785492445,-1047.0811542322197,-707.92245920094661,-992.64717068758864,284.28752414297492,617.94038956912379,1716.4470344599349,1132.0191849095627,-1411.0174919150249,1411.0174919150249,-1132.0191849095627,3019.4781192034734,0.0
648204.59901257406,4077374.0504322448,-37500.0,1171.5271333508197,-724.67873424901109,-1052.4531930474184,-753.37932769990323,-212.41222623406864,168.39285358572431,1539.6095125387828,1275.3941625685409,-1358.8626094574654,1358.8626094574654,-1275.3941625685409,2671.1405563745743,0.0
653204.59901257406,4077374.0504322448,-37500.0,1101.9211664107947,-366.11406517128773,-1245.9548630942497,-458.14686382498309,-564.415675934962,-170.60995024050953,1426.1245961593122,1261.0393663494951,-1170.2053156276629,1170.2053156276629,-1261.0393663494951,2476.2110825927994,0.0
658204.59901257406,4077374.0504322448,-37500.0,925.86508445097638,-34.81365846558657,-1306.6497913581966,-165.94681034495474,-776.14593428018497,-397.07697537742342,1352.2879112672533,1125.6077990127665,-911.48588640980734,911.48588640980734,-1125.6077990127665,2382.0724325488045,0.0
663204.59901257406,4077374.0504322448,-37500.0,690.09818156074812,233.5382644961613,-1269.5707850070437,86.016146545426849,-873.0011521078452,-526.97328729704486,1293.8743682188851,918.17202954374761,-638.41389667199837,638.41389667199837,-918.17202954374761,2325.6650578526851,0.0
668204.59901257406,4077374.0504322448,-37500.0,436.91249991639825,427.53848018167179,-1171.4688615906416,281.3974798396892,-886.94033115648926,-583.28561908195161,1235.6589491505229,683.19120236602646,-387.57132182765133,387.57132182765133,-683.19120236602646,2265.5546121411467,0.0
673204.59901257406,4077374.0504322448,-37500.0,196.66660389051378,551.56120221049787,-1042.694689411712,418.65983268854797,-847.51881761195023,-588.73211422974236,1171.4639089713326,452.92715814796088,-177.42636001095875,177.42636001095875,-452.92715814796088,2184.6799937758456,0.0
678204.59901257406,4077374.0504322448,-37500.0,-12.963316018851527,617.66022737004016,-904.77918053303915,504.54273636719961,-778.06185435710756,-562.23242266755028,1100.757908949588,246.71547585041128,-13.314469173671242,13.314469173671242,-246.71547585041128,2081.2324521842816,0.0
683204.59901257406,4077374.0504322448,-37500.0,-184.45811636609562,639.96067810356647,-771.18325254649426,549.12214876488531,-695.10910434023822,-517.94832844713767,1025.5704181655597,73.521772561312133,107.25730606865406,-107.25730606865406,-73.521772561312133,1960.2498384238102,0.0
688204.59901257406,4077374.0504322448,-37500.0,-317.12980706834867,631.56218068442081,-649.21523057521279,562.78384645847689,-609.39887733898138,-465.66543122412344,948.60766240521809,-64.716379454920485,190.52449386485307,-190.52449386485307,64.716379454920485,1828.6353811839758,0.0
693204.59901257406,4077374.0504322448,-37500.0,-414.2198350789788,603.24291550695671,-542.01688762266542,554.70859603538224,-527.30551221569965,-411.68382327498932,872.34572915886486,-170.17905375518671,243.84629361030829,-243.84629361030829,170.17905375518671,1692.816247364819,0.0
698204.59901257406,4077374.0504322448,-37500.0,-480.79588308299685,563.20828520382133,-450.16441883962636,532.32084427052973,-452.18373984297409,-359.75815732615939,798.69359841678647,-247.05429969073307,274.26560173245207,-274.26560173245207,247.05429969073307,1557.8826720667871,0.0
703204.59901257406,4077374.0504322448,-37500.0,-522.41253665030251,517.35104580328732,-372.81095313485838,501.27158360015414,-385.43883723520389,-311.90222016795076,728.9525787056167,-300.18636310822069,287.85819195501927,-287.85819195501927,300.18636310822069,1427.4690040584746,0.0
708204.59901257406,4077374.0504322448,-37500.0,-544.3548630318611,469.69165650603532,-308.42968652586217,465.66308859913181,-327.29687549117665,-269.00223891703945,663.89568432096064,-334.30238426985574,289.54429994544063,-289.54429994544063,334.30238426985574,1303.9340347635246,0.0
713204.59901257406,4077374.0504322448,-37500.0,-551.27473130040312,422.83185773313573,-255.26385798497165,428.35090220992788,-277.32530524230799,-231.2535924791915,603.88359797921055,-353.62843219137,283.13895113121833,-283.13895113121833,353.62843219137,1188.6328408844695,0.0
718204.59901257406,4077374.0504322448,-37500.0,-547.06764954952257,378.34818705987942,-211.57825907982973,391.23887685428588,-234.76630440679094,-198.45594397279012,548.97783110824514,-361.74497833237876,271.50474571233315,-271.50474571233315,361.74497833237876,1082.1825192932449,0.0
538204.59901257406,4082374.0504322448,-37500.0,100.98851197737294,-331.06133997474689,-332.71993631440006,-65.626634984452835,-221.86503853520338,-74.736664158594124,447.85605917384498,212.6914094103052,-467.37864026850724,467.37864026850724,-212.6914094103052,795.08901783913439,0.0
543204.59901257406,4082374.0504322448,-37500.0,180.65402899561875,-335.56884897096967,-380.14644637187621,-35.83889860877516,-240.56821920461763,-71.085687994471229,492.64033069965421,287.75211795577974,-510.49941276645683,510.49941276645683,-287.75211795577974,867.17134798098334,0.0
548204.59901257406,4082374.0504322448,-37500.0,277.61915497937673,-330.27230459421042,-431.60393113966285,7.2509315193383728,-255.74913728222771,-60.937786097789306,543.43102182643111,376.14951244398122,-550.85967269300386,550.85967269300386,-376.14951244398122,949.27644387153646,0.0
553204.59901257406,4082374.0504322448,-37500.0,393.0806744061336,-311.23532283506182,-485.50620243302484,67.31225721009244,-264.06935858963465,-40.965506953713501,601.79964728683149,477.92065210280606,-584.6211727417583,584.6211727417583,-477.92065210280606,1045.1586892490786,0.0
558204.59901257406,4082374.0504322448,-37500.0,526.98542128085171,-273.78009925667146,-538.95623372843806,148.42046348662004,-260.64207998931732,-6.5609573255255675,670.02927962931608,591.68098406246975,-606.41562132050956,606.41562132050956,-591.68098406246975,1160.5728981616055,0.0
563204.59901257406,4082374.0504322448,-37500.0,677.17241197656926,-212.76212355494084,-587.21121376733538,254.68094185546022,-238.57295038087713,48.484245173362204,751.39712057210852,713.83338129437141,-609.12464595452172,609.12464595452172,-713.83338129437141,1303.8992324466788,0.0
568204.59901257406,4082374.0504322448,-37500.0,838.26996779039291,-123.22750524314915,-623.09890581979028,389.48821828619964,-188.52970352156979,132.24597807137172,850.47080376527128,837.61034728752793,-583.89806133901698,583.89806133901698,-837.61034728752793,1486.4709866810133,0.0
573204.59901257406,4082374.0504322448,-37500.0,1000.4546682349038,-1.657761209066811,-636.53460134420413,554.2536425490473,-98.514841418818762,254.73818736538891,973.33453243265694,952.0946110525266,-520.67502766543964,520.67502766543964,-952.0946110525266,1722.1533405938414,0.0
578204.59901257406,4082374.0504322448,-37500.0,1148.3712528847173,151.9921808032276,-614.43944166539688,746.44595789983703,45.840769062265764,427.53568743752481,1127.6015647430079,1041.5561901736351,-409.58959363713927,409.58959363713927,-1041.5561901736351,2025.7251825080027,0.0
583204.59901257406,4082374.0504322448,-37500.0,1260.8133767114186,331.36982550323199,-541.56968304413078,956.89801635819163,259.95483229360468,662.55603318278224,1321.886467076446,1085.7271862315397,-243.71803619292677,243.71803619292677,-1085.7271862315397,2409.8374449785169,0.0
588204.59901257406,4082374.0504322448,-37500.0,1312.1515018384086,520.16832402259865,-402.97764256897887,1166.6422343251741,557.25103604942706,969.47398747798047,1563.7599100490843,1061.964222009537,-23.530072167728804,23.530072167728804,-1061.964222009537,2880.5960121212465,0.0
593204.59901257406,4082374.0504322448,-37500.0,1276.7941558490115,688.89501713473032,-188.87271703412881,1344.1476028464838,943.68112797273602,1351.2149853536507,1854.6566297596196,950.43002823263737,237.08076638461938,-237.08076638461938,-950.43002823263737,3431.9562306470843,0.0
598204.59901257406,4082374.0504322448,-37500.0,1137.8261421063708,794.0384787346652,97.765596297169992,1444.8196114997243,1409.5264465898433,1797.2869972501796,2183.1776525566215,743.09223207208061,504.45912274324883,-504.45912274324883,-743.09223207208061,4039.4047374237721,0.0
603204.59901257406,4082374.0504322448,-37500.0,899.64537496137143,782.95602952142087,431.84395572465718,1415.7733745261194,1919.565488587232,2275.7391116213394,2521.7661233408471,455.80171488383343,721.7952495170307,-721.7952495170307,-455.80171488383343,4654.3215310499818,0.0
608204.59901257406,4082374.0504322448,-37500.0,601.09379617546983,608.14545409985965,758.77359131685898,1209.3334518437393,2405.4201383254003,2726.6938124815088,2827.8403642425565,139.33377766999263,814.24227902138557,-814.24227902138557,-139.33377766999263,5202.2107964641727,0.0
613204.59901257406,4082374.0504322448,-37500.0,320.22985068658306,251.77842612177295,996.24262427178382,806.39238707983509,2767.5935099614458,3063.532955550224,3049.0371913606559,-119.62614927055233,708.71490164151453,-708.71490164151453,119.62614927055233,5589.9822841441328,0.0
618204.59901257406,4082374.0504322448,-37500.0,158.09192000299805,-247.03318991616217,1053.4806565327594,243.13630416056066,2896.1744368064324,3189.4768855373659,3135.0559612318025,-219.09359627736828,369.092023721891,-369.092023721891,219.09359627736828,5727.1850788797856,0.0
623204.59901257406,4082374.0504322448,-37500.0,195.45097129571676,-781.58443095834957,869.29744137146577,-376.7554909635042,2712.3064471819362,3032.274128351999,3056.5032159918405,-87.323195126330234,-166.92212632593746,166.92212632593746,87.323195126330234,5560.4250716442348,0.0
628204.59901257406,4082374.0504322448,-37500.0,439.9624934805712,-1205.0706632858178,452.39930798988962,-905.70752492598092,2214.0421114009296,2584.3920247240185,2824.2342592995037,266.81697836241614,-778.54130405463775,778.54130405463775,-266.81697836241614,5108.3768950954263,0.0
633204.59901257406,4082374.0504322448,-37500.0,805.05196234058531,-1394.2359261022407,-107.25731091777224,-1212.2128904061626,1493.4849733781432,1920.6854686294305,2496.6765537020879,739.47443636067442,-1302.8893104673982,1302.8893104673982,-739.47443636067442,4475.0757478275855,0.0
638204.59901257406,4082374.0504322448,-37500.0,1148.9974638528165,-1309.5426068376385,-674.0552166425648,-1241.5213152613153,703.47764882375145,1173.0167490564984,2163.1947156650731,1177.3596909109451,-1609.3205930651879,1609.3205930651879,-1177.3596909109451,3823.7886810720779,0.0
643204.59901257406,4082374.0504322448,-37500.0,1349.5768255895919,-1005.9980974114696,-1127.8307366865747,-1032.1094606238439,-7.4638513273693761,475.25331664380946,1901.9256831726798,1454.2200996367749,-1654.4601468533681,1654.4601468533681,-1454.2200996367749,3311.7891862744546,0.0
648204.59901257406,4082374.0504322448,-37500.0,1356.4812316304758,-591.41296136591109,-1407.0091900160098,-680.75408053847787,-546.87833433899789,-83.280844098769222,1738.0986199743145,1520.7206690367341,-1481.6048251436994,1481.6048251436994,-1520.7206690367341,3011.2853409042391,0.0
653204.59901257406,4082374.0504322448,-37500.0,1191.8670292573486,-171.04313400568395,-1511.8866302292874,-290.41784954893785,-889.98647472325467,-471.20120015315297,1645.1766594198116,1401.591798780169,-1178.4866426349436,1178.4866426349436,-1401.591798780169,2880.3776825738805,0.0
658204.59901257406,4082374.0504322448,-37500.0,917.10472282453247,185.49282804516955,-1480.8534170551422,64.217446877237123,-1060.1658176010146,-700.93295558688021,1581.7302311730873,1160.497878839335,-832.14321305652163,832.14321305652163,-1160.497878839335,2824.1302447732965,0.0
663204.59901257406,4082374.0504322448,-37500.0,598.04044045047021,448.77304580299932,-1363.3420019742803,345.03186290693606,-1101.673178278573,-806.28579807520703,1519.0191824392557,864.95447464054359,-504.46607765316452,504.46607765316452,-864.95447464054359,2768.9558530932441,0.0
668204.59901257406,4082374.0504322448,-37500.0,285.3814423492293,618.3540545767911,-1202.7193605869099,542.69365214132597,-1059.7696571079412,-825.03885572688353,1445.1785608006676,566.98917951956651,-228.36981039943774,228.36981039943774,-566.98917951956651,2682.3552132320524,0.0
673204.59901257406,4082374.0504322448,-37500.0,9.7671894474845367,708.88471835816893,-1029.9999686728645,664.74813749994325,-971.2023521241008,-789.78424779762497,1359.1123163477557,298.48443290386945,-14.542884496259262,14.542884496259262,-298.48443290386945,2559.6827606637717,0.0
678204.59901257406,4082374.0504322448,-37500.0,-215.14241784292432,739.81321705015239,-864.14800691095036,725.90645660302982,-861.97065990329929,-724.98145532468743,1264.3995223484133,74.367277229544214,139.67045449630271,-139.67045449630271,-74.367277229544214,2408.7397761306042,0.0
683204.59901257406,4082374.0504322448,-37500.0,-387.18792782922333,729.63691846493725,-714.94313935544665,742.04577445736629,-748.63791759550918,-647.3075134531739,1165.7044702823105,-101.93275684329844,243.18635576765439,-243.18635576765439,101.93275684329844,2240.5830078834019,0.0
688204.59901257406,4082374.0504322448,-37500.0,-510.72635605696831,693.50557991295034,-586.11163496478389,727.2492276165375,-640.72267298435099,-567.24509871978591,1067.1589673412966,-233.5656938913703,306.70413898981155,-306.70413898981155,233.5656938913703,2065.3613591125936,0.0
693204.59901257406,4082374.0504322448,-37500.0,-593.05141954717965,642.74916191094917,-477.82930747683389,692.76541405700232,-542.98867787204517,-490.83453187949101,971.84709410080677,-326.7416686598562,340.34465408022828,-340.34465408022828,326.7416686598562,1890.9278427777663,0.0
698204.59901257406,4082374.0504322448,-37500.0,-642.17699144890457,585.29457088135609,-388.44052270717862,646.97856002099843,-457.23120786483696,-421.15399637935718,881.79815086810368,-388.55060789606563,352.65872403133466,-352.65872403133466,388.55060789606563,1722.7262909313501,0.0
703204.59901257406,4082374.0504322448,-37500.0,-665.63780735038597,526.37302984034102,-315.52474942299085,595.81242914526194,-383.52693511390697,-359.42357669269694,798.16787717908551,-425.77454048370771,350.39848897293359,-350.39848897293359,425.77454048370771,1564.1606341381757,0.0
708204.59901257406,4082374.0504322448,-37500.0,-669.95295826972574,469.23011870645826,-256.50386574278883,543.2568286382176,-321.04941215486014,-305.77042851845499,721.46221480924601,-444.34343720427108,338.65603609738349,-338.65603609738349,444.34343720427108,1417.0853764937708,0.0
713204.59901257406,4082374.0504322448,-37500.0,-660.47288977172184,415.72059905648365,-208.95308588609618,491.86343631996618,-268.56867371193277,-259.72809812455569,651.73597090322812,-449.16453774618856,321.1386052768454,-321.1386052768454,449.16453774618856,1282.2517219734166,0.0
718204.59901257406,4082374.0504322448,-37500.0,-641.43148915737504,366.76708534239464,-170.73700508822191,443.16039737090205,-224.74204301784988,-220.54935661606558,588.75459659816306,-444.15105368879932,300.46656183047963,-300.46656183047963,444.15105368879932,1159.6735852644811,0.0
723204.59901257406,4082374.0504322448,-37500.0,-616.08606463842534,322.69199875675423,-140.04709788354933,397.9714231527019,-188.27054276455291,-187.39148490581636,532.11274815142042,-432.33887926804255,278.43983296696285,-278.43983296696285,432.33887926804255,1048.8986350996306,0.0
533204.59901257406,4087374.0504322448,-37500.0,-73.144975292110516,-370.94984865323102,-274.74138970345626,-153.295947482965,-225.15328329284728,-106.19276960107813,448.72430543905125,67.945070167099971,-438.4760079717804,438.4760079717804,-67.945070167099971,818.81821566182828,0.0
538204.59901257406,4087374.0504322448,-37500.0,-17.795169003266853,-395.35632916581795,-320.15406069378236,-144.36529376246691,-253.18758997038137,-113.93076099475006,492.97602968580804,125.97366420593161,-492.41032230459768,492.41032230459768,-125.97366420593161,891.82468159057214,0.0
543204.59901257406,4087374.0504322448,-37500.0,54.294795189505329,-415.78636653993732,-372.46724705947503,-126.25618327137391,-282.27008330589354,-119.01222509119556,541.97595872838235,198.35335618727393,-549.75531921133518,549.75531921133518,-198.35335618727393,971.43516773111492,0.0
548204.59901257406,4087374.0504322448,-37500.0,146.0640904637574,-429.30619177793955,-431.86137583687048,-95.498109787836185,-310.75596706859477,-119.22718121020131,596.40814344577529,287.08000489697304,-608.74685864539515,608.74685864539515,-287.08000489697304,1058.7906405704184,0.0
553204.59901257406,4087374.0504322448,-37500.0,260.19780469644041,-431.98578920196019,-497.88278532498515,-47.747418556888483,-335.88079362209896,-111.26016228578746,657.27126678417051,393.66989949946651,-666.42863304484626,666.42863304484626,-393.66989949946651,1155.9387804508724,0.0
558204.59901257406,4087374.0504322448,-37500.0,398.54337979538923,-418.79484912856941,-569.01232607120983,22.202989240747172,-353.25947178514843,-90.263932572284105,726.11639386440129,518.57601704013393,-718.23244741925248,718.23244741925248,-518.57601704013393,1266.5588761718757,0.0
563204.59901257406,4087374.0504322448,-37500.0,561.19734812321531,-383.67058708456238,-642.06940024337746,120.20288200625035,-356.25505661083986,-49.344207691841333,805.42357046403674,660.31934870653276,-757.5498713341151,757.5498713341151,-660.31934870653276,1397.0240009696183,0.0
568204.59901257406,4087374.0504322448,-37500.0,745.19420866975156,-319.93675446471519,-711.46172974048432,252.13832552369939,-335.26497902315236,20.992527571405031,899.14980067689669,814.30266701278629,-775.433101846005,775.433101846005,-814.30266701278629,1557.6936550801677,0.0
573204.59901257406,4087374.0504322448,-37500.0,942.80946819325584,-221.33953307461618,-768.37417277174688,422.69148026840526,-277.07231866790863,133.2906946284912,1013.4313776171869,971.36800353598437,-760.69139497524793,760.69139497524793,-971.36800353598437,1763.9500712825059,0.0
578204.59901257406,4087374.0504322448,-37500.0,1139.6864422036856,-84.037830036103443,-800.15661336487267,633.16367245840217,-164.59252395041017,303.20919890906413,1157.3104577521501,1116.3665846961999,-700.83232425678864,700.83232425678864,-1116.3665846961999,2035.9760713369856,0.0
583204.59901257406,4087374.0504322448,-37500.0,1313.3688156188957,90.142016732494568,-790.43945881668083,878.09328248708789,22.372071327865481,548.67719704882597,1343.0714931027649,1227.3728002823102,-584.4862328375018,584.4862328375018,-1227.3728002823102,2396.0425056894987,0.0
588204.59901257406,4087374.0504322448,-37500.0,1433.3986582244017,289.16049444644926,-720.85039529527012,1140.6628742416337,304.40008300343686,887.32138093589549,1584.8872390353647,1276.6935647492853,-406.01342368663774,406.01342368663774,-1276.6935647492853,2862.6487566371925,0.0
593204.59901257406,4087374.0504322448,-37500.0,1464.818307506976,485.66497076140325,-575.47774375452673,1387.5893964504814,696.47927058498931,1331.0608282132659,1892.8946337327955,1235.3560719860084,-172.6468511996095,172.6468511996095,-1235.3560719860084,3441.9280493923579,0.0
598204.59901257406,4087374.0504322448,-37500.0,1377.3062496549014,633.53692476179458,-349.0470328778116,1565.591529336999,1197.6940224360619,1876.7985649739603,2262.323941783271,1082.8699412691019,86.682505601782907,-86.682505601782907,-1082.8699412691019,4117.3825370941167,0.0
603204.59901257406,4087374.0504322448,-37500.0,1161.3219177903713,670.37516665199951,-58.490560538880445,1603.6936699579128,1776.8326815151393,2493.1259456711064,2665.381853562661,822.8310398560393,314.2171079005887,-314.2171079005887,-822.8310398560393,4839.5565406911346,0.0
608204.59901257406,4087374.0504322448,-37500.0,848.85869759400646,531.93071177653815,245.59411105590331,1427.821001897986,2357.8549343389313,3106.0872289728241,3050.3670728732459,500.94201539691989,425.09754894096733,-425.09754894096733,-500.94201539691989,5519.422415604854,0.0
613204.59901257406,4087374.0504322448,-37500.0,527.99570145542305,182.80419181687802,476.31601850977148,993.24154892388628,2815.7004392543495,3593.3239761902682,3346.7609340107811,214.20326053464595,328.02603559769699,-328.02603559769699,-214.20326053464595,6033.3795460666906,0.0
618204.59901257406,4087374.0504322448,-37500.0,330.14928429709164,-342.87063964033433,529.51248641728012,330.06451044870954,2998.9263055170359,3802.8869272469392,3480.5710631023444,91.896669151928776,-29.526062730183682,29.526062730183682,-91.896669151928776,6250.4001355129394,0.0
623204.59901257406,4087374.0504322448,-37500.0,371.86479819561902,-917.80529514592024,330.80723628192101,-425.92306613067404,2789.3808746767922,3609.2992856137744,3403.4295061064331,234.95742888400133,-606.62358284399897,606.62358284399897,-234.95742888400133,6085.1340985093775,0.0
628204.59901257406,4087374.0504322448,-37500.0,670.08956879703294,-1353.8398233733294,-108.76577502589014,-1061.2998389448624,2177.8245654116108,2990.1752495801156,3126.4861664090904,637.32062056790949,-1249.6785572702011,1249.6785572702011,-637.32062056790949,5559.0379296241317,0.0
633204.59901257406,4087374.0504322448,-37500.0,1102.3908923417798,-1495.2256498877964,-675.95925447615377,-1384.1776568944217,1296.4588850503199,2065.9322160746128,2735.981395137138,1158.2908863739249,-1751.0072035207972,1751.0072035207972,-1158.2908863739249,4827.1953030114419,0.0
638204.59901257406,4087374.0504322448,-37500.0,1470.3335006941331,-1308.185501676473,-1207.4383887382173,-1329.1248546375716,363.68331793264446,1052.6829200875352,2365.2349951489909,1593.8883674157992,-1959.8186213187892,1959.8186213187892,-1593.8883674157992,4130.0223413711428,0.0
643204.59901257406,4087374.0504322448,-37500.0,1620.7836828773384,-887.59348693910749,-1574.8204279023919,-977.25528026039865,-423.53730700263293,156.57082763568511,2116.2867077510477,1795.4496314033497,-1854.9310671986407,1854.9310671986407,-1795.4496314033497,3666.5327071840302,0.0
648204.59901257406,4087374.0504322448,-37500.0,1517.2285885640847,-383.42351812819874,-1733.5955346002897,-484.30921587304056,-964.16702028737438,-505.6382663840094,1991.5475032283584,1732.8850915277951,-1525.0998906335765,1525.0998906335765,-1732.8850915277951,3466.615724897943,0.0
653204.59901257406,4087374.0504322448,-37500.0,1220.4378732448929,79.18477811622752,-1712.0411947852213,7.3239792492440179,-1254.8432602614869,-915.05268572664534,1927.1835412504422,1470.3855425709025,-1095.8845406893947,1095.8845406893947,-1470.3855425709025,3411.7940266778237,0.0
658204.59901257406,4087374.0504322448,-37500.0,826.92620105642038,434.06404025310661,-1571.0758761789816,412.18982046308537,-1348.2163712171898,-1113.3133798581562,1867.2174553712819,1104.8405630428165,-669.90712477808847,669.90712477808847,-1104.8405630428165,3374.943453846633,0.0
663204.59901257406,4087374.0504322448,-37500.0,420.98990729788659,666.73524624174138,-1370.7455801555971,700.26063089299726,-1311.0998986455277,-1161.8164461220385,1787.3503087761583,719.76406124931975,-306.08213841742679,306.08213841742679,-719.76406124931975,3292.6088513823438,0.0
668204.59901257406,4087374.0504322448,-37500.0,56.523831240904968,792.39703166815809,-1155.104759837523,876.71719111907896,-1201.0122705974754,-1117.2339692776777,1684.9233076557555,368.53139752770062,-25.745175490175654,25.745175490175654,-368.53139752770062,3152.8498848288173,0.0
673204.59901257406,4087374.0504322448,-37500.0,-241.22572662467178,837.06001193448128,-950.5621675226015,962.51374138608048,-1058.9338978930261,-1022.5363021056349,1566.2701451664116,76.601496618468218,172.9400414423628,-172.9400414423628,-76.601496618468218,2967.2751535756947,0.0
678204.59901257406,4087374.0504322448,-37500.0,-466.81436485213169,826.61953326923845,-769.92056497184274,982.02345469650174,-910.51532844097471,-906.63087960632197,1439.5263566696954,-149.73922615843634,302.56303129257964,-302.56303129257964,149.73922615843634,2753.5658822173368,0.0
683204.59901257406,4087374.0504322448,-37500.0,-625.88297371935664,782.29199451286138,-617.28088025221416,957.04688595888103,-770.007480822312,-787.2248454265972,1311.6722795299825,-314.93919181115172,378.66079609986042,-378.66079609986042,314.93919181115172,2527.8421934157768,0.0
688204.59901257406,4087374.0504322448,-37500.0,-728.92103510212189,719.66528701119182,-491.9243882437018,904.77320548879322,-644.16180985457413,-674.15505429241807,1187.7391828423199,-428.20131769132075,415.77085184066692,-415.77085184066692,428.20131769132075,2302.307259551998,0.0
693204.59901257406,4087374.0504322448,-37500.0,-787.52547180052738,649.3481487345731,-390.87522731583732,837.72555240876875,-535.22277820110787,-572.16399523384973,1070.9186556058298,-499.91297603896277,425.90488741926441,-425.90488741926441,499.91297603896277,2085.1835470511237,0.0
698204.59901257406,4087374.0504322448,-37500.0,-812.47305903045174,578.09654953160384,-310.39940361735103,764.49573421498792,-442.95267263305647,-482.91214315584688,962.95391953315539,-539.80877210418191,418.29373493072836,-418.29373493072836,539.80877210418191,1881.4339622308328,0.0
703204.59901257406,4087374.0504322448,-37500.0,-812.922337979075,509.91278116314845,-246.79277105907707,690.6643367560564,-365.89806675312019,-406.32546213128086,864.55758944892261,-556.20335929920714,399.69262616420724,-399.69262616420724,556.20335929920714,1693.6251621587187,0.0
708204.59901257406,4087374.0504322448,-37500.0,-796.23334107690584,446.935267102078,-196.73872203195378,619.63639185962097,-302.1292886801229,-341.44286651081342,775.7560523914301,-555.80816126272066,374.86108428331062,-374.86108428331062,555.80816126272066,1522.6723962326726,0.0
713204.59901257406,4087374.0504322448,-37500.0,-768.09933528893862,390.10191001044541,-157.43043949080635,553.31876689592912,-249.64795948903321,-286.92754154659758,696.15607296188773,-543.8395756785219,347.04483543670261,-347.04483543670261,543.8395756785219,1368.4304631309881,0.0
718204.59901257406,4087374.0504322448,-37500.0,-732.79567836911417,339.61225055623441,-126.57139430790055,492.62394423264152,-206.5894204120942,-241.35527645643435,625.12968082316365,-524.23867427643438,318.38452643967139,-318.38452643967139,524.23867427643438,1230.1140210425856,0.0
723204.59901257406,4087374.0504322448,-37500.0,-693.45268050107165,295.23751952413721,-102.32225661949018,437.82929261425539,-171.3082312233212,-203.36610402962012,561.93794261290407,-499.91466466541021,290.23706092357543,-290.23706092357543,499.91466466541021,1106.5864278310426,0.0
528204.59901257406,4092374.0504322448,-37500.0,-228.20875055813585,-373.75095736434236,-209.41031345592782,-220.43178092971496,-210.05882278839496,-125.622955921436,449.00368429812409,-68.148331280228632,-378.93567951967952,378.93567951967952,68.148331280228632,840.33490080338493,0.0
533204.59901257406,4092374.0504322448,-37500.0,-199.9833579463687,-409.9559937566018,-247.07622089727451,-229.81623053601851,-241.32707932573501,-141.60766065847483,494.68485706444795,-31.793216336625761,-433.54575941235748,433.54575941235748,31.793216336625761,919.63528968755577,0.0
538204.59901257406,4092374.0504322448,-37500.0,-158.3491079167496,-446.93519137406111,-292.00425895410064,-234.66254628646232,-276.4234791636149,-158.14408530271095,545.11615107370108,16.954082745134627,-495.0213560305383,495.0213560305383,-16.954082745134627,1005.7701979154735,0.0
543204.59901257406,4092374.0504322448,-37500.0,-99.830434624855471,-483.11266190875313,-345.30877351068273,-232.37980186523882,-315.0505705635041,-174.18532115943484,600.62922729737386,80.906655244871558,-563.29311749964734,563.29311749964734,-80.906655244871558,1098.8634970963394,0.0
548204.59901257406,4092374.0504322448,-37500.0,-20.501823875090807,-516.08549460916242,-408.01720605149444,-219.43305330988403,-356.3076483976439,-187.92983951003905,661.56058496687672,163.11472782464392,-637.65577075090778,637.65577075090778,-163.11472782464392,1199.0288191655741,0.0
553204.59901257406,4092374.0504322448,-37500.0,83.787751760276649,-542.36783756228158,-480.84967874629348,-191.13013144453649,-398.3121887684955,-196.43498922402588,728.30806734176429,266.60576422915631,-716.40381849518758,716.40381849518758,-266.60576422915631,1306.5812482672311,0.0
558204.59901257406,4092374.0504322448,-37500.0,216.94422139094308,-557.13937062283082,-563.85419176813627,-141.45587302866383,-437.65194568648258,-195.07859567562275,801.47226730352531,393.89479274710675,-796.34982200266131,796.34982200266131,-393.89479274710675,1422.519597633265,0.0
563204.59901257406,4092374.0504322448,-37500.0,381.78077608243746,-554.08618530772003,-655.84389807398998,-63.061128067561704,-468.63110065426531,-176.84438164506867,882.1584746730191,546.15740966031592,-872.24426271125515,872.24426271125515,-546.15740966031592,1549.4817615477293,0.0
568204.59901257406,4092374.0504322448,-37500.0,578.64559051201945,-525.50643330793559,-753.59640464889071,52.401072525489553,-482.30757882441424,-131.44110649914882,972.5583138567805,721.95675055125639,-936.18813855756844,936.18813855756844,-721.95675055125639,1693.4151842661415,0.0
573204.59901257406,4092374.0504322448,-37500.0,803.41013679861157,-462.97718390549556,-850.83355630129927,213.27817716236115,-465.41046346177654,-44.351149125844209,1076.9696665587016,915.4694327642809,-977.26662781352445,977.26662781352445,-915.4694327642809,1866.0505601643601,0.0
578204.59901257406,4092374.0504322448,-37500.0,1044.8610752820973,-359.02710041079189,-937.15092051219665,425.80336050460949,-399.42499034010837,103.91794486930893,1203.3939211900906,1114.3342496316382,-981.86057535267503,981.86057535267503,-1114.3342496316382,2087.5901908585656,0.0
583204.59901257406,4092374.0504322448,-37500.0,1281.931778789751,-210.35430694724664,-997.36442274335866,690.3133851773606,-260.49340548230407,337.78385420115899,1365.5806143016703,1297.6451162914793,-935.39925693575765,935.39925693575765,-1297.6451162914793,2387.5779893327494,0.0
588204.59901257406,4092374.0504322448,-37500.0,1481.9445418115447,-22.982000440821466,-1012.2009277975801,995.36455089872697,-21.331515084837189,684.63428200179453,1584.1743252665706,1435.2947659228682,-826.57762454335284,826.57762454335284,-1435.2947659228682,2800.5461765144942,0.0
593204.59901257406,4092374.0504322448,-37500.0,1602.1363646151151,180.98409490706578,-961.76615810178225,1309.9686315499871,343.00460154729387,1169.1899958436857,1882.1614658928038,1490.8011460410421,-654.94276619833181,654.94276619833181,-1490.8011460410421,3354.1440132980174,0.0
598204.59901257406,4092374.0504322448,-37500.0,1597.8572882717651,357.05379288732956,-833.33493611100482,1575.8539980223852,843.36983043948499,1801.8443546160156,2269.0503561892456,1430.4729721165143,-441.62396326073059,441.62396326073059,-1430.4729721165143,4051.4769948362596,0.0
603204.59901257406,4092374.0504322448,-37500.0,1440.9282834464423,437.46514638910321,-633.89762442097219,1704.9339456090497,1457.7263947390329,2559.0553373860002,2723.1897182972484,1241.2398105905722,-240.05716670223779,240.05716670223779,-1241.2398105905722,4852.2628640514804,0.0
608204.59901257406,4092374.0504322448,-37500.0,1148.2990379220869,343.96364878935424,-404.47467575000741,1591.9251135079821,2108.4535186261619,3357.4146931795181,3186.255330668032,955.59224839339151,-138.46404235784405,138.46404235784405,-955.59224839339151,5658.2588577104279,0.0
613204.59901257406,4092374.0504322448,-37500.0,810.25203127304451,22.804760717942472,-226.85875327269193,1154.961015593394,2648.5331243771043,4033.3825398834588,3567.5073721480171,671.88280780103059,-240.27229248498475,240.27229248498475,-671.88280780103059,6313.0389363727581,0.0
618204.59901257406,4092374.0504322448,-37500.0,587.79040578914987,-500.64838197102921,-206.62700936891335,406.39728313216392,2882.324956852935,4358.1224249207471,3762.3965255889484,542.36932679746565,-610.58792690844689,610.58792690844689,-542.36932679746565,6634.1943078218374,0.0
623204.59901257406,4092374.0504322448,-37500.0,640.4965843035676,-1081.2927174802664,-420.53493121905996,-483.55217013788712,2645.2798955664193,4122.2240036221438,3695.6934372122555,699.1056014738009,-1202.5582647667236,1202.5582647667236,-699.1056014738009,6491.8412891682528,0.0
628204.59901257406,4092374.0504322448,-37500.0,997.49902140650192,-1489.6394226867244,-848.99057655542083,-1213.8536977436686,1920.0396635480276,3275.6894800127616,3379.0035447517066,1138.8614944175656,-1826.7822468347499,1826.7822468347499,-1138.8614944175656,5911.2931530500891,0.0
633204.59901257406,4092374.0504322448,-37500.0,1487.8984833467919,-1541.9093286571001,-1357.6033040980308,-1512.2794490317999,891.29327201287174,2011.4686458404556,2940.7188938328577,1675.8812356809165,-2233.495950904507,2233.495950904507,-1675.8812356809165,5122.2512228639443,0.0
638204.59901257406,4092374.0504322448,-37500.0,1842.5332483160794,-1224.448929250284,-1769.6958945374847,-1311.7695289777482,-143.80877038637232,677.93412910266363,2573.7153536159071,2051.1440191088973,-2269.0321909564386,2269.0321909564386,-2051.1440191088973,4463.1578428954435,0.0
643204.59901257406,4092374.0504322448,-37500.0,1884.536179717139,-685.67257624657429,-1971.8440407133446,-767.06188513744485,-943.78088169510681,-419.78416012402505,2387.9955814331333,2107.7570848067371,-1959.4926447241148,1959.4926447241148,-2107.7570848067371,4140.4087676623521,0.0
648204.59901257406,4092374.0504322448,-37500.0,1615.2720007573575,-116.88906173310512,-1955.9587390472227,-114.69348557713235,-1418.0550543992188,-1146.5293995772274,2326.4033830795461,1859.0851336955541,-1453.1973772794529,1453.1973772794529,-1859.0851336955541,4078.149000562215,0.0
653204.59901257406,4092374.0504322448,-37500.0,1152.9982693773288,350.33502160350918,-1784.2659919417849,464.52171836040355,-1602.4922739670662,-1521.0691938164089,2284.0119782645934,1423.641498729208,-909.20060139031807,909.20060139031807,-1423.641498729208,4079.6084338429337,0.0
658204.59901257406,4092374.0504322448,-37500.0,632.65622242602285,667.70131509913119,-1534.3982202427114,888.29057180849713,-1585.9685545271259,-1634.3673184054337,2208.0467345428669,930.86363968679075,-431.47000896486429,431.47000896486429,-930.86363968679075,4021.6043543186083,0.0
663204.59901257406,4092374.0504322448,-37500.0,149.81547090482579,843.71961205862669,-1266.8235335388513,1148.3792030485022,-1455.6800019680716,-1584.3202309383414,2091.1551857065601,470.90420365967407,-62.637831476330376,62.637831476330376,-470.90420365967407,3873.8061341241928,0.0
668204.59901257406,4092374.0504322448,-37500.0,-247.76281924867985,910.80452208442341,-1017.3796323333949,1272.533266626654,-1275.591768803627,-1447.4905937213698,1944.42054529604,88.490425307654533,195.30426146902656,-195.30426146902656,-88.490425307654533,3651.9099884507673,0.0
673204.59901257406,4092374.0504322448,-37500.0,-547.21187365109506,904.32843065674899,-802.2065799998561,1298.0181942842203,-1085.2912214149005,-1274.8370810530216,1782.1527727567297,-204.24285188032849,359.43240665753211,-359.43240665753211,204.24285188032849,3383.855006057559,0.0
678204.59901257406,4092374.0504322448,-37500.0,-755.1516325449461,853.61171010031364,-625.18839373913693,1258.804265720471,-906.04107560052387,-1096.6923145788382,1616.2283932295827,-413.17781981566588,452.02985399927252,-452.02985399927252,413.17781981566588,3095.2193620519865,0.0
683204.59901257406,4092374.0504322448,-37500.0,-886.51573493529168,779.87743972977137,-483.87875458810805,1181.3493473482613,-747.35047278193133,-929.24380406487194,1454.8902125708917,-551.81973298594608,493.81952298851644,-493.81952298851644,551.81973298594608,2805.0186485130621,0.0
688204.59901257406,4092374.0504322448,-37500.0,-958.06294518320965,697.17667716782762,-373.24031175201054,1084.4622797674365,-611.95420211658927,-779.84439909357536,1303.1651193283819,-635.32691644044087,501.55246359783939,-501.55246359783939,635.32691644044087,2525.739144494778,0.0
693204.59901257406,4092374.0504322448,-37500.0,-985.21001762265928,614.13614575048973,-287.68177303837638,980.64555646168139,-499.05960369920314,-650.71923365436635,1163.6781608430124,-677.62752804057845,487.74583831181667,-487.74583831181667,677.62752804057845,2264.6812513222853,0.0
698204.59901257406,4092374.0504322448,-37500.0,-980.8241691261793,535.62491166419818,-222.02082525914878,877.70653570104184,-406.28170210792473,-541.34366646981096,1037.4198538115988,-690.33637528824772,461.27656604140464,-461.27656604140464,690.33637528824772,2025.4454430383494,0.0
703204.59901257406,4092374.0504322448,-37500.0,-955.03217938830994,464.06337770035003,-171.84739487220378,780.17213475527728,-330.71719048997204,-449.88266676028132,924.34620209961349,-682.5949826891981,428.19082891660474,-428.19082891660474,682.5949826891981,1809.1768128020015,0.0
708204.59901257406,4092374.0504322448,-37500.0,-915.48818123909894,400.35684845471667,-133.58357346153517,690.3832072398834,-269.49392547787409,-374.01563735104025,823.80605015594244,-661.32238804800568,392.45859976026395,-392.45859976026395,661.32238804800568,1615.4912933333819,0.0
713204.59901257406,4092374.0504322448,-37500.0,-867.79925900569197,344.52424339471742,-104.40962412055454,609.28486874568637,-220.02085983101529,-311.38074312092107,734.82938905133801,-631.60335615019869,356.58567803822075,-356.58567803822075,631.60335615019869,1443.1229070230504,0.0
718204.59901257406,4092374.0504322448,-37500.0,-815.96324943592697,296.10336923405418,-82.143441267339384,536.97157640455828,-180.0747795093427,-259.79286328307296,656.31288733075132,-597.08365702506103,322.07556469174619,-322.07556469174619,597.08365702506103,1290.3549818862791,0.0
723204.59901257406,4092374.0504322448,-37500.0,-762.75578843295659,254.40274690877558,-65.115710384912049,473.05010035394236,-147.80452737490288,-217.33278977636058,587.13386880802386,-560.31728447538353,289.763111951268,-289.763111951268,560.31728447538353,1155.296058500513,0.0
528204.59901257406,4097374.0504322448,-37500.0,-351.31537297041933,-388.10123581945959,-174.69769639566024,-289.35441122467455,-213.16259122559254,-155.58295335837053,491.98708155296077,-169.45573887608543,-350.97759033236957,350.97759033236957,169.45573887608543,935.0377976835772,0.0
533204.59901257406,4097374.0504322448,-37500.0,-339.85765155412594,-432.16407427569527,-208.3674315785303,-312.53744184233665,-248.02229884505633,-179.48075979017912,544.57456503286926,-146.18697171337556,-406.90086653529568,406.90086653529568,146.18697171337556,1029.467791483042,0.0
538204.59901257406,4097374.0504322448,-37500.0,-316.55032693887972,-479.58336937065627,-249.42094131190262,-333.93165329962591,-288.35331230107676,-206.15041790286924,602.89960875244685,-111.43067609468096,-471.56620718540171,471.56620718540171,111.43067609468096,1132.8097749247038,0.0
543204.59901257406,4097374.0504322448,-37500.0,-277.55126927720141,-529.47114495971437,-299.38642972128736,-351.33700514058023,-334.49289996265998,-235.14552200743549,667.276941875744,-61.909834934374373,-545.74489315693768,545.74489315693768,61.909834934374373,1245.0661074349077,0.0
548204.59901257406,4097374.0504322448,-37500.0,-218.2163114804911,-580.21532462765822,-359.95218207281351,-361.53557514179602,-386.38240672285082,-265.38233922088295,737.88852777261525,6.2405883364565966,-629.85008278219857,629.85008278219857,-6.2405883364565966,1365.8609193229361,0.0
553204.59901257406,4097374.0504322448,-37500.0,-133.16228529737307,-629.17700591370544,-432.84971767288073,-359.96376990295158,-443.22692245510314,-294.73204476277408,814.73509470797148,97.363930894869213,-723.61944030633992,723.61944030633992,-97.363930894869213,1494.3761553038521,0.0
558204.59901257406,4097374.0504322448,-37500.0,-16.543122391832878,-672.33240784714155,-519.61386905555253,-340.36103660571007,-502.96405466831192,-319.41202426001485,897.61625231429355,215.96922024965488,-825.65002902179936,825.65002902179936,-215.96922024965488,1629.4150145899898,0.0
563204.59901257406,4097374.0504322448,-37500.0,137.30374654976427,-703.91462105812514,-621.15099120583136,-294.47835967211472,-561.47176822579752,-333.11088850187042,986.20322629975499,366.08093851621368,-932.76538351561032,932.76538351561032,-366.08093851621368,1769.7872310359091,0.0
568204.59901257406,4097374.0504322448,-37500.0,332.62207848228621,-716.19230604468351,-737.0338626724789,-212.02647782847853,-611.45470360048341,-325.79476247929932,1080.3383480934056,550.07338948096071,-1039.2430870621179,1039.2430870621179,-550.07338948096071,1915.3818383022028,0.0
573204.59901257406,4097374.0504322448,-37500.0,570.1595646987588,-699.66763944605566,-864.46277885606696,-81.204328642936275,-641.01224178353959,-282.20656541033367,1180.8265301252068,766.80503808288006,-1136.0531939423038,1136.0531939423038,-766.80503808288006,2069.5223414170241,0.0
578204.59901257406,4097374.0504322448,-37500.0,844.06224465177547,-644.19114591140033,-996.93646823707127,109.61515225368878,-632.07522355549349,-180.24539934292432,1291.1968019851711,1008.9693846136919,-1210.4989205443342,1210.4989205443342,-1008.9693846136919,2243.2752312475673,0.0
583204.59901257406,4097374.0504322448,-37500.0,1137.8838042171856,-541.72863863066664,-1122.9535291247632,368.19343622808873,-559.30126310312926,10.203717865759312,1421.1359513968523,1259.9340078725454,-1247.0495361161052,1247.0495361161052,-1259.9340078725454,2461.5258007189832,0.0
588204.59901257406,4097374.0504322448,-37500.0,1420.6691780310566,-391.57793446780033,-1225.5954937173794,691.73783337525776,-390.75240156430135,326.68880651620219,1591.7994486467292,1491.1247203099831,-1230.635147969226,1230.635147969226,-1491.1247203099831,2767.3297602773596,0.0
593204.59901257406,4097374.0504322448,-37500.0,1645.5819309281412,-208.25340283334401,-1284.5799061962587,1056.649036394733,-92.715451413698418,809.387757851488,1838.5421401599185,1662.3276084476793,-1153.868971498322,1153.868971498322,-1662.3276084476793,3215.6341979401004,0.0
598204.59901257406,4097374.0504322448,-37500.0,1755.5477287657106,-30.331998268836372,-1282.8122352203529,1405.9207968852709,358.09046532019238,1488.1432089123498,2195.6288263897391,1728.7546752183616,-1028.6985166570917,1028.6985166570917,-1728.7546752183616,3848.1101278991773,0.0
603204.59901257406,4097374.0504322448,-37500.0,1701.7426537750216,75.178124096517394,-1218.4499449299424,1639.6767925799957,952.28216469979316,2356.5872491283963,2661.2423141867243,1659.0819779846411,-899.65790283098897,899.65790283098897,-1659.0819779846411,4655.2892246634792,0.0
608204.59901257406,4097374.0504322448,-37500.0,1478.5934280729061,23.087369954736708,-1119.6395281921978,1622.0002647795689,1617.5164314222991,3331.5129888058041,3178.3549274440875,1465.4064875240506,-849.62815077850473,849.62815077850473,-1465.4064875240506,5544.5264843921368,0.0
613204.59901257406,4097374.0504322448,-37500.0,1167.1111713366504,-252.98785297608114,-1052.2104474337916,1226.0489772615786,2194.2109935590793,4209.7359677475997,3637.7694309245844,1234.8629711068279,-981.65523713273672,981.65523713273672,-1234.8629711068279,6330.9398659059989,0.0
618204.59901257406,4097374.0504322448,-37500.0,949.1290375554106,-735.48155812300865,-1103.6760154951717,433.37112192081315,2451.5006161292285,4667.9837533480149,3900.2721462423979,1129.5885012425242,-1360.2882468053858,1360.2882468053858,-1129.5885012425242,6774.4940403509645,0.0
623204.59901257406,4097374.0504322448,-37500.0,1026.574532564737,-1267.0359813321149,-1330.9130940261712,-554.42709414604803,2184.9216657916959,4380.0325576584019,3858.1700986383357,1305.1813776639199,-1924.5784976591087,1924.5784976591087,-1305.1813776639199,6690.9731157076767,0.0
628204.59901257406,4097374.0504322448,-37500.0,1439.3808238874451,-1589.1091340620387,-1694.1475829762721,-1332.0736452324384,1375.9063484274361,3254.370851878889,3528.4571760805748,1757.2815364499854,-2452.3543264919849,2452.3543264919849,-1757.2815364499854,6113.8311096227781,0.0
633204.59901257406,4097374.0504322448,-37500.0,1956.3809169378412,-1509.5565124643315,-2049.7773028559086,-1534.9121750493857,268.45085446852937,1592.5150697709264,3100.3046988266833,2251.9469927937062,-2672.2562027132035,2672.2562027132035,-2251.9469927937062,5370.6930850994613,0.0
638204.59901257406,4097374.0504322448,-37500.0,2233.6545450823896,-1054.8249401513372,-2241.8424506920574,-1116.8124609075307,-768.49353657173606,-69.888874745240827,2821.2263599909479,2485.1998642292529,-2462.1598271543517,2462.1598271543517,-2485.1998642292529,4886.5538081567402,0.0
643204.59901257406,4097374.0504322448,-37500.0,2094.0200955002406,-429.95509735223948,-2207.2952195325242,-343.50845863589973,-1476.0143335848177,-1314.0256704478065,2753.952774890894,2321.3612552910895,-1921.5951593040058,1921.5951593040058,-2321.3612552910895,4785.54523688275,0.0
648204.59901257406,4097374.0504322448,-37500.0,1608.6581380835148,150.61321116902306,-1989.4933929810079,455.99122545928213,-1803.0796321358357,-2016.4951846407173,2753.5514408043337,1844.4203154160764,-1257.5278861834481,1257.5278861834481,-1844.4203154160764,4846.61795130888,0.0
653204.59901257406,4097374.0504322448,-37500.0,966.02201238323062,572.28212380766195,-1677.2796350646918,1079.5684392696637,-1836.7518099221975,-2269.9631822397514,2704.2016530883934,1232.2633373856888,-641.7765041123763,641.7765041123763,-1232.2633373856888,4848.1805813938345,0.0
658204.59901257406,4097374.0504322448,-37500.0,331.65035048736434,818.21131927621946,-1348.2979239314029,1471.3197794301634,-1697.1700452026357,-2233.0473814524175,2582.6635667986848,634.40355980602396,-158.1634786382823,158.1634786382823,-634.40355980602396,4715.4272964137108,0.0
663204.59901257406,4097374.0504322448,-37500.0,-202.10224517923552,921.93604932835603,-1048.8949368150263,1659.3822216987064,-1480.3437585425515,-2042.1311637257181,2406.9599503898489,131.89066478379101,179.09876151242196,-179.09876151242196,-131.89066478379101,4464.2401910808776,0.0
668204.59901257406,4097374.0504322448,-37500.0,-604.91866716449044,928.90774405260811,-798.20478548256767,1698.9696663113473,-1246.2502186513639,-1788.5368465224947,2202.1677214947886,-250.06392592735557,390.62436773927396,-390.62436773927396,250.06392592735557,4137.2763926367215,0.0
673204.59901257406,4097374.0504322448,-37500.0,-882.2040364099289,878.36106426329241,-598.72313532178805,1643.0276293619979,-1026.2725242584997,-1525.1354336877735,1988.6036337739031,-517.69674596731261,507.1904942421798,-507.1904942421798,517.69674596731261,3774.7663115815867,0.0
678204.59901257406,4097374.0504322448,-37500.0,-1054.5144825115672,798.55345886706607,-445.02103842941352,1532.5358040350793,-833.70840850432444,-1278.9427444560654,1779.837171903238,-690.21726933985678,557.71740053143776,-557.71740053143776,690.21726933985678,3406.3041321418891,0.0
683204.59901257406,4097374.0504322448,-37500.0,-1145.8236738235955,707.76168458098334,-329.02098898897793,1395.9187698202636,-671.85806913665431,-1061.4950477142568,1583.8114948105222,-789.45967956116135,565.20231321563767,-565.20231321563767,789.45967956116135,3050.9220462680441,0.0
688204.59901257406,4097374.0504322448,-37500.0,-1178.0899805907059,616.83471098468294,-242.63750543223739,1251.4599056011712,-539.12013147896096,-875.7712520938544,1404.4906644936636,-835.1897230192784,546.39447151630191,-546.39447151630191,835.1897230192784,2719.4715590583296,0.0
693204.59901257406,4097374.0504322448,-37500.0,-1169.3543434802086,531.63039446311109,-178.85669778289764,1110.1298248865162,-431.87939913529186,-720.40787260242553,1243.2657740373716,-843.53095177158093,512.82528643195133,-512.82528643195133,843.53095177158093,2417.1418776828273,0.0
698204.59901257406,4097374.0504322448,-37500.0,-1133.5357280607006,454.86908397042589,-132.01443755968558,977.9605821566571,-346.0113152850476,-592.12034181154525,1099.9726007409931,-826.86635919802688,472.09797790416945,-472.09797790416945,826.86635919802688,2145.4711188430147,0.0
703204.59901257406,4097374.0504322448,-37500.0,-1080.9272271718055,387.40943285400357,-97.720347960284158,857.80971411169958,-277.5962792101285,-487.02375091461653,973.57917778919466,-794.33026578383021,429.02845824610074,-429.02845824610074,794.33026578383021,1903.7954009177097,0.0
708204.59901257406,4097374.0504322448,-37500.0,-1018.8948123392778,329.07438914172815,-72.655289331026736,750.58624187497162,-223.20764011797885,-401.30552476596358,862.62733001035485,-752.45674277503247,386.53114157169637,-386.53114157169637,752.45674277503247,1690.2284763320952,0.0
713204.59901257406,4097374.0504322448,-37500.0,-952.55983412454896,279.1624563309486,-54.348750446729134,656.06751189043462,-179.98337516611983,-331.53098035887803,765.50559418632088,-705.79801328318092,346.26229329087357,-346.26229329087357,705.79801328318092,1502.2968434607708,0.0
718204.59901257406,4097374.0504322448,-37500.0,-885.37633741495097,236.75026619904517,-40.979426768367347,573.42130092197635,-145.5962652599807,-274.74760309415285,680.60621116435607,-657.44105305951962,309.06683433562915,-309.06683433562915,657.44105305951962,1337.3269701674587,0.0
723204.59901257406,4097374.0504322448,-37500.0,-819.59484889857117,200.86581743919828,-31.212776251665737,501.5334538427594,-118.18566823596809,-228.48942832234746,606.41465065979037,-609.41785065470026,275.28281993242939,-275.28281993242939,609.41785065470026,1192.6806766377001,0.0
528204.59901257406,4102374.0504322448,-37500.0,-479.0127629096699,-384.72828267786775,-133.98552837021222,-359.92297589376278,-207.00932406705826,-186.0443044462825,536.1652736227926,-277.56668474506597,-304.76581748931363,304.76581748931363,277.56668474506597,1032.0038731298446,0.0
533204.59901257406,4102374.0504322448,-37500.0,-487.00619335065414,-433.46044867457266,-161.37329636149983,-398.26119878812523,-243.26487799797138,-218.41868835737111,596.59164397302231,-270.38408004277682,-357.74027889613598,357.74027889613598,270.38408004277682,1143.5682470985573,0.0
538204.59901257406,4102374.0504322448,-37500.0,-485.73183261873976,-487.68035462747071,-195.46985159793977,-438.24067433109434,-286.13542209870087,-256.1399121225698,664.19250008277209,-253.67638591540225,-420.36063815600215,420.36063815600215,253.67638591540225,1267.1243632870846,0.0
543204.59901257406,4102374.0504322448,-37500.0,-471.3011214339553,-547.22640335593292,-237.96636924137533,-478.35328852219516,-336.52064636983766,-299.56170791736696,739.46264956306823,-224.02015308184357,-494.07679900126652,494.07679900126652,224.02015308184357,1403.0114080257254,0.0
548204.59901257406,4102374.0504322448,-37500.0,-438.73253142523191,-611.39858861381697,-290.90518188280384,-516.11601210810556,-395.15875307258978,-348.62365651537766,822.70471142525128,-177.11042654407046,-580.28308576687527,580.28308576687527,177.11042654407046,1551.0174773972606,0.0
553204.59901257406,4102374.0504322448,-37500.0,-381.83217570669018,-678.65868851549794,-356.67468270067917,-547.66016043552145,-462.36229181801781,-402.47346756771071,913.89584069207478,-107.69810588002025,-680.09547607222521,680.09547607222521,107.69810588002025,1710.10020545663,0.0
558204.59901257406,4102374.0504322448,-37500.0,-293.21682401571991,-746.23179157467553,-437.92626968947661,-567.21953115671784,-537.56829595931197,-458.85815484498352,1012.5161751287521,-9.6663258309166054,-793.98328653185877,793.98328653185877,9.6663258309166054,1878.0699340786318,0.0
563204.59901257406,4102374.0504322448,-37500.0,-164.63932430538446,-809.62345931684308,-537.34562600329912,-566.5578904553189,-618.6089298291314,-513.17729365593914,1117.3584174039752,123.61451654538166,-921.20281709501421,921.20281709501421,-123.61451654538166,2051.32917821092,0.0
568204.59901257406,4102374.0504322448,-37500.0,12.126476996994903,-862.13324708561674,-657.17922800570693,-534.46563999307057,-700.59152750889041,-557.07203172486561,1226.3903011240018,298.43655146547093,-1059.0001117648499,1059.0001117648499,-298.43655146547093,2224.9171879771789,0.0
573204.59901257406,4102374.0504322448,-37500.0,243.46750567022522,-894.58356705654478,-798.39379108008598,-456.63297447970075,-774.29670959690691,-576.44206933243686,1336.8651264868331,519.1095650969437,-1201.6284138702474,1201.6284138702474,-519.1095650969437,2393.4245546463708,0.0
578204.59901257406,4102374.0504322448,-37500.0,530.73857493774426,-895.7338347752484,-959.37892653611402,-316.51808577932269,-824.13427819988692,-548.90760082593772,1446.1585077150071,785.20297584240484,-1339.4334995048969,1339.4334995048969,-785.20297584240484,2553.9081230159677,0.0
583204.59901257406,4102374.0504322448,-37500.0,865.40556462089955,-854.22233478010628,-1134.2919841017847,-98.305550410881523,-826.08237285984978,-441.11845843230424,1554.4363570356552,1087.5612282562352,-1458.687871955548,1458.687871955548,-1087.5612282562352,2712.6477874249395,0.0
588204.59901257406,4102374.0504322448,-37500.0,1222.9814317716755,-763.21578631890429,-1311.6553785963229,206.43089429904353,-746.89475972618789,-207.21407242906091,1671.3893265213324,1403.7280346129282,-1543.5319990688304,1543.5319990688304,-1403.7280346129282,2897.1897190001614,0.0
593204.59901257406,4102374.0504322448,-37500.0,1558.0586201436349,-628.68762501741992,-1474.7438157521981,586.68884883475312,-547.34338871153216,208.5035701190028,1828.9043591085233,1695.0682011442927,-1581.9936021424687,1581.9936021424687,-1695.0682011442927,3169.1269722468369,0.0
598204.59901257406,4102374.0504322448,-37500.0,1805.8415365282958,-480.22112354970704,-1606.1974869581218,994.60177122701089,-193.91837233249262,858.93548472582779,2085.5827120409785,1910.3040118034025,-1577.4465175322619,1577.4465175322619,-1910.3040118034025,3616.6433341272123,0.0
603204.59901257406,4102374.0504322448,-37500.0,1898.5663983671323,-378.35521543515284,-1698.4753602082369,1327.8795743776798,316.71411893525624,1763.2738711568761,2482.2809765893194,2001.7205739074641,-1562.9991623574354,1562.9991623574354,-2001.7205739074641,4300.0621634510744,0.0
608204.59901257406,4102374.0504322448,-37500.0,1804.1679393364898,-406.10461862225429,-1766.8235855996561,1428.0603397373295,921.84886365263822,2851.0337931451177,2984.8090450628138,1957.368543762997,-1608.2664729979506,1608.2664729979506,-1957.368543762997,5171.8957401107737,0.0
613204.59901257406,4102374.0504322448,-37500.0,1582.3902137977443,-630.47163022139443,-1853.2475869263144,1125.4339357193569,1461.7914750086702,3890.806592662932,3479.1189569047738,1840.7257346876459,-1799.9662089597655,1799.9662089597655,-1840.7257346876459,6038.714006871769,0.0
618204.59901257406,4102374.0504322448,-37500.0,1417.8993446414665,-1033.0191601709002,-2006.5290974640982,363.62494440569458,1694.0383600053835,4464.319999131797,3797.7185309257329,1802.8933275084485,-2180.6541560319774,2180.6541560319774,-1802.8933275084485,6606.5869741488477,0.0
623204.59901257406,4102374.0504322448,-37500.0,1539.0589097987352,-1451.1320384917326,-2235.6647728634321,-634.09915895074312,1404.0288813958866,4113.0315073803959,3806.9429963099092,2002.4012847236277,-2662.5667193895792,2662.5667193895792,-2002.4012847236277,6635.3144797444111,0.0
628204.59901257406,4102374.0504322448,-37500.0,1986.7141782509268,-1626.5734861129772,-2468.5896748914815,-1362.2297927585209,591.45282854365337,2700.0980310073692,3547.2081510766093,2424.7015797496065,-3005.7847667966348,3005.7847667966348,-2424.7015797496065,6171.7642583256011,0.0
633204.59901257406,4102374.0504322448,-37500.0,2467.5039597688119,-1396.8035389682616,-2577.728494577525,-1377.3881311364632,-452.47418018757207,668.04699175602786,3253.4469727114783,2797.7472938318701,-2961.5143367630694,2961.5143367630694,-2797.7472938318701,5636.7286988926799,0.0
638204.59901257406,4102374.0504322448,-37500.0,2583.4836702963103,-843.74623351494597,-2476.6583035017184,-689.77946717282646,-1334.8908968748756,-1230.6031567268885,3149.6625227093309,2805.5542285685679,-2482.2192588794396,2482.2192588794396,-2805.5542285685679,5455.3996786050584,0.0
643204.59901257406,4102374.0504322448,-37500.0,2197.6137091414957,-206.52655829086194,-2184.5069088739856,300.97297614621908,-1832.9297169794017,-2485.4315287218137,3209.9760192990352,2372.4177168121464,-1747.2767732257269,1747.2767732257269,-2372.4177168121464,5575.9154060906003,0.0
648204.59901257406,4102374.0504322448,-37500.0,1476.1535684268156,315.25639826883543,-1791.9971970020977,1190.1165417115399,-1958.0866681261107,-3034.3770235033053,3231.5505430736043,1667.2020199438603,-993.79381274830484,993.79381274830484,-1667.2020199438603,5686.3172421171166,0.0
653204.59901257406,4102374.0504322448,-37500.0,671.6789445884815,647.49788961435399,-1390.8742553744084,1788.7171392681998,-1838.4446303469852,-3074.2553683548713,3135.3645177719286,912.84147516693838,-373.28027630749835,373.28027630749835,-912.84147516693838,5617.4624445746867,0.0
658204.59901257406,4102374.0504322448,-37500.0,-40.420385222795446,807.46921627208781,-1037.1351444535455,2091.008499237892,-1602.7161894779676,-2833.6299798068371,2942.2578279063391,256.12394152541128,68.225062738451115,-68.225062738451115,-256.12394152541128,5365.677376751114,0.0
663204.59901257406,4102374.0504322448,-37500.0,-588.15615628952298,845.35430835415934,-751.53180845331747,2168.7612785674178,-1336.7039046116397,-2476.6060132081016,2694.4379349111778,-246.85239666321871,347.46441505431977,-347.46441505431977,246.85239666321871,4989.9086058638422,0.0
668204.59901257406,4102374.0504322448,-37500.0,-966.94926295591586,809.79110611118972,-533.34205144104283,2102.3884773312966,-1085.4127667196792,-2097.6682002500988,2426.7553227410613,-596.79111694198127,502.91057489108562,-502.91057489108562,596.79111694198127,4551.7675547386352,0.0
673204.59901257406,4102374.0504322448,-37500.0,-1202.2662058928076,736.62491443849046,-372.51096841862483,1955.4467679948234,-867.33477814411856,-1743.3856651020069,2161.9167911659788,-818.67859304174794,572.93069127721333,-572.93069127721333,818.67859304174794,4097.1056322558234,0.0
678204.59901257406,4102374.0504322448,-37500.0,-1327.3150976525915,648.83949159604424,-256.76505740014636,1771.3064285174059,-686.67885382244958,-1432.6367751417804,1912.7680341667806,-942.9409651936536,588.1280612765778,-588.1280612765778,942.9409651936536,3655.1420169474941,0.0
683204.59901257406,4102374.0504322448,-37500.0,-1372.9551514835209,559.77948955146041,-174.84988620535128,1577.0556618016194,-541.01988824981311,-1169.7863711062951,1685.5104803215684,-997.16949080041286,570.46274203864618,-570.46274203864618,997.16949080041286,3242.3443162273447,0.0
688204.59901257406,4102374.0504322448,-37500.0,-1364.3325178846783,476.43833202036376,-117.59802630336682,1388.3722646692679,-425.44538481002706,-952.25951963240175,1482.2593969680038,-1003.5402072579581,534.73096705522801,-534.73096705522801,1003.5402072579581,2866.5536526199558,0.0
693204.59901257406,4102374.0504322448,-37500.0,-1320.5533703702351,401.93714483312618,-77.992429525335197,1213.4895768311671,-334.58701250626348,-774.63045057361251,1302.7760844514521,-978.74708280808181,490.45458722245598,-490.45458722245598,978.74708280808181,2530.1825429123514,0.0
698204.59901257406,4102374.0504322448,-37500.0,-1255.4966914351487,337.18090149908761,-50.853733446852146,1056.0215987036643,-263.50802540459199,-630.7278563349355,1145.5692227468251,-934.83709099565635,443.50958449150221,-443.50958449150221,934.83709099565635,2232.4436266388157,0.0
703204.59901257406,4102374.0504322448,-37500.0,-1178.9066735434292,281.89293139035919,-32.443638282436282,916.85011088883084,-208.01249357127077,-514.64594856919894,1008.5672210301606,-880.2306529005657,397.35095270473971,-397.35095270473971,880.2306529005657,1970.8146232621325,0.0
708204.59901257406,4102374.0504322448,-37500.0,-1097.418945252304,235.23154143209436,-20.102459454835703,795.33578839777704,-164.68344246968073,-421.16802472835548,889.51406009403627,-820.64883231771637,353.87425225408828,-353.87425225408828,820.64883231771637,1741.9616656826367,0.0
713204.59901257406,4102374.0504322448,-37500.0,-1015.4091688990612,196.14129075306801,-11.955529618921812,690.07015037532722,-130.80670619291038,-345.88609732928427,786.19126821824682,-759.86547540008462,313.99804644236144,-313.99804644236144,759.86547540008462,1542.2972557477715,0.0
718204.59901257406,4102374.0504322448,-37500.0,-935.65095063204046,163.54326219653461,-6.6898109893863573,599.32753904146512,-104.25857278455305,-285.17418658476743,696.53396883396249,-700.28243837175251,278.04759797979744,-278.04759797979744,700.28243837175251,1368.302023121553,0.0
723204.59901257406,4102374.0504322448,-37500.0,-859.80471453527423,136.42970066088353,-3.3897595619476344,521.32413078519323,-83.39175411052824,-236.09864362322747,618.68159622536871,-643.3527106108869,246.0016407503125,-246.0016407503125,643.3527106108869,1216.6934383823793,0.0
523204.59901257406,4107374.0504322448,-37500.0,-573.1304785882171,-318.58752733778601,-75.2156875780897,-380.62009763079487,-161.65565500440266,-181.63079477456904,519.13145127196265,-371.96320308981836,-203.75951278914573,203.75951278914573,371.96320308981836,1011.8123959301896,0.0
528204.59901257406,4107374.0504322448,-37500.0,-605.22433385540501,-361.71626127587439,-90.633546174210139,-429.01264245722689,-190.77125341937912,-215.72801337294925,579.84133361728368,-387.02089144060864,-241.64169972787732,241.64169972787732,387.02089144060864,1126.9127564509688,0.0
533204.59901257406,4107374.0504322448,-37500.0,-634.01962507121289,-411.0218274890658,-110.18381150505229,-482.97899597298203,-225.75876080697981,-256.69726557571403,648.59825944795261,-397.76732252220938,-287.30703179411216,287.30703179411216,397.76732252220938,1256.4414714982217,0.0
538204.59901257406,4107374.0504322448,-37500.0,-656.90302689414273,-467.11318007178863,-135.09115480765044,-542.45255474960459,-267.76658023107473,-305.78437914250731,726.3112105982301,-401.81546970527654,-342.35194664244068,342.35194664244068,401.81546970527654,1401.713013302287,0.0
543204.59901257406,4107374.0504322448,-37500.0,-670.25529714825336,-530.44576787772701,-166.94285940232757,-606.86587728481925,-318.06774132217362,-364.29048816166755,813.8416029489822,-395.9267523001372,-408.61676897372297,408.61676897372297,395.9267523001372,1563.783860281849,0.0
548204.59901257406,4107374.0504322448,-37500.0,-669.17100543985043,-601.15823080565076,-207.7774640852063,-674.84158059146387,-377.98199062583524,-433.42119099135948,911.89462790972038,-375.78745351195209,-488.1505316214417,488.1505316214417,375.78745351195209,1743.1886934719062,0.0
553204.59901257406,4107374.0504322448,-37500.0,-647.16242321392406,-678.82147684178369,-260.17447477417647,-743.74747655610554,-448.7066976219312,-513.99592334796819,1020.8475426166129,-335.78001325739723,-583.10904774659912,583.10904774659912,335.78001325739723,1939.5486533542201,0.0
558204.59901257406,4107374.0504322448,-37500.0,-595.90970858342541,-762.071321477742,-327.32182591984616,-809.0817117605668,-530.99169077225952,-605.92570779848677,1140.4901583081053,-268.80512495964064,-695.54009337604771,695.54009337604771,268.80512495964064,2151.0193443937646,0.0
563204.59901257406,4107374.0504322448,-37500.0,-505.18901944941211,-848.1044898869801,-413.01347709305105,-863.67276112900447,-624.55892154509831,-707.32169222946004,1269.6530922085494,-166.26930192365506,-826.99154889680335,826.99154889680335,166.26930192365506,2373.5717323156728,0.0
568204.59901257406,4107374.0504322448,-37500.0,-363.22917831660482,-932.05422785951555,-521.48936768521514,-896.74003454729825,-727.12644623453605,-813.03877072893056,1405.7130232159484,-18.450946668961933,-977.86562411241607,977.86562411241607,18.450946668961933,2600.1788268931041,0.0
573204.59901257406,4107374.0504322448,-37500.0,-157.93110135882029,-1006.3659498120051,-656.97589992734538,-893.01606886861191,-832.86924397105042,-912.41021164204676,1544.0240968523244,184.39672064014053,-1146.4653641669524,1146.4653641669524,-184.39672064014053,2820.200253257035,0.0
578204.59901257406,4107374.0504322448,-37500.0,120.38395901093295,-1060.5255917066554,-822.73574285338077,-832.46729876724157,-930.19473568099102,-985.94882551677676,1677.4990278030373,449.67830750225659,-1327.7997051520574,1327.7997051520574,-449.67830750225659,3019.764642761023,0.0
583204.59901257406,4107374.0504322448,-37500.0,473.89131628073824,-1081.9375874199486,-1019.4777726933207,-691.79915555284072,-998.99594624375459,-1001.0669110799068,1797.0630530377057,778.24291192397186,-1512.5687760761052,1512.5687760761052,-778.24291192397186,3185.0431284388042,0.0
588204.59901257406,4107374.0504322448,-37500.0,889.44639956610922,-1059.3745824814821,-1243.3107469542888,-449.93105270887031,-1008.3968989419071,-907.80620867053835,1895.0726789835903,1158.2051060857791,-1687.5028206119694,1687.5028206119694,-1158.2051060857791,3312.1589532378543,0.0
593204.59901257406,4107374.0504322448,-37500.0,1329.5462387904724,-990.71855530663242,-1484.3510758532839,-100.54032069430804,-917.87449686097239,-637.92302958364792,1977.2951248037257,1558.4240413982673,-1839.294970370727,1839.294970370727,-1558.4240413982673,3428.5671263867312,0.0
598204.59901257406,4107374.0504322448,-37500.0,1728.0050933255327,-895.01951039727282,-1728.5325192279638,326.23770532018813,-687.38003854008002,-115.04354074519557,2090.7498489829077,1926.8769459973398,-1964.5399393177811,1964.5399393177811,-1926.8769459973398,3621.3064568411405,0.0
603204.59901257406,4107374.0504322448,-37500.0,2001.9688387189694,-822.67744715909396,-1965.2260943423989,737.43768696032453,-302.98505629175412,711.30793027701191,2322.6433800532286,2202.8859198517557,-2084.0813783893091,2084.0813783893091,-2202.8859198517557,4027.5768405911053,0.0
608204.59901257406,4107374.0504322448,-37500.0,2092.0594817330971,-847.86466466154366,-2197.5786353822295,965.71194615922002,183.18655183974778,1795.5825978876501,2684.015843198099,2349.5946059363059,-2249.265405244153,2249.265405244153,-2349.5946059363059,4719.3441570423747,0.0
613204.59901257406,4107374.0504322448,-37500.0,2027.0591827830108,-1026.3550673906914,-2440.8871405926357,811.79633705078447,621.4179019387343,2898.239335120988,3079.1874477670544,2397.7716547902064,-2517.840795653753,2517.840795653753,-2397.7716547902064,5559.6420786955841,0.0
618204.59901257406,4107374.0504322448,-37500.0,1970.2658697325683,-1326.4738166325528,-2694.3105578699965,185.70086979309451,788.06664544023704,3533.0875826854694,3387.4094683569119,2464.9981073599806,-2890.4711106424352,2890.4711106424352,-2464.9981073599806,6223.8080135022965,0.0
623204.59901257406,4107374.0504322448,-37500.0,2144.3211724491021,-1587.8037001455054,-2902.9036547671321,-685.49763970810602,506.21687463846695,3134.9745347847002,3546.778742688226,2684.2067871315558,-3244.3034957211885,3244.3034957211885,-2684.2067871315558,6418.5490705883003,0.0
628204.59901257406,4107374.0504322448,-37500.0,2575.7948950226778,-1593.2364646749361,-2962.3491966545685,-1238.3423245481556,-181.39328048630429,1536.8836304237891,3539.7995423415105,3022.6994401642723,-3351.8092892335981,3351.8092892335981,-3022.6994401642723,6189.5984777773119,0.0
633204.59901257406,4107374.0504322448,-37500.0,2933.0551601568054,-1252.042903533679,-2791.9892902787888,-1001.8128198240977,-979.32642779174557,-684.72751635656084,3448.4727544535663,3201.6979681198895,-3041.6568656320792,3041.6568656320792,-3201.6979681198895,5978.5851712726871,0.0
638204.59901257406,4107374.0504322448,-37500.0,2817.8621920555256,-693.99945581381041,-2409.6015588778064,-67.608972475889246,-1558.3824986751085,-2607.4758108370852,3511.0566605934314,2943.8969364943041,-2362.9750347214776,2362.9750347214776,-2943.8969364943041,6094.6040606661682,0.0
643204.59901257406,4107374.0504322448,-37500.0,2171.6655703153119,-141.16377623009126,-1918.1238699463165,1057.0135557160861,-1786.7592612760038,-3695.7474890369872,3654.1305053885108,2258.3479390662224,-1541.2947134002554,1541.2947134002554,-2258.3479390662224,6336.0532101829185,0.0
648204.59901257406,4107374.0504322448,-37500.0,1249.808145330112,263.16750347834807,-1429.1715826618813,1943.084650799422,-1730.1795257885572,-3984.2406273152287,3652.0178303734237,1382.1786243131169,-794.94232476740444,794.94232476740444,-1382.1786243131169,6408.2257481876932,0.0
653204.59901257406,4107374.0504322448,-37500.0,338.60076470869643,492.21129287023041,-1011.1346568236312,2449.0724023621678,-1519.3990470408951,-3766.959901006057,3486.5536724893491,551.58471787611631,-230.00698524012105,230.00698524012105,-551.58471787611631,6227.5514121689503,0.0
658204.59901257406,4107374.0504322448,-37500.0,-401.55546637242486,583.25876531618246,-686.23131277947982,2626.263532176446,-1258.9852586458917,-3318.0756780855809,3217.7204005286153,-110.65815398118134,144.84451779585453,-144.84451779585453,110.65815398118134,5850.1582927954523,0.0
663204.59901257406,4107374.0504322448,-37500.0,-929.09585288091489,586.56597817546924,-448.92189204506934,2582.5029736969609,-1007.5976200152056,-2808.2863741710971,2903.5154701316369,-579.74397649467721,366.10072173294532,-366.10072173294532,579.74397649467721,5361.9180395680642,0.0
668204.59901257406,4107374.0504322448,-37500.0,-1265.1769444566883,542.64853318959797,-282.79904510808944,2413.3820165961006,-789.92648007709022,-2322.6889806641652,2582.7411884988023,-879.99187820391535,478.72644854195732,-478.72644854195732,879.99187820391535,4832.2734395008529,0.0
673204.59901257406,4107374.0504322448,-37500.0,-1451.4827999975023,478.20034651259175,-170.10240373214691,2185.4707123969933,-611.8923717550108,-1895.6562282265527,2277.2751170767892,-1050.2173996487643,520.73814015032281,-520.73814015032281,1050.2173996487643,4306.5637252962906,0.0
678204.59901257406,4107374.0504322448,-37500.0,-1529.6848711903133,408.79612014845662,-95.616540091794732,1939.9124999956434,-470.87664674222287,-1535.7628628249845,1997.7026203471478,-1127.4921734372504,519.84875252509005,-519.84875252509005,1127.4921734372504,3810.7222348745004,0.0
683204.59901257406,4107374.0504322448,-37500.0,-1534.2498837875253,342.60695557179656,-47.610083601940246,1700.0518291309036,-361.23298308243551,-1239.804192373168,1747.8973138949646,-1141.8192602473919,494.74174917464097,-494.74174917464097,1141.8192602473919,3357.5581192662899,0.0
688204.59901257406,4107374.0504322448,-37500.0,-1491.2949520777765,283.33889511218081,-17.5445839663148,1477.8899141904976,-276.8756320314132,-999.95241677983699,1528.0073999349811,-1115.6191348692332,457.39411448110798,-457.39411448110798,1115.6191348692332,2951.7012590917911,0.0
693204.59901257406,4107374.0504322448,-37500.0,-1419.6310620885699,232.19147494384057,0.58097633021270967,1278.5823750211337,-212.33316135258227,-807.22818294326498,1336.2597410871351,-1064.8741924847336,415.17601842002961,-415.17601842002961,1064.8741924847336,2592.9926736522784,0.0
698204.59901257406,4107374.0504322448,-37500.0,-1332.3296477165836,189.05669161496726,10.889462379418365,1103.3431572172176,-163.06690899612454,-653.08083533843194,1170.0083920746708,-1000.6001940953487,372.43114235700739,-372.43114235700739,1000.6001940953487,2278.6694928496963,0.0
703204.59901257406,4107374.0504322448,-37500.0,-1238.1968811851709,153.21503631625913,16.168510234525332,951.24988909105821,-125.46953715042541,-530.01681286233429,1026.3280422547605,-930.17081225930201,331.57543578302244,-331.57543578302244,930.17081225930201,2004.7235187350602,0.0
708204.59901257406,4107374.0504322448,-37500.0,-1142.9763925964126,123.72016884957729,18.280023127950489,820.33382061350176,-96.742876664925461,-431.75931603689577,902.3361679674814,-858.37248340090537,293.82857387791768,-293.82857387791768,858.37248340090537,1766.7147830782269,0.0
713204.59901257406,4107374.0504322448,-37500.0,-1050.2673448964504,99.600224269234999,18.45441378402565,708.21826760007468,-74.747204468009969,-353.19140232099591,795.35638997335388,-788.19614883897225,259.68833408012256,-259.68833408012256,788.19614883897225,1560.2378765270391,0.0
718204.59901257406,4107374.0504322448,-37500.0,-962.19830100982495,79.954376204626598,17.496055968292684,612.47621479005113,-57.859512746991861,-290.21102815318915,702.98879326016572,-721.41080904928958,229.23202937078833,-229.23202937078833,721.41080904928958,1381.169217118859,0.0
723204.59901257406,4107374.0504322448,-37500.0,-879.90888713667164,63.991606086529636,15.924296004127719,530.81732203750039,-44.853776698319258,-239.56367203300522,623.12751957119883,-658.96913185317726,202.30454712105842,-202.30454712105842,658.96913185317726,1225.7805852162687,0.0
523204.59901257406,4112374.0504322448,-37500.0,-673.81573815624733,-279.48832236842628,-40.113200990891229,-432.85772781476794,-138.88245785408793,-202.97590866887285,553.81695283245301,-461.09056285309316,-136.5617281057994,136.5617281057994,461.09056285309316,1085.9098820820616,0.0
528204.59901257406,4112374.0504322448,-37500.0,-723.15912704807999,-318.63999214020112,-48.657015703179411,-493.17680919352995,-164.34532892130483,-243.23194335849817,621.24813097508445,-491.4930346811505,-164.61971032286141,164.61971032286141,491.4930346811505,1215.2628899664137,0.0
533204.59901257406,4112374.0504322448,-37500.0,-772.39417937580686,-363.91736030852792,-59.871813242235717,-562.16041266315926,-195.17065064993403,-292.38167704631184,698.28087859205721,-520.43231028368325,-199.08319089764097,199.08319089764097,520.43231028368325,1362.2539239890903,0.0
538204.59901257406,4112374.0504322448,-37500.0,-819.41628349251107,-416.15928008937686,-74.692467980412587,-640.59318512341827,-232.5201356496928,-352.39910642779671,786.22012998982029,-545.97587510665119,-241.48698530657222,241.48698530657222,545.97587510665119,1528.9738902911149,0.0
543204.59901257406,4112374.0504322448,-37500.0,-861.10642507675857,-476.18918809661164,-94.391907780825676,-728.98113375326773,-277.75198736091613,-425.58919453210876,886.42250381508541,-565.33079508608546,-293.70755267830407,293.70755267830407,565.33079508608546,1717.4272718447967,0.0
548204.59901257406,4112374.0504322448,-37500.0,-892.96951439551515,-544.71126081778903,-120.69841236939213,-827.27841461141838,-332.39702200360193,-514.5397202109765,1000.2041384492913,-574.54578858985838,-358.00452010711996,358.00452010711996,574.54578858985838,1929.2808270177857,0.0
553204.59901257406,4112374.0504322448,-37500.0,-908.69074795632969,-622.13524029389816,-155.94473134702048,-934.46008949083694,-398.07461313855771,-621.96492714406645,1128.677991793872,-568.14778306307539,-437.03642245028351,437.03642245028351,568.14778306307539,2165.4561836811026,0.0
558204.59901257406,4112374.0504322448,-37500.0,-899.63288567962559,-708.29564197522166,-203.24677744939211,-1047.8765466776604,-476.29616511416481,-750.34996257074079,1272.4816094031785,-538.73328157417438,-533.81833924816112,533.81833924816112,538.73328157417438,2425.4975737528384,0.0
563204.59901257406,4112374.0504322448,-37500.0,-854.35366888768885,-802.02627011230663,-266.69495103613122,-1162.3165960012611,-568.07014906515883,-901.2458935652586,1431.3414390200876,-476.5817264650812,-651.56792117249609,651.56792117249609,476.5817264650812,2706.6376518996335,0.0
568204.59901257406,4112374.0504322448,-37500.0,-758.33640800811565,-900.55791789206739,-351.50926179864092,-1268.7215161610336,-673.17199866194085,-1073.9741716911042,1603.4025268769637,-369.45212969334062,-793.35552724004333,793.35552724004333,369.45212969334062,3002.499575667332,0.0
573204.59901257406,4112374.0504322448,-37500.0,-594.34458137754586,-998.75734615593251,-464.04718385465003,-1352.5793007535569,-788.878752325356,-1263.3720920785481,1784.2466588187667,-202.9017989031268,-961.44408015805607,961.44408015805607,202.9017989031268,3301.4690407430876,0.0
578204.59901257406,4112374.0504322448,-37500.0,-344.18430383350227,-1088.3871260907385,-611.45306664013788,-1392.3061231122169,-907.92813978600009,-1456.0794862482528,1965.5756284023519,38.238060117193641,-1156.2165378848858,1156.2165378848858,-38.238060117193641,3585.091043419673,0.0
583204.59901257406,4112374.0504322448,-37500.0,6.8336976578958399,-1157.9634779135276,-800.62180156448437,-1358.6188672566295,-1015.5717454201164,-1624.877363593868,2133.7743306014236,366.2130213706327,-1374.7587294876078,1374.7587294876078,-366.2130213706327,3827.6968452732658,0.0
588204.59901257406,4112374.0504322448,-37500.0,461.17490819811894,-1194.5711719278122,-1036.1611948071823,-1217.3720557731608,-1086.2276685319298,-1721.2797038283688,2269.3927595385881,783.3750706192252,-1609.7527731890707,1609.7527731890707,-783.3750706192252,4000.4889850803365,0.0
593204.59901257406,4112374.0504322448,-37500.0,995.84956454043004,-1189.9512795536566,-1317.5734382064068,-940.54226122447642,-1082.1696961225846,-1669.2411641488422,2351.2061290609972,1271.9600717929818,-1850.6113637295496,1850.6113637295496,-1271.9600717929818,4087.0817850670264,0.0
598204.59901257406,4112374.0504322448,-37500.0,1549.8391419034533,-1152.5911083220167,-1637.4121272361238,-530.93033239011379,-960.56486588996154,-1369.4148422351211,2377.4291734455264,1785.1523096491972,-2090.0555269809511,2090.0555269809511,-1785.1523096491972,4120.1132190639491,0.0
603204.59901257406,4112374.0504322448,-37500.0,2027.6069353531009,-1121.0153124196672,-1983.7486274163098,-59.040787681508824,-698.44734003718577,-733.09852170660974,2432.3290785608997,2251.5514305647744,-2336.6726029884671,2336.6726029884671,-2251.5514305647744,4228.7428835931069,0.0
608204.59901257406,4112374.0504322448,-37500.0,2338.7516769511503,-1158.8523615751842,-2346.4700631612641,312.11718957378469,-336.61370232691684,233.85763901707847,2655.0309998779176,2606.1338284485887,-2620.9304545617601,2620.9304545617601,-2606.1338284485887,4602.2799262366498,0.0
613204.59901257406,4112374.0504322448,-37500.0,2471.0318468000692,-1307.8886858667784,-2712.9583796791349,366.56102417759814,-10.411721146909493,1308.7626589557863,2945.354780021411,2838.9184548097264,-2967.1024230146104,2967.1024230146104,-2838.9184548097264,5266.3627706346397,0.0
618204.59901257406,4112374.0504322448,-37500.0,2543.6620571003073,-1518.0819062389905,-3036.4449605415448,-13.448392074379349,94.341550207129515,1983.7932668581241,3177.7280259691825,3018.0645989108857,-3328.2689785732814,3328.2689785732814,-3018.0645989108857,5938.6767220837401,0.0
623204.59901257406,4112374.0504322448,-37500.0,2741.4348111123181,-1637.6751670057572,-3209.4037896153122,-626.83833464707755,-125.19465166350867,1647.448370896637,3501.2797490852336,3231.567010139167,-3552.8303767387069,3552.8303767387069,-3231.567010139167,6274.622657963143,0.0
628204.59901257406,4112374.0504322448,-37500.0,3075.7092843795626,-1520.182793186048,-3114.7412120365766,-929.46549189760196,-572.36577064131859,116.99508963767369,3617.2976293249967,3436.7783930210303,-3459.9702058234993,3459.9702058234993,-3436.7783930210303,6266.3615026058233,0.0
633204.59901257406,4112374.0504322448,-37500.0,3235.7536119935507,-1163.3542327874738,-2733.3094034782807,-484.97180901940476,-1005.1215171273791,-1982.9400715023176,3561.4492238524676,3398.0355776005481,-2986.8845809880304,2986.8845809880304,-3398.0355776005481,6285.7255397959616,0.0
638204.59901257406,4112374.0504322448,-37500.0,2888.1527262591944,-710.60528586479734,-2174.1897714898264,560.90099230716976,-1234.8935817118177,-3692.7093336920084,3726.2589111794196,2917.6649508387072,-2255.3560546232293,2255.3560546232293,-2917.6649508387072,6531.0087428800316,0.0
643204.59901257406,4112374.0504322448,-37500.0,2052.7529296730318,-315.62725199720984,-1589.2916018192675,1680.5605294624061,-1237.8524186247387,-4515.6171753134795,3909.5222836362809,2073.6180062250032,-1476.5536958685177,1476.5536958685177,-2073.6180062250032,6771.5748818739294,0.0
648204.59901257406,4112374.0504322448,-37500.0,1024.6228213431987,-47.394695078261044,-1083.6402378991957,2479.8420718301472,-1095.0038806143521,-4554.6178634156895,3873.9645466970146,1124.2212374593676,-812.22598188651568,812.22598188651568,-1124.2212374593676,6772.2139719472943,0.0
653204.59901257406,4112374.0504322448,-37500.0,82.203178918977144,99.950105880389287,-695.38562674405625,2869.1397561621466,-896.16493236881638,-4142.4297171600238,3656.6905262319901,287.10268572859184,-324.15901819727014,324.15901819727014,-287.10268572859184,6504.0244356466283,0.0
658204.59901257406,4112374.0504322448,-37500.0,-642.33341621311331,161.52905868329296,-419.4175735842631,2935.4086136508149,-698.61137629405857,-3557.2523965040386,3340.0937897468561,-344.80902495910868,-2.8342353890249399,2.8342353890249399,344.80902495910868,6048.8466188346683,0.0
663204.59901257406,4112374.0504322448,-37500.0,-1133.1911510044981,172.20443054147253,-233.57569236342781,2801.2521039084286,-528.086807973335,-2957.8268620624822,2988.2192069684816,-770.08989675278303,189.45802882975664,-189.45802882975664,770.08989675278303,5499.70036642591,0.0
668204.59901257406,4112374.0504322448,-37500.0,-1427.7346863429023,156.99900384830556,-113.67574122053803,2564.189570765061,-391.27921532217772,-2415.0989931901613,2639.7409780954067,-1026.4052944263294,292.31072865926444,-292.31072865926444,1026.4052944263294,4925.194705219039,0.0
673204.59901257406,4112374.0504322448,-37500.0,-1575.6614907686292,131.23597538812268,-39.401594159769608,2287.4643315322542,-285.99272063894085,-1952.1887191337148,2314.6064946025108,-1158.4420635295185,337.39931517244776,-337.39931517244776,1158.4420635295185,4367.4745862028822,0.0
678204.59901257406,4112374.0504322448,-37500.0,-1621.6287570451018,103.31189445819975,4.4767917313070562,2007.7410319102983,-206.94066742222552,-1569.9183734697049,2021.3390584840477,-1204.9114442435621,347.20044895190006,-347.20044895190006,1204.9114442435621,3849.2040987231926,0.0
683204.59901257406,4112374.0504322448,-37500.0,-1600.5260857187095,77.329315036325539,28.692414202704381,1744.3459333293752,-148.46857083140048,-1260.0547938945585,1762.1109288515779,-1195.4708439934918,336.65892488211097,-336.65892488211097,1195.4708439934918,3380.5129666287089,0.0
688204.59901257406,4112374.0504322448,-37500.0,-1537.7989044643432,54.952609129045918,40.526104443012009,1506.1469425372084,-105.614561039745,-1011.595627155976,1535.8001915560094,-1151.4607565193264,315.30764117758781,-315.30764117758781,1151.4607565193264,2964.0240286224616,0.0
693204.59901257406,4112374.0504322448,-37500.0,-1451.2403435523433,36.562092904422933,44.78901557971556,1296.0038052681755,-74.385848525024798,-813.57325031679716,1339.7212418761289,-1087.6476773178497,289.03013694984475,-289.03013694984475,1087.6476773178497,2598.1228195471372,0.0
698204.59901257406,4112374.0504322448,-37500.0,-1352.9023047404121,21.92231440194788,44.596503343408685,1113.5040812866339,-51.713036843803941,-656.19544208517948,1170.5868342263102,-1013.9462473530007,261.33758127222518,-261.33758127222518,1013.9462473530007,2279.0118157203797,0.0
703204.59901257406,4112374.0504322448,-37500.0,-1250.7021806302419,10.547226005883862,41.929579681157499,956.59299639669655,-35.296525131384342,-531.19208601399089,1025.02425245114,-936.82156471512292,234.23536462926052,-234.23536462926052,936.82156471512292,2001.9519954556226,0.0
708204.59901257406,4112374.0504322448,-37500.0,-1149.6594965200711,1.8891080158704343,38.024133045671562,822.52130986058773,-23.439254118618592,-431.7999433310959,899.84019221246126,-860.34677004062053,208.79246599470559,-208.79246599470559,860.34677004062053,1761.9896480983473,0.0
713204.59901257406,4112374.0504322448,-37500.0,-1052.8049860978149,-4.5716296104919172,33.633475586131922,708.37678362908537,-14.899537118160127,-352.59644467868003,792.14210176376093,-786.96867836641741,185.50760163544709,-185.50760163544709,786.96867836641741,1554.3579808622223,0.0
718204.59901257406,4112374.0504322448,-37500.0,-961.83214608742662,-9.2896770767530104,29.202169761539221,611.36668864770763,-8.7730021741827038,-289.2876812003729,699.38041961001954,-718.04951274200926,164.54157723433644,-164.54157723433644,718.04951274200926,1374.6810189164964,0.0
723204.59901257406,4112374.0504322448,-37500.0,-877.55132200750984,-12.64562579474048,24.97975469454224,528.95069952599817,-4.4020743908189601,-238.49837919965802,619.34488931899079,-654.24065704272607,145.86194633404332,-145.86194633404332,654.24065704272607,1219.0530199714588,0.0
523204.59901257406,4117374.0504322448,-37500.0,-761.36464116984837,-225.24583382615702,-9.9081167647708828,-478.17548788891509,-108.77477799838792,-221.5001743835208,585.01002798805223,-540.07881962883778,-62.156718408558419,62.156718408558419,540.07881962883778,1150.7016035079273,0.0
528204.59901257406,4117374.0504322448,-37500.0,-825.94391441825258,-256.82507637853411,-12.281271479617569,-548.95256597497735,-128.46791030152963,-267.15084167539908,658.54624444142939,-584.38828852059885,-78.242555863809798,78.242555863809798,584.38828852059885,1292.6962817341562,0.0
533204.59901257406,4117374.0504322448,-37500.0,-893.36504777760558,-293.52086869516131,-15.903675470354138,-631.17562385838846,-152.32106850013037,-323.50067098863275,743.15826765021916,-629.96786678419267,-98.652969129786641,98.652969129786641,629.96786678419267,1455.2891530561783,0.0
538204.59901257406,4117374.0504322448,-37500.0,-962.06130472215204,-336.13490891206811,-21.373494693477138,-726.43513662357248,-181.2621276464713,-393.19581396344057,840.55660720879882,-675.3979166914346,-124.61700460271101,124.61700460271101,675.3979166914346,1641.3496278059313,0.0
543204.59901257406,4117374.0504322448,-37500.0,-1029.489299411171,-385.52381474937232,-29.561888153844588,-836.27732588873823,-216.3963267162564,-479.48249412606697,952.62299240693017,-718.44259166858569,-157.71882127152668,157.71882127152668,718.44259166858569,1853.8723461752991,0.0
548204.59901257406,4117374.0504322448,-37500.0,-1091.7137752385449,-442.54712059837027,-41.734374901341148,-961.98609000378474,-259.00530936238596,-586.26970751444378,1081.35146257613,-755.706979789397,-199.99152355937247,199.99152355937247,755.706979789397,2095.7746568662296,0.0
553204.59901257406,4117374.0504322448,-37500.0,-1142.8547227076517,-507.96940372092416,-59.722492933145269,-1104.207704665346,-310.51027696062073,-718.12699539778816,1228.723868576167,-782.17944666798167,-254.02490727772516,254.02490727772516,782.17944666798167,2369.5369560243403,0.0
558204.59901257406,4117374.0504322448,-37500.0,-1174.3798560484342,-582.29020984722547,-86.161756647336603,-1262.3320807888613,-372.36438964319689,-880.1386356877058,1396.4763611755086,-790.64334266253331,-323.07784795539374,323.07784795539374,790.64334266253331,2676.6016016729368,0.0
563204.59901257406,4117374.0504322448,-37500.0,-1174.2576134453138,-665.46418733743292,-124.80947361386337,-1433.5084776556907,-445.81370223799564,-1077.4713900848883,1585.68813968209,-770.96764520417969,-411.17050312428051,411.17050312428051,770.96764520417969,3016.4140698665387,0.0
568204.59901257406,4117374.0504322448,-37500.0,-1126.0731879380605,-756.46535410152626,-180.94250330482009,-1611.1339426999384,-531.42336710763493,-1314.3996949589684,1796.0846276736258,-709.35569664325124,-523.10303388762293,523.10303388762293,709.35569664325124,3384.9581489212969,0.0
573204.59901257406,4117374.0504322448,-37500.0,-1008.417610661469,-852.6551854374228,-261.79264187162693,-1782.6444916743619,-628.19886606580769,-1592.3406086190216,2024.8955024972106,-587.79798787892742,-664.29477402402995,664.29477402402995,587.79798787892742,3772.6402683690667,0.0
578204.59901257406,4117374.0504322448,-37500.0,-795.30907379800124,-948.98319555589558,-376.87706285021619,-1926.5618437454375,-732.04505943188269,-1906.1388756993842,2265.0558899455773,-384.33435830059739,-840.26386151854354,840.26386151854354,384.33435830059739,4161.506191416056,0.0
583204.59901257406,4117374.0504322448,-37500.0,-459.25356847062187,-1037.3000468375512,-537.88245433652207,-2009.3163331470776,-833.25954388338403,-2237.4600332572427,2502.5780862764814,-75.403121779002163,-1055.5191184554928,1055.5191184554928,75.403121779002163,4522.31990065015,0.0
588204.59901257406,4117374.0504322448,-37500.0,20.275920813442657,-1106.7430261952341,-757.46910742739544,-1984.0626410267282,-913.04063596150661,-2544.1570774039474,2713.3351245049153,357.536451628978,-1311.8245684807027,1311.8245684807027,-357.536451628978,4813.7108963957799,0.0
593204.59901257406,4117374.0504322448,-37500.0,639.94393119650658,-1147.4417457637351,-1046.1933174532651,-1797.4184853022825,-940.46214668567495,-2746.6720896836332,2861.0279797657868,914.80579691744356,-1606.6950313404488,1606.6950313404488,-914.80579691744356,4989.7236332501507,0.0
598204.59901257406,4117374.0504322448,-37500.0,1349.2143930668826,-1160.6297291388103,-1407.40530520835,-1414.6541215017587,-875.55458252758706,-2721.0813326271914,2902.5306539079575,1560.3827607679198,-1934.823782673019,1934.823782673019,-1560.3827607679198,5028.9872256898925,0.0
603204.59901257406,4117374.0504322448,-37500.0,2038.3516127448615,-1173.5153721859883,-1832.0791394305597,-869.78144841861524,-690.2675777158521,-2326.1622054206227,2823.4940820783518,2212.4874140521238,-2295.1032615759163,2295.1032615759163,-2212.4874140521238,4996.7037988125276,0.0
608204.59901257406,4117374.0504322448,-37500.0,2572.7234827268721,-1239.6024475033043,-2296.2118028586815,-314.74737460427974,-413.92967601159711,-1502.0462624572033,2826.6140296843087,2768.0145348175738,-2694.9674046317969,2694.9674046317969,-2768.0145348175738,5088.373300142488,0.0
613204.59901257406,4117374.0504322448,-37500.0,2882.3942338884162,-1391.2540309264057,-2755.0930000502576,9.5570531061837762,-167.18477328603569,-428.3939045884344,3148.5477007735444,3162.8978655511341,-3123.8133464247744,3123.8133464247744,-3162.8978655511341,5474.3898416642724,0.0
618204.59901257406,4117374.0504322448,-37500.0,3033.2038700010103,-1564.9754051961443,-3123.2172163999844,-60.090777208225866,-99.967201961691288,393.32740436729722,3454.9839701758815,3411.837946911116,-3493.5967982018174,3493.5967982018174,-3411.837946911116,6000.5444997846298,0.0
623204.59901257406,4117374.0504322448,-37500.0,3173.2061401791989,-1617.4305379012453,-3270.1731158326047,-386.0002349108168,-239.55035781787097,339.65926144439732,3633.7286786063432,3568.7004769199743,-3640.6401959338759,3640.6401959338759,-3568.7004769199743,6305.2274560134847,0.0
628204.59901257406,4117374.0504322448,-37500.0,3332.6035524071553,-1467.9157029719554,-3096.0187811899991,-505.85269746355488,-440.7743196265011,-810.34738673459958,3605.4750224163799,3615.6955352269038,-3449.2957243190972,3449.2957243190972,-3615.6955352269038,6298.6186618980773,0.0
633204.59901257406,4117374.0504322448,-37500.0,3290.3021891714925,-1184.1514132190548,-2631.99130892313,-32.733325367193139,-537.84469913489249,-2516.2371055026993,3384.3773319312836,3405.7302797253078,-2955.3874827678928,2955.3874827678928,-3405.7302797253078,6283.2410289680001,0.0
638204.59901257406,4117374.0504322448,-37500.0,2805.9272847701418,-894.19551910777432,-2026.4423367237814,919.20730094352996,-492.90353639174958,-3912.9054412692831,3606.4690779637194,2821.7342664480639,-2305.5498091974914,2305.5498091974914,-2821.7342664480639,6456.7074392516033,0.0
643204.59901257406,4117374.0504322448,-37500.0,1925.5676726229979,-671.07385172271893,-1435.3603484738394,1902.6543494104071,-368.94529362503459,-4544.4181262299535,3826.6167070848742,1956.0158276452032,-1653.1250956763777,1653.1250956763777,-1956.0158276452032,6635.5903870976126,0.0
648204.59901257406,4117374.0504322448,-37500.0,914.19048802580494,-520.85496174808168,-948.18197467594223,2584.2904231299508,-233.80740480136177,-4493.0860878725616,3794.2525517159006,1034.4996652989539,-1096.0451899534683,1096.0451899534683,-1034.4996652989539,6606.8333200800389,0.0
653204.59901257406,4117374.0504322448,-37500.0,11.792529382289901,-423.42884200837148,-587.3934888498635,2894.0600253143725,-121.363335021452,-4050.9502789639341,3579.1889377319421,240.07425156673978,-669.70854835558509,669.70854835558509,-240.07425156673978,6335.5645166901786,0.0
658204.59901257406,4117374.0504322448,-37500.0,-672.59174377450313,-358.72928071862407,-338.60994870980602,2914.4341979721953,-39.716917644149618,-3464.7692938143118,3267.7541603862983,-353.32529000871699,-367.65757338314648,367.65757338314648,353.32529000871699,5891.7661405378485,0.0
663204.59901257406,4117374.0504322448,-37500.0,-1131.9581773776736,-313.07884045122529,-175.75472621368988,2757.4646031834568,14.317993986722616,-2875.6978502896231,2922.9286257410226,-750.4045946907363,-165.4640863818272,165.4640863818272,750.4045946907363,5359.8345300367509,0.0
668204.59901257406,4117374.0504322448,-37500.0,-1404.9290867584016,-278.29458632549836,-73.748230773480628,2511.601379214866,47.086818014276176,-2346.3580931940351,2582.089780981973,-988.72992311402811,-36.265129112753016,36.265129112753016,988.72992311402811,4803.6405898009871,0.0
673204.59901257406,4117374.0504322448,-37500.0,-1539.6437814525489,-249.80799392670085,-12.724491857804901,2233.9114028425747,64.799150800105011,-1896.3720705559144,2264.3712769914964,-1110.8398682914039,42.528864826252288,-42.528864826252288,1110.8398682914039,4263.1352609941587,0.0
678204.59901257406,4117374.0504322448,-37500.0,-1578.6033084105493,-225.21081913882719,21.661369178698006,1957.2461398533164,72.48221295109461,-1525.3181575365406,1977.8930101803917,-1153.0858748890359,87.77063972064559,-87.77063972064559,1153.0858748890359,3760.1561283444503,0.0
683204.59901257406,4117374.0504322448,-37500.0,-1554.7643422038832,-203.30072583112923,39.238357301004818,1698.7053363165394,73.841545664520595,-1224.7068816571323,1724.6771607401126,-1143.1672437723244,111.27054767618142,-111.27054767618142,1143.1672437723244,3304.6665166167413,0.0
688204.59901257406,4117374.0504322448,-37500.0,-1492.0723303110256,-183.50108457158947,46.519509988428148,1465.9124321673312,71.449114125380277,-983.67457159235232,1503.5856543111752,-1100.9743028720777,121.0197211121756,-121.0197211121756,1100.9743028720777,2899.4046176944867,0.0
693204.59901257406,4117374.0504322448,-37500.0,-1407.2413455090016,-165.53240014927266,47.717720872582703,1261.07201123458,67.01141943448863,-791.52604929436154,1311.985372525359,-1040.2685992611632,122.31069104322921,-122.31069104322921,1040.2685992611632,2542.9811301620853,0.0
698204.59901257406,4117374.0504322448,-37500.0,-1311.5817293519287,-149.24001427708444,45.503679710866912,1083.4560538863125,61.617682234900855,-638.75763968887748,1146.6685989464688,-970.29906864835868,118.59618492582433,-118.59618492582433,970.29906864835868,2231.8450511089109,0.0
703204.59901257406,4117374.0504322448,-37500.0,-1212.5194696570622,-134.51159829183726,41.537360664619669,930.88485954457565,55.936489370949211,-517.35880899007316,1004.3487528535028,-897.10758025634414,112.09922535833977,-112.09922535833977,897.10758025634414,1961.4898804422987,0.0
708204.59901257406,4117374.0504322448,-37500.0,-1114.7605629342738,-121.24315755699166,36.827048404229558,800.58774163620308,50.359609640782331,-420.7838615882136,881.91600590892131,-824.51085294768973,104.23023187806172,-104.23023187806172,824.51085294768973,1727.1690402386646,0.0
713204.59901257406,4117374.0504322448,-37500.0,-1021.1432392367886,-109.32755725484894,31.966606558239111,689.6826980385963,45.101324031665484,-343.78516718694374,776.55318669063195,-754.80948681809855,95.86727938259304,-95.86727938259304,754.80948681809855,1524.2927720135133,0.0
718204.59901257406,4117374.0504322448,-37500.0,-933.24873030417598,-98.653866168001088,27.28989424944017,595.42972891784143,40.265324436262219,-282.20627241858807,685.7761177218041,-689.29024395692693,87.542136137768466,-87.542136137768466,689.29024395692693,1348.6328764451459,0.0
723204.59901257406,4117374.0504322448,-37500.0,-851.82906552109569,-89.110136325338431,22.970077106857179,515.34923194004818,35.888341392320569,-232.7790131343146,607.43137219271898,-628.57462025261998,79.563015546060569,-79.563015546060569,628.57462025261998,1196.408088047704,0.0
523204.59901257406,4122374.0504322448,-37500.0,-830.92651161118943,-158.41781020574669,12.413120970292269,-514.2401427290589,-72.583342609486152,-236.29827081974977,611.1552959721754,-604.14434761240841,14.952698896538891,-14.952698896538891,604.14434761240841,1203.2262149504659,0.0
528204.59901257406,4122374.0504322448,-37500.0,-907.35949457844936,-179.38169925621483,14.60084573689274,-593.21305572222923,-84.725340091863842,-286.21435910622216,689.67786968699113,-659.56524461030494,11.815697757237615,-11.815697757237615,659.56524461030494,1355.3356367457845,0.0
533204.59901257406,4122374.0504322448,-37500.0,-988.91459212166853,-203.60914473937174,16.611809321313611,-685.80037480160013,-99.224492616776828,-348.25374182313698,780.48113436989172,-718.44458096169444,6.803813499600551,-6.803813499600551,718.44458096169444,1530.4251968854076,0.0
538204.59901257406,4122374.0504322448,-37500.0,-1074.4496930893629,-231.61059350626016,18.117241561429093,-794.22590357259651,-116.54952197493905,-425.59649107767882,885.61368968297938,-779.78946986411586,-0.8596167843298872,0.8596167843298872,779.78946986411586,1732.0114210075628,0.0
543204.59901257406,4122374.0504322448,-37500.0,-1161.8848693133891,-263.94540042163339,18.578003130263806,-920.85959132775599,-137.2367501654935,-522.24104668103439,1007.4003853270522,-841.84102058469125,-12.260114700190798,12.260114700190798,841.84102058469125,1963.9275673161565,0.0
548204.59901257406,4122374.0504322448,-37500.0,-1247.7518046353296,-301.2037243066053,17.129464303541358,-1068.0494775281079,-161.87520399798484,-643.16095345961298,1148.417112007246,-901.70485905904229,-28.915149344305405,28.915149344305405,901.70485905904229,2230.17710816309,0.0
553204.59901257406,4122374.0504322448,-37500.0,-1326.5650832222557,-343.97008553084953,12.407585565539897,-1237.7994121673844,-191.06666230340818,-794.43753169515253,1311.4097324936806,-954.83197296714059,-52.944431813955021,52.944431813955021,954.83197296714059,2534.6422060891637,0.0
558204.59901257406,4122374.0504322448,-37500.0,-1389.9651159695816,-392.75872063001464,2.2891964059435037,-1431.1920997346094,-225.34135599798745,-983.30563165678348,1499.1138967133963,-994.30454038882181,-87.302835039340323,87.302835039340323,994.30454038882181,2880.5585366204573,0.0
563204.59901257406,4122374.0504322448,-37500.0,-1425.5921467934895,-447.90564410962475,-16.488711833099273,-1647.3994369637928,-264.99734373247657,-1217.9869860471163,1713.9026897723056,-1009.8861780821455,-136.09022184331502,136.09022184331502,1009.8861780821455,3269.6236996663565,0.0
568204.59901257406,4122374.0504322448,-37500.0,-1415.7042849189747,-509.39482050573213,-48.868911647691242,-1882.0359152886897,-309.80968076445339,-1507.0645373234936,1957.1370538915808,-986.83504632851918,-204.93953382821888,204.93953382821888,986.83504632851918,3700.5449573964765,0.0
573204.59901257406,4122374.0504322448,-37500.0,-1335.7235447911712,-576.59216204340999,-102.19777664604132,-2124.5024791859914,-358.52127502545176,-1857.9148004831941,2228.0088314496293,-904.60916723568801,-301.44628547936543,301.44628547936543,904.60916723568801,4166.7644915599685,0.0
578204.59901257406,4122374.0504322448,-37500.0,-1153.3544239669711,-647.87356277674257,-187.09265109604502,-2353.9030231230922,-407.96808763373429,-2273.2497307844565,2521.5352966915862,-735.95371932099147,-435.5015440756577,435.5015440756577,735.95371932099147,4653.0690952274254,0.0
583204.59901257406,4122374.0504322448,-37500.0,-830.0034142414861,-720.23149809239305,-318.22424636055013,-2533.4149280154129,-451.62144282980944,-2744.0106289386472,2825.2458018014163,-447.71461602606695,-619.18796245949591,619.18796245949591,447.71461602606695,5131.0379224990911,0.0
588204.59901257406,4122374.0504322448,-37500.0,-328.27493720195758,-789.32074270280259,-514.3583797839492,-2604.5983259095296,-477.38902448871414,-3235.8891304334816,3114.2384365896805,-6.3458703204344147,-865.62743895404981,865.62743895404981,6.3458703204344147,5554.4908272666662,0.0
593204.59901257406,4122374.0504322448,-37500.0,368.40839335264138,-851.3625266104433,-796.23631199481451,-2488.0563650404815,-465.30917273367288,-3667.5606548429755,3345.4842827003795,607.06454595822788,-1186.1367155088467,1186.1367155088467,-607.06454595822788,5860.0545411672483,0.0
598204.59901257406,4122374.0504322448,-37500.0,1220.7124367689835,-909.57049513016295,-1180.0589463983542,-2106.2735223730738,-388.88710368120206,-3887.8578632134336,3455.9376797714572,1369.238834566497,-1586.0191132211596,1586.0191132211596,-1369.238834566497,5986.7774142032022,0.0
603204.59901257406,4122374.0504322448,-37500.0,2099.5421302922205,-985.42048262021819,-1664.845107806372,-1448.4239564532211,-230.1997645677466,-3686.9556133475999,3375.3669578703916,2186.3874552691987,-2060.981196369723,2060.981196369723,-2186.3874552691987,5936.1166941419306,0.0
608204.59901257406,4122374.0504322448,-37500.0,2808.0015636467429,-1119.8634601759461,-2215.7908407585533,-659.2197939973754,-18.233402837569908,-2908.7624250702552,3066.8220697587399,2904.8818085636117,-2592.3045529278729,2592.3045529278729,-2904.8818085636117,5853.8053615234185,0.0
613204.59901257406,4122374.0504322448,-37500.0,3201.4837740978387,-1330.1119084577206,-2751.6502546099014,-38.628331744042775,140.43101094767823,-1672.692186429437,3266.7557938926711,3392.107870015122,-3124.6989171452078,3124.6989171452078,-3392.107870015122,5962.5502432286694,0.0
618204.59901257406,4122374.0504322448,-37500.0,3310.2913738183133,-1536.8418041452842,-3148.4222528369251,159.70134568117876,131.72381763135741,-498.75431280675025,3582.7913074671505,3622.3486398993937,-3530.1189227227605,3530.1189227227605,-3622.3486398993937,6231.8930284399339,0.0
623204.59901257406,4122374.0504322448,-37500.0,3297.9454745410194,-1596.3814299154617,-3278.6730093677943,-5.355017728201263,-5.564065997566237,-62.830208006562806,3655.334670836266,3661.8475276634636,-3648.7931267444874,3648.7931267444874,-3661.8475276634636,6331.6399385667219,0.0
628204.59901257406,4122374.0504322448,-37500.0,3264.7034123118906,-1468.454785434197,-3089.1686349375536,-138.85192414631086,-80.528378576750839,-664.61264274723499,3503.6822874502204,3563.3818150984648,-3434.8969685134302,3434.8969685134302,-3563.3818150984648,6114.835697440637,0.0
633204.59901257406,4122374.0504322448,-37500.0,3101.6070266273132,-1267.2006205022406,-2646.54126577232,142.84987599816048,23.235539185966214,-1912.9033634445605,3144.1200003459071,3278.1015951201243,-2999.3082457761848,2999.3082457761848,-3278.1015951201243,5851.7180449428088,0.0
638204.59901257406,4122374.0504322448,-37500.0,2631.715430287697,-1111.179629319304,-2088.6679521353358,832.12368245841367,236.75504787584816,-3076.7092262558449,3157.8922684322461,2731.4121454564456,-2485.4585117016304,2485.4585117016304,-2731.4121454564456,5819.9473606364172,0.0
643204.59901257406,4122374.0504322448,-37500.0,1861.6623002801516,-1021.0044283815638,-1541.5784541918244,1609.9232646723144,432.06564235632919,-3700.9746444073166,3397.8799644124338,1972.3093453627337,-1981.6609471720678,1981.6609471720678,-1972.3093453627337,5920.889772614174,0.0
648204.59901257406,4122374.0504322448,-37500.0,976.46110109989286,-960.98889362667819,-1078.2871482334381,2193.4800469773172,544.82375562902575,-3771.0489751858208,3413.7656065771171,1158.9583713203087,-1530.3767285255117,1530.3767285255117,-1158.9583713203087,5924.6068358339044,0.0
653204.59901257406,4122374.0504322448,-37500.0,166.68430231448738,-900.88307414448877,-721.7939186895029,2492.2201670466843,577.27190443671236,-3485.1678250449568,3259.4726219846452,437.19199665964135,-1151.2092313163982,1151.2092313163982,-437.19199665964135,5740.1054002266201,0.0
658204.59901257406,4122374.0504322448,-37500.0,-468.26710318019781,-831.16809190839251,-464.80512897982157,2548.8263844998937,556.29870260209123,-3040.8335358964559,3007.4076493232988,-122.93323662001791,-848.5418540690207,848.5418540690207,122.93323662001791,5396.0624477632991,0.0
663204.59901257406,4122374.0504322448,-37500.0,-911.78072522637547,-754.13800954389012,-287.85382922320503,2445.3505433752171,507.33574805947359,-2564.3461232053037,2714.121133859875,-515.55366754478655,-615.95657625319154,615.95657625319154,515.55366754478655,4956.7021396697528,0.0
668204.59901257406,4122374.0504322448,-37500.0,-1189.7131970462549,-675.0407408263809,-170.10955675398571,2254.0714038603091,447.51316653734403,-2119.2279211243276,2415.4931084932032,-766.33501077316396,-441.75809666433247,441.75809666433247,766.33501077316396,4479.027080857174,0.0
673204.59901257406,4122374.0504322448,-37500.0,-1340.3019171855199,-598.29567228477015,-93.956139744281899,2025.2046928336588,386.70198241162643,-1730.6518539420526,2131.3891212932585,-909.05037442566095,-313.39332998820282,313.39332998820282,909.05037442566095,4002.3883386205944,0.0
678204.59901257406,4122374.0504322448,-37500.0,-1399.7169998743714,-526.70529512850192,-46.042546283000625,1789.6046168044875,329.95366250921217,-1403.9457314384406,1871.3573943772615,-974.63897262999728,-219.74924160551666,219.74924160551666,974.63897262999728,3550.3653966583006,0.0
683204.59901257406,4122374.0504322448,-37500.0,-1397.2799034677594,-461.69590946396278,-16.844724091744496,1564.5254814891805,279.44607726124127,-1135.302073691021,1638.8720682112209,-987.81062485586517,-151.87203492986708,151.87203492986708,987.81062485586517,3135.2144856033756,0.0
688204.59901257406,4122374.0504322448,-37500.0,-1355.0289716718057,-403.74255243627601,0.18826013077142534,1358.5430099075857,235.75290434484489,-917.36357343016937,1434.0440856299565,-966.97983363992932,-102.89682569181366,102.89682569181366,966.97983363992932,2761.8314263731777,0.0
693204.59901257406,4122374.0504322448,-37500.0,-1288.7951853303064,-352.72960557484276,9.4571165534771691,1174.9988179405154,198.61437512657764,-741.97176048681524,1255.2449104326715,-925.30762967404939,-67.699153551321444,67.699153551321444,925.30762967404939,2430.6427807741757,0.0
698204.59901257406,4122374.0504322448,-37500.0,-1209.5811151029795,-308.20904094831121,13.869484636126714,1014.2349487887393,167.38715580405693,-601.43150173893844,1100.050640728515,-871.91910175287524,-42.508888228767205,42.508888228767205,871.91910175287524,2139.5531602697565,0.0
703204.59901257406,4122374.0504322448,-37500.0,-1124.8123713456741,-269.57130366799032,15.321551737622046,874.98996135233904,141.29591229453393,-489.01517253613503,965.77893120840872,-812.97466960372503,-24.573650613473035,24.573650613473035,812.97466960372503,1885.1979872667466,0.0
708204.59901257406,4122374.0504322448,-37500.0,-1039.3446550000649,-236.15260944196251,15.035315394733573,755.24425100862504,119.56619165570288,-399.08543203605979,849.78214553440284,-752.51757277518823,-11.89211328386358,11.89211328386358,752.51757277518823,1663.7146742909526,0.0
713204.59901257406,4122374.0504322448,-37500.0,-956.2296575932919,-207.29846947599262,13.788282086965964,652.71571332364761,101.48797153421422,-327.03952004709134,749.59738507917871,-693.11080919695723,-3.0117957925797896,3.0117957925797896,693.11080919695723,1471.1968292161614,0.0
718204.59901257406,4122374.0504322448,-37500.0,-877.2775298197862,-182.39832205614431,12.067516038857562,565.13640894471735,86.440418561294862,-269.18026066111423,663.01227627142089,-636.3009092021905,3.120799896907215,-3.120799896907215,636.3009092021905,1303.943775367539,0.0
723204.59901257406,4122374.0504322448,-37500.0,-803.45991513548574,-160.90145279195397,10.171691727322063,490.39484341164399,73.895699465174104,-222.56790075483289,588.08219341882841,-582.94814360272892,7.269991765512259,-7.269991765512259,582.94814360272892,1158.5813238816177,0.0
523204.59901257406,4127374.0504322448,-37500.0,-878.73032096841507,-82.709716814915836,24.546100878627602,-539.22977113248328,-32.083931228863548,-246.65896614411346,630.59328526648096,-649.43869026673042,89.90567303029718,-89.90567303029718,649.43869026673042,1241.1302937401026,0.0
528204.59901257406,4127374.0504322448,-37500.0,-962.56414453585887,-90.972311235130107,28.974609142890394,-623.51266411171889,-35.442997429561046,-299.42243725835618,712.53746074849596,-712.0713797107519,99.358475966210392,-99.358475966210392,712.0713797107519,1400.0985505989338,0.0
533204.59901257406,4127374.0504322448,-37500.0,-1052.7858354121845,-100.07574689229637,33.698689351453133,-722.72184712114768,-38.946449961558599,-365.21894300394723,807.53691567287694,-779.44570802020507,109.33947437163312,-109.33947437163312,779.44570802020507,1583.5853667882895,0.0
538204.59901257406,4127374.0504322448,-37500.0,-1148.4447026745217,-110.06715510549793,38.493152875084618,-839.43648601119867,-42.449987094415711,-447.55614026736703,917.84790206367541,-850.78132716171535,119.53082071855414,-119.53082071855414,850.78132716171535,1795.5128138945611,0.0
543204.59901257406,4127374.0504322448,-37500.0,-1247.6494846781536,-120.9830431810459,42.941356893027134,-976.47836175983821,-45.704040908491862,-550.88888364115792,1046.065049464511,-924.5409254986414,129.36348835115183,-129.36348835115183,924.5409254986414,2040.2388208914494,0.0
548204.59901257406,4127374.0504322448,-37500.0,-1347.0886187483507,-132.8500436625867,46.319244580700264,-1136.7647720017183,-48.297450276748364,-680.82989211883898,1195.1165232832925,-998.03748657178153,137.87395307211796,-137.87395307211796,998.03748657178153,2322.4478012875898,0.0
553204.59901257406,4127374.0504322448,-37500.0,-1441.346090692173,-145.69481056326956,47.415860816698597,-1323.0041019059897,-49.575690182486781,-844.35898702327495,1368.2092647207705,-1066.8687420938668,143.48483390336008,-143.48483390336008,1066.8687420938668,2646.9053262915136,0.0
558204.59901257406,4127374.0504322448,-37500.0,-1521.9444262984957,-159.5736789464799,44.258988848912544,-1537.1245995758125,-48.525822072160842,-1049.9776823447335,1568.6830385752842,-1124.1169697406408,143.67234181303121,-143.67234181303121,1124.1169697406408,3017.989639797579,0.0
563204.59901257406,4127374.0504322448,-37500.0,-1576.04168990332,-174.64089685991823,33.702125847199937,-1779.2534489503457,-43.621343255725137,-1307.6936250123865,1799.6983723304254,-1159.2439892548566,134.46910794310293,-134.46910794310293,1159.2439892548566,3438.8587494234857,0.0
568204.59901257406,4127374.0504322448,-37500.0,-1584.7431977154149,-191.28743114928753,10.819270550991028,-2045.9496657956888,-32.628304512387395,-1628.5972474019984,2063.6282620534657,-1156.6318298588071,109.74043599894196,-109.74043599894196,1156.6318298588071,3910.0397966257724,0.0
573204.59901257406,4127374.0504322448,-37500.0,-1521.1346968236535,-210.39825876060328,-31.945821117243206,-2327.2144183184955,-12.391451220243615,-2023.5270568142935,2360.9161777150102,-1093.8259932388921,60.183050110357499,-60.183050110357499,1093.8259932388921,4427.1076875528588,0.0
578204.59901257406,4127374.0504322448,-37500.0,-1348.6076058420856,-233.79281384469806,-105.88492753236817,-2601.6062948424151,21.344418663940282,-2499.7609066680684,2687.9925356561807,-939.8937437783519,-27.918047144914681,27.918047144914681,939.8937437783519,4976.9958632157786,0.0
583204.59901257406,4127374.0504322448,-37500.0,-1021.274439399032,-264.93560881925794,-227.23331251713546,-2828.8483270203992,73.950151864070378,-3053.5327213483019,3033.6146709170457,-655.26710542047704,-173.86792138906861,173.86792138906861,655.26710542047704,5532.4857676497595,0.0
588204.59901257406,4127374.0504322448,-37500.0,-490.95220441044137,-310.0362403396731,-417.88157770797835,-2940.7546203157267,151.4903843555764,-3654.3870097458266,3372.973204511507,-196.56343798610988,-402.70987819434083,402.70987819434083,196.56343798610988,6045.2578008886876,0.0
593204.59901257406,4127374.0504322448,-37500.0,270.83001047970953,-379.73882329397765,-703.96530307789328,-2836.9864660170551,259.1587951812881,-4216.6601990331965,3660.0018638352235,466.85122750869255,-742.22208357264299,742.22208357264299,-466.85122750869255,6441.5045640083608,0.0
598204.59901257406,4127374.0504322448,-37500.0,1227.5593611219174,-491.4440838199356,-1108.8944676928518,-2405.7356569160474,396.63897110056018,-4562.018648680255,3822.7806454629131,1317.3272629093992,-1213.533341095914,1213.533341095914,-1317.3272629093992,6634.030430527725,0.0
603204.59901257406,4127374.0504322448,-37500.0,2223.614817056648,-670.06256579492992,-1635.9471800425874,-1602.6445202700156,546.37451137061248,-4413.2394491950527,3777.8889497816017,2243.2301207890409,-1813.1934143021845,1813.1934143021845,-2243.2301207890409,6578.4981626451072,0.0
608204.59901257406,4127374.0504322448,-37500.0,2995.0587889975036,-936.43784968512443,-2240.0226119438944,-583.16301933915054,653.98470015308112,-3518.4336445679955,3513.2766755416246,3036.4603888451988,-2489.8142743387621,2489.8142743387621,-3036.4603888451988,6377.0738342057994,0.0
613204.59901257406,4127374.0504322448,-37500.0,3332.0086261941192,-1265.4078316640334,-2807.4284997472287,261.69010662466593,627.8706009078943,-1951.5735643466612,3478.7771142356305,3502.0130844355767,-3125.5130166334598,3125.5130166334598,-3502.0130844355767,6273.9611793903432,0.0
618204.59901257406,4127374.0504322448,-37500.0,3277.4727353918493,-1539.5860237485274,-3185.2655919226027,564.70568771456976,420.69571241786036,-306.30776556785258,3649.5252197265777,3610.7941868190383,-3547.6967261827822,3547.6967261827822,-3610.7941868190383,6328.3521811195915,0.0
623204.59901257406,4127374.0504322448,-37500.0,3077.8771434572104,-1612.859215204255,-3270.6306791058178,343.61964365318727,155.49587949043288,629.86393127805593,3582.275498547041,3498.2299804079121,-3621.8329409522667,3621.8329409522667,-3498.2299804079121,6243.8605094306031,0.0
628204.59901257406,4127374.0504322448,-37500.0,2918.7045328782956,-1480.6970262691241,-3077.2347508677035,4.7334554427057469,66.767762148281008,487.4822023099527,3344.271964612627,3305.2987623012436,-3382.0054748064972,3382.0054748064972,-3305.2987623012436,5820.2663603517558,0.0
633204.59901257406,4127374.0504322448,-37500.0,2757.5358485814295,-1298.4373788323403,-2701.0705895244409,-27.188162720952771,246.96194645713922,-438.33209177569455,3034.072471292061,3045.340017027685,-2999.2179162172474,2999.2179162172474,-3045.340017027685,5273.327023955645,0.0
638204.59901257406,4127374.0504322448,-37500.0,2429.0949624160444,-1197.5079744565251,-2243.921339893232,345.31144960077586,565.49599080434268,-1515.1230143569485,2781.9096822531355,2641.205171889952,-2608.7799469877182,2608.7799469877182,-2641.205171889952,4957.9930506012643,0.0
643204.59901257406,4127374.0504322448,-37500.0,1871.3665240503292,-1182.0131019531684,-1780.4095910004846,914.83093599067843,841.67969435671409,-2275.6399828521826,2813.1431446681663,2072.6612621465906,-2245.8542465244323,2245.8542465244323,-2072.6612621465906,4921.0444439632238,0.0
648204.59901257406,4127374.0504322448,-37500.0,1179.2860514364215,-1191.0468877350499,-1359.2222601468575,1432.4358818974672,988.77908177845154,-2600.0267299596039,2855.6194961957963,1421.290846092596,-1904.5464909513557,1904.5464909513557,-1421.290846092596,4947.5105448330387,0.0
653204.59901257406,4127374.0504322448,-37500.0,495.26169212617941,-1177.7098937316296,-1006.385955605429,1771.2799268761069,1012.502558899116,-2584.6012655109453,2782.0975956360617,797.13351069468581,-1585.086528125586,1585.086528125586,-797.13351069468581,4874.8760337947288,0.0
658204.59901257406,4127374.0504322448,-37500.0,-83.23561833622729,-1128.6178852455107,-728.47347072682271,1920.8014939997104,954.63282057103208,-2373.3172080978825,2617.1923299581904,273.19238605556035,-1296.2505874034428,1296.2505874034428,-273.19238605556035,4669.7858456488966,0.0
663204.59901257406,4127374.0504322448,-37500.0,-520.40141535239127,-1050.5041306054031,-519.14251728827867,1924.1368108318834,855.58766222402312,-2078.3140223775213,2401.8343729499479,-125.74894732838038,-1045.638858123765,1045.638858123765,125.74894732838038,4363.7975959041705,0.0
668204.59901257406,4127374.0504322448,-37500.0,-821.18433619742507,-955.73536401412571,-366.28546420920151,1833.1665779848527,743.02699153826745,-1767.6432296858359,2167.7475541865492,-406.4439614798805,-835.51717876815496,835.51717876815496,406.4439614798805,4001.4143999712787,0.0
673204.59901257406,4127374.0504322448,-37500.0,-1008.3928891052133,-855.22406544859086,-256.97864220080135,1690.2635423322199,632.7441342734511,-1476.3647619990722,1935.2059434654318,-589.19986197652861,-663.64431921910227,663.64431921910227,589.19986197652861,3619.6069301880989,0.0
678204.59901257406,4127374.0504322448,-37500.0,-1108.6844795931136,-756.53171744370115,-179.89587843534468,1524.9446036304146,532.43456699643832,-1219.4015250473715,1715.6820154839515,-696.8865337759371,-525.38022190101378,525.38022190101378,696.8865337759371,3243.6997109603208,0.0
683204.59901257406,4127374.0504322448,-37500.0,-1146.1942351592131,-664.13816193560797,-126.03907720551938,1355.8894995542294,444.97954928602547,-1000.6379859829697,1514.8071808218135,-749.97303358003637,-415.34166665807498,415.34166665807498,749.97303358003637,2888.941174007271,0.0
688204.59901257406,4127374.0504322448,-37500.0,-1140.480252829788,-580.26837684324835,-88.644981555300362,1193.9685121872737,370.65712534872,-818.43727962145272,1334.6175810944917,-764.97932459461265,-328.34187269005622,328.34187269005622,764.97932459461265,2563.2615281893513,0.0
693204.59901257406,4127374.0504322448,-37500.0,-1106.440161424583,-505.67502681417909,-62.795366504691742,1044.8483317057821,308.47919477769005,-668.7550657127548,1175.0583897138754,-754.4844627442817,-259.80941743342646,259.80941743342646,754.4844627442817,2269.7354420473102,0.0
698204.59901257406,4127374.0504322448,-37500.0,-1054.9692024512221,-440.22884172169506,-44.985382724505662,910.9148097993409,256.94973441082414,-546.81269809483388,1034.9444289171154,-727.71059469226861,-205.91039505373811,205.91039505373811,727.71059469226861,2008.4401089323508,0.0
703204.59901257406,4127374.0504322448,-37500.0,-993.787454062812,-383.32017590675957,-32.748672612685993,792.58783185852781,214.46866210147132,-447.93655995512262,912.54882282219978,-691.22737906960424,-163.52445423889861,163.52445423889861,691.22737906960424,1777.7358539433094,0.0
708204.59901257406,4127374.0504322448,-37500.0,-928.2131331486064,-334.11615558947312,-24.363179030173395,689.18544904652765,179.5300385783878,-367.93474841086822,805.95588003281807,-649.60085165285659,-130.15965871646398,130.15965871646398,649.60085165285659,1575.1103725426356,0.0
713204.59901257406,4127374.0504322448,-37500.0,-861.80150010927105,-291.71547703002796,-18.632145488490153,599.46852861711727,150.80469217854559,-303.22252066202594,713.26051090671331,-605.92595586697837,-103.84965631546174,103.84965631546174,605.92595586697837,1397.7037718413601,0.0
718204.59901257406,4127374.0504322448,-37500.0,-796.84585607007341,-255.23689276932191,-14.726307933673173,521.97409256442916,127.16213811320291,-250.8222534392861,632.67589090478452,-562.24202858950457,-83.054614002649998,83.054614002649998,562.24202858950457,1242.6246944154725,0.0
723204.59901257406,4127374.0504322448,-37500.0,-734.75254529005053,-223.86480020369234,-12.071985220559268,455.20842553696946,107.66219389272065,-208.30506920582707,562.5826210883007,-519.84333031000449,-66.574083925398696,66.574083925398696,519.84333031000449,1107.1245198466727,0.0
523204.59901257406,4132374.0504322448,-37500.0,-902.49743658688885,-2.6183060923843602,25.177411281812876,-552.02341644174044,10.58255676494327,-252.13674682093222,642.02998546794015,-673.48503485199569,158.00801562515198,-158.00801562515198,673.48503485199569,1262.8430192332355,0.0
528204.59901257406,4132374.0504322448,-37500.0,-988.67248113689448,2.6712588352924267,29.143583752968162,-638.36457626447429,16.539960202882973,-306.15483673573863,725.5237938703707,-738.75616645341938,178.39285849523071,-178.39285849523071,738.75616645341938,1424.9465141661651,0.0
533204.59901257406,4132374.0504322448,-37500.0,-1081.302681019258,9.7265375563409577,33.147647506922496,-739.95030408079788,24.715980338196726,-373.52319917584242,822.32037047368203,-808.93721230546737,201.25177471573454,-201.25177471573454,808.93721230546737,1612.0986529318525,0.0
538204.59901257406,4132374.0504322448,-37500.0,-1179.3342461560155,19.00374976730474,36.852512140886112,-859.37905357028501,35.91434591004974,-457.83111280307673,934.71612456416506,-883.17380508395695,226.58900361875402,-226.58900361875402,883.17380508395695,1828.3173868421861,0.0
543204.59901257406,4132374.0504322448,-37500.0,-1280.7083660378939,31.03613112875929,39.683789308004243,-999.46805257826452,51.231981787762003,-563.63257954682399,1065.3496242778601,-959.79689246187809,254.17440433276033,-254.17440433276033,959.79689246187809,2078.0724050795898,0.0
548204.59901257406,4132374.0504322448,-37500.0,-1381.851891865892,46.413006550385553,40.696599366357106,-1163.0839107114659,72.161216888273728,-696.65659038783519,1217.1949067919315,-1035.9007877626104,283.36957254364017,-283.36957254364017,1035.9007877626104,2366.1762495690973,0.0
553204.59901257406,4132374.0504322448,-37500.0,-1476.9532399567959,65.720847555499887,38.373904711347663,-1352.8015880586224,100.71933854269923,-864.01168479321313,1393.5036143927907,-1106.7368353050772,312.85042713987565,-312.85042713987565,1106.7368353050772,2697.5385045669768,0.0
558204.59901257406,4132374.0504322448,-37500.0,-1556.9528105091392,89.41136303165618,30.325626385317833,-1570.271996300206,139.60128269303206,-1074.3258538965961,1597.652399616225,-1164.8574564480796,340.16967594802907,-340.16967594802907,1164.8574564480796,3076.6913090500602,0.0
563204.59901257406,4132374.0504322448,-37500.0,-1608.1771218681104,117.53961305175133,12.849112791870267,-1815.1036822172634,192.33604904820407,-1337.6991496743988,1832.8212550317237,-1198.9406052119882,361.08007332843931,-361.08007332843931,1198.9406052119882,3506.9449352491679,0.0
568204.59901257406,4132374.0504322448,-37500.0,-1610.5839655156658,149.27590422347714,-19.692655215778132,-2082.9368699742145,263.3880835992731,-1665.2116256209904,2101.366978989473,-1192.248244505814,368.51189214564931,-368.51189214564931,1192.248244505814,3988.9439403914039,0.0
573204.59901257406,4132374.0504322448,-37500.0,-1535.7523179273833,182.04695475461185,-75.703133608147169,-2362.2012465029316,358.06601941492897,-2067.4510796796494,2403.6523656532372,-1120.7965791449474,351.0951996756138,-351.0951996756138,1120.7965791449474,4518.2734344221972,0.0
578204.59901257406,4132374.0504322448,-37500.0,-1345.2595727150642,210.11313302437176,-167.35352577461882,-2628.8278248649026,481.94085110221181,-2550.9159009670293,2735.9118811021185,-951.71025753899221,291.19975470954637,-291.19975470954637,951.71025753899221,5081.601170211612,0.0
583204.59901257406,4132374.0504322448,-37500.0,-991.4342910679635,222.41211800578816,-311.51014654934983,-2838.2372781401605,639.18771072242453,-3109.8990448730806,3086.5051949009926,-643.29457966472478,162.81530382362877,-162.81530382362877,643.29457966472478,5650.7912606319405,0.0
588204.59901257406,4132374.0504322448,-37500.0,-425.44336939906003,199.79643404975644,-529.84066715646668,-2915.458061951259,828.82883444583342,-3709.3996722669231,3429.8986126489749,-150.74267360661671,-69.404359443175736,69.404359443175736,150.74267360661671,6175.1717643758739,0.0
593204.59901257406,4132374.0504322448,-37500.0,377.79249049801439,112.87119119653985,-846.27317997896023,-2750.49067499076,1037.4957200088465,-4253.4517931762084,3718.9639779829258,554.8140532323705,-446.40993662297984,446.40993662297984,-554.8140532323705,6575.7753858854421,0.0
598204.59901257406,4132374.0504322448,-37500.0,1368.2522915112995,-75.649634934558307,-1278.2038684702152,-2221.6190593895681,1228.1849077540251,-4542.1104555515622,3881.5026796914835,1445.3104497822933,-999.63382504172284,999.63382504172284,-1445.3104497822933,6756.0239008394055,0.0
603204.59901257406,4132374.0504322448,-37500.0,2359.1623726151888,-395.82759370331837,-1816.8501886012286,-1286.240764662336,1329.7434624412349,-4261.0760215720447,3842.0148897651625,2382.4911358918216,-1717.9228837649987,1717.9228837649987,-2382.4911358918216,6660.2084057857392,0.0
608204.59901257406,4132374.0504322448,-37500.0,3043.2272375277466,-834.45829170251818,-2398.6029575634866,-137.64476059928322,1245.3090421405043,-3120.1996932879588,3631.7010358193115,3117.3753952974926,-2505.3140615841171,2505.3140615841171,-3117.3753952974926,6392.1208233109001,0.0
613204.59901257406,4132374.0504322448,-37500.0,3197.652980620001,-1292.0741288412428,-2893.3349019155985,750.72973016262677,909.71056237796051,-1204.4733002909904,3570.8930085807579,3434.0427106664224,-3173.3169694302128,3173.3169694302128,-3434.0427106664224,6232.7701154688166,0.0
618204.59901257406,4132374.0504322448,-37500.0,2932.8527209077743,-1594.7819951398621,-3157.7848500872024,947.87066412287379,390.6555646799282,800.93773038246559,3605.5082782206428,3351.8741101243172,-3520.567501028057,3520.567501028057,-3351.8741101243172,6280.0801382632417,0.0
623204.59901257406,4132374.0504322448,-37500.0,2597.6418032043048,-1616.0056147117666,-3142.7542848747844,501.77545472597399,-74.587381362084074,2024.1865524755005,3399.4523139108383,3101.4069650023143,-3474.8473314397693,3474.8473314397693,-3101.4069650023143,6212.5345864841502,0.0
628204.59901257406,4132374.0504322448,-37500.0,2421.6186506403183,-1412.437877588533,-2927.2815696545258,-114.27194736677592,-228.93908887150167,2096.1270131921619,3032.6279849490875,2882.9836671572266,-3162.9200294257134,3162.9200294257134,-2882.9836671572266,5758.2125619599747,0.0
633204.59901257406,4132374.0504322448,-37500.0,2359.9920933617568,-1180.7985040202011,-2623.7678324757821,-442.18365775781547,-17.686719719391704,1303.0480430655091,2822.2339183737949,2716.9891659601785,-2797.6405722353043,2797.6405722353043,-2716.9891659601785,5045.5734327367136,0.0
638204.59901257406,4132374.0504322448,-37500.0,2228.5524350049886,-1068.5941232155162,-2291.7705259981872,-337.74711976948657,388.702768517447,217.42432074889479,2554.2643123825201,2499.3543131087908,-2500.3667140823936,2500.3667140823936,-2499.3543131087908,4428.1120637741633,0.0
643204.59901257406,4132374.0504322448,-37500.0,1910.880655901504,-1080.8971899951466,-1948.679299643667,58.839076804816557,774.17499048465459,-708.49786222642842,2374.25979300576,2150.5315278312223,-2266.0862630259821,2266.0862630259821,-2150.5315278312223,4118.3906443254982,0.0
648204.59901257406,4132374.0504322448,-37500.0,1431.4938302992716,-1143.7487998200584,-1608.5698154063348,526.98346997650344,1020.4553590836471,-1294.2945651392795,2328.4759618282178,1687.504221199622,-2047.6598299626162,2047.6598299626162,-1687.504221199622,4033.2301252955904,0.0
653204.59901257406,4132374.0504322448,-37500.0,890.21609776045557,-1190.7206375696514,-1291.3065571735535,915.41988122122484,1114.8709424580002,-1558.8763696886517,2286.7385121572656,1185.307536231624,-1819.3871806834741,1819.3871806834741,-1185.307536231624,3988.8072839330653,0.0
658204.59901257406,4132374.0504322448,-37500.0,380.30162788511211,-1193.2607447076971,-1013.5848023304769,1168.924751466893,1096.3092051728829,-1596.8868686346048,2191.717803368304,716.05251590546663,-1582.9464709413066,1582.9464709413066,-716.05251590546663,3882.3534066631764,0.0
663204.59901257406,4132374.0504322448,-37500.0,-45.117786614976715,-1151.4499464860437,-783.02346075952357,1293.4315968704791,1011.4581631959587,-1502.7528255139644,2050.5834752162773,321.47556607627689,-1351.2745275978323,1351.2745275978323,-321.47556607627689,3695.8297035103519,0.0
668204.59901257406,4132374.0504322448,-37500.0,-369.52826904468304,-1077.5446131770018,-598.97711983759893,1318.8416207095402,896.57375528802197,-1345.3280485497319,1883.1889081151476,14.497498521981811,-1136.4586980904664,1136.4586980904664,-14.497498521981811,3448.7397965811083,0.0
673204.59901257406,4132374.0504322448,-37500.0,-598.46104309661212,-985.45493202793011,-455.9918348918693,1277.7418349183363,774.76756752334586,-1167.5902884865443,1706.59305416591,-209.70009335106062,-945.63963455975318,945.63963455975318,209.70009335106062,3168.1730029364776,0.0
678204.59901257406,4132374.0504322448,-37500.0,-747.12678446212522,-886.43043646886917,-346.86599066405881,1197.0533410698765,658.823986482333,-993.50749515627274,1532.4687925276789,-363.86895339900622,-781.28798893352655,781.28798893352655,363.86895339900622,2877.1101286153839,0.0
683204.59901257406,4132374.0504322448,-37500.0,-832.98862897979484,-788.18504903267387,-264.49048570002623,1096.3375176057421,554.74119324715252,-834.84608499873309,1367.8310761543701,-462.66866074993578,-642.74108189086564,642.74108189086564,462.66866074993578,2591.724868865309,0.0
688204.59901257406,4132374.0504322448,-37500.0,-872.16738250116487,-695.38567805518164,-202.682764494602,988.68882989485996,464.50724869013953,-696.15758730736115,1216.3438226556345,-519.6973575037083,-527.64260305003756,527.64260305003756,519.6973575037083,2322.0367642044916,0.0
693204.59901257406,4132374.0504322448,-37500.0,-878.09400778167856,-610.46876564220224,-156.4218353484857,882.27541440599009,387.94818442797259,-578.02212040370102,1079.4595820197792,-546.35493010530377,-432.94406388953365,432.94406388953365,546.35493010530377,2073.4169321874547,0.0
698204.59901257406,4132374.0504322448,-37500.0,-861.30973136839486,-534.38779702261377,-121.7910709334143,781.79865417974747,323.85512647752267,-479.03016326734422,957.26674061712004,-551.65601041342006,-355.50142410910792,355.50142410910792,551.65601041342006,1848.0550402773397,0.0
703204.59901257406,4132374.0504322448,-37500.0,-829.76050345700128,-467.18324326252718,-95.810138455013032,689.64840227112359,270.62832043406792,-396.93144972778725,849.06959174012115,-542.45872311268658,-292.38781298906827,292.38781298906827,542.45872311268658,1646.1146540125244,0.0
708204.59901257406,4132374.0504322448,-37500.0,-789.25436737434336,-408.37827717765299,-76.245612294392785,606.7434468190288,226.62051390178783,-329.26501830648397,753.7663107904566,-523.8344330492364,-241.02891640442655,241.02891640442655,523.8344330492364,1466.5596160730129,0.0
713204.59901257406,4132374.0504322448,-37500.0,-743.92791364513823,-357.23823868053285,-61.439151522934601,533.11419894303413,190.30408902852861,-273.68058630304222,670.08809630010899,-499.44901177610092,-199.23804844916646,199.23804844916646,499.44901177610092,1307.7161797347935,0.0
718204.59901257406,4132374.0504322448,-37500.0,-696.65296903607486,-312.93089116503023,-50.165747472503966,468.28830992806974,160.33833885881506,-228.0807073147042,596.74104945641272,-471.89774024403755,-165.19862174569411,165.19862174569411,471.89774024403755,1167.6317539462325,0.0
723204.59901257406,4132374.0504322448,-37500.0,-649.36865804780382,-274.62078309328638,-41.52249365793751,411.53908481268508,135.58425889258487,-190.66585515066944,532.48734054882459,-442.98011349881796,-137.42325511285827,137.42325511285827,442.98011349881796,1044.2972440341428,0.0
523204.59901257406,4137374.0504322448,-37500.0,-901.67331153489727,77.044077828521935,14.154619210658453,-552.30994302382885,53.122855730742209,-252.59382504247432,644.81255733613284,-675.44378968066474,215.24470340991854,-215.24470340991854,675.44378968066474,1267.6798326835033,0.0
528204.59901257406,4137374.0504322448,-37500.0,-985.07810144418261,95.406528916921232,14.970086948709795,-637.39936789995568,68.176915595828277,-306.23536056248065,727.85704608401772,-738.6418774320573,243.84241929269405,-243.84241929269405,738.6418774320573,1429.0324517209094,0.0
533204.59901257406,4137374.0504322448,-37500.0,-1073.8231843840738,117.90655041225024,14.860734113065908,-737.0525394677851,87.680267536313153,-372.94138568097117,823.89973217960005,-805.79067325220421,276.08561043099661,-276.08561043099661,805.79067325220421,1614.9111172990192,0.0
538204.59901257406,4137374.0504322448,-37500.0,-1166.4754511204678,145.39907613786397,13.179108302540525,-853.55614387452931,113.0241693670404,-456.13499105802862,935.10438295409438,-875.68305047954755,312.06096371677455,-312.06096371677455,875.68305047954755,1829.1070010145243,0.0
543204.59901257406,4137374.0504322448,-37500.0,-1260.4824195174331,178.83678005889527,8.9403090683938586,-989.27684459434852,146.04193676853765,-560.11065603680129,1063.9213630658144,-946.18078798474221,351.56257143000988,-351.56257143000988,946.18078798474221,2075.7710339176811,0.0
548204.59901257406,4137374.0504322448,-37500.0,-1351.6403518250736,219.20999812893456,0.66082096586595862,-1146.4315936786338,189.13544781389953,-690.19147554014398,1213.0575983658998,-1013.7634725942933,393.86744684840909,-393.86744684840909,1013.7634725942933,2359.2682989395125,0.0
553204.59901257406,4137374.0504322448,-37500.0,-1433.3562404059046,267.41241213899337,-13.872786697287548,-1326.6626111210223,245.41853271176072,-852.84993246997306,1385.3859555362499,-1072.8959740176472,437.37907454584462,-437.37907454584462,1072.8959740176472,2683.8818461977653,0.0
558204.59901257406,4137374.0504322448,-37500.0,-1495.6506825301917,323.97490754811412,-37.929180442944549,-1530.2923117244538,318.85602177151463,-1055.7160413376278,1583.7478800514273,-1115.1628500585171,479.07106068528344,-479.07106068528344,1115.1628500585171,3053.2708147461317,0.0
563204.59901257406,4137374.0504322448,-37500.0,-1523.8670314982212,388.57200091690299,-76.273005387117124,-1755.0626213091982,414.34244686520537,-1307.3224059876284,1810.5720123125402,-1128.1294173617889,513.63698206925028,-513.63698206925028,1128.1294173617889,3469.5373375505051,0.0
568204.59901257406,4137374.0504322448,-37500.0,-1497.1274502682686,459.1528439688372,-135.72644193965041,-1994.0555419626294,537.59575204100349,-1616.2918297068493,2067.1770444479421,-1093.9459449113472,532.23189352426766,-532.23189352426766,1093.9459449113472,3931.6799786652186,0.0
573204.59901257406,4137374.0504322448,-37500.0,-1386.8008708806137,530.48176880714311,-225.8023406880919,-2232.3501157103151,694.60066915536652,-1989.3851957194074,2352.5357930070818,-987.8899362365288,520.7044331479641,-520.7044331479641,987.8899362365288,4433.106030575469,0.0
578204.59901257406,4137374.0504322448,-37500.0,-1155.8454272866322,591.83311622030942,-359.22036437856207,-2441.8666582346214,890.07073037517159,-2427.2400066325636,2661.1399711423001,-777.52570800851288,457.36127939646019,-457.36127939646019,777.52570800851288,4957.7712544415153,0.0
583204.59901257406,4137374.0504322448,-37500.0,-761.30252175299393,623.72077413099396,-551.80891859719145,-2574.1518446718351,1123.946897497553,-2915.5190814974389,2979.483378688677,-424.31786360436877,310.8161217137764,-310.8161217137764,424.31786360436877,5474.6193475740574,0.0
588204.59901257406,4137374.0504322448,-37500.0,-165.0315272666854,594.27500012446239,-820.69262553029114,-2552.8023667040311,1384.3672778475766,-3407.573865811185,3280.8957912429469,108.13121618329814,39.852951299275141,-39.852951299275141,-108.13121618329814,5931.0428930978687,0.0
593204.59901257406,4137374.0504322448,-37500.0,638.65899514494299,458.17004791386898,-1178.7300242019733,-2273.8206230984429,1635.550408284575,-3794.6875701942454,3520.1750082046574,831.92486627706239,-399.83650546460905,399.83650546460905,-831.92486627706239,6250.2771714428654,0.0
598204.59901257406,4137374.0504322448,-37500.0,1572.4164135763572,165.93779486131851,-1622.5302611792804,-1636.6659896588124,1802.3702316434876,-3870.4237432271407,3635.6119542384367,1692.8064621867143,-1033.3079044689598,1033.3079044689598,-1692.8064621867143,6348.7681689435467,0.0
603204.59901257406,4137374.0504322448,-37500.0,2425.5638358596375,-303.57921759757534,-2113.8082615503922,-640.17128096407669,1765.8197721783965,-3335.2571149331784,3582.3240543887978,2524.2556652318281,-1821.8656893760281,1821.8656893760281,-2524.2556652318281,6205.0579705646323,0.0
608204.59901257406,4137374.0504322448,-37500.0,2895.9171961024304,-886.39468895209654,-2564.8624788169232,472.45917676547396,1404.5691800778436,-1947.9927226980731,3444.3454010667638,3068.934071796125,-2616.3219007802463,2616.3219007802463,-3068.934071796125,5981.4075707604934,0.0
613204.59901257406,4137374.0504322448,-37500.0,2816.2894842950168,-1402.3265755860114,-2856.8395494297665,1205.519877201039,707.63865070473787,140.50781932764679,3460.2014715073042,3149.3429010226273,-3179.1107166010343,3179.1107166010343,-3149.3429010226273,5993.8132501030032,0.0
618204.59901257406,4137374.0504322448,-37500.0,2383.695785059841,-1639.4274753289064,-2910.6867934825573,1163.4627607397208,-122.97684811944113,2215.9941095555978,3557.6889267301949,2867.3371217980712,-3328.5778235007765,3328.5778235007765,-2867.3371217980712,6272.1772897258334,0.0
623204.59901257406,4137374.0504322448,-37500.0,2002.2336129392922,-1526.4943013671777,-2759.2729782551414,465.51884028461785,-747.60465612830012,3447.0866788247567,3535.6195924900367,2526.2298972378112,-3091.7259932566294,3091.7259932566294,-2526.2298972378112,6399.7374079255087,0.0
628204.59901257406,4137374.0504322448,-37500.0,1888.9804420085222,-1201.5792134119922,-2522.8379914773409,-373.25964869099835,-924.11920183442066,3533.0943236523026,3336.6396097972161,2337.4381024864383,-2681.3533543662375,2681.3533543662375,-2337.4381024864383,6060.7028707549134,0.0
633204.59901257406,4137374.0504322448,-37500.0,1962.9202762178872,-891.79904155401221,-2299.8519920469748,-904.66398520919768,-661.57651729842144,2771.0810048858011,2983.8121033956095,2292.3475990388106,-2320.8846735097068,2320.8846735097068,-2292.3475990388106,5331.3763843487122,0.0
638204.59901257406,4137374.0504322448,-37500.0,2020.200868937138,-742.92922429683472,-2105.7622446299615,-986.71905801261687,-163.00838320115528,1673.8985964578728,2579.0809462709622,2257.406492654507,-2102.3420611458223,2102.3420611458223,-2257.406492654507,4513.4306985160511,0.0
643204.59901257406,4137374.0504322448,-37500.0,1918.0754182116812,-759.11111403213386,-1909.6511220273351,-725.34604934581682,342.70775661652209,646.06691774478656,2238.892719681493,2117.3053361488069,-1988.5773082765304,1988.5773082765304,-2117.3053361488069,3880.7307223053867,0.0
648204.59901257406,4137374.0504322448,-37500.0,1637.6471808770414,-862.20563002759866,-1690.4347749385765,-311.03716685017395,718.07823261219448,-119.84137314674877,2031.5431605975559,1844.8475816662869,-1902.344807422872,1902.344807422872,-1844.8475816662869,3518.972381995326,0.0
653204.59901257406,4137374.0504322448,-37500.0,1243.26345546056,-972.07199676045457,-1453.021101670583,101.84369662249242,928.99942775055285,-597.50951138682512,1923.0980645877316,1482.7967016492289,-1792.8644373914863,1792.8644373914863,-1482.7967016492289,3339.1849202118569,0.0
658204.59901257406,4137374.0504322448,-37500.0,817.22916085929364,-1043.3390644767678,-1215.6577920406016,432.21277489455741,1001.7280181076903,-841.38174190210111,1835.2671652285417,1094.3903821789345,-1647.4957922557946,1647.4957922557946,-1094.3903821789345,3216.8806243611607,0.0
663204.59901257406,4137374.0504322448,-37500.0,421.27427441867962,-1063.7040220240369,-995.61254937201431,657.56488442607781,980.77355056492968,-924.46710776481461,1732.4417749658635,729.97834129478952,-1476.1054041656853,1476.1054041656853,-729.97834129478952,3080.44617710999,0.0
668204.59901257406,4137374.0504322448,-37500.0,88.101928843945245,-1039.547635356186,-803.15282876720096,787.23370776705212,906.42927329912789,-909.60291099033941,1611.7169216250948,417.62912784070329,-1294.8407201419318,1294.8407201419318,-417.62912784070329,2909.7373555250542,0.0
673204.59901257406,4137374.0504322448,-37500.0,-172.28164785372749,-983.80497573210721,-641.68091794335476,842.32624559673229,807.7939103700719,-842.03529933478137,1480.2549092014137,166.88483421915703,-1117.5518659315433,1117.5518659315433,-166.88483421915703,2710.0320959482642,0.0
678204.59901257406,4137374.0504322448,-37500.0,-363.37605984068352,-909.32845924922299,-510.0339474674538,844.91467190579203,703.22165735513045,-751.11019121754009,1346.0009802740733,-24.21250869624032,-953.27446391604724,953.27446391604724,24.21250869624032,2494.1574270474157,0.0
683204.59901257406,4137374.0504322448,-37500.0,-494.97403769916133,-826.32462459221131,-404.73548308417145,813.60651436877629,603.03946555072798,-654.38392695863593,1215.056681428475,-163.24782556320463,-806.61569653369224,806.61569653369224,163.24782556320463,2274.4698403931975,0.0
688204.59901257406,4137374.0504322448,-37500.0,-578.69229021567537,-741.93221466719353,-321.53422737922961,762.47349515183339,512.28574473018239,-561.50549343947546,1091.3761797364416,-259.65353355568141,-679.00474928729193,679.00474928729193,259.65353355568141,2060.2921420447196,0.0
693204.59901257406,4137374.0504322448,-37500.0,-625.62395695778093,-660.66652135623076,-256.26472595213397,701.42936858326152,432.80307985513474,-477.16277596949061,977.14901414391045,-322.65407518493885,-569.91047863558731,569.91047863558731,322.65407518493885,1857.6967482874952,0.0
698204.59901257406,4137374.0504322448,-37500.0,-645.3266025311641,-585.08348478044036,-205.24314606104755,637.07268369353005,364.65200733347694,-403.10454269150927,873.29874362964131,-360.33422578553353,-477.7572716165368,477.7572716165368,360.33422578553353,1670.0937633483363,0.0
703204.59901257406,4137374.0504322448,-37500.0,-645.55005835518807,-516.39178295976603,-165.39224250266574,573.55395947016893,306.99505772711257,-339.44427132965643,779.91297717316365,-379.3481056769927,-400.52763568179188,400.52763568179188,379.3481056769927,1498.9612887130306,0.0
708204.59901257406,4137374.0504322448,-37500.0,-632.33007279808862,-454.9336534556025,-134.22890107785824,513.30884026531851,258.61872724470413,-285.46359699040147,696.56964568771696,-384.95449124290894,-336.12369840268116,336.12369840268116,384.95449124290894,1344.4884726713026,0.0
713204.59901257406,4137374.0504322448,-37500.0,-610.23010899951839,-400.52985289183761,-109.7925872341612,457.61954440223616,218.22312656269494,-240.08521741999172,622.56461912554767,-381.19195378520556,-282.56315054870345,282.56315054870345,381.19195378520556,1206.0655007281744,0.0
718204.59901257406,4137374.0504322448,-37500.0,-582.61921663856083,-352.71322456104878,-90.556255857241538,407.02158776031035,184.57054208496811,-202.1378270925947,557.06273419304557,-371.09528293456316,-238.07062485697355,238.07062485697355,371.09528293456316,1082.6309048644764,0.0
723204.59901257406,4137374.0504322448,-37500.0,-551.93321454057002,-310.88027907473008,-75.340610062713537,361.58730875496599,156.5523571551384,-170.49488962515679,499.19402349849884,-356.90494506892105,-201.10823855820558,201.10823855820558,356.90494506892105,972.90633287144806,0.0
523204.59901257406,4142374.0504322448,-37500.0,-877.43774487416908,151.66555168977274,-7.5162526576480548,-540.59802893049675,93.323123142772076,-248.2058093053331,638.91643782811673,-656.1599887818611,258.69187281532254,-258.69187281532254,656.1599887818611,1255.8612456468506,0.0
528204.59901257406,4142374.0504322448,-37500.0,-953.45704340635075,181.39703189135432,-12.135677579346703,-621.37482147511412,116.54864512530459,-299.93874345557401,719.57013948637098,-712.97898513605605,292.11350391215086,-292.11350391215086,712.97898513605605,1412.723171501998,0.0
533204.59901257406,4142374.0504322448,-37500.0,-1032.7295612623191,217.03969725682956,-19.174822332841721,-715.15986912069854,146.06793790931252,-363.90471387343104,812.40874429860719,-771.84633574392205,329.41851117465973,-329.41851117465973,771.84633574392205,1592.613080732363,0.0
538204.59901257406,4142374.0504322448,-37500.0,-1113.2585843857553,259.62787345846033,-29.710831372050116,-823.66247578949162,183.68762464526665,-443.14790819131071,919.31521919690192,-831.00880587349309,370.50420066885465,-370.50420066885465,831.00880587349309,1798.8135212950826,0.0
543204.59901257406,4142374.0504322448,-37500.0,-1191.8046367666227,310.23288234079996,-45.274641664190966,-948.45465656769511,231.72378563458921,-541.40264481229462,1042.3580676286169,-887.64711355088855,414.84150875742455,-414.84150875742455,887.64711355088855,2034.7894626214975,0.0
548204.59901257406,4142374.0504322448,-37500.0,-1263.3558889272158,369.83636470867202,-68.031439532973707,-1090.6641151271094,293.11310006967545,-663.16077475596558,1183.724584585543,-937.41476712053191,461.18691403413078,-461.18691403413078,937.41476712053191,2303.9822339542829,0.0
553204.59901257406,4142374.0504322448,-37500.0,-1320.4256421202167,439.08799342791133,-101.02128246256038,-1250.4518680058388,371.51145445996991,-813.65771750142721,1345.5814299110973,-973.82004917340225,507.14034375876406,-507.14034375876406,973.82004917340225,2609.4352661179641,0.0
558204.59901257406,4142374.0504322448,-37500.0,-1352.1609270374593,517.87019385602969,-148.4654749340487,-1426.1556069126609,471.33275911017205,-998.68015489171103,1529.8154575298229,-987.43139646405166,548.48161098097671,-548.48161098097671,987.43139646405166,2953.1576266300581,0.0
563204.59901257406,4142374.0504322448,-37500.0,-1343.2939305490816,604.55181404543077,-216.1257471504556,-1612.9256895806579,597.62878023284452,-1224.0164619341926,1737.5798686552841,-964.92460714345168,578.20358930610553,-578.20358930610553,964.92460714345168,3335.087175079339,0.0
568204.59901257406,4142374.0504322448,-37500.0,-1273.0938227795784,694.76151690829852,-311.65535324134163,-1800.6187045575509,755.61260963325935,-1494.2275762476652,1968.5306483391548,-888.09519516190858,585.16678296606119,-585.16678296606119,888.09519516190858,3751.4644695607294,0.0
573204.59901257406,4142374.0504322448,-37500.0,-1114.7729795010341,779.47102299157427,-444.77338691173446,-1970.6705616800434,949.44797948275198,-1810.150306002492,2219.5806106040154,-733.21083400058831,552.37602331688493,-552.37602331688493,733.21083400058831,4192.3810201403694,0.0
578204.59901257406,4142374.0504322448,-37500.0,-836.45548200274368,842.22845250371404,-626.8775560151513,-2091.7771197307834,1179.6225893906551,-2164.0773807245787,2482.9484401298569,-471.63757190044174,455.14712537781992,-455.14712537781992,471.63757190044174,4638.3092039844705,0.0
583204.59901257406,4142374.0504322448,-37500.0,-406.130503497169,855.74949255664137,-869.31722199125966,-2114.8794780569874,1437.7802101606537,-2530.8205480828678,2743.3458516435148,-73.804140854121272,260.15816707099356,-260.15816707099356,73.804140854121272,5055.8307440542021,0.0
588204.59901257406,4142374.0504322448,-37500.0,194.90387678616412,779.33555673504839,-1178.9887112828944,-1970.2937967836681,1697.5698729538274,-2852.2461760220235,2974.7374215577352,479.60788783117124,-71.962147100958134,71.962147100958134,-479.60788783117124,5394.417716786611,0.0
593204.59901257406,4142374.0504322448,-37500.0,944.29538002857134,561.72504804344135,-1549.5870920252369,-1575.8693296218496,1901.0953895524503,-3014.6891745650951,3139.3638526972991,1174.0402385173243,-574.95837255258084,574.95837255258084,-1174.0402385173243,5590.9708335453624,0.0
598204.59901257406,4142374.0504322448,-37500.0,1737.4332094001616,159.21441373553876,-1948.3541441869793,-875.12140281196503,1946.4207067259679,-2830.1475586987644,3198.1198254860888,1924.7916252352204,-1248.3820938244664,1248.3820938244664,-1924.7916252352204,5599.277797871815,0.0
603204.59901257406,4142374.0504322448,-37500.0,2363.1441070189835,-419.89855534376176,-2304.9129736792579,75.532857690047507,1697.1117312414544,-2063.459516597798,3154.1307955752259,2551.8359723786662,-2011.9287620198268,2011.9287620198268,-2551.8359723786662,5468.8721756564473,0.0
608204.59901257406,4142374.0504322448,-37500.0,2574.4835580712102,-1057.0184710888552,-2521.4648821958367,1005.9925190831834,1051.223783271821,-578.24316521538708,3138.1974002216925,2830.8407825937184,-2676.1001344627475,2676.1001344627475,-2830.8407825937184,5435.566648201182,0.0
613204.59901257406,4142374.0504322448,-37500.0,2297.4005961308744,-1523.4123352331073,-2524.2283993282504,1477.5202188083074,71.862007686445111,1411.8990986015538,3327.5896496346677,2664.3192007200209,-3004.9722587195997,3004.9722587195997,-2664.3192007200209,5769.7231511397822,0.0
618204.59901257406,4142374.0504322448,-37500.0,1784.2305280219107,-1616.6969455654844,-2331.1105510335447,1202.8386783002679,-945.71248131842947,3271.1310253346828,3640.9081512482117,2228.3376415213552,-2887.933006899957,2887.933006899957,-2228.3376415213552,6334.8807387622992,0.0
623204.59901257406,4142374.0504322448,-37500.0,1422.7925610553118,-1336.8399570190622,-2057.1834629098253,352.19412624177136,-1626.0887701244837,4330.2870295872553,3828.0720238055032,1847.5314488582521,-2452.3144128092749,2452.3144128092749,-1847.5314488582521,6659.4149620607932,0.0
628204.59901257406,4142374.0504322448,-37500.0,1388.2791115131274,-886.21686646447733,-1832.2022263914846,-591.66795735293238,-1770.3090935774983,4374.6937067811014,3719.8687798122219,1710.724649582048,-1960.8086112559047,1960.8086112559047,-1710.724649582048,6458.808050471107,0.0
633204.59901257406,4142374.0504322448,-37500.0,1575.6296158837611,-502.14669849329897,-1712.602851697693,-1230.8237082612541,-1443.7450341437761,3666.8061349482327,3344.7386680266382,1778.2165216217134,-1617.4804912378302,1617.4804912378302,-1778.2165216217134,5797.9479657803658,0.0
638204.59901257406,4142374.0504322448,-37500.0,1778.0511071836424,-314.8712606924239,-1667.8800393837855,-1437.3761323530487,-866.23257518630703,2631.4753457137454,2845.4598478735152,1897.5734803574326,-1475.669869415555,1475.669869415555,-1897.5734803574326,4928.5164456991624,0.0
643204.59901257406,4142374.0504322448,-37500.0,1845.8113356540593,-322.89567801449431,-1632.236558955392,-1290.8518109169602,-261.10059440757209,1607.3463379018656,2367.7583392184993,1936.1359578527399,-1473.0090798944884,1473.0090798944884,-1936.1359578527399,4103.716686135167,0.0
648204.59901257406,4142374.0504322448,-37500.0,1735.3181237210486,-449.48921147826286,-1558.5498116888291,-948.26453078648967,231.03836521349956,773.66809109907285,2002.9691616402654,1839.8392503150833,-1514.7558415371316,1514.7558415371316,-1839.8392503150833,3474.2860053505374,0.0
653204.59901257406,4142374.0504322448,-37500.0,1482.2571968470247,-609.77442466068146,-1435.6188730597858,-551.08418516138443,561.40922110661199,179.74288690167941,1768.0526618110073,1624.5178851166097,-1532.6667819967483,1532.6667819967483,-1624.5178851166097,3063.0157975748102,0.0
658204.59901257406,4142374.0504322448,-37500.0,1152.7549468913382,-746.70079630664236,-1276.7989126024015,-189.00606575541349,741.44385833327806,-198.06378576299466,1617.9020996590475,1338.9147335606326,-1499.4179792860236,1499.4179792860236,-1338.9147335606326,2806.1770152195259,0.0
663204.59901257406,4142374.0504322448,-37500.0,807.75597203647817,-835.55660599041744,-1102.9866314481706,97.70367085394335,807.58303816418436,-410.17750681833076,1501.5805980611358,1033.0453778415686,-1416.886513331021,1416.886513331021,-1033.0453778415686,2624.2742820364042,0.0
668204.59901257406,4142374.0504322448,-37500.0,488.57612054009689,-873.9808843935806,-932.04631973579251,301.61028836091697,798.75544496311068,-507.84933749821391,1393.1891701808267,743.1979098744041,-1299.9050866112511,1299.9050866112511,-743.1979098744041,2464.5389599389887,0.0
673204.59901257406,4142374.0504322448,-37500.0,216.60847320411153,-870.61469796029951,-775.37080696305986,432.05229139257335,746.62521817633274,-532.74812009649918,1284.9985376188456,489.66212840635779,-1165.2276697725943,1165.2276697725943,-489.66212840635779,2304.0132455890989,0.0
678204.59901257406,4142374.0504322448,-37500.0,-1.3865887687350966,-837.33600844787441,-638.40068744388884,504.38496137172439,673.52931597589441,-515.04044296118605,1176.9769811025874,280.19140321095182,-1026.480968629073,1026.480968629073,-280.19140321095182,2137.745320710409,0.0
683204.59901257406,4142374.0504322448,-37500.0,-167.46426660297013,-785.24993038839398,-522.42056660927062,534.19510191556355,593.73442278922448,-474.96428990750883,1071.3517163439142,114.57958557176158,-892.9148485710889,892.9148485710889,-114.57958557176158,1968.4787129643182,0.0
688204.59901257406,4142374.0504322448,-37500.0,-288.03814688245564,-723.1787028206395,-426.29973821702197,534.812096726356,515.56834684257808,-425.29900741176334,970.4256650742069,-11.586058701471018,-769.8961084026696,769.8961084026696,11.586058701471018,1800.9567769159253,0.0
693204.59901257406,4142374.0504322448,-37500.0,-371.02169596236308,-657.46102192185151,-347.75687927531317,516.62859152843942,443.38346590789143,-373.64896444440285,875.88025250627948,-104.40745800685391,-659.92106357829357,659.92106357829357,104.40745800685391,1639.4682862043464,0.0
698204.59901257406,4142374.0504322448,-37500.0,-424.22743838386566,-592.30268760815329,-284.14721555186526,487.27029208828759,379.05190961161622,-324.22229689880351,788.6837928031091,-170.20283479368683,-563.59638133410169,563.59638133410169,170.20283479368683,1487.0844761102571,0.0
703204.59901257406,4142374.0504322448,-37500.0,-454.60127158440616,-530.27760941480267,-232.89497729262914,452.07931066206555,322.99688518175134,-279.09842357723295,709.21169431552232,-214.75706647484009,-480.40557664981492,480.40557664981492,214.75706647484009,1345.635889293733,0.0
708204.59901257406,4142374.0504322448,-37500.0,-467.95080863047099,-472.79657153165005,-191.69541517562581,414.64583199504403,274.85740686118584,-239.08006033409029,637.40930489320806,-243.01639711698607,-409.24044474228418,409.24044474228418,243.01639711698607,1215.9420864769486,0.0
713204.59901257406,4142374.0504322448,-37500.0,-468.94116152178066,-420.48817249466697,-158.58505792562298,377.28129486447853,233.89756269376241,-204.24452808465028,572.94293054514424,-259.03160917442409,-348.7451558050513,348.7451558050513,259.03160917442409,1098.0954641986214,0.0
718204.59901257406,4142374.0504322448,-37500.0,-461.21334746938493,-373.48044199831236,-131.94071188436897,341.39599813995926,199.24478606646792,-174.28643772171188,515.31543997535289,-266.02342808962186,-297.52124294075753,297.52124294075753,266.02342808962186,991.70681096647286,0.0
523204.59901257406,4147374.0504322448,-37500.0,-832.49677944705127,217.30344955210276,-37.842067619074236,-518.1275421679951,129.26188931133834,-239.43073536885652,624.84566344410337,-617.98911450788,286.76093410944128,-286.76093410944128,617.98911450788,1228.445132198802,0.0
528204.59901257406,4147374.0504322448,-37500.0,-897.45925931765657,255.75474874592561,-49.47131257571219,-592.03878663206251,159.16741065201617,-287.94055346955173,701.38566768726105,-664.98322735682018,321.41429551730192,-321.41429551730192,664.98322735682018,1377.4963294742374,0.0
533204.59901257406,4147374.0504322448,-37500.0,-962.96718623015397,301.05558849835955,-65.271753438899495,-676.7537489749144,196.64341069537693,-347.41871279402955,788.88866827152435,-711.51349375150073,359.27798378580553,-359.27798378580553,711.51349375150073,1547.2808940852974,0.0
538204.59901257406,4147374.0504322448,-37500.0,-1026.4125177994979,354.14689131153312,-86.754711861001866,-773.24632814566996,243.67997602458269,-420.3805776397212,888.85616823859993,-755.22237260140014,399.83202668670469,-399.83202668670469,755.22237260140014,1740.3730541268912,0.0
543204.59901257406,4147374.0504322448,-37500.0,-1083.8653381826489,415.86073134319656,-115.96786933521062,-882.11195147118383,302.74532236914195,-509.80040494831178,1002.8526474898555,-792.58863333131512,441.95454050371859,-441.95454050371859,792.58863333131512,1959.3083425007444,0.0
548204.59901257406,4147374.0504322448,-37500.0,-1129.5887681699708,486.70761063904371,-155.66534944989183,-1003.1944870477867,376.83974893061713,-619.07648832447876,1132.4012363368688,-818.49570619671624,483.57801095383968,-483.57801095383968,818.49570619671624,2206.314748382953,0.0
553204.59901257406,4147374.0504322448,-37500.0,-1155.4414280349847,566.51130032164167,-209.50795967106222,-1134.9962271691975,469.49256897545348,-751.87270830965099,1278.7996605170079,-825.6949650189423,521.18882132361125,-521.18882132361125,825.6949650189423,2482.8678908773159,0.0
558204.59901257406,4147374.0504322448,-37500.0,-1150.2002951328805,653.80624919644526,-282.27052057764382,-1273.7732826677686,584.62663488582018,-911.72624209397441,1442.8130221841425,-804.18922380467939,549.12048064756755,-549.12048064756755,804.18922380467939,2788.9856766348526,0.0
563204.59901257406,4147374.0504322448,-37500.0,-1098.9156884050494,744.88334392743388,-379.9948691150293,-1412.1959078691311,726.1520786864379,-1101.2351371520333,1624.1833553598976,-740.63049619154719,558.60198734994594,-558.60198734994594,740.63049619154719,3122.1556628674057,0.0
568204.59901257406,4147374.0504322448,-37500.0,-982.57810157762924,832.34681808623498,-509.94646747838823,-1537.4523413015415,897.03985079222196,-1320.5153136897984,1820.8771594887621,-617.97526086141852,536.5768963010305,-536.5768963010305,617.97526086141852,3475.7770787909549,0.0
573204.59901257406,4147374.0504322448,-37500.0,-778.70389232742116,903.07848274457001,-680.08754389531498,-1628.7527350237865,1097.4514417099067,-1564.4241870471558,2027.9871966018191,-415.93321768327991,464.46966939781561,-464.46966939781561,415.93321768327991,3837.0462710698921,0.0
578204.59901257406,4147374.0504322448,-37500.0,-464.0533214490784,935.70727367165205,-897.53210523641928,-1654.505512483528,1321.2572633951409,-1817.7810771403433,2236.2664005743136,-113.29191194940901,317.47407922217133,-317.47407922217133,113.29191194940901,4184.4524705331469,0.0
583204.59901257406,4147374.0504322448,-37500.0,-21.637904749129788,898.32983904317575,-1165.1172517665575,-1570.3611589182019,1550.0651434455874,-2047.580728814459,2430.5505938849128,305.94237645760904,65.793710764694438,-65.793710764694438,-305.94237645760904,4485.8180324348923,0.0
588204.59901257406,4147374.0504322448,-37500.0,544.92610806431719,748.83169048040202,-1475.0242639861908,-1321.5885472689865,1744.170237343307,-2191.6037097515891,2589.2469054637418,839.78962426125122,-319.19733014173789,319.19733014173789,-839.78962426125122,4699.9537809473713,0.0
593204.59901257406,4147374.0504322448,-37500.0,1187.9138977868449,443.19275893456745,-1799.1414305474593,-857.54454500225199,1832.048397680159,-2145.8863178205152,2688.5347895886466,1447.0687271998368,-849.11298190771595,849.11298190771595,-1447.0687271998368,4789.8944783277657,0.0
598204.59901257406,4147374.0504322448,-37500.0,1790.1724525041639,-39.760570781680954,-2079.5258937115591,-170.02998741931481,1706.9265834770947,-1763.4133272419019,2720.050908864474,2023.5683106785509,-1489.3532978949806,1489.3532978949806,-2023.5683106785509,4762.7198692211114,0.0
603204.59901257406,4147374.0504322448,-37500.0,2168.6443235569668,-653.61798115120155,-2230.7060984676486,641.81362293726045,1251.4793122870694,-894.60442358518594,2733.8517942557155,2401.8923703476798,-2125.2721244702002,2125.2721244702002,-2401.8923703476798,4741.0439079377365,0.0
608204.59901257406,4147374.0504322448,-37500.0,2157.6301196231807,-1244.7126116344052,-2172.6827957876294,1323.7575422014399,414.95967068115192,496.65970688290196,2871.5052881826141,2420.826027104566,-2562.5256298490617,2562.5256298490617,-2420.826027104566,4973.8733558600061,0.0
613204.59901257406,4147374.0504322448,-37500.0,1766.9082315144594,-1586.061098639035,-1895.3549162872444,1543.3119916190274,-680.31669670892984,2183.7698565858182,3223.430039202527,2066.2734325255392,-2615.9137260753537,2615.9137260753537,-2066.2734325255392,5585.0961948001805,0.0
618204.59901257406,4147374.0504322448,-37500.0,1252.6482885916653,-1522.7434400361551,-1500.1684325105809,1130.3998371917012,-1721.299444140468,3680.0907812756632,3640.4507184970189,1549.0283884378618,-2260.2404671900194,2260.2404671900194,-1549.0283884378618,6311.184571546456,0.0
623204.59901257406,4147374.0504322448,-37500.0,938.39872177808741,-1108.9393630249285,-1150.6159202797612,260.22704502742772,-2369.1724734776285,4516.3376486551097,3880.3095871517844,1166.9500520273184,-1682.8979114636356,1682.8979114636356,-1166.9500520273184,6735.8239622610836,0.0
628204.59901257406,4147374.0504322448,-37500.0,956.22837353875389,-568.35456313949794,-964.38896269630334,-673.31805531242753,-2473.0848441182447,4546.4914001495417,3820.5645286823365,1074.6930031392458,-1149.8469071403233,1149.8469071403233,-1074.6930031392458,6644.6880469156122,0.0
633204.59901257406,4147374.0504322448,-37500.0,1205.0351661108532,-127.89431920906817,-954.27771908040336,-1344.1365013650729,-2117.8156166353292,3959.6177159191466,3495.2473528500459,1219.9412835263729,-832.96664053958045,832.96664053958045,-1219.9412835263729,6092.8623310183575,0.0
638204.59901257406,4147374.0504322448,-37500.0,1495.7326760043181,97.489433392353135,-1052.3340476230828,-1634.1943612119114,-1511.637284305775,3071.6175631042561,3021.2036996169236,1449.4857266152669,-755.22836472201948,755.22836472201948,-1449.4857266152669,5280.8091315596539,0.0
643204.59901257406,4147374.0504322448,-37500.0,1682.7136482219585,111.30017910650847,-1169.8207010267852,-1592.5487685502753,-858.7068998755251,2148.688233573966,2521.9364593936484,1625.8163733908702,-840.44294227226987,840.44294227226987,-1625.8163733908702,4420.5456211143655,0.0
648204.59901257406,4147374.0504322448,-37500.0,1707.3286901763795,-16.178246276283506,-1243.1887722035419,-1339.5084350950417,-293.37224152101487,1347.3963940633109,2087.26712530849,1678.741804460001,-987.34987697514021,987.34987697514021,-1678.741804460001,3662.6429794552992,0.0
653204.59901257406,4147374.0504322448,-37500.0,1581.7931353626968,-202.7028753510196,-1248.1275153201746,-994.9614543351372,127.11774916105584,727.83968854510397,1759.1758110774208,1602.58598927909,-1118.6480269038789,1118.6480269038789,-1602.58598927909,3076.142699053833,0.0
658204.59901257406,4147374.0504322448,-37500.0,1353.8338231327373,-386.05303664955403,-1190.2377104034983,-645.56838283254558,400.35237451173208,289.23964919691389,1531.1077544302443,1429.5085515695105,-1195.5568209269909,1195.5568209269909,-1429.5085515695105,2659.9792318058649,0.0
663204.59901257406,4147374.0504322448,-37500.0,1076.8404718184784,-532.15732100464788,-1088.9714663420011,-340.03327158405028,551.61858063745854,2.1452671235299174,1369.5900008681256,1202.7316137742353,-1210.4520918100845,1210.4520918100845,-1202.7316137742353,2372.2172594480203,0.0
668204.59901257406,4147374.0504322448,-37500.0,793.71443838868754,-629.71170070954645,-965.42339331202845,-97.628114633166064,614.03262358373877,-170.58413877694721,1243.9696726616471,960.09555701346414,-1173.1019335118535,1173.1019335118535,-960.09555701346414,2162.7334467068558,0.0
673204.59901257406,4147374.0504322448,-37500.0,532.24305074438666,-681.16305255547741,-836.37201862309678,80.554614130248538,617.92258535465294,-263.10385278815244,1136.3514524234176,727.93012595071434,-1099.3774070702875,1099.3774070702875,-727.93012595071434,1993.5048437504242,0.0
678204.59901257406,4147374.0504322448,-37500.0,306.77330986696211,-695.17308547951825,-712.84381766219815,202.48312560481537,586.92089690633361,-302.66721727310181,1038.4479241582549,521.20979674902776,-1004.7036523759551,1004.7036523759551,-521.20979674902776,1842.7871189192197,0.0
683204.59901257406,4147374.0504322448,-37500.0,122.02074722250569,-681.87160753530532,-600.88611942209548,279.29134680868685,537.68740117752611,-309.25657965688077,947.13470185066535,346.24740395599076,-901.32266092928933,901.32266092928933,-346.24740395599076,1700.8827091669216,0.0
688204.59901257406,4147374.0504322448,-37500.0,-23.206689804398223,-650.45567245008749,-502.99069334041872,322.0612994591163,481.10728669516664,-296.68162275474839,861.60652501753702,203.72944383868298,-797.77956018388147,797.77956018388147,-203.72944383868298,1564.8045187922082,0.0
693204.59901257406,4147374.0504322448,-37500.0,-133.17170609336461,-608.29295711015561,-419.42572410540322,340.3790559876594,423.80936312693433,-274.04500159755247,781.89737874080197,91.185363838816613,-699.41420566381407,699.41420566381407,-91.185363838816613,1434.5518116967232,0.0
698204.59901257406,4147374.0504322448,-37500.0,-213.3354120440921,-560.82627197513716,-349.23490017825424,341.90448373146705,369.51129964891737,-247.09003464166108,708.20327497114067,4.6967761542792914,-609.14898666617773,609.14898666617773,-4.6967761542792914,1311.0724469658385,0.0
703204.59901257406,4147374.0504322448,-37500.0,-269.25520586385932,-511.82894390616724,-290.89965337478128,332.44537941109542,320.05046947935847,-219.27243857872847,640.62087814581969,-60.046843215799015,-528.24282597402839,528.24282597402839,60.046843215799015,1195.3292064925163,0.0
708204.59901257406,4147374.0504322448,-37500.0,-306.01447782761016,-463.76358420796146,-242.73827037468413,316.23697170126229,276.11142897544062,-192.54729718459666,579.08118372559511,-107.16498673345416,-456.89385669888713,456.89385669888713,107.16498673345416,1087.9609015072244,0.0
713204.59901257406,4147374.0504322448,-37500.0,-327.98482358712852,-418.12804399671853,-203.12495375282558,296.27004580922545,237.71193702989817,-167.91826905470799,523.36504456827652,-140.30973061028209,-394.67696328455219,394.67696328455219,140.30973061028209,989.2256054569466,0.0
718204.59901257406,4147374.0504322448,-37500.0,-338.77767339305336,-375.74217725742932,-170.59425681360912,274.59375815705988,204.5128492315385,-145.80616603847909,473.14307788235919,-162.57226783824967,-340.83907261312078,340.83907261312078,162.57226783824967,899.05356944009407,0.0
523204.59901257406,4152374.0504322448,-37500.0,-770.70185770197179,271.03172264200452,-74.14367602770038,-486.70128041711848,159.47176363268221,-226.94802922129838,603.5196813099609,-564.44228942527002,299.24503130612788,-299.24503130612788,564.44228942527002,1187.1849357627711,0.0
528204.59901257406,4152374.0504322448,-37500.0,-822.16028149449437,314.9982401476322,-93.480160483151124,-551.87642649216775,194.20004804308408,-271.22141312107811,674.56364584999665,-599.31995629863013,331.785677663039,-331.785677663039,599.31995629863013,1325.7320899740309,0.0
533204.59901257406,4152374.0504322448,-37500.0,-871.24813406231544,365.8423474490383,-118.68567118283791,-625.28150831244875,237.12286859904634,-324.91060399484337,755.07825151143061,-631.0143854644848,366.13373443031338,-366.13373443031338,631.0143854644848,1482.1661067558684,0.0
538204.59901257406,4152374.0504322448,-37500.0,-914.83941640325691,424.15700158107069,-151.59612669125292,-707.11930186057964,290.17276322396305,-389.92813488847315,846.14277567467184,-656.64941430723684,401.22549276712334,-401.22549276712334,656.64941430723684,1658.2576591575894,0.0
543204.59901257406,4152374.0504322448,-37500.0,-948.49439121552177,490.22337170179594,-194.59219153743439,-797.00336586262426,355.64060958897409,-468.4058594413201,948.78158602221959,-672.17235769859803,435.23001413536122,-435.23001413536122,672.17235769859803,1855.5199844031088,0.0
548204.59901257406,4152374.0504322448,-37500.0,-966.06821636556424,563.71510687966509,-250.71835838042958,-893.55410820279997,436.14500860396822,-562.56973223767818,1063.8340759278251,-672.00208427449445,465.18298483383126,-465.18298483383126,672.00208427449445,2074.8981339614197,0.0
553204.59901257406,4152374.0504322448,-37500.0,-959.28723798672638,643.23063539438863,-323.78335855190653,-993.80171134864247,534.49705614583763,-674.46456169503517,1191.7472579063917,-648.64598890091861,486.48861691053094,-486.48861691053094,648.64598890091861,2316.2916496905286,0.0
558204.59901257406,4152374.0504322448,-37500.0,-917.37392272514842,725.58176014342916,-418.3872346699805,-1092.3356118940219,653.36742818060486,-805.42199469660875,1332.2602550741744,-592.3583188525721,492.27616212057694,-492.27616212057694,592.3583188525721,2577.8524695710198,0.0
563204.59901257406,4152374.0504322448,-37500.0,-826.90164947567473,804.7591385288539,-539.7648535832725,-1180.1518423449397,794.59764006174362,-955.10518147048754,1483.9462936374036,-491.00431670273485,472.63889881054286,-472.63889881054286,491.00431670273485,2855.0024153147465,0.0
568204.59901257406,4152374.0504322448,-37500.0,-672.23571011413185,870.52449925499991,-693.24243272404215,-1243.2100137457751,957.90476476194624,-1119.8833412999008,1643.5891047769239,-330.45744995567338,413.88747892308447,-413.88747892308447,330.45744995567338,3139.1595715715812,0.0
573204.59901257406,4152374.0504322448,-37500.0,-437.20893547565947,906.70414070336847,-882.96090269257604,-1260.884812106729,1138.6094371308243,-1290.1971454518023,1805.4216598617122,-96.130220883765432,298.17643277260981,-298.17643277260981,96.130220883765432,3416.311696187372,0.0
578204.59901257406,4152374.0504322448,-37500.0,-109.09707855704026,889.60480543856147,-1109.3400156114237,-1204.9206839385945,1323.9245948338589,-1446.5273335303573,1960.416135840474,223.36583050753114,104.30759132861165,-104.30759132861165,-223.36583050753114,3665.988426802593,0.0
583204.59901257406,4152374.0504322448,-37500.0,313.64490100566229,787.76825415871758,-1364.6592399117701,-1040.4080721151429,1487.4668669222251,-1553.7696796178411,2096.2422901594337,629.04773297060933,-188.73229080604395,188.73229080604395,-629.04773297060933,3862.2025786846007,0.0
588204.59901257406,4152374.0504322448,-37500.0,808.73121999014938,565.76741042572814,-1626.503449532793,-731.94123610004453,1582.5232580553457,-1554.8032945887978,2199.5161655585548,1099.7273317096833,-593.01487355043037,593.01487355043037,-1099.7273317096833,3980.1424470745433,0.0
593204.59901257406,4152374.0504322448,-37500.0,1314.2027416045223,196.64850130700427,-1850.5742349186967,-260.09639454523222,1537.3116030272097,-1367.0328311400979,2263.8879306254034,1576.9300078681204,-1095.1426384310175,1095.1426384310175,-1576.9300078681204,4016.0015059007169,0.0
598204.59901257406,4152374.0504322448,-37500.0,1719.607574588151,-312.52324657111785,-1968.7208858564143,347.42558441732717,1261.123614671136,-891.98477127628621,2309.1581911445692,1955.7160843143397,-1633.3339247242602,1633.3339247242602,-1955.7160843143397,4027.1820545240935,0.0
603204.59901257406,4152374.0504322448,-37500.0,1887.7384222730586,-886.51267704170084,-1904.0451989127082,977.52418919844763,676.28487063006105,-54.662125695932652,2407.0017489131942,2103.1012757796489,-2082.1744255524645,2082.1744255524645,-2103.1012757796489,4169.1532491469243,0.0
608204.59901257406,4152374.0504322448,-37500.0,1729.8447780503102,-1367.3863908255489,-1613.319556628526,1423.2505801479313,-216.50288573348215,1120.238155144222,2659.0097470111536,1926.6457422725541,-2277.0159380364457,2277.0159380364457,-1926.6457422725541,4619.2138561867569,0.0
613204.59901257406,4152374.0504322448,-37500.0,1305.6646958405581,-1566.4853414573904,-1141.1337697013712,1461.4928050253852,-1272.5416584220734,2437.4407261960337,3066.8790252000445,1470.5341979058505,-2102.0376465430836,2102.0376465430836,-1470.5341979058505,5353.9300535177699,0.0
618204.59901257406,4152374.0504322448,-37500.0,838.46157840680723,-1385.0398687458655,-630.80697246150476,1008.502081585058,-2218.9638659206739,3563.2709861508852,3476.8558460319555,939.84810251804879,-1595.0447546384314,1595.0447546384314,-939.84810251804879,6096.2653098044793,0.0
623204.59901257406,4152374.0504322448,-37500.0,574.74576681825909,-901.69510961008802,-253.1646810994782,213.36297312353224,-2789.4081209504466,4196.3895770704057,3712.7275505163029,580.06495918692553,-954.61026077816769,954.61026077816769,-580.06495918692553,6535.9209626425918,0.0
628204.59901257406,4152374.0504322448,-37500.0,612.32235583473539,-323.56369073732947,-106.38697256559463,-632.50686865360649,-2872.9815638514001,4238.1167082852317,3691.4164816929911,512.69933448105598,-416.95430324049289,416.95430324049289,-512.69933448105598,6522.6654375509543,0.0
633204.59901257406,4152374.0504322448,-37500.0,871.66670357407838,148.34527884515265,-178.03229813869265,-1278.427395974622,-2542.7384861927294,3803.8163960896832,3436.5906355957422,690.79249005367183,-122.6101430757563,122.6101430757563,-690.79249005367183,6094.5016393238857,0.0
638204.59901257406,4152374.0504322448,-37500.0,1195.9419276311157,410.0812048407322,-382.32271393310538,-1616.0879550685063,-1971.3070845219645,3106.036752414976,3033.4246066929995,978.02806069397684,-80.971266543077434,80.971266543077434,-978.02806069397684,5399.2492187499511,0.0
643204.59901257406,4152374.0504322448,-37500.0,1452.4947285427872,459.56141360459713,-619.77387329829867,-1664.2916897629975,-1332.8481521020856,2340.6252545737857,2578.0388310898934,1243.2620256522459,-216.36372821150781,216.36372821150781,-1243.2620256522459,4603.9288816212484,0.0
648204.59901257406,4152374.0504322448,-37500.0,1574.4057451363944,354.97506852554511,-817.36505351738163,-1506.4383021239294,-749.79295156422734,1636.9219767164986,2147.3411307868387,1407.968440266493,-430.51925793357566,430.51925793357566,-1407.968440266493,3840.1379809099944,0.0
653204.59901257406,4152374.0504322448,-37500.0,1554.9678507990664,170.30580234441427,-940.50382085816557,-1236.9584003372452,-283.51426992981777,1057.2418346078407,1787.6357828061564,1449.7096888822525,-643.89109255438768,643.89109255438768,-1449.7096888822525,3186.1262298876331,0.0
658204.59901257406,4152374.0504322448,-37500.0,1423.6635725672966,-32.670748219037669,-985.94033447196557,-932.38455773110923,51.790563106135473,616.10338276919219,1512.2941699556225,1384.2498397876375,-810.13163252493598,810.13163252493598,-1384.2498397876375,2670.5273021620997,0.0
663204.59901257406,4152374.0504322448,-37500.0,1222.5791824632176,-214.47244487104624,-968.10032413881765,-642.66332563574372,269.4479903151265,301.18338671691356,1308.8627041200316,1244.3586671125745,-912.64809399648675,912.64809399648675,-1244.3586671125745,2285.6977979355565,0.0
668204.59901257406,4152374.0504322448,-37500.0,990.97957169711185,-356.38598926265809,-907.21284721578411,-393.85478308872291,394.11584293539084,89.025416417009751,1155.8908712133921,1064.3202175010088,-954.22249697337872,954.22249697337872,-1064.3202175010088,2004.2337191948318,0.0
673204.59901257406,4152374.0504322448,-37500.0,758.42063300137488,-454.29187178354442,-822.14385180508293,-194.97973745165635,451.68071877334495,-45.490603213467288,1035.2365861957908,871.95362071722161,-946.94522564015051,946.94522564015051,-871.95362071722161,1794.1752536852971,0.0
678204.59901257406,4152374.0504322448,-37500.0,543.67037295752857,-512.29809340200961,-727.41523451419368,-44.8499283461747,464.38736350900058,-124.5316827559555,934.89562481304938,686.31107912807352,-905.2865026090642,905.2865026090642,-686.31107912807352,1628.85236309788,0.0
683204.59901257406,4152374.0504322448,-37500.0,356.48285247223674,-538.00707198887028,-632.80388316754534,62.76126822614772,449.33418704947019,-165.73770338079981,847.80292659170732,518.47701592016949,-842.38156641239436,842.38156641239436,-518.47701592016949,1490.1852499393578,0.0
688204.59901257406,4152374.0504322448,-37500.0,200.20285601527428,-539.63327450356849,-544.11557971290051,135.80299628859814,418.70406985485306,-182.24274582038544,770.08926532262979,373.52147746753536,-768.58681589500611,768.58681589500611,-373.52147746753536,1367.6593613232444,0.0
693204.59901257406,4152374.0504322448,-37500.0,74.166564970840156,-524.5481757318463,-464.26974948788393,182.10338274414477,380.67202372037985,-183.36762465080864,699.7241460923774,252.52050330214485,-691.31642112799841,691.31642112799841,-252.52050330214485,1255.8832049941957,0.0
698204.59901257406,4152374.0504322448,-37500.0,-24.467377558771258,-498.73276684261975,-394.2889783422977,208.51016162187616,340.42781453968905,-175.47910603206665,635.6405594462824,154.19611748599181,-615.45744537524638,615.45744537524638,-154.19611748599181,1152.4022868705772,0.0
703204.59901257406,4152374.0504322448,-37500.0,-99.478608493363808,-466.72484899688669,-334.0580724493791,220.61237413981115,301.0695847803085,-162.78175196261222,577.22948239919799,76.081451405235185,-543.95458876192981,543.95458876192981,-76.081451405235185,1056.2289491132624,0.0
708204.59901257406,4152374.0504322448,-37500.0,-154.8250872153302,-431.79284946888782,-282.84983671320595,222.76601224812501,264.29760997820159,-147.96034289460027,524.07353598171551,15.271817441187181,-478.36711838044545,478.36711838044545,-15.271817441187181,966.99807729248346,0.0
713204.59901257406,4152374.0504322448,-37500.0,-194.22418816817509,-396.183766364561,-239.66302077932241,218.25361811846432,230.91649652779782,-132.66447001092982,475.82033658751033,-31.133063225647049,-419.32427944822774,419.32427944822774,31.133063225647049,884.53797482157063,0.0
523204.59901257406,4157374.0504322448,-37500.0,-696.57176059974893,311.12232822381822,-113.42357913530712,-448.46978959337935,183.02955892852918,-211.57921342186947,576.15682973493654,-499.72428546737262,297.17993177337974,-297.17993177337974,499.72428546737262,1134.3382540801126,0.0
528204.59901257406,4157374.0504322448,-37500.0,-733.38868770434647,357.26464364083841,-140.27289783286494,-503.79351494854961,220.58045370894106,-250.94471011766922,640.73915378443166,-521.44933493262783,324.8686288499382,-324.8686288499382,521.44933493262783,1260.4357954473051,0.0
533204.59901257406,4157374.0504322448,-37500.0,-765.10103118241739,409.48351078245798,-174.35979467892494,-564.68740403674508,266.3107973444782,-298.03946476023879,713.18462454503003,-537.45152056231075,352.51469813628364,-352.51469813628364,537.45152056231075,1401.2920252578087,0.0
538204.59901257406,4157374.0504322448,-37500.0,-788.26539073560286,467.84546218637274,-217.65459979892418,-630.65570855968451,321.89065202535295,-354.17185668640695,794.16794913617719,-544.53391566773348,378.50756953762408,-378.50756953762408,544.53391566773348,1557.8813143170462,0.0
543204.59901257406,4157374.0504322448,-37500.0,-798.23814581488648,531.89313360568633,-272.59095180606346,-700.47319331897597,389.17190715939529,-420.65752104536847,884.21751082545904,-538.41746663458957,400.36430769032489,-400.36430769032489,538.41746663458957,1730.7458580683699,0.0
548204.59901257406,4157374.0504322448,-37500.0,-788.91696695315227,600.29335531574122,-342.09837660278185,-771.79485814059069,470.06754425045,-498.63135107846705,983.57718519271259,-513.51173773757978,414.38872420436871,-414.38872420436871,513.51173773757978,1919.6760968248584,0.0
553204.59901257406,4157374.0504322448,-37500.0,-752.53315880344553,670.32268468153688,-429.56141927457958,-840.6196465461137,566.29203450547982,-588.70578492845482,1092.0056132894938,-462.73506105502918,415.25026356155752,-415.25026356155752,462.73506105502918,2123.2569842930502,0.0
558204.59901257406,4157374.0504322448,-37500.0,-679.61173660044687,737.14797995021991,-538.62467969363433,-900.5916385669891,678.86649543528529,-690.38663046914462,1208.5001448635021,-377.49409757483357,395.51304042631085,-395.51304042631085,377.49409757483357,2338.2576967490786,0.0
563204.59901257406,4157374.0504322448,-37500.0,-559.31242835558214,792.88379174718534,-672.70720100385302,-942.1616436435271,807.24327365055319,-801.12245240784114,1330.9436245441873,-248.02453778478247,345.21166979487504,-345.21166979487504,248.02453778478247,2558.8738515140235,0.0
568204.59901257406,4157374.0504322448,-37500.0,-380.51215323900499,825.48823077094687,-834.01033320619604,-951.73267564447701,947.85070197041546,-914.83365473050537,1455.7111368203737,-64.436321305397655,251.70265930047589,-251.70265930047589,64.436321305397655,2775.9299005046237,0.0
573204.59901257406,4157374.0504322448,-37500.0,-134.17928771725863,817.75168587765381,-1021.7134419557759,-911.12231667396054,1091.8251845941256,-1019.7681595106083,1577.366465836657,181.00792824565676,100.255003182688,-100.255003182688,-181.00792824565676,2976.3779905595229,0.0
578204.59901257406,4157374.0504322448,-37500.0,182.25256799157063,747.03594174185935,-1229.0172083196114,-798.07212128068761,1221.7725061876827,-1095.6403712953809,1688.7901600955131,489.6930785732676,-123.78978914910525,123.78978914910525,-489.6930785732676,3143.9418984642398,0.0
583204.59901257406,4157374.0504322448,-37500.0,557.93132649329664,587.13065449960925,-1438.8913976128849,-589.18973917770677,1307.7842815746512,-1110.4029199951324,1782.5149145776106,849.94674358460304,-430.0233557008861,430.0233557008861,-849.94674358460304,3262.7859964664799,0.0
588204.59901257406,4157374.0504322448,-37500.0,959.53008795355561,314.53989835999568,-1619.2106316210577,-267.50292314720929,1304.0256112076263,-1018.0167717469512,1854.771613924253,1228.2288186530807,-813.75755513982858,813.75755513982858,-1228.2288186530807,3327.7533769558486,0.0
593204.59901257406,4157374.0504322448,-37500.0,1323.6512634287242,-78.077803583821236,-1719.9972202190122,163.087562145975,1149.4853355414782,-760.6397201844178,1914.2980289486363,1561.5436222389881,-1242.5236264827086,1242.5236264827086,-1561.5436222389881,3365.4489453146803,0.0
598204.59901257406,4157374.0504322448,-37500.0,1559.9306754531628,-561.0487977764966,-1678.7897733353666,657.10693500821958,779.63752184391251,-281.44082665497064,1995.2849886000195,1759.8925056117278,-1642.9453611586,1642.9453611586,-1759.8925056117278,3461.1373052005138,0.0
603204.59901257406,4157374.0504322448,-37500.0,1578.5776180295522,-1048.0497583408742,-1442.0635794015093,1110.6433711164161,156.33275636134496,445.56617897540713,2159.6687305167134,1732.2447802524389,-1901.5590929163936,1901.5590929163936,-1732.2447802524389,3748.9595767495189,0.0
608204.59901257406,4157374.0504322448,-37500.0,1346.5644261452487,-1400.4594905793431,-1003.5436491996759,1372.3092530753488,-687.17559718486302,1372.783080454891,2454.7886443468574,1441.2108149729288,-1898.8943971405115,1898.8943971405115,-1441.2108149729288,4305.2876061236666,0.0
613204.59901257406,4157374.0504322448,-37500.0,941.57393291629228,-1479.5420614270085,-438.40734731306503,1304.5342643387648,-1614.8159625823603,2352.4568198440702,2841.929855084506,958.44870349670714,-1579.0473555586084,1579.0473555586084,-958.44870349670714,5033.6255006798501,0.0
618204.59901257406,4157374.0504322448,-37500.0,540.77864115177556,-1231.7431820694646,106.20413967454185,874.21136451313589,-2415.2459315798833,3169.9628291769791,3201.088394701987,459.9213238093883,-1010.5929933386153,1010.5929933386153,-459.9213238093883,5708.6416912426666,0.0
623204.59901257406,4157374.0504322448,-37500.0,322.50421059758452,-737.45010118611174,478.48092725437169,195.53044125641114,-2895.6697631800457,3640.0752637696764,3413.0198879555037,134.57695939469789,-371.78578942624409,371.78578942624409,-134.57695939469789,6116.7023089743871,0.0
628204.59901257406,4157374.0504322448,-37500.0,358.98707413066296,-168.66788630086464,599.51160883200487,-527.96072444254298,-2975.4226871681844,3696.2663589547219,3419.9834897415926,75.820981422291766,144.12473171233518,-144.12473171233518,-75.820981422291766,6154.1516213669183,0.0
633204.59901257406,4157374.0504322448,-37500.0,595.45594649172551,307.28983246229683,488.54368484803126,-1112.4788235182145,-2704.9993821484859,3401.1487332579045,3234.3174362805121,249.98854104636109,423.31042931087029,-423.31042931087029,-249.98854104636109,5842.129637445295,0.0
638204.59901257406,4157374.0504322448,-37500.0,911.74906197011387,596.57635310586716,229.74385161922712,-1463.5875249011758,-2212.9886856569447,2887.5619843422246,2913.463147732858,547.54182493309577,457.60332244123657,-457.60332244123657,-547.54182493309577,5282.2736252324212,0.0
643204.59901257406,4157374.0504322448,-37500.0,1194.8307696679815,687.63450899786017,-79.019801186276524,-1577.4868267262552,-1637.8694834507517,2291.1085061666395,2528.0984901249249,853.08830809801748,311.03725570168734,-311.03725570168734,-853.08830809801748,4599.2152837955364,0.0
648204.59901257406,4157374.0504322448,-37500.0,1376.4989700583583,622.70454476167117,-361.70244181685365,-1505.3962673597389,-1085.4472265510849,1712.3369696746706,2140.046531159277,1087.3948646103954,71.061195144036958,-71.061195144036958,-1087.3948646103954,3900.5652225992126,0.0
653204.59901257406,4157374.0504322448,-37500.0,1436.4745432547579,463.37222923332018,-576.270945202181,-1316.2711174210267,-616.753992226729,1208.805176118859,1792.2024816531107,1216.4899248975908,-186.29570580457118,186.29570580457118,-1216.4899248975908,3260.0221078085319,0.0
658204.59901257406,4157374.0504322448,-37500.0,1388.1124556294719,266.41738417604887,-710.68069765734253,-1072.7764404694599,-254.53476755518352,803.00501192220463,1505.4519201347625,1241.6798684495402,-411.1235336865019,411.1235336865019,-1241.6798684495402,2716.4517866715423,0.0
663204.59901257406,4157374.0504322448,-37500.0,1261.0011329809909,72.767307309757371,-772.26998792209326,-820.99058257754939,3.7435960033812874,494.65962550146332,1280.6236565083875,1184.019737678283,-579.67406439317949,579.67406439317949,-1184.019737678283,2280.6346918988447,0.0
668204.59901257406,4157374.0504322448,-37500.0,1087.5926406663395,-93.933599007254131,-777.31695142493663,-589.27660939743475,173.59382365676561,271.58442555643603,1106.9722977415117,1071.0514639905707,-687.47373330494679,687.47373330494679,-1071.0514639905707,1944.3743012261473,0.0
673204.59901257406,4157374.0504322448,-37500.0,895.6227402359533,-223.87503446245714,-743.71803816949148,-391.60399669325767,274.74814125828283,117.2634233855852,971.44372398202438,928.47708191675974,-741.2333607589992,741.2333607589992,-928.47708191675974,1689.4277234394699,0.0
678204.59901257406,4157374.0504322448,-37500.0,705.2849356445721,-316.33149158405217,-687.07280928598072,-232.06801612659936,326.11084643712064,15.270804304916686,863.03602247286744,776.38159749407566,-752.40245143044001,752.40245143044001,-776.38159749407566,1494.9386121029193,0.0
683204.59901257406,4157374.0504322448,-37500.0,529.31893113325248,-375.50892502525323,-619.27134002718196,-108.92225201753445,343.49457059617879,-48.625002187967304,773.65932716257225,628.49453740605645,-733.0761161357957,733.0761161357957,-628.49453740605645,1342.3995721617282,0.0
688204.59901257406,4157374.0504322448,-37500.0,374.43009813354223,-407.61197415846641,-548.51303310994933,-17.543100492112416,339.0579223212934,-85.793685877094916,697.78761599024642,493.01127882201604,-693.89516972595789,693.89516972595789,-493.01127882201604,1217.8326010640039,0.0
693204.59901257406,4157374.0504322448,-37500.0,243.02837766864587,-419.07707320916961,-479.95062754003624,47.665520733277582,321.60290704896056,-104.83644681901868,631.82266798330829,373.95249572906323,-643.27932410322228,643.27932410322228,-373.95249572906323,1111.8397763478454,0.0
698204.59901257406,4157374.0504322448,-37500.0,134.78150380089346,-415.67061418753707,-416.4817199467231,92.190901486480485,297.19863765661466,-112.00440978034537,573.4802379828559,272.50468133683313,-587.40342976703141,587.40342976703141,-272.50468133683313,1018.6143464653801,0.0
703204.59901257406,4157374.0504322448,-37500.0,47.805968876250795,-402.14171594343082,-359.46318470613579,120.88867128443528,269.84837897402127,-111.69933848927849,521.31039946430019,188.11140442259818,-530.51433643825021,530.51433643825021,-188.11140442259818,934.7721912637744,0.0
708204.59901257406,4157374.0504322448,-37500.0,-20.508038949083343,-382.18411026782428,-309.26985806848461,137.79843294061635,242.07160802569555,-106.93788802872123,474.36427034742997,119.26665801038163,-475.34771921799177,475.34771921799177,-119.26665801038163,858.40035156642068,0.0
713204.59901257406,4157374.0504322448,-37500.0,-72.971889246538495,-358.54775142632712,-265.69608153019465,146.1447071542795,215.36404836420562,-99.735616862517276,431.98266736640267,64.045784435942835,-423.52755010923124,423.52755010923124,-64.045784435942835,788.40992513394735,0.0
528204.59901257406,4162374.0504322448,-37500.0,-637.05648523755212,382.27318644511757,-186.1277999458764,-450.79433973890389,238.00794233704917,-228.3302453997637,601.76512505610833,-436.96128035178845,303.48580755120236,-303.48580755120236,436.96128035178845,1184.9370243475871,0.0
533204.59901257406,4162374.0504322448,-37500.0,-651.95727905644026,432.13715020602353,-227.61170122842523,-498.95014994006857,284.06441922944435,-268.50539265243651,665.65855423211701,-437.89314602707429,322.37904911008206,-322.37904911008206,437.89314602707429,1309.0253990126846,0.0
538204.59901257406,4162374.0504322448,-37500.0,-655.99590449596019,486.1128350597325,-279.06743515981782,-549.12764154280762,339.00801033868493,-315.48998855178962,736.17327045591639,-427.78182524472021,337.19492082331175,-337.19492082331175,427.78182524472021,1444.988870082479,0.0
543204.59901257406,4162374.0504322448,-37500.0,-644.67139198848304,542.97055370455439,-342.68391224126435,-599.49810979407403,404.09528210978914,-369.88984572585053,813.4377707793185,-402.47499874134058,344.99479871268153,-344.99479871268153,402.47499874134058,1592.5591850962799,0.0
548204.59901257406,4162374.0504322448,-37500.0,-612.38050314183738,600.41898177309133,-420.88442314751268,-647.11338585636781,480.37657095952295,-431.9388145334475,897.25011545602217,-356.84517994341422,341.68307183271429,-341.68307183271429,356.84517994341422,1750.6390515663845,0.0
553204.59901257406,4162374.0504322448,-37500.0,-552.42814360302225,654.61462627082983,-516.13724668599139,-687.48249123039363,568.34986434401469,-501.144174846704,986.91247400532416,-284.82254845786582,321.72382247251193,-321.72382247251193,284.82254845786582,1916.9267310866442,0.0
558204.59901257406,4162374.0504322448,-37500.0,-457.28653299599154,699.54206015972522,-630.55735787523849,-714.08309529632425,667.3801204747399,-575.73209409953597,1081.0333091550301,-179.67135884980533,277.91196563020708,-277.91196563020708,179.67135884980533,2087.4718987329825,0.0
563204.59901257406,4162374.0504322448,-37500.0,-319.30538375552675,726.31276983416524,-765.16888461638166,-717.88451326821144,774.77784994674232,-651.82056500185593,1177.3268554462675,-34.706709348260887,201.34295429540779,-201.34295429540779,34.706709348260887,2256.2383776336978,0.0
568204.59901257406,4162374.0504322448,-37500.0,-132.16759179324112,722.53934767470889,-918.65438633712051,-687.06720934196369,884.42030184915791,-722.25618282352798,1272.4926631650037,155.26027532250919,81.851431774342316,-81.851431774342316,-155.26027532250919,2414.8789466642006,0.0
573204.59901257406,4162374.0504322448,-37500.0,106.55350907429955,672.15157712446614,-1085.4113818316175,-607.30878412606432,984.84627028833324,-775.11195818632541,1362.3661733763656,391.39697896410939,-90.630253019486361,90.630253019486361,-391.39697896410939,2553.1944009101044,0.0
578204.59901257406,4162374.0504322448,-37500.0,391.44862030183191,556.36645104366801,-1252.847968061342,-463.28677618071868,1056.9378807621686,-792.01674689532206,1442.7260032490985,666.9531009784273,-323.14088463446183,323.14088463446183,-666.9531009784273,2661.2443191094339,0.0
583204.59901257406,4162374.0504322448,-37500.0,704.09868847202313,356.97582208027194,-1398.2517664555562,-242.37026260662401,1071.7716257444511,-746.87809325363594,1511.4293501005886,962.13257336284562,-614.47169775780287,614.47169775780287,-962.13257336284562,2734.8414684915906,0.0
588204.59901257406,4162374.0504322448,-37500.0,1008.0496261502667,63.405447104742088,-1486.5058994895185,58.42366974978377,990.15162641782251,-606.28743773078986,1572.7138545522305,1239.0630627210537,-947.43835476671416,947.43835476671416,-1239.0630627210537,2786.6358644417164,0.0
593204.59901257406,4162374.0504322448,-37500.0,1247.6161794235334,-315.67506825831771,-1471.520021927997,421.95374238638084,766.71830458907243,-333.91759516948264,1643.5482018455091,1440.4812098160401,-1280.227902405486,1280.227902405486,-1440.4812098160401,2862.0277821153277,0.0
598204.59901257406,4162374.0504322448,-37500.0,1356.8459242655179,-738.49664273147721,-1305.7898399519834,799.64042480827425,362.50005475216273,98.171167090929316,1757.4110475789371,1498.4694076164872,-1542.1630050735982,1542.1630050735982,-1498.4694076164872,3044.8520659127926,0.0
603204.59901257406,4162374.0504322448,-37500.0,1284.4030514755766,-1122.7246389725401,-961.37119734026294,1107.5442515239993,-232.24223365296442,690.2893125179213,1953.0749919499938,1359.2779585454339,-1643.5507406517174,1643.5507406517174,-1359.2779585454339,3418.410711579254,0.0
608204.59901257406,4162374.0504322448,-37500.0,1030.1727460570619,-1358.8436262380462,-457.74911386446973,1242.5224563111208,-971.45303841675036,1393.9866872468042,2241.4382010111258,1020.7543976749843,-1507.9365888628729,1507.9365888628729,-1020.7543976749843,3986.1906557062393,0.0
613204.59901257406,4162374.0504322448,-37500.0,670.09962425252684,-1352.8175408942063,121.54941952061301,1124.3017877373318,-1742.3879263114375,2105.4146899762277,2577.6076633137795,559.61479047744308,-1119.4912212281361,1119.4912212281361,-559.61479047744308,4640.973553254883,0.0
618204.59901257406,4162374.0504322448,-37500.0,337.426118769092,-1080.7366605311936,646.61424678413687,745.17205034476751,-2391.8406027089877,2690.3711310887156,2876.6252280272488,115.97191675017288,-553.65917311163525,553.65917311163525,-115.97191675017288,5218.9049248112515,0.0
623204.59901257406,4162374.0504322448,-37500.0,157.91113442366256,-613.49106659329561,994.16123760910727,188.03844435449835,-2786.1516566825626,3036.4667327634288,3058.911501347287,-170.33548075804896,43.407568387377943,-43.407568387377943,170.33548075804896,5576.8554356208924,0.0
628204.59901257406,4162374.0504322448,-37500.0,184.79724544492228,-85.206526420310695,1101.9749896645685,-408.79789823853736,-2867.0557194835651,3099.1281814243016,3083.6488277557614,-228.51651759823551,521.13321290291128,-521.13321290291128,228.51651759823551,5643.1138090812992,0.0
633204.59901257406,4162374.0504322448,-37500.0,383.55066573902639,371.13381784894881,986.38783217271623,-914.68164248820176,-2664.8914763197508,2909.7137364377868,2955.2860108067412,-79.044023449690712,788.17114731407366,-788.17114731407366,79.044023449690712,5426.7979248134579,0.0
638204.59901257406,4162374.0504322448,-37500.0,667.26558466596839,673.32323051883191,718.6189813974014,-1252.0455812769317,-2268.5860980479629,2547.5549638510538,2710.5455537462735,196.50256771744654,832.98964840143049,-832.98964840143049,-196.50256771744654,4994.3930219994254,0.0
643204.59901257406,4162374.0504322448,-37500.0,945.22548655731316,801.57414068479784,385.66175352965837,-1404.4822699098197,-1781.803035091775,2102.2928087554874,2399.2041002259266,503.49609380975539,703.33749261649086,-703.33749261649086,-503.49609380975539,4434.9870445916558,0.0
648204.59901257406,4162374.0504322448,-37500.0,1154.0784177677131,781.98403853706031,60.28674750642385,-1399.0570983264879,-1291.003279590085,1647.857249924278,2068.7001059098857,768.65489489520814,471.15993326122998,-471.15993326122998,-768.65489489520814,3832.3539415134305,0.0
653204.59901257406,4162374.0504322448,-37500.0,1265.9030570553509,661.81138941786378,-211.77773696304089,-1282.4461606724988,-852.51095943744463,1232.7401170621374,1755.6441896293713,952.25877576356811,204.36611124357501,-204.36611124357501,-952.25877576356811,3250.2228059845402,0.0
658204.59901257406,4162374.0504322448,-37500.0,1281.5388809171823,489.63019171807241,-411.20483032657103,-1102.5733631825203,-493.55376045716054,881.43981611331878,1482.3134782420589,1044.5817271256301,-47.566745158597655,47.566745158597655,-1044.5817271256301,2728.5891113723292,0.0
663204.59901257406,4162374.0504322448,-37500.0,1218.894224390509,304.33719069316891,-537.84771875133742,-898.62529429326753,-219.79140096654572,600.71237159532131,1256.3732923647719,1055.7068355935507,-256.41707719690925,256.41707719690925,-1055.7068355935507,2286.4110487812918,0.0
668204.59901257406,4162374.0504322448,-37500.0,1102.3204442966976,131.72102438453538,-602.35119912787593,-697.8383387793549,-23.923714918474321,386.43125432895232,1074.8235718352416,1005.1373161616646,-411.52601481199696,411.52601481199696,-1005.1373161616646,1926.8497867370286,0.0
673204.59901257406,4162374.0504322448,-37500.0,955.44345925629,-14.380033634255975,-619.44188348844864,-516.32100389105324,107.31621072293414,229.11787579507651,930.17032839547198,914.15987512572315,-513.94527820729922,513.94527820729922,-914.15987512572315,1642.822565300296,0.0
678204.59901257406,4162374.0504322448,-37500.0,797.50853647296697,-129.01444357241843,-603.68798279403154,-361.59893588735611,188.52604126021001,117.66041195060241,814.44796575419127,801.47972442092168,-571.01978395376409,571.01978395376409,-801.47972442092168,1421.8882122961857,0.0
683204.59901257406,4162374.0504322448,-37500.0,642.29391541177154,-212.8652521252275,-567.40126771183589,-235.42464917753091,233.08298474033856,41.445182888553994,720.71287614654898,681.45621286838218,-592.43858493126072,592.43858493126072,-681.45621286838218,1250.0919943197982,0.0
688204.59901257406,4162374.0504322448,-37500.0,498.50416368529523,-269.61259317881667,-519.98528047339278,-136.14744434152064,252.06430765668932,-8.6485545212623318,643.42333476114959,563.96508232026656,-587.82792962925976,587.82792962925976,-563.96508232026656,1114.5785813322216,0.0
693204.59901257406,4162374.0504322448,-37500.0,370.79983830887011,-304.11269262641525,-468.08085896352247,-60.433039402595533,254.04776950996336,-39.956961019352647,578.41004246253499,455.06286146253728,-565.54657444069483,565.54657444069483,-455.06286146253728,1004.9362546965256,0.0
698204.59901257406,4162374.0504322448,-37500.0,260.94470298909306,-321.2977185529673,-416.05251155212864,-4.3774885640141248,245.35424748873848,-58.116293503376475,522.66939362283756,357.90963897788072,-532.26672549844625,532.26672549844625,-357.90963897788072,913.49440142121148,0.0
703204.59901257406,4162374.0504322448,-37500.0,168.81289662421977,-325.60424636777589,-366.54793870053288,35.847046929957145,230.45743702161485,-67.311967908394649,474.09646525185946,273.65494960161124,-492.99519556929562,492.99519556929562,-273.65494960161124,834.9823170868525,0.0
708204.59901257406,4162374.0504322448,-37500.0,93.168332428187455,-320.74326621251731,-321.00209905381968,63.667291084755881,212.41074752936859,-70.56984400722213,431.231771195958,202.16401727195682,-451.29908756613941,451.29908756613941,-202.16401727195682,765.94784605366237,0.0
528204.59901257406,4167374.0504322448,-37500.0,-538.59632523833545,391.0883298428829,-227.88598212755721,-395.70285193674403,246.85070436661886,-204.54253136248656,559.56889268828786,-351.00874928779018,271.13953652184767,-271.13953652184767,351.00874928779018,1102.6047263891244,0.0
533204.59901257406,4167374.0504322448,-37500.0,-538.42280883838509,435.64456422234207,-274.64283714366695,-431.70156406214983,291.12327714805252,-237.88841328582035,614.97961097586665,-338.63387994118034,280.39800257214688,-280.39800257214688,338.63387994118034,1209.6864923475318,0.0
538204.59901257406,4167374.0504322448,-37500.0,-525.98520954468302,481.93838097598893,-331.3349501183078,-467.18613802074196,342.85435142089358,-276.02526661110494,675.31927351482659,-314.0076323120158,283.4786234712297,-283.4786234712297,314.0076323120158,1325.1202660672329,0.0
543204.59901257406,4167374.0504322448,-37500.0,-497.23355665622501,528.07211365801049,-399.66175994552896,-499.99049963071485,402.66022137502154,-319.00064055632168,740.42537205633823,-273.42241973178108,277.2576863416935,-277.2576863416935,273.42241973178108,1448.0519515901181,0.0
548204.59901257406,4167374.0504322448,-37500.0,-447.42167184883846,571.01799533328051,-481.25766925855908,-526.93602963791773,470.73187076895124,-366.38687722981609,809.81031601366988,-212.59031035015883,257.63372353029087,-257.63372353029087,212.59031035015883,1576.8285509872107,0.0
553204.59901257406,4167374.0504322448,-37500.0,-371.29960813577253,606.21444910573348,-577.382511377328,-543.54529098193336,546.45392794019631,-416.95653113146,882.55275617815096,-126.85736913820099,219.4103908934201,-219.4103908934201,126.85736913820099,1708.7403598631627,0.0
558204.59901257406,4167374.0504322448,-37500.0,-263.58336446450909,627.12419109227176,-688.38901440059271,-543.77301643283568,627.82382428729534,-468.21353355018579,957.19844357860541,-11.694528420354047,156.31898423942943,-156.31898423942943,11.694528420354047,1839.7866970743257,0.0
563204.59901257406,4167374.0504322448,-37500.0,-119.86188952002581,624.85062741321178,-812.86920606404112,-519.85664989115253,710.61254936081343,-515.75184068414239,1031.7206286001015,136.37641176338579,61.338533833870905,-61.338533833870905,-136.37641176338579,1964.5894422206163,0.0
568204.59901257406,4167374.0504322448,-37500.0,61.872348576755016,588.02120512367492,-946.38587065186471,-462.47958179372466,787.23705333794965,-552.44610333736659,1103.6475067087144,318.23625351573992,-72.437171006422346,72.437171006422346,-318.23625351573992,2076.7223229975302,0.0
573204.59901257406,4167374.0504322448,-37500.0,278.92329205769363,503.31862867428163,-1079.7597963969256,-361.56663771932296,845.40506732996141,-567.55784748303381,1170.5541581188795,529.85387749440861,-250.04166431146612,250.04166431146612,-529.85387749440861,2169.967708402397,0.0
578204.59901257406,4167374.0504322448,-37500.0,520.88061768723571,357.25996780305695,-1197.0859346508807,-208.17052327340878,866.80535330072098,-546.00419590141667,1231.2344526633094,759.25817566663409,-471.61500974066121,471.61500974066121,-759.25817566663409,2241.3708687033209,0.0
583204.59901257406,4167374.0504322448,-37500.0,766.47751625574972,139.98601312559737,-1274.0966061316446,2.0341268027830122,826.51748299301892,-468.32106256720772,1287.9192304991871,983.37149072628392,-727.9527232910558,727.9527232910558,-983.37149072628392,2297.2083855455321,0.0
588204.59901257406,4167374.0504322448,-37500.0,981.8706473213515,-148.36906864858094,-1278.2428815405463,263.39683213020993,694.41210915204022,-312.24311712826926,1349.5170119727882,1166.2669814599246,-995.19103978436056,995.19103978436056,-1166.2669814599246,2361.9479077443998,0.0
593204.59901257406,4167374.0504322448,-37500.0,1123.1672005751243,-489.24852577263385,-1172.7358153081677,553.80714993688412,440.37452092130144,-57.140707558136484,1434.2156756187683,1261.7287578871255,-1230.7600782847089,1230.7600782847089,-1261.7287578871255,2484.8367198461124,0.0
598204.59901257406,4167374.0504322448,-37500.0,1146.6004650086202,-838.24510254345307,-926.92374436633645,829.85171519618166,44.941152181261558,307.7489002192454,1566.7220278634313,1223.6641722519839,-1374.9319757760168,1374.9319757760168,-1223.6641722519839,2728.3293151460507,0.0
603204.59901257406,4167374.0504322448,-37500.0,1027.428239860049,-1125.1823263977292,-533.0955588794402,1028.9056159152947,-485.45357143337293,772.19538012571911,1765.3487010746999,1025.7036037355879,-1363.3808292191734,1363.3808292191734,-1025.7036037355879,3127.7984269508947,0.0
608204.59901257406,4167374.0504322448,-37500.0,781.46407590909337,-1269.2650877397095,-23.864085016519347,1083.7415601746386,-1104.661747361346,1295.625759074881,2023.8933583581093,684.12463272377283,-1152.5179078168158,1152.5179078168158,-684.12463272377283,3652.999615494402,0.0
613204.59901257406,4167374.0504322448,-37500.0,474.23494415534822,-1210.1241906732951,522.47125871564242,949.21297794712916,-1725.674768222038,1807.7334645351389,2303.8838088447937,268.85746477571445,-748.75508132739242,748.75508132739242,-268.85746477571445,4212.6357202949712,0.0
618204.59901257406,4167374.0504322448,-37500.0,203.14748439136687,-940.85776434270429,1000.060126744349,628.6617900112625,-2241.0609947852413,2225.0853657035605,2547.0924751546618,-113.16739442226171,-221.79685029550208,221.79685029550208,113.16739442226171,4692.5840194537732,0.0
623204.59901257406,4167374.0504322448,-37500.0,56.069599818383701,-519.55683699167014,1313.5946024729619,180.86698789472726,-2559.8302508607708,2479.1706199646374,2700.2476115614654,-360.47879804350691,314.25973450648314,-314.25973450648314,360.47879804350691,4997.181888978419,0.0
628204.59901257406,4167374.0504322448,-37500.0,72.141596794695388,-47.32612379845115,1414.6501255086687,-301.0119327562972,-2640.1553468015359,2540.2920452257704,2734.202911638336,-419.93256071678309,745.21329767197187,-745.21329767197187,419.93256071678309,5076.4542114839342,0.0
633204.59901257406,4167374.0504322448,-37500.0,230.91335044542544,373.34164581686287,1313.9763438934174,-725.63073594722391,-2498.4620886012776,2423.2106321788406,2648.953099178229,-302.1433655903254,998.63161552940255,-998.63161552940255,302.1433655903254,4932.49501121708,0.0
638204.59901257406,4167374.0504322448,-37500.0,471.88509089462298,673.09997264509377,1066.5630170059731,-1032.2621677178643,-2193.4439765563079,2174.2356383716997,2467.1525590882793,-64.771104756115221,1059.8570885225545,-1059.8570885225545,64.771104756115221,4607.4683539134676,0.0
643204.59901257406,4167374.0504322448,-37500.0,725.58604715334343,827.6112430649772,744.14518769204585,-1199.8807629568457,-1799.3093761445689,1850.8798318258755,2222.8339636553314,218.71859956338994,961.00122401986096,-961.00122401986096,-218.71859956338994,4163.2020604521176,0.0
648204.59901257406,4167374.0504322448,-37500.0,937.3136069093531,849.59202874896482,411.51534838586974,-1239.6983221073158,-1383.3219888698131,1505.2072549625484,1951.1419903070891,485.16359127403848,757.45251084974643,-757.45251084974643,-485.16359127403848,3662.5509287188138,0.0
653204.59901257406,4167374.0504322448,-37500.0,1076.7613254770069,772.4639194947232,114.08322682682383,-1181.0361648151602,-994.10214763740407,1175.3281455929075,1681.6954335328146,694.28413715128454,506.28658206607253,-506.28658206607253,-694.28413715128454,3157.6432171806423,0.0
658204.59901257406,4167374.0504322448,-37500.0,1136.4399353234153,635.09999181695548,-124.18797899186083,-1058.3813653625657,-659.55798907699125,883.93672896883197,1435.1865807140655,829.41752899476546,253.19168848672371,-253.19168848672371,-829.41752899476546,2685.1904182961143,0.0
663204.59901257406,4167374.0504322448,-37500.0,1124.7056874370926,471.86758427543197,-296.73566212906553,-902.92307837674173,-390.42357677723129,640.85751968491991,1222.1140675995739,891.80086714282811,27.924113092137816,-27.924113092137816,-891.80086714282811,2266.6984322391031,0.0
668204.59901257406,4167374.0504322448,-37500.0,1058.0223744790742,308.1791731755967,-408.30361439385149,-738.62744922543959,-185.73038499948098,446.96131044181487,1044.2149517496462,893.16427230113163,-154.56708130860056,154.56708130860056,-893.16427230113163,1911.181538463032,0.0
673204.59901257406,4167374.0504322448,-37500.0,954.87704140621076,159.97210576047652,-469.34155890797695,-581.54346246625084,-37.954934789969258,297.87113598036888,898.28249414591426,849.39959905082139,-290.42528862713618,290.42528862713618,-849.39959905082139,1618.6440935308628,0.0
678204.59901257406,4167374.0504322448,-37500.0,832.01865719215834,35.276655510118623,-491.95452107007276,-440.8732504699924,63.112247377912659,186.79580052529133,779.43486399648327,776.29907160739799,-382.75160261277307,382.75160261277307,-776.29907160739799,1383.3836123120809,0.0
683204.59901257406,4167374.0504322448,-37500.0,702.71782891649764,-63.527852293633998,-487.49157940089094,-320.69307532439632,127.90481850012505,106.39009517390485,682.65318272739933,687.28190287096254,-438.16878209997549,438.16878209997549,-687.28190287096254,1196.7325348872303,0.0
688204.59901257406,4167374.0504322448,-37500.0,576.40705949921505,-137.5815442725885,-465.41861577350443,-221.66325116210976,165.76570371604916,49.806926515053462,603.37541684156758,592.58109924887594,-464.42917364742715,464.42917364742715,-592.58109924887594,1049.1460998723949,0.0
693204.59901257406,4167374.0504322448,-37500.0,459.08419935845461,-189.87993705914934,-433.02303531665564,-142.42585106840323,184.41801569856995,11.179846641308917,537.73876644398092,499.3100856909208,-468.98635701719616,468.98635701719616,-499.3100856909208,931.63483620688487,0.0
698204.59901257406,4167374.0504322448,-37500.0,354.0268353834885,-224.133527762358,-395.57039620513501,-80.614842263718245,189.90275815811935,-14.247663001181198,482.64496368583656,411.95213134858335,-458.28874072374202,458.28874072374202,-411.95213134858335,836.57487241810395,0.0
703204.59901257406,4167374.0504322448,-37500.0,262.54478364815662,-244.07187483106441,-356.65275092311145,-33.517701056330125,186.75211752479069,-30.184243495210882,435.71127959970363,332.97753046845276,-437.54166242463316,437.54166242463316,-332.97753046845276,757.99168039613539,0.0
528204.59901257406,4172374.0504322448,-37500.0,-442.56957374311696,385.7606528478812,-263.1957047396545,-340.95953849006946,247.98794191362458,-180.6069840948943,516.00252711634676,-267.90819273390872,231.52465233810781,-231.52465233810781,267.90819273390872,1016.6111658543429,0.0
533204.59901257406,4172374.0504322448,-37500.0,-429.81385458071173,422.99353010405912,-312.81536441085586,-365.96837871098467,288.86028252208718,-207.53507253350833,563.4135032138762,-244.71690173915084,231.29696240366036,-231.29696240366036,244.71690173915084,1107.2398802378091,0.0
538204.59901257406,4172374.0504322448,-37500.0,-404.31131574156257,459.58609838436985,-371.60989219490028,-388.54307113196802,335.52491206982609,-237.53498006979723,614.32436510341972,-208.98722149145343,223.34319329194184,-223.34319329194184,208.98722149145343,1203.2107485260419,0.0
543204.59901257406,4172374.0504322448,-37500.0,-362.6802743308113,493.16842572484182,-440.63991988571991,-406.42572096962414,388.00513170833403,-270.2593321461938,668.38698897354971,-157.68222475957316,204.62972665440742,-204.62972665440742,157.68222475957316,1303.3262353964574,0.0
548204.59901257406,4172374.0504322448,-37500.0,-301.2364372475817,520.29020070075171,-520.6212382442958,-416.52201056151557,445.75458722642827,-304.85796151601653,724.98140334283482,-87.572983295237862,171.40568760900351,-171.40568760900351,87.572983295237862,1405.7087855412926,0.0
553204.59901257406,4172374.0504322448,-37500.0,-216.30553399446978,536.1422850179863,-611.54673744364982,-414.74772155949501,507.29054081677043,-339.70890467973072,783.1688962986741,4.4255230632667235,119.24369920192801,-119.24369920192801,-4.4255230632667235,1507.6782313998322,0.0
558204.59901257406,4172374.0504322448,-37500.0,-104.79669082326542,534.32191961149385,-712.10824265124415,-395.94816716565686,569.68003686896702,-372.05933883552416,841.68671292689692,120.65542051451206,43.270038792080463,-43.270038792080463,-120.65542051451206,1605.7321004123939,0.0
563204.59901257406,4172374.0504322448,-37500.0,34.864205097281875,506.76148279420534,-818.8687198977733,-353.99251980039554,627.86580209760439,-397.57994679336394,899.04515748444931,261.75457746443999,-61.276267928630659,61.276267928630659,-261.75457746443999,1695.7818700884477,0.0
568204.59901257406,4172374.0504322448,-37500.0,201.36346382770006,444.02934229284335,-925.17316548661142,-282.20551149604779,673.86464507769733,-409.87354107821994,953.83120816857388,425.25521787458183,-197.96989351322577,197.96989351322577,-425.25521787458183,1773.9225688847512,0.0
573204.59901257406,4172374.0504322448,-37500.0,388.71238388642604,336.32137041304549,-1019.8917553227107,-174.3634276458618,695.97219851206842,-400.05105835194638,1005.374755988616,603.76478835542866,-367.41305588282461,367.41305588282461,-603.76478835542866,1838.1876535900669,0.0
578204.59901257406,4172374.0504322448,-37500.0,584.30186799269052,175.54777856949804,-1086.3063423464014,-26.511567927871667,678.28841471102726,-356.60744782410518,1054.947359978082,782.99218738515583,-564.63036375055435,564.63036375055435,-782.99218738515583,1891.8605875784758,0.0
583204.59901257406,4172374.0504322448,-37500.0,767.49147871741559,-41.133658408414917,-1101.8126464333734,160.23155133785372,601.14486847956482,-265.99081870838205,1107.4923484073695,940.32880836492245,-775.85422805933331,775.85422805933331,-940.32880836492245,1948.516023014035,0.0
588204.59901257406,4172374.0504322448,-37500.0,910.02299285439415,-306.39227909229504,-1039.5621312344101,376.0735415464361,443.29893845365319,-114.40889082265534,1173.2300747101508,1045.3184090290972,-975.58416276135961,975.58416276135961,-1045.3184090290972,2036.8088122898953,0.0
593204.59901257406,4172374.0504322448,-37500.0,980.01550965493095,-597.47864052310183,-873.42263214552736,599.1148075705056,186.81523714655989,108.60775427571097,1267.2008458045293,1063.8602186344963,-1125.8337420557289,1125.8337420557289,-1063.8602186344963,2198.1678017886461,0.0
598204.59901257406,4172374.0504322448,-37500.0,950.8830598234556,-873.35947738124673,-587.05959147653539,794.173205201884,-175.09112839581729,404.8536607038032,1404.2052610906599,967.6169559266599,-1180.3879339287805,1180.3879339287805,-967.6169559266599,2469.0135846378798,0.0
603204.59901257406,4172374.0504322448,-37500.0,814.21706365992111,-1078.3349983577191,-185.76153068148179,916.77129326400552,-628.81098085675012,761.50033916609607,1589.5930985117263,747.78138201610864,-1096.4153247102965,1096.4153247102965,-747.78138201610864,2854.1300449648625,0.0
608204.59901257406,4172374.0504322448,-37500.0,591.42906917451967,-1155.3562394395547,294.01979706517898,924.23628596162189,-1134.0039751544389,1147.4687364903302,1811.5042692116874,427.92365941490408,-852.33570293720732,852.33570293720732,-427.92365941490408,3314.8274530334056,0.0
613204.59901257406,4172374.0504322448,-37500.0,335.50503480462157,-1067.1382529250714,785.08327442338884,791.9090916615047,-1626.0806229685595,1515.9110165643797,2040.2231510457382,66.809729987875755,-464.71726433162809,464.71726433162809,-66.809729987875755,3780.8624399884948,0.0
618204.59901257406,4172374.0504322448,-37500.0,116.737342426316,-815.51071102735978,1204.8417836626566,527.00462994649251,-2030.7248311915339,1814.6293836150423,2236.1300293450181,-255.76789298986722,7.2211693213579338,-7.2211693213579338,255.76789298986722,4173.6350591807595,0.0
623204.59901257406,4172374.0504322448,-37500.0,-3.483960827747131,-446.31341081816475,1481.4633559675503,170.88205905060988,-2286.2303370956784,2001.3142354078327,2363.2243306896999,-466.73324915382375,476.62671479430526,-476.62671479430526,466.73324915382375,4428.6568074513661,0.0
628204.59901257406,4172374.0504322448,-37500.0,3.5719306224192353,-34.542011370365721,1577.6008580091388,-213.57885218689049,-2362.6879517938169,2056.2171857693238,2400.530479507087,-526.40737031807589,858.03601604611367,-858.03601604611367,526.40737031807589,4510.7989204874657,0.0
633204.59901257406,4172374.0504322448,-37500.0,126.41692353871821,342.24944394766698,1499.0343727891709,-562.93250255522116,-2268.1229450722585,1985.8393500519478,2345.9249981744651,-439.09068962039106,1094.6742640747898,-1094.6742640747898,439.09068962039106,4418.6517048624664,0.0
638204.59901257406,4172374.0504322448,-37500.0,323.90165265506766,627.42712051876526,1285.8781543964562,-831.16362883158172,-2040.2527596509158,1817.0116305617466,2213.0396223639423,-244.16880544744998,1170.5418396941693,-1170.5418396941693,244.16880544744998,4178.4957533686256,0.0
643204.59901257406,4172374.0504322448,-37500.0,544.56451788475329,795.68146476607876,994.2580615544191,-997.43648845907285,-1730.6490390403046,1586.0433377258041,2024.7194341246905,3.5047502692984835,1105.2942223554057,-1105.2942223554057,-3.5047502692984835,3832.4874466700385,0.0
648204.59901257406,4172374.0504322448,-37500.0,743.66205060100526,850.23822250961518,678.6807209119379,-1063.751033965448,-1389.7006839048172,1328.53509549825,1806.3692180700007,252.32387471389688,939.35885175965313,-939.35885175965313,-252.32387471389688,3426.5905422716337,0.0
653204.59901257406,4172374.0504322448,-37500.0,892.19868900733843,812.84140758119315,381.05901030635908,-1047.1316111014621,-1057.1879546610171,1072.9905796405233,1581.0678631983765,465.07455439765289,718.3176943519743,-718.3176943519743,-465.07455439765289,3001.813751173087,0.0
658204.59901257406,4172374.0504322448,-37500.0,978.16274547928265,712.77924254422908,127.10834782211317,-971.09981440843615,-758.99336156400398,838.52187449410735,1366.6430892241704,621.92591181013472,481.92699404227432,-481.92699404227432,-621.92591181013472,2589.6778267593927,0.0
663204.59901257406,4172374.0504322448,-37500.0,1002.997370709608,578.59852329090018,-72.101210468859605,-859.16559419956877,-508.12838831178641,635.42995064618128,1174.1092174534435,717.95923859763889,258.94883102074743,-258.94883102074743,-717.95923859763889,2211.1490770645801,0.0
668204.59901257406,4172374.0504322448,-37500.0,976.44652197337246,433.48641175465696,-216.19965295396486,-731.0757200317297,-307.83282784784609,467.18771647851815,1007.7450731943501,758.40341574656395,66.516005257140478,-66.516005257140478,-758.40341574656395,1877.7149798654948,0.0
673204.59901257406,4172374.0504322448,-37500.0,911.83313605031265,293.72823939277288,-311.24053800967255,-601.39837179563153,-155.0700405219651,332.72969537630291,867.21958931122151,753.83472161586838,-87.932644520601286,87.932644520601286,-753.83472161586838,1593.4217355682163,0.0
678204.59901257406,4172374.0504322448,-37500.0,822.66918430650958,169.12160479902246,-366.19405907013061,-479.63240502222629,-43.500887908475995,228.44181265467003,750.07373183941843,716.46346098258891,-203.80368034313966,203.80368034313966,-716.46346098258891,1357.0821513545816,0.0
683204.59901257406,4172374.0504322448,-37500.0,720.69793697072339,64.314434804446819,-390.55282408832818,-371.08372595228127,34.382213403519479,149.62855710943873,653.12714923517899,657.77844056528068,-284.61994233937969,284.61994233937969,-657.77844056528068,1164.2431240721178,0.0
688204.59901257406,4172374.0504322448,-37500.0,615.07704464592734,-19.645276304114205,-392.95942517831651,-277.9731233086361,85.93151330342755,91.459928130123103,573.08660438829065,587.36003266557259,-335.88098946973332,335.88098946973332,-587.36003266557259,1008.7640541557914,0.0
693204.59901257406,4172374.0504322448,-37500.0,512.30809187080899,-83.93431707735391,-380.59374618281663,-200.4714026346374,117.65147491067108,49.501641873899608,506.85191692911519,512.51329471165081,-363.61032692484633,363.61032692484633,-512.51329471165081,883.99640265759115,0.0
698204.59901257406,4172374.0504322448,-37500.0,416.56611640964366,-130.90147632627128,-359.04233188353282,-137.53011019895843,134.93275346348241,19.954067284760768,451.68894792979086,438.38380094935985,-373.49531522294399,373.49531522294399,-438.38380094935985,783.59661407995861,0.0
703204.59901257406,4172374.0504322448,-37500.0,330.18471815701218,-163.3450153023845,-332.42932893979162,-87.483116839060528,142.03966731800489,-0.28993832725483126,405.30734683154856,368.30236482853508,-370.46267905703934,370.46267905703934,-368.30236482853508,702.01438371012068,0.0
533204.59901257406,4177374.0504322448,-37500.0,-329.96405992473507,397.76045439345796,-340.7039104380695,-304.046126169964,279.01262745281986,-178.49800886369451,512.74274386020124,-159.73034434059034,179.35015503949106,-179.35015503949106,159.73034434059034,1005.0872839452544,0.0
538204.59901257406,4177374.0504322448,-37500.0,-295.03629126630216,423.83385317542638,-398.66785252815282,-315.85215449470502,319.48706661529201,-201.32534812824338,555.17719568995039,-116.50409107559335,161.94554318265818,-161.94554318265818,116.50409107559335,1083.3474815085276,0.0
543204.59901257406,4177374.0504322448,-37500.0,-245.07372678765822,444.53769281164716,-464.86949861631246,-321.7668584772357,363.58855614883919,-225.24941138302634,599.51907257207722,-58.996020135890141,133.19784512041005,-133.19784512041005,58.996020135890141,1163.2254358555699,0.0
548204.59901257406,4177374.0504322448,-37500.0,-177.50037262814095,456.32338813973081,-539.12452753678258,-319.00214788875269,410.22022271612508,-249.20276184330271,645.152733584359,14.910248594059603,89.962625095187065,-89.962625095187065,-14.910248594059603,1242.9022706015039,0.0
553204.59901257406,4177374.0504322448,-37500.0,-90.137020720515196,454.56013891330514,-620.29543973185343,-304.09401386647426,457.33306324668854,-271.4376901161196,691.27899523725318,106.80268327134056,28.831551428626604,-28.831551428626604,-106.80268327134056,1320.066159482222,0.0
558204.59901257406,4177374.0504322448,-37500.0,18.219201367800224,433.49204448696673,-705.74869427858232,-272.95818988499445,501.51757610060878,-289.27577017149287,736.9857175881574,217.13406872327448,-53.503156264043923,53.503156264043923,-217.13406872327448,1392.0813193097929,0.0
563204.59901257406,4177374.0504322448,-37500.0,146.96113258676581,386.41387950529111,-790.65682666730243,-221.13045197362723,537.52335749015185,-298.8321358637582,781.43920976318566,344.35841516264338,-159.58163333018638,159.58163333018638,-344.35841516264338,1456.4726121123638,0.0
568204.59901257406,4177374.0504322448,-37500.0,292.59066651331858,306.23816946394328,-867.19665965842614,-144.30705789195321,557.7732837597282,-294.76689625682002,824.27541723785464,483.81927312724702,-290.09871553215385,290.09871553215385,-483.81927312724702,1511.9648903564057,0.0
573204.59901257406,4177374.0504322448,-37500.0,447.51025495256374,186.67313094881169,-923.80543223425661,-39.317879059292522,552.02476862896128,-270.16967636522537,866.27445158900832,626.51536323571997,-442.35078302696854,442.35078302696854,-626.51536323571997,1560.3774368341651,0.0
578204.59901257406,4177374.0504322448,-37500.0,599.00882296078737,24.219185829129849,-944.83519042578814,94.367463670086664,507.45496299108777,-216.75432262595439,910.32317080256712,758.07919619813811,-608.28462691590039,608.28462691590039,-758.07919619813811,1609.5091731921768,0.0
583204.59901257406,4177374.0504322448,-37500.0,729.05203193263208,-178.96768710805523,-911.17680395557875,252.6388602392866,409.58638752044772,-125.61122869305568,962.38802593272771,858.60703445933098,-772.52941827670008,772.52941827670008,-858.60703445933098,1676.2479246255971,0.0
588204.59901257406,4177374.0504322448,-37500.0,815.76170947005107,-411.71534775720346,-802.60743075467951,424.59419583444463,244.54337932991695,11.216071210346669,1031.656096136222,904.27560471621541,-911.27320152605193,911.27320152605193,-904.27560471621541,1786.9343005494702,0.0
593204.59901257406,4177374.0504322448,-37500.0,837.47582150789196,-651.08295834466378,-602.51180759920942,591.06830849337734,2.9672067673585003,198.19480808367325,1128.5516572614465,871.70895080300954,-993.37532319165655,993.37532319165655,-871.70895080300954,1970.1590139012758,0.0
598204.59901257406,4177374.0504322448,-37500.0,779.59253924161021,-862.17262180606383,-304.88005057590567,725.17734895279011,-314.70250545233188,433.07028622468994,1260.185753370371,745.36690306307321,-985.25380594208821,985.25380594208821,-745.36690306307321,2241.6844196351799,0.0
603204.59901257406,4177374.0504322448,-37500.0,642.72328408832846,-1002.7547649182393,78.10801681051035,796.27427067506187,-693.02751948937134,703.88370691960847,1425.2417545315081,526.47564016423189,-860.1547130055244,860.1547130055244,-526.47564016423189,2591.6469729252444,0.0
608204.59901257406,4177374.0504322448,-37500.0,448.47481425944551,-1033.6625789990105,511.53251057025307,777.6932523433394,-1099.1519184594952,987.87776562703823,1611.442730088731,239.64293042219342,-609.93688785781467,609.93688785781467,-239.64293042219342,2984.1445164336315,0.0
613204.59901257406,4177374.0504322448,-37500.0,238.19924912854012,-932.60343758242414,940.49197780772613,656.38651881927149,-1486.0740265784989,1253.9546471833487,1796.7757080306849,-67.903918501760984,-254.34027207059819,254.34027207059819,67.903918501760984,3367.2899807279778,0.0
618204.59901257406,4177374.0504322448,-37500.0,62.424863532908695,-705.30775470779656,1301.9930885191909,440.18263155633178,-1802.5134223208213,1469.0720908218468,1954.1858565591021,-337.2368637768501,158.50653828147418,-158.50653828147418,337.2368637768501,3686.7836723338501,0.0
623204.59901257406,4177374.0504322448,-37500.0,-35.74366138519909,-387.26963126751258,1542.5181887736819,158.20663882310572,-2006.459160761427,1606.678321727263,2059.0520880155027,-515.74658635474123,563.2501033185232,-563.2501033185232,515.74658635474123,3898.582421276868,0.0
628204.59901257406,4177374.0504322448,-37500.0,-35.204247725782267,-33.805682748643783,1633.4294617470493,-146.7802456907761,-2076.5430450224835,1653.6116070924511,2096.1618448644376,-573.86445615810044,896.25471554115279,-896.25471554115279,573.86445615810044,3977.7603285089726,0.0
633204.59901257406,4177374.0504322448,-37500.0,57.956402752263173,296.95113351712553,1577.0173886873981,-430.70230204230421,-2016.1254756695892,1612.4370936668004,2062.6129949851647,-512.26487266480103,1113.4077153394778,-1113.4077153394778,512.26487266480103,3921.4722584044016,0.0
638204.59901257406,4177374.0504322448,-37500.0,216.10654492695747,559.82796356108815,1401.5404188667055,-659.37975720147369,-1849.1167784015552,1498.7230610729209,1966.4375262315498,-357.27747283345667,1199.0082881266819,-1199.0082881266819,357.27747283345667,3745.9534368348368,0.0
643204.59901257406,4177374.0504322448,-37500.0,401.94746633348643,730.97124804587577,1149.3963968160829,-814.41969198472884,-1610.7281583848001,1335.2473487104023,1822.8134915913106,-148.80422262160158,1163.8718345602629,-1163.8718345602629,148.80422262160158,3479.6932876835554,0.0
648204.59901257406,4177374.0504322448,-37500.0,580.25870799203528,807.7350467270785,864.559570918492,-893.12747700349803,-1337.7223811281567,1145.9180286371889,1649.8173194608285,72.581076899971777,1036.2844773269433,-1036.2844773269433,-72.581076899971777,3155.760020865765,0.0
653204.59901257406,4177374.0504322448,-37500.0,725.39028126708399,802.97172299062436,583.61193235488577,-904.45921740193182,-1061.3714278953089,951.34898692568379,1464.9697139606872,274.62836469472091,851.19809889151384,-851.19809889151384,-274.62836469472091,2805.5574498749647,0.0
658204.59901257406,4177374.0504322448,-37500.0,823.68714112811017,737.5757121880772,331.65752389462045,-863.69597808692458,-804.09476473148186,766.6866371099353,1282.9175149011246,437.16344853101964,641.59397955001623,-641.59397955001623,-437.16344853101964,2454.9882807957865,0.0
663204.59901257406,4177374.0504322448,-37500.0,872.18070930697797,634.05716256778737,122.22576380192113,-787.7821905660503,-579.14182511644424,601.31266690194821,1113.9532278580825,551.66289213533753,433.51258309211516,-433.51258309211516,-551.66289213533753,2122.9146579714857,0.0
668204.59901257406,4177374.0504322448,-37500.0,875.46767010752535,512.33111415389794,-40.520837575104153,-692.17901840324771,-392.08903465147307,459.68714398794003,963.45152129584847,618.54134561674425,244.43868452787805,-244.43868452787805,-618.54134561674425,1821.2755238811339,0.0
673204.59901257406,4177374.0504322448,-37500.0,842.32279528553943,387.72194858575068,-158.79660998326653,-589.26642011528099,-243.024050773808,342.65092014982986,832.83424792490791,643.80444632415697,83.936515707654053,-83.936515707654053,-643.80444632415697,1556.133854646622,0.0
678204.59901257406,4177374.0504322448,-37500.0,782.92063366281388,270.60904585808163,-238.40054596475366,-487.92303385995717,-128.67155851059087,248.72885903909693,721.33504450332316,636.08778464699537,-44.615215432893592,44.615215432893592,-636.08778464699537,1329.0748543810678,0.0
683204.59901257406,4177374.0504322448,-37500.0,706.96514705239747,167.02744617194369,-286.57294949205397,-393.8224540891685,-44.095741486375132,175.20066040684674,627.22105904611328,604.50848598852758,-142.0376137097407,142.0376137097407,-604.50848598852758,1138.5865471193356,0.0
688204.59901257406,4177374.0504322448,-37500.0,622.67261839969865,79.666169694827886,-310.58409750551823,-310.06092322754375,16.113597574462386,118.87075590843239,548.3599592576121,557.36109893684591,-211.59778064864619,211.59778064864619,-557.36109893684591,981.2442667228122,0.0
693204.59901257406,4177374.0504322448,-37500.0,536.39617968309108,8.9023335857405392,-316.94587245265041,-237.85602100212591,57.117628498710154,76.558807628378574,482.50951728867454,501.49356579079802,-257.6801377593597,257.6801377593597,-501.49356579079802,852.64059557952316,0.0
698204.59901257406,4177374.0504322448,-37500.0,452.65881463734394,-46.313931939171802,-311.07308881542548,-177.17507894454462,83.455629378994914,45.372456685127304,427.50662646154495,442.14761207305548,-284.89545863199589,284.89545863199589,-442.14761207305548,748.07319509091269,0.0
533204.59901257406,4182374.0504322448,-37500.0,-241.2567654369229,363.62454256469857,-357.97310320109131,-247.48733102086177,263.43844157342511,-151.5227324542152,464.15729431822768,-85.834062163101237,128.06700379810275,-128.06700379810275,85.834062163101237,905.96143752839953,0.0
538204.59901257406,4182374.0504322448,-37500.0,-200.36101210869688,379.3489273795704,-412.65430372343741,-250.7498243354982,297.24723024782918,-168.25616978136239,499.14892829130099,-38.499440509075264,103.2838615755206,-103.2838615755206,38.499440509075264,968.67218511469935,0.0
543204.59901257406,4182374.0504322448,-37500.0,-146.141533162592,387.98810961604238,-473.2762825952758,-247.60624514788043,332.74393776442315,-184.91284406844377,535.16660056713658,21.216875095128234,67.355695073283869,-67.355695073283869,-21.216875095128234,1031.2726979966501,0.0
548204.59901257406,4182374.0504322448,-37500.0,-77.050076006331494,386.16983301105228,-538.88381385048194,-235.69933203417278,368.48357236905679,-200.36429134598535,571.69619057481373,94.399992218638317,17.878003369028711,-17.878003369028711,-94.399992218638317,1092.2135810276789,0.0
553204.59901257406,4182374.0504322448,-37500.0,7.8209459234874839,369.75590217058902,-607.46644630869923,-212.27319857060124,402.1387227299607,-212.92244121465737,608.17031182545099,181.36751283651944,-47.468494331608184,47.468494331608184,-181.36751283651944,1149.769657801583,0.0
558204.59901257406,4182374.0504322448,-37500.0,108.22185510618762,333.94762641690164,-675.50654925437527,-174.31036958330748,430.20714212530152,-220.18174366147386,644.09118887876843,281.12810832574741,-130.49630750933727,130.49630750933727,-281.12810832574741,1202.351790801998,0.0
563204.59901257406,4182374.0504322448,-37500.0,222.08009949696947,273.61833133542564,-737.46266982788438,-118.83288544382845,447.71218997995516,-218.87213073399474,679.26763507140868,390.69055206454749,-231.84801279399738,231.84801279399738,-390.69055206454749,1249.1405142178726,0.0
568204.59901257406,4182374.0504322448,-37500.0,344.74291891307388,183.99446915411738,-785.27479697776619,-43.437533201795539,447.9722690901238,-204.77254408481551,714.20866769932866,504.28504134124569,-350.05242102214891,350.05242102214891,-504.28504134124569,1291.2028839374993,0.0
573204.59901257406,4182374.0504322448,-37500.0,468.2838100684063,61.806866718610358,-808.06911585988246,52.876108958417724,422.57580795231763,-172.76759707453672,750.67882377553508,612.66171389945453,-480.32800281565915,480.32800281565915,-612.66171389945453,1333.1821759851255,0.0
578204.59901257406,4182374.0504322448,-37500.0,581.16971644229511,-93.030989448683883,-792.35902764009165,168.58180243297036,361.76777261110772,-117.16401052223735,792.29101197954753,702.78076245610578,-613.30289820899975,613.30289820899975,-702.78076245610578,1385.2513451777631,0.0
583204.59901257406,4182374.0504322448,-37500.0,668.7379877556499,-275.33911617115206,-723.15057737669417,298.33080047703356,255.50481107817231,-32.401891901760663,844.75348722161596,758.372277882822,-734.05032579369697,734.05032579369697,-758.372277882822,1464.0113179933351,0.0
588204.59901257406,4182374.0504322448,-37500.0,715.00163789263843,-472.63512191364293,-586.37131177716151,431.82035922389207,95.40459898050689,85.737173002474137,915.11945096595809,761.92501222843703,-822.12044776172297,822.12044776172297,-761.92501222843703,1589.8119460957951,0.0
593204.59901257406,4182374.0504322448,-37500.0,706.11512986434764,-664.0450973048811,-372.79598170661899,553.42268873134913,-122.39339528344034,238.45515516843119,1009.5749164742792,698.47827051960883,-853.4370346968027,853.4370346968027,-698.47827051960883,1778.9968004654595,0.0
598204.59901257406,4182374.0504322448,-37500.0,635.21414322263286,-821.40624937164569,-82.999701478251055,643.3339834516579,-393.89289934304645,422.08499960674908,1130.341487555753,560.94567839603235,-804.74224822428334,804.74224822428334,-560.94567839603235,2034.5511120870433,0.0
603204.59901257406,4182374.0504322448,-37500.0,507.2914611885729,-913.63658282730819,268.13178803057923,680.82037699234775,-704.50948580829856,626.69137488067588,1273.334892616982,355.57390316799513,-660.40522030618638,660.40522030618638,-355.57390316799513,2341.7418203967582,0.0
608204.59901257406,4182374.0504322448,-37500.0,341.75183189855414,-914.33604359578328,649.68999321384865,649.3801307547069,-1028.5130824511441,835.98979117992656,1427.7935184677472,105.00225409147106,-419.86183985337266,419.86183985337266,-105.00225409147106,2670.8677784546289,0.0
613204.59901257406,4182374.0504322448,-37500.0,170.25289145665195,-810.62995508182928,1018.062264652731,542.42296866435606,-1331.9997060974408,1029.2819672144899,1577.6680287303946,-153.74997864897824,-102.45752768531371,102.45752768531371,153.74997864897824,2984.1446409589307,0.0
618204.59901257406,4182374.0504322448,-37500.0,29.166212760487436,-609.54208357965797,1325.7119543335291,367.07840797920602,-1579.4584733524043,1185.3622418453626,1704.3282639348761,-377.29726802202043,253.61900086833072,-253.61900086833072,377.29726802202043,3243.715556987207,0.0
623204.59901257406,4182374.0504322448,-37500.0,-51.011211666960847,-338.32188352775245,1532.9054213600232,143.9588708813985,-1742.0631354869333,1287.2896982521388,1790.7220190698717,-527.61937382157589,599.37436164549626,-599.37436164549626,527.61937382157589,3419.0632662849562,0.0
628204.59901257406,4182374.0504322448,-37500.0,-54.739138208435854,-37.786908385320984,1617.7423900208817,-97.563046720099862,-1804.5178586130635,1326.2445503191848,1825.7254014860562,-582.66146775054347,887.425591642325,-887.425591642325,582.66146775054347,3492.325013819805,0.0
633204.59901257406,4182374.0504322448,-37500.0,15.030700592553449,248.63220259499855,1580.3740197496068,-326.73507960323343,-1767.7588455147386,1302.9906955960441,1806.3423244214944,-541.22547937134618,1083.6821438617173,-1083.6821438617173,541.22547937134618,3460.3000510009629,0.0
638204.59901257406,4182374.0504322448,-37500.0,139.85386407154388,485.45827044949942,1440.2873083198276,-518.43883257073071,-1646.8575138413687,1226.6145224027371,1737.1920351153246,-420.6772816791709,1173.7663530898842,-1173.7663530898842,420.6772816791709,3332.9687434045063,0.0
643204.59901257406,4182374.0504322448,-37500.0,293.04964338174307,651.5442353899806,1228.797609723619,-657.42011080311488,-1465.6364407528149,1111.4058962794134,1628.3073380357112,-249.57044347750531,1162.7106448105621,-1162.7106448105621,249.57044347750531,3129.5302876694032,0.0
648204.59901257406,4182374.0504322448,-37500.0,447.6086236569198,741.12582536132163,980.35140568332338,-739.02446761545343,-1250.4614814135693,973.26662889898171,1492.4319008865218,-58.969213560467097,1069.6331830910067,-1069.6331830910067,58.969213560467097,2873.5564045136925,0.0
653204.59901257406,4182374.0504322448,-37500.0,581.9797651920602,760.81333577697171,725.58942406118479,-767.25079198462981,-1025.2299030561837,826.78475581998066,1342.6372535500118,124.39240260921406,920.50513798578618,-920.50513798578618,-124.39240260921406,2588.6710968789484,0.0
658204.59901257406,4182374.0504322448,-37500.0,682.72517450432827,724.76219695690042,487.46543423430734,-751.56350824945821,-808.46210051800267,683.49562406025916,1190.5804288085051,281.75645863247564,741.68783745459416,-741.68783745459416,-281.75645863247564,2295.5378778567424,0.0
663204.59901257406,4182374.0504322448,-37500.0,744.47225983857004,649.95795702484736,280.24935216559879,-703.72279523569284,-612.41186763773499,551.29589513597762,1045.2694929726645,403.01362272919613,555.61846712837769,-555.61846712837769,-403.01362272919613,2010.2988246391358,0.0
668204.59901257406,4182374.0504322448,-37500.0,768.23333933104198,552.69799391012009,110.49399717611637,-635.3558615662696,-443.5906187976006,434.68141764421023,912.28728908803339,485.41617272873214,378.8176748199578,-378.8176748199578,-485.41617272873214,1744.2081430514365,0.0
673204.59901257406,4182374.0504322448,-37500.0,759.1464896152213,446.54995787332109,-21.059122698549587,-556.47836116215421,-304.01159185735975,335.42107686328075,794.01347373601629,531.43143907512547,221.69651410139593,-221.69651410139593,-531.43143907512547,1504.0496387070339,0.0
678204.59901257406,4182374.0504322448,-37500.0,724.36311798544557,341.57258348627914,-117.41781842405227,-474.85179418052718,-192.60977497255425,253.35670865547826,690.77363236371878,546.55119839858787,89.43463473476973,-89.43463473476973,-546.55119839858787,1292.9507767716873,0.0
683204.59901257406,4182374.0504322448,-37500.0,671.43728114933413,244.39488260752816,-183.57021897405068,-395.93047929478655,-106.51147032922238,187.13784940942176,601.86455061442848,537.50196264495105,-16.702358090993357,16.702358090993357,-537.50196264495105,1111.3089613518118,0.0
688204.59901257406,4182374.0504322448,-37500.0,607.29479955054592,158.75668050700648,-225.18277537396517,-323.14531883367607,-42.011497582438096,134.80269293987621,526.06844514910279,511.00365429002829,-98.03353754112365,98.03353754112365,-511.00365429002829,957.65508422181017,0.0
693204.59901257406,4182374.0504322448,-37500.0,537.70362274387139,86.212796540764003,-247.76287698161241,-258.32853937318123,4.7591705088888832,94.188138670041013,461.90614415492769,473.04144277340782,-157.344765772367,157.344765772367,-473.04144277340782,829.3755739667655,0.0
698204.59901257406,4182374.0504322448,-37500.0,467.10779645409343,26.816229555578403,-256.19967655291873,-202.15200769493362,37.430616582293936,63.188950996240806,407.80530508471378,428.53472014073282,-198.05880763598896,198.05880763598896,-428.53472014073282,723.27270177780588,0.0
538204.59901257406,4187374.0504322448,-37500.0,-120.95634106052231,330.26389535401353,-414.71900881417918,-193.99986391577139,271.11080526243995,-138.79327468683724,447.01408041392813,24.59394052676776,50.118128823554109,-50.118128823554109,-24.59394052676776,861.3992137631094,0.0
543204.59901257406,4187374.0504322448,-37500.0,-65.819606867873162,328.39201816394336,-467.89956371474028,-184.42902273531206,298.39012550759452,-149.65611849299336,476.10016434001579,83.306882627605845,9.8349824752304897,-9.8349824752304897,-83.306882627605845,909.76041816898737,0.0
548204.59901257406,4187374.0504322448,-37500.0,1.2805873043707441,315.38812858640142,-523.15547090318967,-166.57547216198429,324.1544958276437,-158.57438723484836,505.29613040365064,152.4150872084895,-42.43080834890543,42.43080834890543,-152.4150872084895,955.84134119344458,0.0
553204.59901257406,4187374.0504322448,-37500.0,80.271051068260846,287.78940613504909,-577.90548094940095,-138.37603257415938,346.03290414016487,-164.02944772178157,534.30133688643286,231.26759837316675,-107.98040601580257,107.98040601580257,-231.26759837316675,998.6063009067492,0.0
558204.59901257406,4187374.0504322448,-37500.0,169.90701329261663,241.87158853668777,-628.18633480583014,-97.760624082233704,360.70639511624387,-163.97996457013551,563.02080048684172,317.90470163416865,-187.3577967426364,187.3577967426364,-317.90470163416865,1037.5282432475024,0.0
563204.59901257406,4187374.0504322448,-37500.0,267.29221731806638,174.05212355945213,-668.32306814100036,-42.954240642221841,363.7544042860668,-155.80234244617171,591.80261109993944,408.56127901653559,-279.76531116890663,279.76531116890663,-408.56127901653559,1073.2663495159986,0.0
568204.59901257406,4187374.0504322448,-37500.0,367.41361867684918,81.568045962005357,-690.70134877273904,27.057190179906097,349.60339479984992,-136.29904201129054,621.76871073948053,497.19365662765244,-382.31962071665725,382.31962071665725,-497.19365662765244,1108.6801780786941,0.0
573204.59901257406,4187374.0504322448,-37500.0,462.83973912360432,-36.526885029845715,-685.80017537793378,111.8860614729562,311.68276596491881,-101.83150008009119,655.18129823323579,575.18966407176129,-489.22571738213776,489.22571738213776,-575.18966407176129,1150.0521247725669,0.0
578204.59901257406,4187374.0504322448,-37500.0,543.81425307166194,-178.08000221342445,-642.70772499308111,208.9711407609696,242.92353559205438,-48.646337812071337,695.66298900623156,631.51038699125718,-591.0587722774452,591.0587722774452,-631.51038699125718,1207.9140081030823,0.0
583204.59901257406,4187374.0504322448,-37500.0,599.03383481030016,-336.45932225773402,-550.3708255936765,312.81269533181143,136.73578560805154,26.542847942811818,747.93912651098913,653.57580712348704,-674.49037632812019,674.49037632812019,-653.57580712348704,1296.191804456555,0.0
588204.59901257406,4187374.0504322448,-37500.0,617.36342104058656,-499.48504785624232,-399.75624570755633,414.48066333581647,-11.466657694612303,125.69900780818865,816.77987933333043,629.17332677821958,-722.92744053428044,722.92744053428044,-629.17332677821958,1428.4319445587748,0.0
593204.59901257406,4187374.0504322448,-37500.0,590.52201293556766,-649.31174488603187,-186.8480643641897,501.77731082350795,-202.30274172488495,248.40988931541619,905.22423167159661,549.43843282246075,-718.53623288429731,718.53623288429731,-549.43843282246075,1611.9351870549876,0.0
598204.59901257406,4187374.0504322448,-37500.0,516.31922547147735,-763.97728876141855,84.057674405893394,560.44714910043717,-430.42089705258655,390.87075368404271,1012.8142172359917,412.47293735359443,-645.85237157850179,645.85237157850179,-412.47293735359443,1843.2130035626944,0.0
603204.59901257406,4187374.0504322448,-37500.0,401.42839220162307,-821.04013322188484,397.86310451154117,576.61440220660393,-683.17637090530036,545.2859412667741,1134.7448658990959,226.51502422322687,-496.5300446466315,496.5300446466315,-226.51502422322687,2107.4116038679849,0.0
608204.59901257406,4187374.0504322448,-37500.0,262.27477133020648,-802.93222085040827,728.41949565026312,540.14018129444594,-940.85856747992057,700.12930894545877,1262.2207627147427,11.099961031053255,-273.89657293250184,273.89657293250184,-11.099961031053255,2381.1558431945491,0.0
613204.59901257406,4187374.0504322448,-37500.0,122.86061480341058,-702.56077021192141,1041.6182747158875,447.96464499164205,-1179.0648155303734,841.53960016306894,1383.5851326496295,-205.14315370121653,4.6660199662374566,-4.6660199662374566,205.14315370121653,2636.9862899724976,0.0
618204.59901257406,4187374.0504322448,-37500.0,9.4844783156832229,-526.9364399019081,1301.7190549209561,306.10961742090421,-1373.0386869071531,955.71460756406123,1485.8754092170798,-390.23053848344665,309.23474250179078,-309.23474250179078,390.23053848344665,2848.2049441682648,0.0
623204.59901257406,4187374.0504322448,-37500.0,-56.082741996887101,-296.92463153177448,1479.1874094679374,129.26674112303309,-1502.808736809252,1031.6703808415209,1557.1330443305635,-516.5149748638521,603.0503142645357,-603.0503142645357,516.5149748638521,2993.3578256483611,0.0
628204.59901257406,4187374.0504322448,-37500.0,-62.346864221192263,-42.75968500865752,1557.2777057717024,-62.16384499358854,-1557.3800825522169,1063.4513039907129,1589.1523040377892,-567.49587605711793,850.72382038517401,-850.72382038517401,567.49587605711793,3059.5116042655059,0.0
633204.59901257406,4187374.0504322448,-37500.0,-10.498869752240809,203.09053914945326,1534.9730753274455,-246.58019654545555,-1536.5197739147095,1051.0442003129322,1579.1538621117256,-541.14811771402333,1025.9709303439072,-1025.9709303439072,541.14811771402333,3043.6152709411635,0.0
638204.59901257406,4187374.0504322448,-37500.0,87.169605957353582,413.01664430783239,1425.5376932956481,-405.60319171167686,-1449.715449275526,999.79237189060973,1529.6998140569015,-448.82538476977396,1116.2010439030898,-1116.2010439030898,448.82538476977396,2951.7789566314377,0.0
643204.59901257406,4187374.0504322448,-37500.0,211.70470830731628,568.98845559491144,1251.786934805782,-527.02865886333029,-1313.0304852273134,918.69533807095615,1447.4063224199986,-310.76668274181714,1122.9092736743601,-1122.9092736743601,310.76668274181714,2796.9531235136892,0.0
648204.59901257406,4187374.0504322448,-37500.0,342.74388974618552,663.96301591452504,1040.170568627932,-605.74294441237009,-1145.184608515543,818.29057322523522,1341.2166634016808,-150.34075472953054,1058.6266494035533,-1058.6266494035533,150.34075472953054,2595.8711914957662,0.0
653204.59901257406,4187374.0504322448,-37500.0,462.79489484122018,700.46282285739301,815.60529848935846,-642.88689058078796,-964.09233444776726,708.76701012761885,1220.7757118278748,10.961748277312552,942.19102042688451,-942.19102042688451,-10.961748277312552,2366.1092937608,0.0
658204.59901257406,4187374.0504322448,-37500.0,559.65266219904038,687.57336365985236,598.13107377959784,-644.01530179868485,-784.55738625958566,598.6836776870548,1095.1618048016451,156.6735128250167,794.08232792305603,-794.08232792305603,-156.6735128250167,2123.824746053444,0.0
663204.59901257406,4187374.0504322448,-37500.0,626.96415652533619,637.63083449103613,401.54771765684188,-617.0236524965884,-617.24777711594459,494.36997137680299,971.93447504608355,276.48762296230865,632.92259005716937,-632.92259005716937,-276.48762296230865,1882.3823047888352,0.0
668204.59901257406,4187374.0504322448,-37500.0,663.47854673475467,563.45931616192445,233.5941932613753,-570.3758411842922,-468.69315496560756,399.87934480687073,856.38126490087222,365.8623210368703,473.49343672761438,-473.49343672761438,-365.8623210368703,1651.7968241237418,0.0
673204.59901257406,4187374.0504322448,-37500.0,671.64832773011608,476.52183283436023,97.032881673606084,-511.87395247146145,-341.90998362909062,317.29326776164152,751.31376268749921,424.77025138801645,326.09615422014809,-326.09615422014809,-424.77025138801645,1438.7855435753006,0.0
678204.59901257406,4187374.0504322448,-37500.0,656.12209061969133,385.97596987941836,-8.9321981738524467,-447.98255605360697,-237.28883889789273,247.18146611891862,657.71159416655064,456.18395130473397,196.83857316950395,-196.83857316950395,-456.18395130473397,1247.1877821636126,0.0
683204.59901257406,4187374.0504322448,-37500.0,622.45804554875087,298.430370931862,-87.291340277180907,-383.596963435151,-153.48659447170232,189.07920550833018,575.55114237935322,464.68704497547799,88.415050514820422,-88.415050514820422,-464.68704497547799,1078.5487462917843,0.0
688204.59901257406,4187374.0504322448,-37500.0,576.19337319775127,218.14621979762055,-142.12018840991513,-322.10613611055805,-88.181454085204734,141.9014302254308,504.27389832233541,455.39860207357066,1.040666605420256,-1.040666605420256,-455.39860207357066,932.72417526090805,0.0
693204.59901257406,4187374.0504322448,-37500.0,522.27333156823101,147.46029030866708,-177.78602760269811,-265.61495771200521,-38.639334248335068,104.26187633744284,443.00378881276811,433.25145348209458,-66.673057459825316,66.673057459825316,-433.25145348209458,808.42462541678151,0.0
543204.59901257406,4192374.0504322443,-37500.0,-2.8277337049081464,269.49588681981857,-451.36025522338895,-131.91594413244511,262.88764658836709,-119.48083143902304,422.68728948689591,128.80562380673646,-38.05429418534046,38.05429418534046,-128.80562380673646,799.928716933479,0.0
548204.59901257406,4192374.0504322443,-37500.0,59.868242989833931,247.95238519002106,-495.62857419786047,-110.68604488093261,279.98426694281375,-123.56555384766554,446.14584626353246,191.63738471421419,-90.249504422549009,90.249504422549009,-191.63738471421419,834.683597649386,0.0
553204.59901257406,4192374.0504322443,-37500.0,130.96824620838731,212.59665412806044,-536.5728655874193,-80.547805479288641,292.08136901327845,-124.04149828858787,469.55123025176073,260.63222086027992,-152.95727793444013,152.95727793444013,-260.63222086027992,866.83450247533312,0.0
558204.59901257406,4192374.0504322443,-37500.0,208.63980072114467,160.74864107728538,-570.15233617295235,-40.205008170525034,296.21064604902165,-119.24892621354914,493.14966790997119,333.28876380080777,-225.74983987654159,225.74983987654159,-333.28876380080777,896.80711013844393,0.0
563204.59901257406,4192374.0504322443,-37500.0,289.66470822464112,90.178915061356008,-590.98261606223537,11.217351219101973,288.63397129005011,-107.16053888208133,517.67883366146475,405.59585427642799,-306.8610488586254,306.8610488586254,-405.59585427642799,926.41772417143306,0.0
568204.59901257406,4192374.0504322443,-37500.0,369.20317943240991,-0.28918469579268258,-592.3080098487668,73.801428874608604,264.90127433186404,-85.436500338535225,544.59838652363078,471.8018558774337,-392.65221695197624,392.65221695197624,-471.8018558774337,959.64479124687546,0.0
573204.59901257406,4192374.0504322443,-37500.0,440.75414102856985,-109.98785883375636,-566.23686523084496,146.37583684115643,220.0878210814673,-51.576066869590974,576.25818975409106,524.40230689081443,-477.10622183161252,477.10622183161252,-524.40230689081443,1003.2613916141854,0.0
578204.59901257406,4192374.0504322443,-37500.0,496.47151660588713,-235.50016460840743,-504.38681246413785,226.02334783671412,149.28973790863643,-3.2015918035468864,615.83294546105401,554.51919609185063,-551.51926572202854,551.51926572202854,-554.51919609185063,1066.6731173141534,0.0
583204.59901257406,4192374.0504322443,-37500.0,528.0000998539798,-369.83022283225682,-399.07029320068131,307.67667344026893,48.436035843298313,61.503263936497241,666.82449711872152,552.85123642203905,-604.63991115619194,604.63991115619194,-552.85123642203905,1160.1549648946423,0.0
588204.59901257406,4192374.0504322443,-37500.0,527.9202273567289,-501.96765917056524,-245.05214388784299,383.98892062334335,-84.593275176310101,143.21674972832236,732.07916960021794,511.29677727444965,-623.54246475717991,623.54246475717991,-511.29677727444965,1291.4499702805053,0.0
593204.59901257406,4192374.0504322443,-37500.0,491.70418783632937,-617.25960297007407,-41.706281397889171,445.7033890510628,-248.67951921618808,240.84275533991732,812.60006285559234,425.15210765223514,-595.45164637024948,595.45164637024948,-425.15210765223514,1462.2425817305602,0.0
598204.59901257406,4192374.0504322443,-37500.0,419.79197323580041,-698.96331330441944,204.9008125792287,482.70527841914696,-438.31431498538086,350.97474401246944,906.6781097148579,295.46614535453045,-510.48744887941712,510.48744887941712,-295.46614535453045,1666.4772489734864,0.0
603204.59901257406,4192374.0504322443,-37500.0,319.08514918236619,-731.07711780846375,480.75984565134456,485.76648676574615,-643.03753588799373,467.68268235466473,1009.7268646624806,130.78617741162344,-364.86779701473341,364.86779701473341,-130.78617741162344,1891.0356386112517,0.0
608204.59901257406,4192374.0504322443,-37500.0,203.03438523126923,-702.02811455083781,764.33813353005792,448.70132845051023,-847.92864104715636,582.84009641127523,1114.7940825857247,-52.628209607007257,-163.62948177829904,163.62948177829904,52.628209607007257,2117.9249077887525,0.0
613204.59901257406,4192374.0504322443,-37500.0,89.768520620851859,-608.20524782290977,1029.1729980012597,370.33854759269207,-1035.3922781584074,687.0898454578172,1213.3951646141081,-232.77970585052401,78.312181543238751,-78.312181543238751,232.77970585052401,2327.1122682818827,0.0
618204.59901257406,4192374.0504322443,-37500.0,-1.5774953669251868,-456.017414026121,1248.3797666305566,255.57400442973429,-1188.0250288577256,771.32344262630261,1296.4111835269696,-385.99707598072791,337.6473157461761,-337.6473157461761,385.99707598072791,2499.5391865311726,0.0
623204.59901257406,4192374.0504322443,-37500.0,-55.312587254756224,-261.45572800618493,1399.9197198782483,114.96456552804847,-1291.8452065491042,828.30966093152608,1355.3539094216935,-492.02530471692108,586.69953427513519,-586.69953427513519,492.02530471692108,2619.9110027834599,0.0
628204.59901257406,4192374.0504322443,-37500.0,-62.887711872009248,-47.044578971752223,1470.9650804521364,-37.159676199610416,-1338.9039561575689,853.99046758185341,1384.1142588079415,-538.46313558160296,798.90864999057862,-798.90864999057862,538.46313558160296,2678.766011055025,0.0
633204.59901257406,4192374.0504322443,-37500.0,-24.542141815065381,162.86505276468534,1459.952531476056,-185.49962525838259,-1328.4693795200103,848.05516263576021,1380.2435502306444,-523.03981963510546,954.00583438641843,-954.00583438641843,523.03981963510546,2673.4027991485109,0.0
638204.59901257406,4192374.0504322443,-37500.0,51.525293091646411,346.88299397451499,1375.8363795636578,-316.60923338052203,-1266.5188030469608,813.66989351472296,1345.0747572118964,-453.13002736144369,1041.2798843480546,-1041.2798843480546,453.13002736144369,2607.5400268831477,0.0
643204.59901257406,4192374.0504322443,-37500.0,151.88438204734035,490.0166086753278,1235.1119456029551,-420.92732344246826,-1163.8879388099283,756.53686362731617,1282.9653460235384,-343.01065728395349,1060.2061130083812,-1060.2061130083812,343.01065728395349,2489.9405637532236,0.0
648204.59901257406,4192374.0504322443,-37500.0,261.34318076361899,585.0521150295915,1057.8283255796937,-493.6194225268049,-1033.8018010269759,683.64104388126043,1200.1829896070362,-210.06839655280805,1018.7476427674039,-1018.7476427674039,210.06839655280805,2332.4765642240382,0.0
653204.59901257406,4192374.0504322443,-37500.0,366.02886688008203,632.01144497695316,863.83153608303928,-534.29763923288624,-889.52481580332449,602.04837090414367,1103.7982949070704,-71.219754800815451,930.31348434737356,-930.31348434737356,71.219754800815451,2148.1438639120765,0.0
658204.59901257406,4192374.0504322443,-37500.0,455.39622461304128,636.35558468935153,670.05264415608519,-545.9941984751423,-742.62512508490875,518.00437387422585,1000.7782305328309,59.625098564389873,810.47686530138367,-810.47686530138367,-59.625098564389873,1949.4123298250615,0.0
663204.59901257406,4192374.0504322443,-37500.0,523.01558921043306,606.7355314425314,489.10171335837197,-533.84440343077256,-602.02358571461264,436.4234165875792,897.28457183024864,172.79439091434833,674.26350264387236,-674.26350264387236,-172.79439091434833,1747.1011501857665,0.0
668204.59901257406,4192374.0504322443,-37500.0,566.37394382563571,552.91990585527867,329.0066033198064,-503.84481594658081,-473.74737141593806,360.73471753418403,798.05445468940241,262.95959887182539,534.3835128638932,-534.3835128638932,-262.95959887182539,1549.7962729960261,0.0
673204.59901257406,4192374.0504322443,-37500.0,586.08063995512236,484.24324925037632,193.72885352571029,-461.89489975830298,-361.17813771294152,292.98414816399406,706.00241977832457,328.49847531329067,400.41156261320566,-400.41156261320566,-328.49847531329067,1363.7128567815976,0.0
678204.59901257406,4192374.0504322443,-37500.0,584.85264164879334,408.66444759873104,84.06925429360524,-413.18624859620019,-265.56652597770437,234.07987780776261,622.46689100210301,370.51610669879892,278.70838474998743,-278.70838474998743,-370.51610669879892,1192.8661364442742,0.0
683204.59901257406,4192374.0504322443,-37500.0,566.54643244033934,332.357864867459,-1.3419412533563067,-361.90489522557766,-186.62601568241928,184.08698729094314,547.84226258115166,391.82982808857236,172.80733558279684,-172.80733558279684,-391.82982808857236,1039.4116988093465,0.0
688204.59901257406,4192374.0504322443,-37500.0,535.38124086618643,259.68944729627458,-65.158632915651339,-311.16843783804188,-123.08611209610056,142.50906024387791,482.01246649588455,396.09979460910949,84.018853129319581,-84.018853129319581,-396.09979460910949,904.04926345258104,0.0
548204.59901257406,4197374.0504322443,-37500.0,101.65829062321329,186.39772067342179,-459.90955366869105,-66.571160111276797,237.89752936961992,-94.761111903536417,394.07650424594055,215.25357495616217,-126.05749494550307,126.05749494550307,-215.25357495616217,728.66274593292007,0.0
553204.59901257406,4197374.0504322443,-37500.0,163.96160783290259,146.3412986281717,-487.96935963889399,-36.500721578091991,242.23549850807603,-91.929030050974873,413.40216475945158,273.79230315888105,-183.85576319835661,183.85576319835661,-273.79230315888105,753.62412320386284,0.0
558204.59901257406,4197374.0504322443,-37500.0,229.63166152194043,92.005106314218636,-506.76297009374173,1.68874167459132,238.48200837273521,-84.310929879541561,433.4625885346602,332.81519817552044,-248.3871445164929,248.3871445164929,-332.81519817552044,778.25172308591118,0.0
563204.59901257406,4197374.0504322443,-37500.0,295.47732413014768,22.250477102218678,-511.4591471485993,48.24551574578166,223.59656392359122,-70.387399912076106,455.22504123926319,388.43148809469938,-317.33027370448963,317.33027370448963,-388.43148809469938,805.1262549141918,0.0
568204.59901257406,4197374.0504322443,-37500.0,357.13929441455747,-62.948453611993315,-496.34696468073372,102.68315239015163,194.15165599622603,-48.49584851514409,480.24657734755795,435.5051077833362,-386.79283208663679,386.79283208663679,-435.5051077833362,838.67648847240901,0.0
573204.59901257406,4197374.0504322443,-37500.0,409.20309437827609,-161.91867669460993,-455.17034004986357,163.46937817858324,146.58702831922244,-16.97120269041649,510.67912250890271,467.8045328782095,-451.05011574333781,451.05011574333781,-467.8045328782095,885.25430347052747,0.0
578204.59901257406,4197374.0504322443,-37500.0,445.59935406203834,-270.69616453434793,-381.78043496740378,227.73573386528381,77.645011954775384,25.628194718141597,549.04053200008138,478.47103107480712,-502.50377348976997,502.50377348976997,-478.47103107480712,952.34637518149191,0.0
583204.59901257406,4197374.0504322443,-37500.0,460.36874379269545,-382.58643105611702,-271.15492512364909,291.0987013947215,-14.999564330713342,80.207837571969165,597.68223629030877,460.89138679429465,-532.02743661065927,532.02743661065927,-460.89138679429465,1046.6899952910751,0.0
588204.59901257406,4197374.0504322443,-37500.0,448.79423221558966,-488.10374161487732,-120.743869183051,347.71310899592083,-131.95549377355815,146.76239184299058,658.04205966285804,409.98131626319548,-529.85733234194061,529.85733234194061,-409.98131626319548,1171.8634749257726,0.0
593204.59901257406,4197374.0504322443,-37500.0,408.76627559104907,-575.53715210499035,68.046132054610425,390.68121195497662,-271.3005638586061,224.00244335271333,729.94712452333488,323.73661086635474,-487.09838837436263,487.09838837436263,-323.73661086635474,1326.5412118767692,0.0
598204.59901257406,4197374.0504322443,-37500.0,342.06801275383276,-632.31364919877478,288.59569613682902,412.88882001125586,-427.95096026167516,309.08567361487644,811.25448573975154,204.71134805032864,-397.72537082616509,397.72537082616509,-204.71134805032864,1504.1618065836544,0.0
603204.59901257406,4197374.0504322443,-37500.0,255.12230812720844,-647.1166047574319,528.54059459367591,408.22046591577987,-593.48732213107621,397.57753761983605,897.95336854408424,60.91490646004965,-260.69286178210859,260.69286178210859,-60.91490646004965,1693.8105969868031,0.0
608204.59901257406,4197374.0504322443,-37500.0,158.73605956956933,-612.39541232516865,770.43468558855955,372.93643688765002,-756.67851188127941,483.74614463171872,984.63682246132817,-94.402059243608193,-81.523934427067417,81.523934427067417,94.402059243608193,1881.7584419912951,0.0
613204.59901257406,4197374.0504322443,-37500.0,66.600545670356837,-526.59242485520565,993.81371743170268,306.84164370915232,-904.78454169344548,561.2179955587485,1065.0980922850868,-244.37301621903464,127.31481186179461,-127.31481186179461,244.37301621903464,2053.2935012928911,0.0
618204.59901257406,4197374.0504322443,-37500.0,-7.2591502920771962,-395.30386078879644,1178.3929941512558,213.83581941349891,-1025.4587157691124,623.90112234481717,1132.8516245077403,-371.38180932071202,347.69566551852631,-347.69566551852631,371.38180932071202,2194.6451193611256,0.0
623204.59901257406,4197374.0504322443,-37500.0,-51.422678226269802,-230.82211366264821,1307.6369379913001,101.57046898357473,-1108.8077055708798,666.96537938799793,1181.8021152580668,-460.46786029628629,558.6753219845483,-558.6753219845483,460.46786029628629,2294.7640516304723,0.0
628204.59901257406,4197374.0504322443,-37500.0,-59.490582488213562,-50.042297970615955,1371.6866236760852,-19.77413874519738,-1149.0456319513562,687.6185269144421,1207.3573070619952,-502.25891467943313,740.20043832143426,-740.20043832143426,502.25891467943313,2346.6567764096317,0.0
633204.59901257406,4197374.0504322443,-37500.0,-31.216611675410611,128.682994194175,1368.8005553625612,-139.26514865484103,-1145.2845764245178,685.46992877574053,1207.417402257558,-494.53929281599648,876.60962510866398,-876.60962510866398,494.53929281599648,2348.0218849298994,0.0
638204.59901257406,4197374.0504322443,-37500.0,27.917795444881619,288.80161735056555,1304.9882055321523,-247.03926524784978,-1101.294895872403,662.40789510850573,1182.5883122896234,-442.06963098830562,958.95824268798424,-958.95824268798424,442.06963098830562,2301.0983569628665,0.0
643204.59901257406,4197374.0504322443,-37500.0,108.39236474891591,418.04291997980124,1192.1324918663706,-335.69436709206383,-1024.4067465071871,622.07225273697804,1135.7361864860011,-354.90485534889604,985.6702271169745,-985.6702271169745,354.90485534889604,2211.8416542189866,0.0
648204.59901257406,4197374.0504322443,-37500.0,198.9374391582144,509.62165690726977,1045.3123558737386,-400.98096253810729,-923.95000414928404,569.10677642997052,1071.2567328652499,-245.89914333450258,961.62445308034273,-961.62445308034273,245.89914333450258,2088.6896664943974,0.0
653204.59901257406,4197374.0504322443,-37500.0,288.71715643164157,562.14988469907632,880.11341107020735,-441.78144749230034,-809.67459946403551,508.39790664195505,994.3177716364271,-128.18331553131378,896.22069638721837,-896.22069638721837,128.18331553131378,1941.2263342591943,0.0
658204.59901257406,4197374.0504322443,-37500.0,368.91404662232947,578.60572093331746,710.51082679316096,-459.56019526251282,-690.48320535049675,444.45655094774571,910.21429263460413,-13.201938468203025,801.111320632824,-801.111320632824,13.201938468203025,1778.9973537506935,0.0
663204.59901257406,4197374.0504322443,-37500.0,433.53153632480183,564.84785167150562,547.58803464038408,-457.54643887605891,-573.63368703399556,381.01969815802397,823.86447124172764,90.427201746384412,688.16650437133001,-688.16650437133001,-90.427201746384412,1610.6297007183146,0.0
668204.59901257406,4197374.0504322443,-37500.0,479.48902153156604,528.1128372810623,399.07001682145187,-439.88887111195822,-464.4097399650243,320.87452115464009,739.35111653765796,177.25898271168219,567.9977202947922,-567.9977202947922,-177.25898271168219,1443.3002248341295,0.0
673204.59901257406,4197374.0504322443,-37500.0,506.22544586817037,475.77998031007417,269.47776307663122,-410.94249418980007,-366.158800822285,265.86039591830144,659.49348740261064,244.77408618663645,449.12310959410132,-449.12310959410132,-244.77408618663645,1282.5196785188405,0.0
678204.59901257406,4197374.0504322443,-37500.0,515.05434775232527,414.52350750563971,160.65612226683163,-374.76050336641396,-280.56119191662896,216.98579497065376,585.80363679073514,292.7925517342938,337.6918273614985,-337.6918273614985,-292.7925517342938,1132.1560249848474,0.0
683204.59901257406,4197374.0504322443,-37500.0,508.47134966924278,349.84808636116242,72.452908978588411,-334.79648196256954,-208.00478635358664,174.60116081511296,518.91501547945222,322.77106581973993,237.60690089054714,-237.60690089054714,-322.77106581973993,994.61193514042259,0.0
553204.59901257406,4202374.0504322443,-37500.0,183.1099542435507,89.850071133400547,-435.84216921802863,-3.8702679738190109,197.55442938997953,-66.548499695591062,365.09090200180117,274.7899540706029,-202.74517199723357,202.74517199723357,-274.7899540706029,657.4585500550694,0.0
558204.59901257406,4202374.0504322443,-37500.0,237.49191663192931,35.653191552242674,-442.17206576684367,31.08985436669257,188.22309600843082,-57.476133061973613,382.75216427309681,321.28057653613337,-258.33870339297096,258.33870339297096,-321.28057653613337,679.31370435553049,0.0
563204.59901257406,4202374.0504322443,-37500.0,289.90197894899518,-30.827277822435409,-434.04212372857694,72.16985085581743,168.71739595094533,-43.099735316038313,402.70293335368217,362.41237663771278,-315.29185096509491,315.29185096509491,-362.41237663771278,705.53786763169194,0.0
568204.59901257406,4202374.0504322443,-37500.0,336.59931679439586,-108.85075329991724,-406.81001462194257,118.5793939431726,136.47787951151196,-22.268772188904546,426.419159764352,393.80490713643326,-369.80103300969529,369.80103300969529,-393.80490713643326,740.44929975199761,0.0
573204.59901257406,4202374.0504322443,-37500.0,373.23848956762697,-196.20837753284471,-355.70413816880637,168.69657400464985,89.01690719979554,6.0902090364442287,455.69892868191823,410.47272320868638,-416.72075363188469,416.72075363188469,-410.47272320868638,789.40863678843232,0.0
578204.59901257406,4202374.0504322443,-37500.0,395.27051438570174,-288.86654695799973,-276.41424552375508,219.91296824892623,24.273708988871697,42.80393472953584,492.37777951447345,407.29197549373254,-449.67580662073107,449.67580662073107,-407.29197549373254,857.80598158755333,0.0
583204.59901257406,4202374.0504322443,-37500.0,398.58438605734239,-380.78268651350083,-165.91416648061036,268.58482304768415,-58.91913444075837,88.237290383318609,537.87617285394549,379.73604690101291,-461.48017719329476,461.48017719329476,-379.73604690101291,949.52494811254417,0.0
588204.59901257406,4202374.0504322443,-37500.0,380.35302818382468,-464.04235765384703,-23.448449089967397,310.16387309509156,-160.30439215916439,142.056622355587,592.70096118464153,324.84245815000656,-444.93746647733451,444.93746647733451,-324.84245815000656,1065.5138091193844,0.0
593204.59901257406,4202374.0504322443,-37500.0,339.95532416704884,-529.45572902982133,148.48312589610575,339.57015977556296,-277.70086718269926,203.01691209284823,656.0798167257268,242.2713556548058,-394.01894640063108,394.01894640063108,-242.2713556548058,1203.0963946268409,0.0
598204.59901257406,4202374.0504322443,-37500.0,279.74556149808006,-567.67446772578103,343.40740564653061,351.82510766327965,-406.67902401042085,268.83674769478154,725.85862522497484,135.20278174382051,-305.28254659878621,305.28254659878621,-135.20278174382051,1356.1472695114835,0.0
603204.59901257406,4202374.0504322443,-37500.0,205.38067190852468,-570.73962525279615,550.73866192651587,342.88470826874953,-540.57092201920955,336.22941405674652,798.68131702963569,10.746851678951998,-179.23901113110347,179.23901113110347,-10.746851678951998,1515.848135599073,0.0
608204.59901257406,4202374.0504322443,-37500.0,125.4503845682236,-533.7789563970133,756.47488870662528,310.51830504222079,-670.93617755215143,401.13932210413122,870.3730335864866,-120.42971211763351,-21.255231224425515,21.255231224425515,120.42971211763351,1671.741809974963,0.0
613204.59901257406,4202374.0504322443,-37500.0,50.31846065154523,-456.41269178303349,944.79291165504048,255.00525858865234,-788.49786401622919,459.18367870882935,936.36435896646174,-245.38448818096685,158.40751273565428,-158.40751273565428,245.38448818096685,1812.9377111855745,0.0
618204.59901257406,4202374.0504322443,-37500.0,-9.6537895569574008,-343.40168911818444,1100.3176057948072,179.41839948253204,-884.41356876568591,506.23526095326753,991.9944539816554,-350.92252950074334,345.63836766771175,-345.63836766771175,350.92252950074334,1929.3690808217095,0.0
623204.59901257406,4202374.0504322443,-37500.0,-46.072621407735355,-204.23580561973864,1210.56289087919,89.352579863631689,-951.60799539965717,539.02292704698255,1032.8370590895267,-425.900040762863,524.49430739889715,-524.49430739889715,425.900040762863,2012.9529407054972,0.0
628204.59901257406,4202374.0504322443,-37500.0,-54.114412553766776,-51.681781300126886,1267.9188426233222,-7.8794759567598476,-985.83817868347887,555.60579799122229,1055.4049743195387,-463.18987939771858,679.73413589167797,-679.73413589167797,463.18987939771858,2058.4679472549728,0.0
633204.59901257406,4202374.0504322443,-37500.0,-33.310307093053488,100.34725340209778,1270.6685600061355,-104.3919226052237,-986.22542897292203,555.6058733029821,1057.9223120276224,-460.7706477964241,799.21647555428285,-799.21647555428285,460.7706477964241,2063.9942888037467,0.0
638204.59901257406,4202374.0504322443,-37500.0,12.664421473684335,239.02839222086925,1222.8246079565315,-192.91683966231008,-955.14966447824963,540.15510092006832,1040.5723293683968,-421.69267328606702,875.55839821902896,-875.55839821902896,421.69267328606702,2030.8552280854258,0.0
643204.59901257406,4202374.0504322443,-37500.0,77.044662352217642,354.41571481722679,1132.9393637306571,-267.75809323371283,-897.59082648333072,511.59540479663536,1005.2356189798847,-353.04081415613308,906.72230365064161,-906.72230365064161,353.04081415613308,1963.1175979285331,0.0
648204.59901257406,4202374.0504322443,-37500.0,151.48985103705661,440.42881450676265,1012.30663320331,-325.32913782903745,-820.13816791500301,473.02880484386628,955.00183106215036,-264.29001650471696,895.54955124928483,-895.54955124928483,264.29001650471696,1866.7984124793293,0.0
653204.59901257406,4202374.0504322443,-37500.0,227.61773162344261,494.97973449013409,873.05355365934281,-364.23988473491733,-729.93229005482476,427.83519218520797,893.64634906094466,-165.54166678380966,848.54187502185243,-848.54187502185243,165.54166678380966,1748.9646218246578,0.0
658204.59901257406,4202374.0504322443,-37500.0,298.21542783799032,519.41138162881953,726.52843949282885,-385.01784138712509,-633.75706418546804,379.25433065465842,825.17016023637404,-66.04325223323815,774.3118586344458,-774.3118586344458,66.04325223323815,1616.8902674785286,0.0
663204.59901257406,4202374.0504322443,-37500.0,357.9602364293421,517.539766211612,582.21017189355575,-389.61175930042373,-537.40708131622216,330.08958998024218,753.43921524068151,26.786051364599587,682.08955988907769,-682.08955988907769,-26.786051364599587,1477.3855651419626,0.0
668204.59901257406,4202374.0504322443,-37500.0,403.64965550066654,494.59262487009573,447.1799380763278,-380.82858690890316,-445.35863594607048,282.54773242791367,681.86872643845561,107.7866818034513,580.54171293162381,-580.54171293162381,-107.7866818034513,1336.3464885982426,0.0
673204.59901257406,4202374.0504322443,-37500.0,434.04944372864412,456.26215960148244,326.06585145964891,-361.81916174253308,-360.70219748437898,238.19763700946334,613.06313129582531,174.04006108741828,477.00938353997446,-477.00938353997446,-174.04006108741828,1198.5210147626065,0.0
678204.59901257406,4202374.0504322443,-37500.0,449.5107069790165,407.98961904158193,221.31087920441342,-335.67791323119587,-285.26015678039039,198.01518094048618,548.59807325609108,224.55246360284337,377.14957138712901,-377.14957138712901,-224.55246360284337,1067.454714943746,0.0
558204.59901257406,4207374.0504322443,-37500.0,236.0471315685048,-9.1639529873842545,-379.36396788056754,50.799532271732495,145.41852534318832,-37.184554007886639,339.76599644340217,302.57885275160641,-258.58340462004594,258.58340462004594,-302.57885275160641,597.21848379152652,0.0
563204.59901257406,4207374.0504322443,-37500.0,276.96874877282119,-70.841132862750172,-361.51909893026362,86.361742724523722,123.3624887470113,-23.221961326677754,358.46392777211724,331.58947131799061,-304.38902213767358,304.38902213767358,-331.58947131799061,623.8577039095718,0.0
568204.59901257406,4207374.0504322443,-37500.0,311.48835994203858,-140.80220489277946,-325.91270261976786,125.3370659221922,90.412817356468125,-4.1090334637287711,381.11105626673714,350.54766912797862,-345.79185906589254,345.79185906589254,-350.54766912797862,660.18714846460057,0.0
573204.59901257406,4207374.0504322443,-37500.0,336.2194503276209,-216.63487494856116,-269.03436278101378,166.17230353899697,44.891684582224094,20.82128260227493,409.10124586577513,355.58386523635164,-378.34761561697616,378.34761561697616,-355.58386523635164,710.3448031625212,0.0
578204.59901257406,4207374.0504322443,-37500.0,347.84506961899717,-294.52299887682307,-188.01239901859896,206.60630939921407,-14.422928394549723,52.004519252360723,443.66879212376671,342.9843535846428,-396.86191843855329,396.86191843855329,-342.9843535846428,777.84988522170113,0.0
583204.59901257406,4207374.0504322443,-37500.0,343.62677911755122,-369.2165623474292,-81.248937694123811,243.68944115819755,-87.963267475196758,89.500689464678018,485.55325434776603,309.77813030930838,-395.80541007764293,395.80541007764293,-309.77813030930838,864.55554470627544,0.0
588204.59901257406,4207374.0504322443,-37500.0,322.01551397386243,-434.25566148875771,50.880665715893613,273.93465677055218,-175.02135785951097,132.84816977777911,534.69858049891161,254.44055956961751,-369.98413244182524,369.98413244182524,-254.44055956961751,969.92808246394236,0.0
593204.59901257406,4207374.0504322443,-37500.0,283.25799432823851,-482.51822491825578,205.39635063966313,293.62814497288139,-273.45265742289536,180.94614853744019,590.08486596609487,177.5963839807859,-315.42933300966445,315.42933300966445,-177.5963839807859,1090.8790139677694,0.0
598204.59901257406,4207374.0504322443,-37500.0,229.83981207900425,-507.09832909684155,376.33188790169316,299.29486612725049,-379.52546575695806,232.00413158566855,649.74033318750435,82.544149780447825,-230.38419676212811,230.38419676212811,-82.544149780447825,1222.0657474798202,0.0
603204.59901257406,4207374.0504322443,-37500.0,166.58681030498983,-502.42124406997266,554.79529280881366,288.26520042505427,-488.00782296933357,283.59546383569568,710.92277417567118,-24.601507537140591,-116.17598860816717,116.17598860816717,24.601507537140591,1356.4659235331244,0.0
608204.59901257406,4207374.0504322443,-37500.0,100.28851281564583,-465.38856602141385,729.60517437209251,259.23676976079867,-592.55005771825336,332.83655232467208,770.41591558917924,-135.31161976131798,22.28861010382122,-22.28861010382122,135.31161976131798,1486.0986066075441,0.0
613204.59901257406,4207374.0504322443,-37500.0,38.820279664316679,-396.26786947470111,888.50391845703462,212.69193535827714,-686.35242519530664,376.68394958419475,824.83302740698173,-239.62869684929657,176.63709818083166,-176.63709818083166,239.62869684929657,1602.8331538117807,0.0
618204.59901257406,4207374.0504322443,-37500.0,-10.100401974630071,-299.04777155467764,1019.7730277000178,151.0394934067433,-763.02133884556133,412.30645336591232,870.79203710399474,-327.59991574618516,335.85636216480782,-335.85636216480782,327.59991574618516,1699.2273011822258,0.0
623204.59901257406,4207374.0504322443,-37500.0,-40.24454263393887,-181.09217691435236,1113.9192243227471,78.406936592489558,-817.44392272268396,437.45959026739621,905.04388120267436,-390.8534864886384,487.7308651692997,-487.7308651692997,390.8534864886384,1769.2982256113355,0.0
628204.59901257406,4207374.0504322443,-37500.0,-47.950012908658834,-52.121984942608286,1165.0390768673099,0.10389444934221875,-846.48421246337307,450.78029180180471,924.91169610029363,-423.93375451892933,620.59606897312858,-620.59606897312858,423.93375451892933,1809.1093755138575,0.0
633204.59901257406,4207374.0504322443,-37500.0,-32.669904080345262,77.246431289282967,1171.5416977383763,-78.127413143311585,-849.34455709045039,451.93744787981404,928.90267417014388,-425.0642281944962,724.99920334384672,-724.99920334384672,425.0642281944962,1817.0776850325587,0.0
638204.59901257406,4207374.0504322443,-37500.0,3.1245124025231048,197.05220671389708,1136.0911881300615,-150.9009632250376,-827.52605598034529,441.61171764823308,916.96152187296298,-396.17895322828019,794.88875323996888,-794.88875323996888,396.17895322828019,1793.9602182867238,0.0
643204.59901257406,4207374.0504322443,-37500.0,54.607809545467894,299.27767262240639,1064.8479250393416,-213.84307063223926,-784.42928719783288,421.32227400772047,890.31678800674808,-342.2788776630864,828.10831658709048,-828.10831658709048,342.2788776630864,1742.5472156792539,0.0
648204.59901257406,4207374.0504322443,-37500.0,115.60665479933633,378.63359087607137,966.25787575711297,-263.99871269277844,-724.7212837933115,393.15367217076044,851.14728686049727,-270.34400513734602,826.18033062704001,-826.18033062704001,270.34400513734602,1667.1481950465816,0.0
653204.59901257406,4207374.0504322443,-37500.0,179.67353134472438,432.7710530776618,849.70392518913889,-299.95199603578453,-653.62641202057159,359.44908876165613,802.21513625579121,-188.10409600131476,793.54391849507329,-793.54391849507329,188.10409600131476,1572.9822963327529,0.0
658204.59901257406,4207374.0504322443,-37500.0,240.99422839919515,461.99979888842375,724.29803624156887,-321.69741091130766,-576.28319152869824,322.52992402567077,746.53553681797973,-102.94044269345642,736.50490565906853,-736.50490565906853,102.94044269345642,1465.581861842024,0.0
663204.59901257406,4207374.0504322443,-37500.0,294.99365147159835,468.68454560725007,597.99114678252045,-330.34438185962949,-497.25915936712863,284.48152499318064,687.11553777964036,-21.091714728895056,662.15619358045706,-662.15619358045706,21.091714728895056,1350.2892251056944,0.0
668204.59901257406,4207374.0504322443,-37500.0,338.6089421429628,456.51072116345551,477.06224980651791,-327.74879131752846,-420.25890915950004,247.02081922103972,626.74307920265301,52.777465972686741,577.46073130698244,-577.46073130698244,-52.777465972686741,1231.8908067074017,0.0
673204.59901257406,4207374.0504322443,-37500.0,370.27799202501103,429.77790349413192,365.95539910041293,-316.15049149120563,-348.01316390439774,211.44175822327895,567.73494923241037,115.67871455843584,488.59805861188812,-488.59805861188812,-115.67871455843584,1114.3971801631519,0.0
563204.59901257406,4212374.0504322443,-37500.0,259.68156867744182,-99.826273708185013,-295.48751154764125,93.51920094886971,86.527282727991192,-9.0261513458736609,321.03768488491176,298.87581859170444,-287.62876157425961,287.62876157425961,-298.87581859170444,556.62610272782626,0.0
568204.59901257406,4212374.0504322443,-37500.0,284.51280758842159,-161.55252229981315,-254.5838260760471,125.88160702019675,54.277008300496675,8.0866406168222547,342.65125945513148,308.2580869513364,-317.91868670068527,317.91868670068527,-308.2580869513364,593.87739507092238,0.0
573204.59901257406,4212374.0504322443,-37500.0,300.24587057719179,-226.54061951960423,-195.11186879805774,158.85719056910125,11.774251427318219,29.659201849429223,369.15667163617422,304.93272902678467,-338.90960025813791,338.90960025813791,-304.93272902678467,643.92849880992526,0.0
578204.59901257406,4212374.0504322443,-37500.0,304.52414643609649,-291.34204283777058,-115.28128196005093,190.54649851615093,-41.63449437243812,55.88638907650089,401.31088599287239,286.28734814430914,-346.46316235555139,346.46316235555139,-286.28734814430914,708.83186107974734,0.0
583204.59901257406,4212374.0504322443,-37500.0,295.59843609338384,-351.51294458186908,-14.474226252001012,218.60447331999001,-105.93730953930326,86.668403888156575,439.39337062171757,250.47399101506645,-336.40373707621615,336.40373707621615,-250.47399101506645,789.13196710759883,0.0
588204.59901257406,4212374.0504322443,-37500.0,272.75661598404815,-401.86054647215394,106.27253342295862,240.38376469200722,-180.23115489059865,121.52246208723588,483.03996182237051,196.90776658663373,-305.05527283541943,305.05527283541943,-196.90776658663373,883.566186927996,0.0
593204.59901257406,4212374.0504322443,-37500.0,236.71290218457582,-436.91145021051602,243.87660841450813,253.18098763516625,-262.5525131229594,159.5204840072457,531.18140093249565,126.72249083271615,-249.8975596065101,249.8975596065101,-126.72249083271615,989.11127879247294,0.0
598204.59901257406,4212374.0504322443,-37500.0,189.85001516892012,-451.58515524738175,393.03178390926894,254.57316699357807,-349.8218839799859,199.27563505730927,582.09856118344476,43.062355596935603,-170.24288510014128,170.24288510014128,-43.062355596935603,1101.2686140316023,0.0
603204.59901257406,4212374.0504322443,-37500.0,136.20598376467811,-441.99049412512528,546.35771136346534,242.80165566674194,-437.95375161263632,238.99716075287802,633.57965677134428,-48.915453110619126,-67.785281824515792,67.785281824515792,48.915453110619126,1214.4816487804437,0.0
608204.59901257406,4212374.0504322443,-37500.0,81.135769164935979,-406.19827986364481,694.94362909089091,217.13255920588875,-522.15782456290867,276.62232949434957,683.14537095606943,-142.41250893393945,53.143129603988719,-53.143129603988719,142.41250893393945,1322.6341333443195,0.0
613204.59901257406,4212374.0504322443,-37500.0,30.653034266138185,-344.80601210215849,829.26345956176681,178.10821033846011,-597.41451138964919,310.01681544213443,728.26904496544103,-229.7382319906485,185.74204968752457,-185.74204968752457,229.7382319906485,1419.6032412257823,0.0
618204.59901257406,4212374.0504322443,-37500.0,-9.4462459685322049,-261.12575719495118,940.33117201485879,127.61388940755982,-659.05694745642734,337.21512348032587,766.47535989766641,-303.33047499347447,321.38381832395862,-321.38381832395862,303.33047499347447,1499.828052105463,0.0
623204.59901257406,4212374.0504322443,-37500.0,-34.495844591019917,-160.90383735173927,1020.8772699776231,68.721485154861398,-703.35248275479887,356.65772770588518,795.35383319224559,-356.84644013942307,450.6454324537915,-450.6454324537915,356.84644013942307,1558.8305781535555,0.0
628204.59901257406,4212374.0504322443,-37500.0,-41.694996597768494,-51.599091536098499,1066.2971250781138,5.326502946328028,-727.96481598122591,367.37754218949931,812.82557938921821,-386.0815204376097,564.53609601114715,-564.53609601114715,386.0815204376097,1593.6149368897568,0.0
633204.59901257406,4212374.0504322443,-37500.0,-30.49507139103715,58.632228257372432,1075.1685121133246,-58.350154725811336,-732.20179369576601,369.09846255875038,817.63742982031658,-389.50879556844041,655.66040477504828,-655.66040477504828,389.50879556844041,1602.8838915794354,0.0
638204.59901257406,4212374.0504322443,-37500.0,-2.5616647597852422,162.02293969329682,1049.2466479269337,-118.29123921725738,-717.00688569557667,362.22973408599358,809.60628912179232,-368.33509171431876,719.07632133545292,-719.07632133545292,368.33509171431876,1587.0451281542,0.0
643204.59901257406,4212374.0504322443,-37500.0,38.647346082467202,252.12589664634885,992.97781454415178,-171.13714062613724,-684.71531395105001,347.76503694822918,789.52931742449209,-326.09944439601924,752.69653575540633,-752.69653575540633,326.09944439601924,1548.0217403409627,0.0
648204.59901257406,4212374.0504322443,-37500.0,88.554666077209163,324.42630590932151,912.68011676507717,-214.48829908692494,-638.64582815710276,327.11456306112802,758.94909840820321,-267.94929034006179,757.2080216818382,-757.2080216818382,267.94929034006179,1488.9152954427809,0.0
653204.59901257406,4212374.0504322443,-37500.0,142.21463652508294,376.57135403056543,815.59166969001524,-247.0252487968074,-582.62453926282149,301.90899604417575,719.892637251064,-199.78416527908627,735.59913567274066,-735.59913567274066,199.78416527908627,1413.5914682617249,0.0
658204.59901257406,4212374.0504322443,-37500.0,194.98552795787705,408.25027384205498,708.97409490684356,-268.46036765976049,-520.53159174629059,273.81175134463888,674.63189237844745,-127.44853336221951,692.45161191954548,-692.45161191954548,127.44853336221951,1326.2576002260162,0.0
663204.59901257406,4212374.0504322443,-37500.0,243.01896904219629,420.82317244917829,599.40558911053313,-279.36623651180037,-455.93701406710409,244.36662938943164,625.49131559771922,-56.103488711578677,633.16815699045355,-633.16815699045355,56.103488711578677,1231.0895755972215,0.0
668204.59901257406,4212374.0504322443,-37500.0,283.52767266973422,416.82156704182523,492.32498871767666,-280.93776241407784,-391.85749630525277,214.89412994491062,574.70361270928151,10.163645007397804,563.27452625562455,-563.27452625562455,-10.163645007397804,1131.9421404929442,0.0
573204.59901257406,4217374.0504322443,-37500.0,266.52786948531138,-228.71566250060957,-133.14660812934278,148.8198761087655,-12.534768626430438,34.409741008052791,334.54305757638872,259.36496151758524,-300.38477393822723,300.38477393822723,-259.36496151758524,587.10545266434849,0.0
578204.59901257406,4217374.0504322443,-37500.0,265.76495457748638,-282.19204603848726,-56.443595327570257,173.51053494337114,-60.04035531509755,56.327016427098947,364.12515470739481,237.16505979578341,-299.84376819886501,299.84376819886501,-237.16505979578341,648.25088335637508,0.0
583204.59901257406,4217374.0504322443,-37500.0,254.1178910487983,-330.31126602593724,37.197516433034451,194.60408208411826,-115.84728073596267,81.52351869303385,398.42940892713057,200.81098753891013,-283.7536106570077,283.7536106570077,-200.81098753891013,721.52245386298887,0.0
588204.59901257406,4217374.0504322443,-37500.0,231.40366615612649,-368.94329182028247,146.39663216691844,210.10332045602547,-179.00738056871594,109.54766435907511,436.94711016744054,150.30737417249205,-249.564629741348,249.564629741348,-150.30737417249205,805.37883269103452,0.0
593204.59901257406,4217374.0504322443,-37500.0,198.55424254792047,-393.9050913976256,268.18723648124154,218.04476088453646,-247.79513334707426,139.63868948150045,478.66212475418274,87.011222798211008,-195.756310112601,195.756310112601,-87.011222798211008,897.07511572469537,0.0
598204.59901257406,4217374.0504322443,-37500.0,157.73785560948713,-401.46882457637258,397.95608313725654,216.7392941235974,-319.70157774606156,170.73022481229049,522.1162649049852,13.781716723922329,-122.29626862079465,122.29626862079465,-13.781716723922329,992.89440888976321,0.0
603204.59901257406,4217374.0504322443,-37500.0,112.29371624962727,-388.92826973324435,529.6221384150158,205.03211986795878,-391.54215681087283,201.49849564402501,565.53746361399897,-65.08356115418988,-30.981123203821117,30.981123203821117,65.08356115418988,1088.4478416468303,0.0
608204.59901257406,4217374.0504322443,-37500.0,66.445784018158648,-355.12107020933979,656.08417279438311,182.53503802401653,-459.68853754442529,230.4579317345713,607.01037471705013,-144.16928727516765,74.44452443307091,-74.44452443307091,144.16928727516765,1179.0234323737186,0.0
613204.59901257406,4217374.0504322443,-37500.0,24.811477657803369,-300.78782999752065,769.90845994844437,149.77840299634335,-520.40772769641194,256.09699228592973,644.63859641411477,-217.50800034126402,188.46731930461735,-188.46731930461735,217.50800034126402,1259.9704911120534,0.0
618204.59901257406,4217374.0504322443,-37500.0,-8.2203585878370244,-228.66569107871771,864.16005768868229,108.23888081072057,-570.26138816263449,277.03537534004488,676.59714825996605,-279.31140647666729,304.29803532166835,-304.29803532166835,279.31140647666729,1327.0915649670815,0.0
623204.59901257406,4217374.0504322443,-37500.0,-29.122202351111511,-143.26501178209156,933.23213835301283,60.222524276790821,-606.49753733465798,292.17640926909957,701.07867617983743,-324.73391226093929,414.61794457475526,-414.61794457475526,324.73391226093929,1376.9997087213983,0.0
628204.59901257406,4217374.0504322443,-37500.0,-35.736268206126226,-50.352935666542656,973.51249682894922,8.6161900081277611,-627.36162626226655,300.82702850406764,716.44793702883771,-350.51274596833935,512.44748697529531,-512.44748697529531,350.51274596833935,1407.3942701876952,0.0
633204.59901257406,4217374.0504322443,-37500.0,-27.549799880926692,43.760622671664805,983.75719391701682,-43.448611370257282,-632.26812407034186,302.76296794022176,721.65076051885728,-355.35311451826294,591.97037917760076,-591.97037917760076,355.35311451826294,1417.2148785481163,0.0
638204.59901257406,4217374.0504322443,-37500.0,-5.6869287625280984,132.99142324598822,965.10993903747726,-92.954802962994165,-621.80590445980818,298.22947422993462,716.4430346479603,-339.98933061713547,649.15631977029955,-649.15631977029955,339.98933061713547,1406.655727978932,0.0
643204.59901257406,4217374.0504322443,-37500.0,27.361680979107614,212.15743237226164,920.78826548792438,-137.31618588957718,-597.58771421650692,287.88168997729315,701.33659597323765,-306.93310756328299,682.08078125634984,-682.08078125634984,306.93310756328299,1377.0472020819525,0.0
648204.59901257406,4217374.0504322443,-37500.0,68.191997136002328,277.4511203122766,855.5262415065813,-174.60074057537736,-561.98490680164446,272.68047745984842,677.42869276944555,-259.98894079648039,690.91552206966333,-690.91552206966333,259.98894079648039,1330.6331960912696,0.0
653204.59901257406,4217374.0504322443,-37500.0,113.01303053058976,326.65553843432326,774.90161084323267,-203.63690295654877,-517.80603673706571,253.76614724751747,646.21301450512954,-203.65634230838114,677.63789896694584,-677.63789896694584,203.65634230838114,1270.2872959162298,0.0
658204.59901257406,4217374.0504322443,-37500.0,158.14141437643795,359.11397684675899,684.67445899415588,-224.00639078145184,-467.9783318261475,232.33280288059873,609.40483981414809,-142.5399912104794,645.55518618829865,-645.55518618829865,142.5399912104794,1199.2136936919542,0.0
583204.59901257406,4222374.0504322443,-37500.0,218.56917862683562,-307.47204200434703,76.391558410648017,172.36318088809188,-120.00567427953321,75.229283953292182,361.92639516269276,159.59691533176903,-237.76522655357434,237.76522655357434,-159.59691533176903,660.55244287417963,0.0
588204.59901257406,4222374.0504322443,-37500.0,196.7988039259472,-336.8385584837294,174.42507227358897,183.22984604346132,-173.59057805166219,97.788849316548777,395.77775719077863,112.82197211532801,-202.60801501789118,202.60801501789118,-112.82197211532801,734.56760892168199,0.0
593204.59901257406,4222374.0504322443,-37500.0,167.26137906819986,-354.151959892891,281.78729287145649,187.78313173825418,-231.08884950140902,121.69456394011584,431.87241245909155,56.227289998143085,-151.33750212021025,151.33750212021025,-56.227289998143085,814.04890245666297,0.0
598204.59901257406,4222374.0504322443,-37500.0,131.86960914222882,-356.68155319712213,394.52650579751423,184.84529939448555,-290.47210363597424,146.12934506553182,468.99325751486788,-7.6606465402053701,-84.303994634082841,84.303994634082841,7.6606465402053701,895.956048986008,0.0
603204.59901257406,4222374.0504322443,-37500.0,93.365535836251254,-342.55358812875204,507.65287886171404,173.66201304732257,-349.257359506586,170.11139790258741,505.72461253951536,-75.286580231756005,-3.2588013927981692,3.2588013927981692,75.286580231756005,976.81910644032428,0.0
608204.59901257406,4222374.0504322443,-37500.0,55.086477977829247,-311.10521316938656,615.49931383700152,154.05279866655988,-404.68330532914644,192.56310952314155,540.58243445596793,-142.33272159172964,88.603900609877954,-88.603900609877954,142.33272159172964,1052.9865098941045,0.0
613204.59901257406,4222374.0504322443,-37500.0,20.598810563523283,-263.11327012360482,712.23748452440509,126.50312994329431,-453.95275765411998,212.40357724715949,572.13613084279473,-204.14458020539286,186.81361022188037,-186.81361022188037,204.14458020539286,1120.8959596231878,0.0
618204.59901257406,4222374.0504322443,-37500.0,-6.7471980582239581,-200.83478175276497,792.4802905922927,92.172135673179824,-494.50934520058928,228.65260662405188,599.03226196796618,-256.25895872063961,286.00160253289232,-286.00160253289232,256.25895872063961,1177.3483196891573,0.0
623204.59901257406,4222374.0504322443,-37500.0,-24.261251078116292,-127.83135889744656,851.8722247488447,52.805677074502015,-524.30479315550485,240.53018943841136,619.90099341568271,-294.94395481936425,380.44443822634383,-380.44443822634383,294.94395481936425,1219.7566008063168,0.0
628204.59901257406,4222374.0504322443,-37500.0,-30.268878467090754,-48.595590773958101,887.56300741898622,10.563794002314154,-542.01097749130906,247.53473697727571,633.43767548389224,-317.6503609628212,464.68566386217549,-464.68566386217549,317.6503609628212,1246.338749279791,0.0
633204.59901257406,4222374.0504322443,-37500.0,-24.309114346851182,31.956641909812578,898.47939096353639,-32.209024260248427,-547.13986897259713,249.48672571048348,638.75185832568752,-323.28901698937409,534.12553709997405,-534.12553709997405,323.28901698937409,1256.2281587493858,0.0
638204.59901257406,4222374.0504322443,-37500.0,-7.1407047637448855,109.03549279205504,885.35429151995083,-73.230670776924924,-540.05438919493611,246.53185433746791,635.57809617391058,-312.28852147267708,585.47669557083645,-585.47669557083645,312.28852147267708,1249.4903902386609,0.0
643204.59901257406,4222374.0504322443,-37500.0,19.432716427314535,178.47145783081956,850.52303170839878,-110.50367485945192,-521.87471595574254,239.10547201954398,624.240228494951,-286.43667109298377,617.01583149538192,-617.01583149538192,286.43667109298377,1227.0486378764494,0.0
648204.59901257406,4222374.0504322443,-37500.0,52.869967997507622,237.0776281597764,797.54167934268366,-142.47953427735439,-494.30410929000448,227.8670522157405,605.5227111759209,-248.55384670508542,628.60863736824183,-628.60863736824183,248.55384670508542,1190.5347011933984,0.0
598204.59901257406,4227374.0504322443,-37500.0,110.94912815652029,-316.92899277754407,385.33189295151948,158.00100442481462,-262.88444307109251,125.08894655114401,421.97045983446208,-23.115921641905345,-54.367378266253979,54.367378266253979,23.115921641905345,809.41689902613052,0.0
603204.59901257406,4227374.0504322443,-37500.0,78.290148945188619,-302.13547939851981,482.65234012136943,147.5820589529194,-311.1856918844357,143.89970001556009,453.14605449831453,-81.158362102372934,17.385014696070119,-17.385014696070119,81.158362102372934,878.06145207542943,0.0
608204.59901257406,4227374.0504322443,-37500.0,46.226899283096792,-273.18298601892189,574.84966756540643,130.54387753303433,-356.49514049555137,161.43099480318821,482.57853947693542,-138.15133658484285,97.460582556722585,-97.460582556722585,138.15133658484285,942.38676025574341,0.0
613204.59901257406,4227374.0504322443,-37500.0,17.530758131717196,-230.8256498382564,657.33112906269366,107.31481121509228,-396.70094441177713,176.902479926783,509.18452672880369,-190.44459222688971,182.22956233000946,-182.22956233000946,190.44459222688971,999.64170556789429,0.0
618204.59901257406,4227374.0504322443,-37500.0,-5.2205172748482207,-176.92403733810781,725.88440763441884,78.807751665285082,-429.88565701419611,189.61065035998743,531.95635621145675,-234.57157508365498,267.42439235987388,-267.42439235987388,234.57157508365498,1047.3657113807612,0.0
623204.59901257406,4227374.0504322443,-37500.0,-19.957737737955306,-114.30751343968218,777.10216788149319,46.355301278451556,-454.51080282397857,198.99464458583833,549.84362661833825,-267.63552506333684,348.53894114487667,-348.53894114487667,267.63552506333684,1083.5643719172492,0.0
628204.59901257406,4227374.0504322443,-37500.0,-25.372182512853477,-46.501469353028753,808.72195538809706,11.588666154335021,-469.56310255069718,204.68794009824887,561.78873846041347,-287.63122384829569,421.27781645478615,-421.27781645478615,287.63122384829569,1106.8457275513433,0.0
633204.59901257406,4227374.0504322443,-37500.0,-21.059000509204246,22.63765469775857,819.82583823891457,-23.721363710384086,-474.63943028185543,206.54802618604063,567.0357721740246,-293.64676495965512,481.98291103133215,-481.98291103133215,293.64676495965512,1116.50089052865,0.0
603204.59901257406,4017374.0504322448,-42500.0,-0.24231905640555729,116.63019552718555,697.16320591509839,81.921529496376749,470.08040359718171,235.60673586913404,534.48101122651133,-244.36898385035704,484.70957497714915,-484.70957497714915,244.36898385035704,1049.4688109015644,0.0
608204.59901257406,4017374.0504322448,-42500.0,-17.889895579650258,58.381563091990998,715.77249748432178,48.292213611598008,480.74068007752146,240.39687443031025,540.38610335100202,-259.05605221519556,451.54092419225174,-451.54092419225174,259.05605221519556,1061.1473562301192,0.0
613204.59901257406,4017374.0504322448,-42500.0,-27.555630941646804,-4.1313198073739379,717.47675951894701,12.381644420848856,482.02268723060604,241.06064068441421,539.95196841921586,-261.8254842445719,404.18308979802424,-404.18308979802424,261.8254842445719,1060.4946360224203,0.0
618204.59901257406,4017374.0504322448,-42500.0,-28.270819020006705,-67.695255647587373,701.14514042233236,-24.152170948842421,473.33385235415778,237.3440284469211,533.13079741616116,-251.83546890120599,344.40795902033761,-344.40795902033761,251.83546890120599,1047.1331876253062,0.0
623204.59901257406,4017374.0504322448,-42500.0,-19.851895653178385,-128.82171124745622,666.78697744008673,-59.512999884439054,454.66602221823598,229.23755649881596,520.28290762154654,-229.22893678552202,274.97455172651627,-274.97455172651627,229.22893678552202,1021.3021409466792,0.0
628204.59901257406,4017374.0504322448,-42500.0,-2.9652081455416068,-184.08508383688988,615.61903189271982,-91.930759877277353,426.62983814331125,216.99096688127278,502.14521157815449,-195.17728946694197,199.40736399726049,-199.40736399726049,195.17728946694197,983.88035963554205,0.0
633204.59901257406,4017374.0504322448,-42500.0,20.925346695182569,-230.47049983452419,549.98785724683808,-119.83098499923832,390.41843741490862,201.09918471829337,479.67528061322389,-151.7882123343156,121.66678764257803,-121.66678764257803,151.7882123343156,936.35172157637999,0.0
638204.59901257406,4017374.0504322448,-42500.0,49.723709925801728,-265.67500567944751,473.15322686146965,-141.98304205174534,347.70289173446309,182.26035982857843,453.8831176326932,-101.88702208096767,45.760392942354841,-45.760392942354841,101.88702208096767,880.71429596428698,0.0
643204.59901257406,4017374.0504322448,-42500.0,80.952570367209873,-288.31347290119328,388.96530319438256,-157.60415758302844,300.47455969876739,161.31193608685197,425.79320125553761,-48.706674909531799,-24.643279961008378,24.643279961008378,48.706674909531799,819.34353839453411,0.0
648204.59901257406,4017374.0504322448,-42500.0,112.04481242333078,-297.99973027236268,301.48815682411032,-166.40480228130789,250.85926724813638,139.15461039715743,396.46532099560272,4.4603497482795191,-86.538067197960032,86.538067197960032,-4.4603497482795191,754.82597953210689,0.0
653204.59901257406,4017374.0504322448,-42500.0,140.62544023311114,-295.29911383803432,214.62858342971725,-168.57279074070198,200.9312828757827,116.67549449894936,366.96648491980648,54.59122094743941,-137.79641689798126,137.79641689798126,-54.59122094743941,689.78086006832405,0.0
658204.59901257406,4017374.0504322448,-42500.0,164.73946230857197,-281.57235368820517,131.82333893394781,-164.70443633717895,152.55305548326425,94.680904279142425,338.29939618329956,99.19383740843881,-177.25736948871867,177.25736948871867,-99.19383740843881,626.68536438587887,0.0
593204.59901257406,4022374.0504322448,-42500.0,66.061915992908069,241.77682863935175,652.7740312478312,164.98987737224914,476.57911764621855,254.17826622060022,559.9391479439887,-190.40397714508075,548.90535021295273,-548.90535021295273,190.40397714508075,1098.938021587091,0.0
598204.59901257406,4022374.0504322448,-42500.0,32.037565243889937,195.42467678574189,707.37046777489479,136.10857521451479,509.04283531141255,269.33696903206425,581.20737486946359,-230.23020649349195,548.09206491821169,-548.09206491821169,230.23020649349195,1140.0229433335485,0.0
603204.59901257406,4022374.0504322448,-42500.0,2.8187904877384873,138.04184766766406,748.39932951289961,101.1386450693248,533.39835990827805,280.70143801798423,596.32580883906564,-261.07133667668114,530.07913896957143,-530.07913896957143,261.07133667668114,1169.3247515555875,0.0
608204.59901257406,4022374.0504322448,-42500.0,-19.010418154632031,71.842669962712534,772.31465047860138,61.307059522624279,547.713910211128,287.415273121594,604.385814737136,-280.00214729341496,494.22362032130195,-494.22362032130195,280.00214729341496,1185.0489837899936,0.0
613204.59901257406,4022374.0504322448,-42500.0,-31.332216434496861,0.034124971845558405,776.3703957528129,18.352066891739707,550.4969915847945,288.81634505117023,604.81568613868308,-284.78890859170531,441.19930922861784,-441.19930922861784,284.78890859170531,1185.9363362164213,0.0
618204.59901257406,4022374.0504322448,-42500.0,-32.813024306474517,-73.409664832599901,759.00612074249773,-25.593036436872961,540.89399112729313,284.52273270674254,597.49073772251609,-274.23606962245935,373.08490577711621,-373.08490577711621,274.23606962245935,1171.4255799926354,0.0
623204.59901257406,4022374.0504322448,-42500.0,-23.141326428285623,-144.11282309115987,720.1233549678891,-68.185284985657859,518.8332944426827,274.49452936841487,582.80613511608396,-248.42588310443233,293.26618030793026,-293.26618030793026,248.42588310443233,1141.763744654015,0.0
628204.59901257406,4022374.0504322448,-42500.0,-3.1294155656933551,-207.75567145403789,661.19204341478678,-107.10330643078953,485.08189883061175,259.05904122767549,561.64954371813712,-208.79316476023911,206.14682350570996,-206.14682350570996,208.79316476023911,1098.0447746432485,0.0
633204.59901257406,4022374.0504322448,-42500.0,25.352222230851844,-260.55131931855823,585.15291490418622,-140.28868593988463,441.19817483991238,238.89180098742048,535.22724536062594,-158.0064409180514,116.70272747672423,-116.70272747672423,158.0064409180514,1042.1648467312309,0.0
638204.59901257406,4022374.0504322448,-42500.0,59.603539488443268,-299.65751150434437,496.12297691210148,-166.15685254862808,389.38398216505198,214.95470045165075,504.85521350076999,-99.667685666291234,29.950971859713249,-29.950971859713249,99.667685666291234,976.6971021377002,0.0
643204.59901257406,4022374.0504322448,-42500.0,96.445133479669664,-323.45107066923589,398.9523194722974,-183.74170051191965,332.25924253062033,188.4004409570513,471.87881800939448,-37.883164538368135,-49.574740364335298,49.574740364335298,37.883164538368135,904.70032080335534,0.0
648204.59901257406,4022374.0504322448,-42500.0,132.62263855248978,-331.62297276506354,298.71008046416483,-192.75263425139983,272.5970314391837,160.45926287039433,437.6685073316512,23.215394807793679,-118.25408698218186,118.25408698218186,-23.215394807793679,829.48547254747314,0.0
653204.59901257406,4022374.0504322448,-42500.0,165.18937919034406,-325.09100235178039,200.18745148039591,-193.54103222048769,213.06332600237076,132.3263436282121,403.57262203130722,79.913480158062555,-173.65149185921234,173.65149185921234,-79.913480158062555,754.36715372250956,0.0
658204.59901257406,4022374.0504322448,-42500.0,191.80386240094165,-305.76441955217911,107.49303206165082,-186.99141111934577,155.99939484298486,105.06613395929776,370.82288796123174,129.25090544371795,-214.60376539654663,214.60376539654663,-129.25090544371795,682.42161279127606,0.0
663204.59901257406,4022374.0504322448,-42500.0,210.90401789479171,-276.21878520904488,23.788171250976749,-174.36444360627345,103.27244147031938,79.544801708243256,340.43429262042946,169.21380573815347,-241.13749446708513,241.13749446708513,-169.21380573815347,616.26545723603647,0.0
668204.59901257406,4022374.0504322448,-42500.0,221.75109426622782,-239.34633533668554,-48.823557050573221,-157.12331755739541,56.203696413139866,56.395326117672575,313.12726499339459,198.77667734224917,-254.25926334337652,254.25926334337652,-198.77667734224917,557.86367029474218,0.0
583204.59901257406,4027374.0504322448,-42500.0,167.237394763368,333.16474721112621,527.96150660492754,238.52171964241651,434.19335638057277,251.19297702488464,552.26464439510187,-80.965986095290049,535.3503225937277,-535.3503225937277,80.965986095290049,1084.4958794586053,0.0
588204.59901257406,4027374.0504322448,-42500.0,126.27846311753017,312.59430430903404,608.90289011993639,222.96678164452362,485.66639866540396,276.65435541485965,588.49755806627138,-136.81659866504393,571.0280102426359,-571.0280102426359,136.81659866504393,1154.4989711804037,0.0
593204.59901257406,4027374.0504322448,-42500.0,83.885997940476912,277.29430069399456,684.45559267117176,198.75895962623343,533.23175705866424,300.04972109419236,620.65714760227456,-190.74598031626596,592.15803700258948,-592.15803700258948,190.74598031626596,1216.4659114038486,0.0
598204.59901257406,4027374.0504322448,-42500.0,43.187939715762788,227.11708531185633,749.82174455565826,165.9106974236777,574.09614545832926,320.06945716896468,647.13026864733501,-238.81974928225199,595.42166170867586,-595.42166170867586,238.81974928225199,1267.4484649297272,0.0
603204.59901257406,4027374.0504322448,-42500.0,7.6246410449174631,163.18105570219072,800.06207253510661,125.12777755386098,605.41742321648667,335.38863946004335,666.42548510893982,-276.92542313702222,578.3803553958071,-578.3803553958071,276.92542313702222,1304.6454240191172,0.0
608204.59901257406,4027374.0504322448,-42500.0,-19.439070751813432,88.002152714351766,830.60589998814135,77.872127316237808,624.58577589882577,344.79459526700714,677.31400717513259,-301.24063151248748,539.92993648572951,-539.92993648572951,301.24063151248748,1325.6602639511714,0.0
613204.59901257406,4027374.0504322448,-42500.0,-35.173211161526197,5.4388003439952692,837.8206310995497,26.327103325617973,629.53339402160168,347.32647617331389,678.98377430515245,-308.75928090347497,480.6508132645223,-480.6508132645223,308.75928090347497,1328.7623418234264,0.0
618204.59901257406,4027374.0504322448,-42500.0,-37.734744170226335,-79.581734914737964,819.55338645257143,-26.750016209267947,619.0276580944826,342.407368033794,671.18980207654067,-297.78578103301561,402.96701393762146,-402.96701393762146,297.78578103301561,1313.1229248592092,0.0
623204.59901257406,4027374.0504322448,-42500.0,-26.617470685417373,-161.54474032582553,775.53253367907143,-78.282512356836236,592.88853861940868,329.94254283385095,654.35704393261301,-268.2903221960637,311.04421981683799,-311.04421981683799,268.2903221960637,1278.9800931306197,0.0
628204.59901257406,4027374.0504322448,-42500.0,-2.8121396236198395,-234.97184355413123,707.53517857483939,-125.2022693178635,552.08143481580851,310.36246294160765,629.56323711401899,-222.03415720166325,210.41203015575539,-210.41203015575539,222.03415720166325,1227.7022292172924,0.0
633204.59901257406,4027374.0504322448,-42500.0,31.274843939396302,-295.08005215272283,619.26544207741915,-164.79738481591102,498.65660229658909,284.59768913188333,598.34406292720689,-162.41668656703564,107.35660060576556,-107.35660060576556,162.41668656703564,1161.7316483733055,0.0
638204.59901257406,4027374.0504322448,-42500.0,72.140398270885072,-338.3496421469344,515.9507159339887,-195.01530831298481,435.53764339542801,253.98627335907014,562.42723184890804,-94.05947727007667,8.1891526444117062,-8.1891526444117062,94.05947727007667,1084.4094769309384,0.0
643204.59901257406,4027374.0504322448,-42500.0,115.67887647932184,-362.89249110745055,403.72781553281663,-214.66590437544835,366.19542769556949,220.12922409528602,523.58893418778189,-22.206112772161973,-81.472636283925638,81.472636283925638,22.206112772161973,999.70483653842359,0.0
648204.59901257406,4027374.0504322448,-42500.0,157.74760034104801,-368.55904458621762,288.93651442265292,-223.49150732807703,294.26741978721253,184.71990347134596,483.60909567961068,47.941209593073388,-157.2782775594211,157.2782775594211,-47.941209593073388,911.88386419709991,0.0
653204.59901257406,4027374.0504322448,-42500.0,194.68942458696333,-356.78533177520256,177.45126163303721,-222.1022723783525,223.19057134888078,149.37743080361258,444.19451793346155,111.82004125783885,-216.48230706991887,216.48230706991887,-111.82004125783885,825.15871565649184,0.0
658204.59901257406,4027374.0504322448,-42500.0,223.71956307422687,-330.23766078000165,74.159262326531305,-211.80361346614106,155.90571729476301,115.50994615924164,406.85227677881193,165.94070784803966,-258.01652416484524,258.01652416484524,-165.94070784803966,743.3482156990093,0.0
663204.59901257406,4027374.0504322448,-42500.0,243.12723517515818,-292.3467612909908,-17.352886857975435,-194.36055631464578,94.668593413586819,84.224001996792737,372.76053715238419,208.1038286629815,-282.32692421408797,282.32692421408797,-208.1038286629815,669.56955555095658,0.0
668204.59901257406,4027374.0504322448,-42500.0,252.29094394285318,-246.8287427302725,-94.894063304515555,-171.74818888706221,40.976250132108646,56.285050849878537,342.67517659996054,237.40578006438687,-291.04723543623271,291.04723543623271,-237.40578006438687,605.9770598517448,0.0
673204.59901257406,4027374.0504322448,-42500.0,251.54437233813763,-197.27122720644701,-157.57900939636465,-145.92913664106618,-4.4056990733069865,32.123571153796128,316.89366917260685,254.07701193783134,-286.59667596487827,286.59667596487827,-254.07701193783134,553.5785669955344,0.0
678204.59901257406,4027374.0504322448,-42500.0,241.94962780421866,-146.83109738841588,-205.61260497469326,-118.68387878461587,-41.343333098207673,11.874932976581086,295.28612266105858,259.21836358822935,-271.78093967473563,271.78093967473563,-259.21836358822935,512.18852934543816,0.0
573204.59901257406,4032374.0504322448,-42500.0,277.26722581343944,362.5119817769438,348.29345167361214,283.33348756021297,348.69790664957975,225.3878510812946,512.85522175361757,58.380642610765591,440.04817789766878,-440.04817789766878,-58.380642610765591,1005.6192555285464,0.0
578204.59901257406,4032374.0504322448,-42500.0,244.09030304817026,373.20761212644931,436.68282238418368,286.38678387159354,410.1855764995592,258.02975918518422,559.21502424205414,3.2899825099502777,503.59789008748612,-503.59789008748612,-3.2899825099502777,1096.9330465653488,0.0
583204.59901257406,4032374.0504322448,-42500.0,203.15391301576889,370.80094458319104,529.41286687139336,280.98914776428654,473.54444134968196,291.33236427163092,605.15132091894361,-57.94991177757646,560.38656411446709,-560.38656411446709,57.94991177757646,1186.3933048413201,0.0
588204.59901257406,4032374.0504322448,-42500.0,156.41822260189386,352.71054525594781,622.53568143768393,265.73036088782715,536.23246256733228,324.00988415698873,648.81991671477942,-122.35997757584738,605.81987171875926,-605.81987171875926,122.35997757584738,1270.7961571700821,0.0
593204.59901257406,4032374.0504322448,-42500.0,106.83380202505445,317.11317447636736,711.02575769323221,239.66608827024999,595.10252749267408,354.49326306504071,688.18404520736624,-185.92771111012064,635.14295338054785,-635.14295338054785,185.92771111012064,1346.5482265390688,0.0
598204.59901257406,4032374.0504322448,-42500.0,58.21088429460805,263.38845058338973,789.03921265418546,202.55966443773761,646.56587058284072,381.01125832156777,721.16265307658523,-243.82597492412191,643.96196973871679,-643.96196973871679,243.82597492412191,1409.8767410458304,0.0
603204.59901257406,4032374.0504322448,-42500.0,14.899382656752882,192.5089970108846,850.37936687206331,155.08964555838119,686.86889394652337,401.7240147791652,745.78624459917262,-290.83654529952912,628.86866988906706,-628.86866988906706,290.83654529952912,1457.1135958407542,0.0
608204.59901257406,4032374.0504322448,-42500.0,-18.714006026479936,107.27892927241842,889.1558480336721,98.972055280405499,712.47556356880818,414.90539910559596,760.3871652355283,-321.96175331445176,588.08224083221535,-588.08224083221535,321.96175331445176,1485.0456119554892,0.0
613204.59901257406,4032374.0504322448,-42500.0,-38.834783516156314,12.321918568482044,900.55793444052949,36.945551503856869,720.50933115145369,419.15222571271119,763.81228345425552,-333.1478201986256,521.97590898465046,-521.97590898465046,333.1478201986256,1491.2855584938914,0.0
618204.59901257406,4032374.0504322448,-42500.0,-42.906020545834629,-86.24321243542667,881.61574686469555,-27.412111312651323,709.18525869337122,413.58850319524282,755.63140531216607,-321.99153673993374,433.35005160644994,-433.35005160644994,321.99153673993374,1474.6144461439758,0.0
623204.59901257406,4032374.0504322448,-42500.0,-30.12653316177196,-181.43572004701119,831.78612793145214,-90.033633530487577,678.14226035916897,398.02275748971851,736.28624824145368,-288.2697468115793,327.33985207786162,-327.33985207786162,288.2697468115793,1435.2294795152948,0.0
628204.59901257406,4032374.0504322448,-42500.0,-1.7039941513496117,-266.26872138512863,753.21784519011555,-146.83185702466741,628.59763170556528,373.0231341880513,707.09529461112356,-234.14781944355485,210.92238568244989,-210.92238568244989,234.14781944355485,1374.8521875768165,0.0
633204.59901257406,4032374.0504322448,-42500.0,39.244093337237302,-334.66795663836052,650.59937102492597,-194.20561927033492,563.26831715868718,339.88335557550693,670.03249403576592,-163.98290266265414,92.08202920638368,-92.08202920638368,163.98290266265414,1296.6537026209467,0.0
638204.59901257406,4032374.0504322448,-42500.0,88.139682229953905,-382.26257933832312,530.60196553958372,-229.48082085283215,486.06654986243308,300.48337283135209,627.38398544510346,-83.742690024286659,-21.205994631838976,21.205994631838976,83.742690024286659,1205.0099973404551,0.0
643204.59901257406,4032374.0504322448,-42500.0,139.64870181080713,-406.88173809028626,401.02179821062884,-251.19771252606299,401.62251694158579,257.06739425134748,581.50923367667485,-0.15781561409283285,-121.96766097549857,121.96766097549857,0.15781561409283285,1105.1126705862412,0.0
648204.59901257406,4032374.0504322448,-42500.0,188.47902250389222,-408.66707908062745,269.80261441996078,-259.1940509444662,314.73192026468251,211.98395191841212,534.73054860715581,80.204605089068849,-204.99794689614023,204.99794689614023,-80.204605089068849,1002.4939204950606,0.0
653204.59901257406,4032374.0504322448,-42500.0,230.09699920804982,-389.81178887793931,144.13466565543794,-254.4856957467054,229.83529901476277,167.43737670890675,489.20997528519382,151.75226603629372,-267.27464941142489,267.27464941142489,-151.75226603629372,902.52466891233587,0.0
658204.59901257406,4032374.0504322448,-42500.0,261.22720149067771,-354.02372914783257,29.785592321990745,-238.99234051199534,150.61669996002533,125.29177175229674,446.77767517219075,210.41921381548912,-307.98670284538764,307.98670284538764,-210.41921381548912,809.93156173903026,0.0
663204.59901257406,4032374.0504322448,-42500.0,280.07285781781951,-305.85797715549143,-69.257381474697084,-215.18280647171591,79.770015306577022,86.951394776442669,408.76637433718372,253.896305072221,-328.23825859663651,328.23825859663651,-253.896305072221,728.36278177344957,0.0
668204.59901257406,4032374.0504322448,-42500.0,286.27095130131084,-250.06366898876831,-150.83703379906888,-185.7169090157908,18.937195934006915,53.321308827744112,375.90593443237447,281.56331913105322,-330.54813015677433,330.54813015677433,-281.56331913105322,660.03670838267908,0.0
673204.59901257406,4032374.0504322448,-42500.0,280.65024893003954,-191.05232859956422,-214.43243079414617,-153.14308670336027,-31.212318465151938,24.835569995592703,348.31011374876221,294.203388715529,-318.2776330162356,318.2776330162356,-294.203388715529,605.54323647327033,0.0
678204.59901257406,4032374.0504322448,-42500.0,264.88385263485731,-132.54196366502421,-260.81630170935176,-119.68461317138784,-70.809700006832458,1.531432877688067,325.56507066721304,293.60335200082159,-295.09796208133241,295.09796208133241,-293.60335200082159,563.90435242857075,0.0
683204.59901257406,4032374.0504322448,-42500.0,241.12197987902354,-77.381616726311961,-291.65723542932375,-87.121226674810075,-100.57319348620592,-16.853740011940104,306.8990381297985,282.13516286756419,-264.56735997293276,264.56735997293276,-282.13516286756419,532.95406245123206,0.0
568204.59901257406,4037374.0504322448,-42500.0,349.30978254646857,358.6003608368145,232.23421902934643,309.14775521680133,298.31174108239327,216.42531628087792,501.47771544817965,150.90981616064667,360.08309954236006,-360.08309954236006,-150.90981616064667,977.38262201826342,0.0
573204.59901257406,4037374.0504322448,-42500.0,325.86235059274532,387.53650323681387,319.40764511475936,324.60845633329416,364.86696851225071,254.38925667798512,553.60465312894041,101.9620152837166,435.93020712259045,-435.93020712259045,-101.9620152837166,1082.0064771210928,0.0
578204.59901257406,4037374.0504322448,-42500.0,291.43924349467494,405.84447722261922,416.32595068869659,332.44377886018151,437.01301391857663,294.99132154982601,607.70706314580082,42.477709624798223,510.54615630887884,-510.54615630887884,-42.477709624798223,1189.0301257527838,0.0
583204.59901257406,4037374.0504322448,-42500.0,246.81177145964523,409.75769034885542,520.12515168730295,330.40630256049025,512.65879870917763,337.07642485696937,662.14125062270716,-25.71221443604145,579.1921217342209,-579.1921217342209,25.71221443604145,1295.3160133057436,0.0
588204.59901257406,4037374.0504322448,-42500.0,193.984211658021,395.75201849772481,626.45615556481812,316.45022921187058,588.80435926515429,379.03322730621909,714.7168874943527,-99.386618122052084,636.28912263868438,-636.28912263868438,99.386618122052084,1396.996620093345,0.0
593204.59901257406,4037374.0504322448,-42500.0,136.30282532850913,361.08787734744811,729.49126187965658,289.04898550247708,661.56791217713362,418.81388541627803,762.89594757780264,-173.8986922939558,675.8365565805957,-675.8365565805957,173.8986922939558,1489.6040907291992,0.0
598204.59901257406,4037374.0504322448,-42500.0,78.360167005912416,304.42498398719164,822.17246829667272,247.54749338449579,726.35741813479228,454.02533993378438,803.99808495218747,-243.3786613048714,692.05766534276972,-692.05766534276972,243.3786613048714,1568.3127808635884,0.0
603204.59901257406,4037374.0504322448,-42500.0,25.633029460143373,226.4074224237273,896.76223165209717,192.49093178509264,778.21988869950712,482.10782350256773,835.41992626974934,-301.23242357904957,680.23427972731861,-680.23427972731861,301.23242357904957,1628.3134299327376,0.0
608204.59901257406,4037374.0504322448,-42500.0,-16.159975452919742,130.07096997437966,945.68285303420373,125.84711752264754,812.35586577292372,500.59357381180519,854.89280712809011,-340.93011200248634,637.60721626056397,-637.60721626056397,340.93011200248634,1665.2850154126147,0.0
613204.59901257406,4037374.0504322448,-42500.0,-41.917421286148539,20.919416466773008,962.56174867420737,51.038520583145491,824.74911058735756,507.42069874408469,860.77876361883375,-356.99759024833133,564.16324451696073,-564.16324451696073,356.99759024833133,1675.92154294789,0.0
618204.59901257406,4037374.0504322448,-42500.0,-48.078849383064437,-93.44412454016144,943.30335340412114,-27.277716653221134,812.80669387000455,501.25127718883567,852.36486320569418,-346.02958164420875,463.09242375712336,-463.09242375712336,346.02958164420875,1658.4323768350621,0.0
623204.59901257406,4037374.0504322448,-42500.0,-33.397660168362002,-204.14853236360256,886.94962110873576,-103.69015824692481,775.87271464616003,481.72725971651681,830.08566174050975,-307.48384284130361,340.73316160309764,-340.73316160309764,307.48384284130361,1612.9225667260278,0.0
628204.59901257406,4037374.0504322448,-42500.0,0.65769579360161856,-302.23467505482489,796.09378672124274,-172.71061420744942,715.48068060159994,449.59872498963955,795.56271925440683,-244.02329064769688,205.92800988313425,-205.92800988313425,244.02329064769688,1541.5656986530714,0.0
633204.59901257406,4037374.0504322448,-42500.0,50.019755283979904,-379.94789318279021,676.69838665716338,-229.51875978096396,635.25817727646506,406.68207002756947,751.35766276097775,-161.26721714699741,68.871418364862961,-68.871418364862961,161.26721714699741,1448.5158286253784,0.0
638204.59901257406,4037374.0504322448,-42500.0,108.66193330741871,-431.84941529051508,537.31761700265997,-270.61163432920091,540.4810522159429,355.64550910532108,700.51977533468846,-66.969884797863784,-60.317355222473445,60.317355222473445,66.969884797863784,1339.5554091225974,0.0
643204.59901257406,4037374.0504322448,-42500.0,169.61348092453815,-455.48881707087264,387.88951024814264,-294.21335907870139,437.36790132267231,299.66426921991649,646.20466257486237,30.187718086664617,-172.97339648537474,172.97339648537474,-30.187718086664617,1221.5307591572109,0.0
648204.59901257406,4037374.0504322448,-42500.0,226.09546084446421,-451.50637597307355,238.37495222540301,-300.36759348166095,332.27040869354374,242.01963672970365,591.45617814790967,121.90199157947077,-262.91601031155278,262.91601031155278,-121.90199157947077,1101.6604714070029,0.0
653204.59901257406,4037374.0504322448,-42500.0,272.50616409207214,-423.19504103861283,97.541339562175239,-290.72220443137826,230.93073969350658,185.72487140537118,539.00984101738413,201.34850031787121,-326.9418331924735,326.9418331924735,-201.34850031787121,986.80664634428558,0.0
658204.59901257406,4037374.0504322448,-42500.0,305.05885762762637,-375.68891001127872,-27.88562316496521,-268.09214977400285,137.9394371815408,133.24452598524195,491.05886966135654,263.87395229331344,-364.75692142640071,364.75692142640071,-263.87395229331344,882.77749009825573,0.0
663204.59901257406,4037374.0504322448,-42500.0,321.99778935991372,-315.00836547551307,-133.60625480204035,-235.92475469470313,56.457326759442516,86.340739407703197,449.0464210923318,307.20966260919585,-378.46569659669814,378.46569659669814,-307.20966260919585,793.71125422397927,0.0
668204.59901257406,4037374.0504322448,-42500.0,323.43862446196289,-247.17637069984724,-217.69950670374806,-197.78748459846659,-11.807262118999075,46.045613217944407,413.56182158898673,331.2682863708352,-371.81342231207168,371.81342231207168,-331.2682863708352,721.62026037949897,0.0
673204.59901257406,4037374.0504322448,-42500.0,310.95636238023411,-177.54939508286341,-280.26228198466947,-156.96292759521921,-66.426506571622383,12.732763038086247,384.38651686749927,337.66575015828147,-349.38311132632197,349.38311132632197,-337.66575015828147,666.24495184215937,0.0
678204.59901257406,4037374.0504322448,-42500.0,287.06506203975016,-110.4186516658913,-322.88472128142985,-116.18889825411829,-107.96868689704958,-13.750795451737174,360.68704950154358,329.12946251719336,-315.89847318871102,315.89847318871102,-329.12946251719336,625.37547072607754,0.0
683204.59901257406,4037374.0504322448,-42500.0,254.71151469249443,-48.864648518349092,-348.09505058566447,-77.541042778379875,-137.67889841443193,-33.93021467585725,341.29660428371551,308.9265197983064,-275.71413616062074,275.71413616062074,-308.9265197983064,595.61918402154834,0.0
688204.59901257406,4037374.0504322448,-42500.0,216.86104483527785,5.1949043918847639,-358.86721793838967,-42.429584306900281,-157.18226838696933,-48.554902897825208,324.99417137605434,280.39622803081772,-232.51031444485656,232.51031444485656,-280.39622803081772,573.32517982446188,0.0
693204.59901257406,4037374.0504322448,-42500.0,176.20822904785652,50.837314327893665,-358.23917493594359,-11.671728244601807,-168.24237664070489,-58.474652056703228,310.70642803028647,246.62144587679444,-189.16547532069961,189.16547532069961,-246.62144587679444,555.3043336232796,0.0
563204.59901257406,4042374.0504322448,-42500.0,410.63447647294436,325.16971470859198,107.69006350600981,318.66508274391197,232.8654277344796,197.40875445669926,480.43419439404829,240.72686401693085,253.53227075841932,-253.53227075841932,-240.72686401693085,925.8359692542781,0.0
568204.59901257406,4042374.0504322448,-42500.0,402.46152200771132,369.96744020531366,185.52251825923008,346.94568108944594,299.69753757404197,238.831634126913,535.95385254954101,204.93527250930111,334.31788960493924,-334.31788960493924,-204.93527250930111,1039.0077218648755,0.0
573204.59901257406,4042374.0504322448,-42500.0,381.56769973952498,408.41103403984079,277.35790894300948,369.72414503158296,375.70204328409227,285.08288325878368,595.66379686194921,155.54855358492568,419.9566407576516,-419.9566407576516,-155.54855358492568,1159.3347067118643,0.0
578204.59901257406,4042374.0504322448,-42500.0,347.13201736371946,436.16582256084467,382.0259112265021,384.17547966312247,459.71428562623447,335.40960205536044,658.55282299471287,92.697864416846926,506.46531212530869,-506.46531212530869,-92.697864416846926,1284.2390683301048,0.0
583204.59901257406,4042374.0504322448,-42500.0,299.50044733700605,448.46976921580278,496.77197655889199,387.27755329117468,549.5034661393147,388.48212084231,722.85786817239659,17.942193871096833,588.44108390278905,-588.44108390278905,-17.942193871096833,1410.1310340193984,0.0
588204.59901257406,4042374.0504322448,-42500.0,240.56192043853659,440.61190619387656,616.95881175788975,376.11924595894124,641.60865906198683,442.31552912692854,786.03289475985025,-65.391606822388837,659.21477135522241,-659.21477135522241,65.391606822388837,1532.396273364832,0.0
593204.59901257406,4042374.0504322448,-42500.0,173.99225487499558,408.6184261854126,735.95759817172666,348.3267644962441,731.30188302215663,494.25962267021049,844.94898668301391,-152.04646480139496,711.29769615226905,-711.29769615226905,152.04646480139496,1645.5108824418514,0.0
598204.59901257406,4042374.0504322448,-42500.0,105.24358859327013,350.09127072059914,845.35036814685418,302.57241183628116,812.75051486390726,541.09379583552618,896.17161731692113,-234.97721564867669,737.16617509300363,-737.16617509300363,234.97721564867669,1743.3243645393914,0.0
603204.59901257406,4042374.0504322448,-42500.0,41.164286919795508,265.06581012048213,935.5443936802734,239.08442671807305,879.43607761669307,579.25494954032968,936.2602944003346,-305.90548238712711,730.35243901178717,-730.35243901178717,305.90548238712711,1819.5293172989091,0.0
608204.59901257406,4042374.0504322448,-42500.0,-10.803675339170507,156.68119677530925,996.82667413942943,160.03623547220661,924.84087096716428,605.20269463710122,962.12378321378355,-356.31955927809503,686.70163152497435,-686.70163152497435,356.31955927809503,1868.3012999183397,0.0
613204.59901257406,4042374.0504322448,-42500.0,-43.790122376086209,31.421358679478022,1020.7652097458465,69.67513606234435,943.34127600959778,615.8896594341013,971.43438878705922,-378.82473310709997,605.53969543611299,-605.53969543611299,378.82473310709997,1885.0448028174992,0.0
618204.59901257406,4042374.0504322448,-42500.0,-52.82129578079946,-101.27439865439928,1001.7190680162232,-25.924468751071394,931.16037150278839,609.26078371346512,963.05128006728341,-368.59791589972815,490.42513610618698,-490.42513610618698,368.59791589972815,1867.1316075658328,0.0
623204.59901257406,4042374.0504322448,-42500.0,-35.979061512481664,-230.0960396122139,938.10306964773019,-119.51905973993108,887.16476000395664,584.67165070345823,937.3551584532114,-324.58282403600066,349.18146654433968,-349.18146654433968,324.58282403600066,1814.4832459397437,0.0
628204.59901257406,4042374.0504322448,-42500.0,4.9593332069789087,-343.49747464544356,833.03948159261313,-203.68046247663898,813.28411010729792,543.11298488163459,896.35183678902865,-250.05229168264131,193.06245178594716,-193.06245178594716,250.05229168264131,1729.8594157140824,0.0
633204.59901257406,4042374.0504322448,-42500.0,64.649592169260657,-431.53028885414244,694.14074254942511,-271.90454357258136,714.39520550496707,487.15877002639326,843.39367587080005,-152.29584780199411,35.146195159286734,-35.146195159286734,152.29584780199411,1618.7465111475306,0.0
638204.59901257406,4042374.0504322448,-42500.0,135.10039443998389,-487.42115801402855,532.42293275137058,-319.57999994086168,597.6695027959754,420.63684057143342,782.58346797559477,-41.450969799476475,-111.68258192046918,111.68258192046918,41.450969799476475,1488.8602972089755,0.0
643204.59901257406,4042374.0504322448,-42500.0,207.15257176724222,-508.48443705937433,360.58501207749043,-344.57653238448745,471.51180094397176,348.08125799100856,718.17119635008191,71.239155808471551,-236.66649192775787,236.66649192775787,-71.239155808471551,1349.3026864260985,0.0
648204.59901257406,4042374.0504322448,-42500.0,272.10906596662522,-496.18118295472607,191.10669543585192,-347.33412465832311,344.3657422870416,274.10819698834706,654.16265128861392,175.27283381439636,-332.55464292883028,332.55464292883028,-175.27283381439636,1209.5457369204642,0.0
653204.59901257406,4042374.0504322448,-42500.0,323.09233751686668,-455.39235637316676,34.607457255810353,-330.48056389765645,223.65015102379601,202.8486854066557,594.00524615134918,262.38618897273295,-396.16404285780322,396.16404285780322,-262.38618897273295,1078.355489002317,0.0
658204.59901257406,4042374.0504322448,-42500.0,355.84098903608748,-393.19132745004794,-101.20929594129454,-298.13224774953937,115.03309043435642,137.54764380499472,540.26768926344539,327.39943108499426,-428.12211015560865,428.12211015560865,-327.39943108499426,962.76711566118468,0.0
663204.59901257406,4042374.0504322448,-42500.0,368.87016256422805,-317.48333906576073,-211.92256842449996,-255.08817315923346,22.123382626533054,80.376181331540536,494.3925077770761,368.35127975934347,-432.01283985252508,432.01283985252508,-368.35127975934347,867.21337543282095,0.0
668204.59901257406,4042374.0504322448,-42500.0,363.1069568188052,-235.82492815112749,-296.16345795248776,-206.10285228653433,-53.461613492156637,32.441070344838131,456.63183507351846,386.05951481415087,-413.24649727359264,413.24649727359264,-386.05951481415087,792.98735921189814,0.0
673204.59901257406,4042374.0504322448,-42500.0,341.21618023390118,-154.60734425912423,-354.99611744483445,-155.35542011476372,-111.76639367497656,-6.0629134378494038,426.2216979437959,383.35095787438127,-377.95130784930143,377.95130784930143,-383.35095787438127,738.32631623056125,0.0
678204.59901257406,4042374.0504322448,-42500.0,306.83953546200354,-78.645879368108709,-391.13999504178776,-106.15160429629158,-154.04191324058729,-35.62625213062357,401.74976325328674,364.20615382826645,-332.08586128489549,332.08586128489549,-364.20615382826645,699.26452537609748,0.0
683204.59901257406,4042374.0504322448,-42500.0,263.91596853598418,-11.114313837530437,-408.2172684618609,-60.833519704051582,-182.27954968785002,-57.183625501302309,381.5841742166325,332.99958232149254,-280.85415841742144,280.85415841742144,-332.99958232149254,670.96688890536086,0.0
688204.59901257406,4042374.0504322448,-42500.0,216.17351900885666,46.284640381880259,-410.13687743711512,-20.840108109552173,-198.80959822561942,-71.899590436135242,364.22108720397057,293.9309301931998,-228.41342350186065,228.41342350186065,-293.9309301931998,648.94772429178784,0.0
693204.59901257406,4042374.0504322448,-42500.0,166.81424559423158,93.025617847505231,-400.65732872498921,13.145407366756334,-205.99882118811951,-81.001674380032213,348.47755272714716,250.66865436910024,-177.81192451988392,177.81192451988392,-250.66865436910024,629.75747119728021,0.0
698204.59901257406,4042374.0504322448,-42500.0,118.36899457992619,129.43329722106421,-383.12159231815468,41.014718624851788,-206.05069080712977,-85.665322372119434,333.54010608780186,206.17938591695298,-131.07772199113828,131.07772199113828,-206.17938591695298,611.12825180341736,0.0
558204.59901257406,4047374.0504322448,-42500.0,451.1280191311161,263.21321439631663,-13.35232073405748,308.65261158972697,157.34870534055406,168.95598092142069,451.80546234409087,316.25888693358036,129.55688012965413,-129.55688012965413,-316.25888693358036,855.69762118381459,0.0
563204.59901257406,4047374.0504322448,-42500.0,461.99892572970089,318.63118523089395,48.007922090034839,348.27631684994151,219.1513013558955,211.25128771688719,508.0362666641343,299.21884324337759,206.48363009548899,-206.48363009548899,-299.21884324337759,971.08404200715086,0.0
568204.59901257406,4047374.0504322448,-42500.0,460.54851934422845,373.01816263527422,125.54197674708897,385.61625102275548,292.87416116260277,260.42850192689463,570.29999717345561,267.72668441671817,293.66559791430063,-293.66559791430063,-267.72668441671817,1098.2208524566263,0.0
573204.59901257406,4047374.0504322448,-42500.0,444.36348334468431,422.32399458716952,219.99223129908373,417.7443716965023,378.60640713843293,316.38446510611539,638.24389342173492,220.07275524550766,388.67851739367552,-388.67851739367552,-220.07275524550766,1235.5721182267712,0.0
578204.59901257406,4047374.0504322448,-42500.0,411.7813602401207,461.45610089144816,330.80099866097248,441.10635177235366,475.447557688551,378.43083350406073,710.93890052042798,155.62125430529781,487.41466773200659,-487.41466773200659,-155.62125430529781,1380.4601113718229,0.0
583204.59901257406,4047374.0504322448,-42500.0,362.44344346628509,484.52449537102825,455.57341527932061,451.70967470078261,581.16180447007514,445.10753714483832,786.56173675678792,75.379475148554008,583.88725671251314,-583.88725671251314,-75.379475148554008,1528.8793342650065,0.0
588204.59901257406,4047374.0504322448,-42500.0,297.86749889267679,485.36816860616278,589.58945098617176,445.48956038456583,691.88142363593352,514.02844715705351,862.22612081798604,-17.457076823245416,670.28367826675481,-670.28367826675481,17.457076823245416,1675.4097095141797,0.0
593204.59901257406,4047374.0504322448,-42500.0,221.90228691631782,458.39584638062564,725.51050259800684,418.86650744668515,801.95322266149344,581.80977231253212,934.13303543136863,-117.13706709747129,737.39802454702703,-737.39802454702703,117.13706709747129,1813.28897022667,0.0
598204.59901257406,4047374.0504322448,-42500.0,140.88072453525226,399.70162155407917,853.46435659815927,369.46547952304485,904.04587735935854,644.14495247103582,997.91198007281855,-215.35705067615868,775.54419174044961,-775.54419174044961,215.35705067615868,1934.7164365823139,0.0
603204.59901257406,4047374.0504322448,-42500.0,63.276831533322877,308.29897486466746,961.68417253496102,296.8944342048797,989.62519343031272,696.08210541042376,1049.0263669017847,-301.82701700985638,775.9549025645241,-775.9549025645241,301.82701700985638,2031.4327753696018,0.0
608204.59901257406,4047374.0504322448,-42500.0,-1.2628534299801704,187.18939764318495,1037.796080140864,203.40496358993343,1049.8508059952455,732.53097172397918,1083.2619437646781,-365.50258199850964,732.51426307212591,-732.51426307212591,365.50258199850964,2095.576844164355,0.0
613204.59901257406,4047374.0504322448,-42500.0,-43.483528230932151,43.89337787785027,1070.6776717481289,94.206667804177059,1076.8355857454471,748.96522306120016,1097.3103540271959,-396.40627017779258,643.47836377444219,-643.47836377444219,396.40627017779258,2120.7413237181463,0.0
618204.59901257406,4047374.0504322448,-42500.0,-56.419911123451854,-109.90346824010042,1052.5775151555604,-22.774583060971256,1065.064432827917,742.20945605398265,1089.3846760236981,-387.71283971295225,512.69042557070384,-512.69042557070384,387.71283971295225,2103.0657015368442,0.0
623204.59901257406,4047374.0504322448,-42500.0,-37.143493745198349,-259.74853051221396,980.97863758794597,-137.78942445331691,1012.6392350160436,711.13056765968543,1059.7312192604625,-337.55501141836208,349.79457623445268,-349.79457623445268,337.55501141836208,2042.1392454305815,0.0
628204.59901257406,4047374.0504322448,-42500.0,12.212164338794537,-390.69529053055987,859.62056174541851,-240.70549452370571,921.97584273902544,657.03161532520289,1010.8389783258598,-249.94444202704344,169.16209523600176,-169.16209523600176,249.94444202704344,1941.4767312490912,0.0
633204.59901257406,4047374.0504322448,-42500.0,84.575875619000499,-489.92768565803772,698.25956777076794,-322.67786601382431,799.68047958720149,583.5989947192403,947.13797437001756,-134.39225389835804,-12.357327892724072,12.357327892724072,134.39225389835804,1808.3988588466625,0.0
638204.59901257406,4047374.0504322448,-42500.0,169.27614632690776,-549.014889907162,511.1249134117615,-377.60986931465345,655.56988342091358,496.3794415443773,874.19094346262875,-4.2251724170168643,-178.31810961220307,178.31810961220307,4.2251724170168643,1653.2914417901081,0.0
643204.59901257406,4047374.0504322448,-42500.0,254.22040081227462,-565.15718954747888,314.46402455040874,-403.00693093310451,501.07243417289317,401.90911809316918,797.76651039667217,125.94640503855535,-315.40419521416334,315.40419521416334,-125.94640503855535,1488.3603080553985,0.0
648204.59901257406,4047374.0504322448,-42500.0,328.25243840738142,-541.13138548733684,123.86381125731363,-400.02863701629366,347.44005215771443,306.72261857087699,723.1524948897071,242.86462491768464,-415.27142833534856,415.27142833534856,-242.86462491768464,1326.0919363449323,0.0
653204.59901257406,4047374.0504322448,-42500.0,383.01898402195417,-484.09420964160307,-47.950685324240112,-372.81492538644653,204.22451942505305,216.48903965803891,654.65457851227723,336.64761629303507,-475.13122431992804,475.13122431992804,-336.64761629303507,1177.6396746921068,0.0
658204.59901257406,4047374.0504322448,-42500.0,413.9294183649157,-403.72857546082867,-192.39165261636163,-327.36557022308909,78.322455823221489,135.44566058128538,595.16262184636162,401.78059280152252,-497.14309317475261,497.14309317475261,-401.78059280152252,1051.2973095593893,0.0
663204.59901257406,4047374.0504322448,-42500.0,420.15888465573141,-310.31864821397176,-305.26560319675042,-270.3279662023192,-26.321169015956784,66.189327864037367,545.88967685804073,437.05301488173285,-487.02367921489048,487.02367921489048,-437.05301488173285,951.29384540043498,0.0
668204.59901257406,4047374.0504322448,-42500.0,403.93251971799191,-213.20289925841905,-386.22315459836233,-207.97792632743418,-108.46188914727303,9.7746165075079769,506.43552298395463,444.72357154863272,-452.38764306974855,452.38764306974855,-444.72357154863272,877.31588666019741,0.0
673204.59901257406,4047374.0504322448,-42500.0,369.45839716974768,-119.82447038429947,-437.75471196175306,-145.54769906333436,-168.96666199609561,-33.988424818394293,475.21116473967061,429.32027486606125,-401.25324270748968,401.25324270748968,-429.32027486606125,825.20911652419318,0.0
678204.59901257406,4047374.0504322448,-42500.0,321.84411303353431,-35.37346380212847,-464.07520069932838,-86.918175491436955,-210.10637712160721,-66.155436023998988,450.06943985618295,396.43777509101329,-340.95523674929274,340.95523674929274,-396.43777509101329,788.75135567622954,0.0
683204.59901257406,4047374.0504322448,-42500.0,266.21577836563318,37.11907946594274,-470.13937394313092,-34.604801595246101,-234.89438433218368,-88.280088237037361,428.8934990611491,351.76349444324268,-277.52426554711025,277.52426554711025,-351.76349444324268,761.64522079438507,0.0
688204.59901257406,4047374.0504322448,-42500.0,207.12808863399397,96.419925850483338,-460.90608750206712,10.068736501041398,-246.56199581738534,-102.11219172931584,409.96630606586422,300.42330057274251,-215.46641272592981,215.46641272592981,-300.42330057274251,738.84310484429193,0.0
693204.59901257406,4047374.0504322448,-42500.0,148.25652725041866,142.62832955417124,-440.87105870128147,46.708993567254019,-248.19800653739566,-109.38146554054698,392.09638093794223,246.63383716704871,-157.82224081439509,157.82224081439509,-246.63383716704871,716.97103280265151,0.0
698204.59901257406,4047374.0504322448,-42500.0,92.31124401310268,176.72014689191104,-413.82944934129182,75.577452957507134,-242.53848566736886,-111.66341362522242,374.57726334650044,193.59496796045443,-106.38324690872508,106.38324690872508,-193.59496796045443,694.15043327274645,0.0
703204.59901257406,4047374.0504322448,-42500.0,41.096880016806423,200.16366671808404,-382.80637883233567,97.345826296482841,-231.8735517346706,-110.31168273801676,357.07384405910938,143.54074305690767,-61.969029954089407,61.969029954089407,-143.54074305690767,669.59471672440952,0.0
553204.59901257406,4052374.0504322448,-42500.0,462.39624961780339,178.33349221588875,-119.06868584037039,278.25573140713482,78.383623560505512,132.9093910736799,419.05607432386319,366.89138886131354,0.62668172693798851,-0.62668172693798851,-366.89138886131354,775.36910115821979,0.0
558204.59901257406,4052374.0504322448,-42500.0,493.14650890814283,237.13928388044542,-78.828993502397438,325.87402260304748,130.27692462635846,173.11959268838615,473.13326225053942,371.35583333907221,65.177696790326763,-65.177696790326763,-371.35583333907221,885.8491029763461,0.0
563204.59901257406,4052374.0504322448,-42500.0,514.2621182428976,300.16186133837914,-22.7821460175428,374.98913103424667,195.42789905294711,221.74334344575377,534.594941630005,363.05820828489527,143.53061972299386,-143.53061972299386,-363.05820828489527,1011.7343577061758,0.0
568204.59901257406,4052374.0504322448,-42500.0,522.21036102252413,364.45208319402201,51.444270510616477,423.13936459865192,275.22723658880824,279.46539257474012,603.69002471169813,338.82752753088448,235.23632349811055,-235.23632349811055,-338.82752753088448,1152.8818480781788,0.0
573204.59901257406,4052374.0504322448,-42500.0,513.5501048274632,425.67307865666817,145.51169943625115,466.91743263036153,370.39347135137263,346.51901805398495,680.2981337052945,295.90938406564629,338.32424778650733,-338.32424778650733,-295.90938406564629,1308.0826213146654,0.0
578204.59901257406,4052374.0504322448,-42500.0,485.48203587286338,478.02506772065499,259.76370114979346,501.95839694375564,480.53196102580006,422.42526916854405,763.67241442492082,232.58201295713715,448.81251182873939,-448.81251182873939,-232.58201295713715,1474.7322955983532,0.0
583204.59901257406,4052374.0504322448,-42500.0,436.57535031550611,514.41204513838977,392.50259112115276,523.09757892357231,603.62907897527316,505.70011705507869,852.02984685886213,148.92259552585469,560.31705825685424,-560.31705825685424,-148.92259552585469,1648.521714570295,0.0
588204.59901257406,4052374.0504322448,-42500.0,367.59630964421382,526.97149855485395,539.25157222136909,524.77408977617108,735.55919488066729,593.57641495364953,942.20280075413825,47.624907542848348,663.92583585641592,-663.92583585641592,-47.624907542848348,1823.2235921962915,0.0
593204.59901257406,4052374.0504322448,-42500.0,282.27284824047757,508.05920202350921,692.18604848354937,501.73330750878551,869.73557612877357,681.81792936454713,1029.6683286848777,-65.323077178352548,748.54145675513746,-748.54145675513746,65.323077178352548,1990.6751648032812,0.0
598204.59901257406,4052374.0504322448,-42500.0,187.73197213633003,451.68810061545139,839.99425130216719,450.01673315087908,997.08156442608094,764.72519553233622,1108.9209429684547,-180.38327495806448,801.88023949726664,-801.88023949726664,180.38327495806448,2141.0611586611053,0.0
603204.59901257406,4052374.0504322448,-42500.0,94.299145672585965,355.26402555808551,968.458097727368,368.12948273457329,1106.5182891415477,835.44593286705003,1174.0054769064855,-284.94801647307548,812.21584174648569,-812.21584174648569,284.94801647307548,2263.6068649768245,0.0
608204.59901257406,4052374.0504322448,-42500.0,14.391898344812164,221.24076321053096,1061.9631883931156,258.13167679841769,1186.0973439560171,886.65826171368326,1219.1814833965957,-364.79502226561613,770.72695047391926,-770.72695047391926,364.79502226561613,2347.7035712574384,0.0
613204.59901257406,4052374.0504322448,-42500.0,-39.543102425861136,58.140229354985756,1105.9216821940397,126.29403592410112,1224.7572010090621,911.61293054334055,1239.7477490420288,-406.50505284432597,674.00587385124891,-674.00587385124891,406.50505284432597,2384.3979628036182,0.0
618204.59901257406,4052374.0504322448,-42500.0,-57.738771561600267,-119.64988639906987,1089.729282396599,-17.060898274969045,1214.4341181761508,905.37686996320804,1232.946294503849,-400.43918708495721,525.99615230327743,-525.99615230327743,400.43918708495721,2368.016561123216,0.0
623204.59901257406,4052374.0504322448,-42500.0,-35.750052173356536,-293.64445184049094,1009.5041024699844,-158.75100376478377,1152.0122083598294,865.98326236645119,1198.7496800981653,-343.47024687917633,338.54745398059526,-338.54745398059526,343.47024687917633,2297.5687030982181,0.0
628204.59901257406,4052374.0504322448,-42500.0,23.894606057512995,-444.42668237865689,869.69445454060428,-284.85246255095666,1040.4931736905191,795.13339985479695,1140.2554314075628,-240.49235991313287,130.05983942821337,-130.05983942821337,240.49235991313287,2177.5488843187709,0.0
633204.59901257406,4052374.0504322448,-42500.0,111.77587744025902,-555.43053269511836,682.83209900207703,-383.24463002906174,888.88277509199486,698.15739536902186,1063.3663258033175,-103.97862766631276,-77.686134782907217,77.686134782907217,103.97862766631276,2017.8126800039781,0.0
638204.59901257406,4052374.0504322448,-42500.0,213.54786424845287,-616.19491909500084,467.33542405393808,-445.84373773880117,710.71577266649058,583.18135548387136,975.69324556971901,48.463798517274711,-263.67760036331805,263.67760036331805,-48.463798517274711,1832.4840628340723,0.0
643204.59901257406,4052374.0504322448,-42500.0,313.18410224947621,-624.05863271071746,243.97330604611116,-469.84644549864339,521.60647962560483,459.71074666699587,885.12048970957858,197.81183569931733,-411.53301283793377,411.53301283793377,-197.81183569931733,1638.0585931364592,0.0
648204.59901257406,4052374.0504322448,-42500.0,396.41120063065995,-583.86578610399749,32.092325719312463,-457.6746007640823,336.55978969742006,337.04477843605241,798.63826527160654,327.40577700081155,-511.94168717454966,511.94168717454966,-327.40577700081155,1451.0470949576813,0.0
653204.59901257406,4052374.0504322448,-42500.0,453.25894204267507,-506.0016033168622,-153.3123703641678,-415.78886109123596,167.78597667689792,222.95058126661337,721.53054999034862,425.66134055661468,-563.15434993677718,563.15434993677718,-425.66134055661468,1285.4892664012095,0.0
658204.59901257406,4052374.0504322448,-42500.0,479.14574898803954,-403.6076665814241,-303.05909373518108,-352.89481816815777,23.485628115346067,122.88224650837594,656.81375716343211,487.14295419581396,-569.75801273451793,569.75801273451793,-487.14295419581396,1150.6752322342052,0.0
663204.59901257406,4052374.0504322448,-42500.0,474.53270645616493,-289.88736649296936,-413.75846089131863,-278.12808056521061,-92.337756897063926,39.795099879982686,605.04752975527526,512.08914060024028,-540.4581865701922,540.4581865701922,-512.08914060024028,1049.5870311334027,0.0
668204.59901257406,4052374.0504322448,-42500.0,443.62866657745508,-176.13994235337034,-486.73427436233476,-199.65603530041557,-179.28156826302748,-25.566632118224089,564.71354879166927,504.93932434375813,-485.69468491992643,485.69468491992643,-504.93932434375813,978.92113551172599,0.0
673204.59901257406,4052374.0504322448,-42500.0,392.75441044993556,-70.741334844048708,-526.46882106239775,-123.8738796326554,-239.54291238966184,-74.118914422741895,533.07812065344933,472.52369400667612,-415.69059385844116,415.69059385844116,-472.52369400667612,931.11271530031684,0.0
678204.59901257406,4052374.0504322448,-42500.0,328.84969135433835,21.042341737481934,-539.06314982729509,-55.154167257215313,-276.8537395500914,-107.82218242430618,507.16193468528115,422.42908209703262,-339.19710130643864,339.19710130643864,-422.42908209703262,897.41861182254763,0.0
683204.59901257406,4052374.0504322448,-42500.0,258.3843035159295,96.684142778126215,-531.00574378637475,4.0078158690647623,-295.5741366753241,-129.1363579119392,484.43829198513851,361.81052758167573,-262.92147004952096,262.92147004952096,-361.81052758167573,870.39521226319687,0.0
688204.59901257406,4052374.0504322448,-42500.0,186.72874370819594,155.75882061873935,-508.34854054584133,52.634904533462148,-300.03830466834654,-140.61117415297591,463.12615625218154,296.69993571135825,-191.47104345966221,191.47104345966221,-296.69993571135825,844.93786440694657,0.0
693204.59901257406,4052374.0504322448,-42500.0,117.91411938950895,199.25962477906762,-476.26013488682258,90.84319007470252,-294.15531572729998,-144.62156046393662,442.17389783985539,231.73238339690806,-127.60855836458381,127.60855836458381,-231.73238339690806,818.18627763187737,0.0
698204.59901257406,4052374.0504322448,-42500.0,54.660925404604797,228.99977020436518,-438.86500387343858,119.44606523313675,-281.21686375591935,-143.22629073878053,421.09557161109285,170.16033343497153,-72.644049736551978,72.644049736551978,-170.16033343497153,788.94756865425711,0.0
703204.59901257406,4052374.0504322448,-42500.0,-1.4406126759384181,247.15302211173093,-399.26787096676878,139.63325671598182,-263.85009205462285,-138.11681212149674,399.78012399457111,114.03099934734166,-26.84426438896611,26.84426438896611,-114.03099934734166,757.08004505928068,0.0
553204.59901257406,4057374.0504322448,-42500.0,487.80773065946971,134.38223567771817,-182.23721294451227,280.27092155587451,41.542210476516019,127.37725001627416,436.08463320301496,410.379467220712,-74.034349319165244,74.034349319165244,-410.379467220712,795.21954623274382,0.0
558204.59901257406,4057374.0504322448,-42500.0,530.69060375586378,197.08694174829228,-151.25178246310668,336.26684655558091,92.907759476979521,171.76597060518958,493.44457635188479,426.59841503037762,-13.532884279578127,13.532884279578127,-426.59841503037762,911.45921961123167,0.0
563204.59901257406,4057374.0504322448,-42500.0,564.5656365171825,266.68748590281047,-103.83588289048214,395.85641335999236,159.618209562505,226.7094650270989,559.62126553978567,430.09594272272761,63.156834600823686,-63.156834600823686,-430.09594272272761,1046.4183051118696,0.0
568204.59901257406,4057374.0504322448,-42500.0,585.01322255939237,340.48250839485695,-36.706459488654474,456.48929199915966,243.8946707840677,293.45378978776165,635.23767221627747,416.72087385924027,156.43834050079494,-156.43834050079494,-416.72087385924027,1200.6915907309431,0.0
573204.59901257406,4057374.0504322448,-42500.0,587.38566300671368,414.06837419154874,52.911509110706319,514.35413833046334,347.34884603163766,372.78248986798809,720.54641943809816,382.45938543946261,265.10845410382296,-265.10845410382296,-382.45938543946261,1373.6845892000804,0.0
578204.59901257406,4057374.0504322448,-42500.0,567.42729756487734,481.09671085193446,166.57528793080672,564.25272481169134,470.41660201125524,464.65513070330894,815.1381415194877,324.15043489393145,385.66486889300415,-385.66486889300415,-324.15043489393145,1563.1471167428679,0.0
583204.59901257406,4057374.0504322448,-42500.0,522.18223201134936,533.28911635906741,303.70123846151574,599.67215534672926,611.65210849828031,567.76681244831946,917.43395107725814,240.4648265368541,511.65253332165372,-511.65253332165372,-240.4648265368541,1764.6920680411683,0.0
588204.59901257406,4057374.0504322448,-42500.0,451.13656061783689,560.89399391509801,460.52059507327914,613.18043878844708,766.96220031538644,679.08142045800662,1024.1159129919963,133.06306559433932,633.25686657249184,-633.25686657249184,-133.06306559433932,1971.3898385955677,0.0
593204.59901257406,4057374.0504322448,-42500.0,357.41070187845202,553.76432567639836,629.12749953219861,597.26066575857419,928.94719385148358,793.44322745009401,1129.9356911052168,7.7100885296177921,737.4361335355668,-737.4361335355668,-7.7100885296177921,2173.5757131093128,0.0
598204.59901257406,4057374.0504322448,-42500.0,248.65783821029703,503.14533818695969,796.96908764920988,545.63314641861223,1086.6098692977816,903.42884919344942,1228.0588955171224,-125.03160947650014,808.9160748432439,-808.9160748432439,125.03160947650014,2359.0522040752867,0.0
603204.59901257406,4057374.0504322448,-42500.0,137.18254157568617,404.04196535225651,947.22112543272146,454.95910409331367,1225.7493808796291,999.62965527638949,1310.7232543538989,-250.02783794666857,832.27069790140604,-832.27069790140604,250.02783794666857,2513.8535787320188,0.0
608204.59901257406,4057374.0504322448,-42500.0,38.795289871511955,257.71243650996576,1060.4547393073378,326.60267247942181,1330.3256057723104,1071.5365960972581,1370.1320554132044,-349.17544920646611,795.03337396110123,-795.03337396110123,349.17544920646611,2623.6970844223511,0.0
613204.59901257406,4057374.0504322448,-42500.0,-29.836033789560116,73.480082034544921,1117.7156202966905,167.88816449920728,1384.8616099066423,1109.0622291705797,1399.6120305652994,-404.53525060156363,691.3004395671976,-691.3004395671976,404.53525060156363,2676.0608694791767,0.0
618204.59901257406,4057374.0504322448,-42500.0,-55.020936206348566,-131.09961638743226,1104.600244104045,-7.8079420368620651,1377.5674590333483,1104.5049843050854,1394.9475137618945,-402.54567085695692,524.77436360970421,-524.77436360970421,402.54567085695692,2662.5986100628329,0.0
623204.59901257406,4057374.0504322448,-42500.0,-30.046964041685317,-332.40793237995695,1015.2709432967548,-182.60422960138862,1303.4082105276411,1054.4802219798103,1355.6092165281336,-338.15386361875613,309.93555494856258,-309.93555494856258,338.15386361875613,2581.3465401653057,0.0
628204.59901257406,4057374.0504322448,-42500.0,42.148904618946716,-505.16391054835236,854.96373348966642,-337.23515445654874,1166.0607188663555,961.17325362526583,1285.4502288380588,-217.28299387535145,70.371569490255396,-70.371569490255396,217.28299387535145,2438.0574765882579,0.0
633204.59901257406,4057374.0504322448,-42500.0,148.9399895467767,-627.91465693952694,639.79251465791538,-454.9737622029694,977.8775952708238,832.36861105496382,1192.4075271711383,-56.362993465162006,-165.70700278085945,165.70700278085945,56.362993465162006,2246.1335253229754,0.0
638204.59901257406,4057374.0504322448,-42500.0,270.92469160954192,-687.76334424081051,393.59719086567378,-525.08880653626181,757.63468964601941,680.09854795351646,1086.9852446392354,121.25306997909654,-371.48082991352322,371.48082991352322,-121.25306997909654,2024.9736772015481,0.0
643204.59901257406,4057374.0504322448,-42500.0,386.81408038768922,-682.66517710881271,142.82855220591534,-544.66424670788217,526.73981197375895,518.30375460114067,980.03138539730651,290.79669757467741,-527.01747566257609,527.01747566257609,-290.79669757467741,1797.0356689813882,0.0
648204.59901257406,4057374.0504322448,-42500.0,478.45670530478907,-620.64948151279111,-88.761184326901784,-518.28078143176299,305.16075424062097,360.26312377242107,880.76324367468874,431.51592806053725,-622.44578402442164,622.44578402442164,-431.51592806053725,1584.1388331979733,0.0
653204.59901257406,4057374.0504322448,-42500.0,534.2839714598432,-516.6222969829854,-283.94844111107955,-455.93937574320421,108.31596350801561,216.56349835164411,795.46199893793221,530.25370363112472,-658.11333484710156,658.11333484710156,-530.25370363112472,1403.5727166450906,0.0
658204.59901257406,4057374.0504322448,-42500.0,550.38134228360741,-388.20344554462309,-433.5663082713927,-370.18480749665531,-54.395013815718251,94.056294912785305,726.799031100045,582.42421525526493,-642.29645415535765,642.29645415535765,-582.42421525526493,1264.7047650447769,0.0
663204.59901257406,4057374.0504322448,-42500.0,529.45697344049756,-252.03073668269408,-535.90994931238754,-273.42365045475668,-179.46150676820866,-4.1861489699984595,673.96259050376534,590.76086522823653,-587.75058819749825,587.75058819749825,-590.76086522823653,1167.3539235545886,0.0
668204.59901257406,4057374.0504322448,-42500.0,478.62589516398032,-121.37499554296156,-594.83092781484186,-176.06836012061359,-268.05561505478147,-78.207797715769686,633.70216986562764,562.85264054192339,-508.3785528860351,508.3785528860351,-562.85264054192339,1103.3556519376077,0.0
673204.59901257406,4057374.0504322448,-42500.0,406.98640871174541,-5.2026334032908741,-617.43795976176887,-85.667626633956274,-324.40217161351723,-130.19143320664872,601.86146530296719,508.50881446530866,-416.79907754511771,416.79907754511771,-508.50881446530866,1060.9031929870957,0.0
678204.59901257406,4057374.0504322448,-42500.0,323.64980799873126,91.64626640470928,-612.06808099372813,-6.8456111525111485,-354.23365966114238,-163.48804375879939,574.6765436206399,437.63689257703038,-323.03061725947748,323.03061725947748,-437.63689257703038,1028.9945629716751,0.0
683204.59901257406,4057374.0504322448,-42500.0,236.48468952345948,167.65298933201558,-586.83895583005244,58.261411997645155,-363.60276192835676,-181.83814949303755,549.4264804115794,358.89257843390624,-234.11734579497167,234.11734579497167,-358.89257843390624,999.78367370790477,0.0
688204.59901257406,4057374.0504322448,-42500.0,151.5394440033341,223.61318079358392,-548.81214902581428,109.36384164920162,-358.11957799075446,-188.8444362083824,524.50358942404591,279.05147798610108,-154.36923114136115,154.36923114136115,-279.05147798610108,968.81574971417922,0.0
693204.59901257406,4057374.0504322448,-42500.0,72.964281361162051,261.70142326495431,-503.64717857459726,147.37591892932201,-342.55843751977073,-187.67494858152548,499.18223774579923,202.90877897756297,-85.901462174584466,85.901462174584466,-202.90877897756297,934.23056877091881,0.0
698204.59901257406,4057374.0504322448,-42500.0,3.2286675897894348,284.73526212589826,-455.5821548270074,173.87871074348783,-320.73145995348432,-180.94095360327125,473.31739111015668,133.49102557055272,-29.245963216451443,29.245963216451443,-133.49102557055272,895.79949744808414,0.0
703204.59901257406,4057374.0504322448,-42500.0,-56.531719481501185,295.66503645832836,-407.5940124371711,190.72412994833695,-295.52627401728211,-170.68839272713643,447.0874843665822,72.406087691443489,16.095431098096963,-16.095431098096963,-72.406087691443489,854.15937307096078,0.0
708204.59901257406,4057374.0504322448,-42500.0,-106.14854944494444,297.26170364167353,-361.63241034835698,199.77293186769631,-269.02747220316735,-158.45252296624329,420.81336080635833,20.216711060639728,51.211245798878579,-51.211245798878579,-20.216711060639728,810.30455040644642,0.0
548204.59901257406,4062374.0504322448,-42500.0,443.21562211381536,22.857844053846367,-253.61802419788179,215.36765782262631,-38.747194648612606,77.966973144715084,402.48773283359577,410.36641714483,-195.9030767990418,195.9030767990418,-410.36641714483,713.92389007935788,0.0
553204.59901257406,4062374.0504322448,-42500.0,503.06055586328199,76.655882455912788,-247.04424076426977,272.12477109652929,-4.2953656134520086,114.8844586275264,453.26274573533465,448.01839886211548,-158.96387224652102,158.96387224652102,-448.01839886211548,813.63660960633968,0.0
558204.59901257406,4062374.0504322448,-42500.0,559.69169046585387,141.01131091595494,-228.14982321764464,336.38858118448644,44.165087859997733,162.64129809144274,512.9746321245425,478.31616258934548,-106.16051918378983,106.16051918378983,-478.31616258934548,933.00940491539734,0.0
563204.59901257406,4062374.0504322448,-42500.0,608.8036103836273,215.21184459362846,-193.01900723427434,406.95791257758049,109.85741783521331,223.34465937538167,582.89687260660116,496.82258489110251,-35.165483777677593,35.165483777677593,-496.82258489110251,1074.4426493318585,0.0
568204.59901257406,4062374.0504322448,-42500.0,645.11131942857344,297.09055877017619,-137.44808638699331,481.39800463275617,196.01807904755947,299.02025864750726,664.16574023700707,498.39616807656921,55.508291150704167,-55.508291150704167,-498.39616807656921,1239.609297304952,0.0
573204.59901257406,4062374.0504322448,-42500.0,662.64590492717571,382.49941407578825,-57.417792430525424,555.66793798851052,305.44406179156107,391.28731458074066,757.59157410503178,477.60970596348102,165.7741554113212,-165.7741554113212,-477.60970596348102,1428.9289502329968,0.0
578204.59901257406,4062374.0504322448,-42500.0,655.39487609417063,464.84102206583441,50.131280910880477,623.8178583093885,439.80398564174919,500.88097774058582,863.3275673598506,429.52055388898106,293.05902193182425,-293.05902193182425,-429.52055388898106,1640.9318244818137,0.0
583204.59901257406,4062374.0504322448,-42500.0,618.36693047588324,534.83825139742089,186.18950154792023,677.89114739207525,598.70132869779559,627.01876812421347,980.25546560659825,350.84747628840034,431.32429144657078,-431.32429144657078,-350.84747628840034,1871.5464848313381,0.0
588204.59901257406,4062374.0504322448,-42500.0,549.08423186352013,580.80237357657461,348.29278212305337,708.22506788994644,778.55485799965857,766.66090990636451,1105.1497745570705,241.51640181844215,570.26024736909494,-570.26024736909494,-241.51640181844215,2113.4166144646647,0.0
593204.59901257406,4062374.0504322448,-42500.0,449.33078129679234,589.69968382902164,529.07939550632386,704.36170512256592,971.48515066305526,913.79283421479374,1232.1422925793356,106.35144655210638,695.04367952681184,-695.04367952681184,-106.35144655210638,2355.4210271469783,0.0
598204.59901257406,4062374.0504322448,-42500.0,326.73729834039898,549.2522745430972,715.22260900897425,656.72829920029733,1164.5616573918182,1058.9658556777879,1352.9147358196069,-43.562790669345532,787.15819257018597,-787.15819257018597,43.562790669345532,2582.6616851599847,0.0
603204.59901257406,4062374.0504322448,-42500.0,195.50590004627765,451.05607706954112,887.3812640251092,559.05341528964482,1339.9160920998268,1189.426263817096,1457.4606556312478,-190.5762986211389,826.73709884641869,-826.73709884641869,190.5762986211389,2777.2292873255187,0.0
608204.59901257406,4062374.0504322448,-42500.0,75.440007657676603,294.21525293020409,1021.8599589683314,411.12976935045606,1476.2488331013726,1290.1711000115827,1535.2455727795707,-312.03486608742713,796.55270710904119,-796.55270710904119,312.03486608742713,2919.989617840683,0.0
613204.59901257406,4062374.0504322448,-42500.0,-11.313610425193763,88.388411733962755,1094.3833691960328,221.10261455164041,1552.0278286061687,1346.1247468161721,1576.8226557942698,-384.19384810800477,687.09387301588993,-687.09387301588993,384.19384810800477,2993.4523526532162,0.0
618204.59901257406,4062374.0504322448,-42500.0,-45.619775245639808,-145.29808061288611,1085.6140457687325,6.1417465227285986,1550.0607580817777,1345.2214699277149,1575.7999640800508,-388.0970447192019,501.26020613172807,-501.26020613172807,388.0970447192019,2985.3434462312521,0.0
623204.59901257406,4062374.0504322448,-42500.0,-17.398502213336972,-376.7738090226091,986.9804202576571,-209.46288038598877,1462.3124408838219,1281.6620083356863,1530.7669839787939,-315.79671807372671,256.59954418891533,-256.59954418891533,315.79671807372671,2892.0855559142506,0.0
628204.59901257406,4062374.0504322448,-42500.0,70.042927634735605,-573.11733000168874,804.57204875852494,-398.90107907759977,1293.1986412724559,1158.1821820897444,1446.5128060342047,-174.37915622348299,-16.664957719130527,16.664957719130527,174.37915622348299,2721.0576819518274,0.0
633204.59901257406,4062374.0504322448,-42500.0,199.68251101532528,-706.55208517392077,559.07881706252101,-538.94435576839373,1059.7410454419444,986.25670391606548,1333.798968281347,14.444966202342272,-281.99586934833621,281.99586934833621,-14.444966202342272,2490.6538618593854,0.0
638204.59901257406,4062374.0504322448,-42500.0,345.15252661506941,-761.36255681564967,281.26630252393471,-615.36951400587895,788.11193972728199,783.88835869028924,1207.2499938249593,219.63134411552849,-505.30796804519866,505.30796804519866,-219.63134411552849,2227.7833802567761,0.0
643204.59901257406,4062374.0504322448,-42500.0,478.17039761878971,-736.96330581150869,4.5546061921026419,-625.61848237395748,507.698912306681,571.67527637842602,1081.8712423321206,409.02258393931839,-662.7873686483772,662.7873686483772,-409.02258393931839,1963.2002503235137,0.0
648204.59901257406,4062374.0504322448,-42500.0,575.91269279328912,-646.20050003288327,-242.40698444077765,-577.89986388181001,244.91818722392273,368.60114661864321,969.71704376804428,557.15230507110323,-744.89985730651256,744.89985730651256,-557.15230507110323,1725.5615972269741,0.0
653204.59901257406,4062374.0504322448,-42500.0,625.56422905083718,-510.18016544237508,-440.60730532072455,-487.55675066706101,18.847517825551101,188.93701820432568,877.80007402923297,649.83097219689535,-755.73418361794211,755.73418361794211,-649.83097219689535,1535.2190086105832,0.0
658204.59901257406,4062374.0504322448,-42500.0,625.04138737005906,-352.12548073149065,-581.97228922336762,-372.48117994789277,-160.37187994422675,40.94685919249897,807.48346153883233,684.63250326017089,-708.94750466750645,708.94750466750645,-684.63250326017089,1399.4282831980565,0.0
663204.59901257406,4062374.0504322448,-42500.0,580.70139862916506,-192.45447949986826,-667.722322435053,-249.22514743992258,-290.69470307992555,-72.751415451422005,755.48333740925364,668.26402151054708,-622.54476800672819,622.54476800672819,-668.26402151054708,1311.7706763895596,0.0
668204.59901257406,4062374.0504322448,-42500.0,503.72803913070925,-46.103261422379902,-705.25259169623087,-130.67163406489593,-375.94114578190164,-153.81549811879145,716.14978442939264,612.63923597018731,-514.40603626896802,514.40603626896802,-612.63923597018731,1257.2339734104985,0.0
673204.59901257406,4062374.0504322448,-42500.0,406.68529825924975,78.039623566885766,-704.90242018296465,-25.277874983784411,-423.25583147181311,-206.51063758003542,683.82736032061644,531.2046841677934,-399.4631005513362,399.4631005513362,-531.2046841677934,1219.688238157159,0.0
678204.59901257406,4062374.0504322448,-42500.0,301.06813797673738,176.30613628272243,-677.4403436260252,62.562543961857266,-440.96723039906311,-236.23605234843308,654.26254766820784,436.35197377221107,-288.55057744917303,288.55057744917303,-436.35197377221107,1186.9153321643762,0.0
683204.59901257406,4062374.0504322448,-42500.0,196.00748590228832,248.82274781882379,-632.50825969172934,131.60205835281036,-437.12730106103777,-248.46679541878089,624.92319313913072,338.05128287118822,-188.46030991673553,188.46030991673553,-338.05128287118822,1151.8151777304122,0.0
688204.59901257406,4062374.0504322448,-42500.0,97.902969299199754,298.05473266287294,-577.90451809877686,182.70104989996869,-418.70848735045672,-248.12594255364243,594.68692908816672,243.45379666293059,-102.64075952809895,102.64075952809895,-243.45379666293059,1111.3964739932771,0.0
693204.59901257406,4062374.0504322448,-42500.0,10.638120565292281,327.61657023749007,-519.44952265612937,217.91977843025964,-391.29834451650095,-239.30013393657958,563.35596125830557,157.09883158270742,-32.10548295723752,32.10548295723752,-157.09883158270742,1065.2609935220491,0.0
698204.59901257406,4062374.0504322448,-42500.0,-63.929146643544115,341.43568958793423,-461.17945940392309,239.8369617042195,-359.10728717053092,-225.18393171942935,531.2340529046312,81.406593022571371,23.711486621825152,-23.711486621825152,-81.406593022571371,1014.3603052965051,0.0
703204.59901257406,4062374.0504322448,-42500.0,-125.41147430355039,343.24007463284403,-405.67904312372883,251.09795820428079,-325.1391348326473,-208.15348779381335,498.83274861431073,17.239859809745401,66.270127864963783,-66.270127864963783,-17.239859809745401,960.17936830194276,0.0
708204.59901257406,4062374.0504322448,-42500.0,-174.3892986861616,336.29364198124341,-354.43659690023469,254.15114881634125,-291.42175526704426,-189.89779529392663,466.69537355986989,-35.584891359664908,97.43252793966181,-97.43252793966181,35.584891359664908,904.26979310459649,0.0
713204.59901257406,4062374.0504322448,-42500.0,-212.00847985987667,323.29866470729837,-308.16081655114192,251.11981112639921,-259.23793049742869,-171.56261792854264,435.30553676270858,-77.886443780872455,119.14202126949711,-119.14202126949711,77.886443780872455,848.01684887952536,0.0
543204.59901257406,4067374.0504322448,-42500.0,362.70324557387596,-83.986095083120929,-289.99130063549381,137.70924252755987,-103.9819835886553,29.12832057505457,377.10067912596901,371.70846634796533,-288.5636674688011,288.5636674688011,-371.70846634796533,655.78130852294373,0.0
548204.59901257406,4067374.0504322448,-42500.0,431.74551534017434,-45.448922511523556,-303.50092040805811,189.09560009198373,-87.016345928932992,56.335180321724643,420.45694568884574,424.11245103140391,-276.56966054519933,276.56966054519933,-424.11245103140391,735.9924694757874,0.0
553204.59901257406,4067374.0504322448,-42500.0,503.58399201870935,4.7401330496951282,-309.93197511763066,250.47291185690733,-58.989096485801547,93.454556258509328,471.73140764701407,475.27266656946296,-251.75476614013286,251.75476614013286,-475.27266656946296,833.71705278113916,0.0
558204.59901257406,4067374.0504322448,-42500.0,575.01138125791181,67.605516350574959,-305.73575402530582,322.10281174649674,-16.381141093903185,143.10045134921262,532.57621416837651,521.54815904066413,-210.78950698320006,210.78950698320006,-521.54815904066413,952.69379149246561,0.0
563204.59901257406,4067374.0504322448,-42500.0,641.46357766670064,143.29764197038747,-286.55833696398656,403.34475739707415,44.874699836168524,208.20204230495349,604.77469280260686,558.09541552350856,-150.37005289624796,150.37005289624796,-558.09541552350856,1096.6170120304894,0.0
568204.59901257406,4067374.0504322448,-42500.0,696.93581181558534,230.5088360692215,-247.38718349348332,492.17520376871818,129.17271669441214,291.81076927767066,690.11581415538126,578.90202450526715,-67.753015836559513,67.753015836559513,-578.90202450526715,1268.6498186117651,0.0
573204.59901257406,4067374.0504322448,-42500.0,734.14767401488461,325.76310841348612,-182.95390545595862,584.62846886282159,240.77651401974109,396.73539227854047,790.18853713832698,577.10007719629084,38.424932549923767,-38.424932549923767,-577.10007719629084,1470.7607404863602,0.0
578204.59901257406,4067374.0504322448,-42500.0,745.11825798239761,422.67291641516238,-88.508081946910906,674.24339661965143,383.03590593058038,524.94659061709854,906.01081702553415,545.70952695283245,167.02635795740187,-167.02635795740187,-545.70952695283245,1702.8760109523469,0.0
583204.59901257406,4067374.0504322448,-42500.0,722.31939168263523,511.36359850075189,38.941669260574251,751.68449312391294,557.21502540652739,676.71364573985204,1037.3071090083581,478.95191753518515,313.07018345068019,-313.07018345068019,-478.95191753518515,1961.8745422718011,0.0
588204.59901257406,4067374.0504322448,-42500.0,660.50462771965374,578.39867551040743,198.91050233109672,804.80441961184931,760.94812228713772,849.49306127218142,1181.3567380680147,374.18318477229008,466.41171443594573,-466.41171443594573,-374.18318477229008,2240.5163232429136,0.0
593204.59901257406,4067374.0504322448,-42500.0,559.11946560078718,607.65909254912242,385.42416004383142,819.50207175533399,986.50690033936155,1036.7079170158554,1331.9548089722045,234.27941700656643,610.92353701699847,-610.92353701699847,-234.27941700656643,2526.5199204547798,0.0
598204.59901257406,4067374.0504322448,-42500.0,424.8402605720101,582.63415690795523,585.19664965321078,781.72148613182401,1219.317617370767,1226.7320697820371,1479.2615319573245,69.941816351174054,724.88919118784565,-724.88919118784565,-69.941816351174054,2802.1448310818491,0.0
603204.59901257406,4067374.0504322448,-42500.0,273.31259045655094,490.33528076641494,776.85461786711858,680.73560215912403,1437.4716254210477,1402.605400684899,1610.5773235612392,-99.069172610178782,783.40908236928681,-783.40908236928681,99.069172610178782,3044.7780539647192,0.0
608204.59901257406,4067374.0504322448,-42500.0,128.76243169377074,326.40139752474312,932.30295849429456,513.34806970445732,1613.1525213080333,1543.1266646040253,1711.7972819136617,-245.08334095849204,763.30401038287357,-763.30401038287357,245.08334095849204,3229.0215376611754,0.0
613204.59901257406,4067374.0504322448,-42500.0,20.246541116594074,99.970311118451491,1021.1079766137291,287.8702034480533,1716.7065748406687,1625.8380582125135,1769.6134634509167,-337.14601295661566,650.07048629836015,-650.07048629836015,337.14601295661566,3330.5416145023173,0.0
618204.59901257406,4067374.0504322448,-42500.0,-25.6581667252462,-164.04155152115257,1017.7704249379614,25.996402999645976,1723.2232366004309,1631.8131909148731,1774.4094114652873,-349.03779386381609,444.96744593862513,-444.96744593862513,349.03779386381609,3331.3289875266387,0.0
623204.59901257406,4067374.0504322448,-42500.0,6.0746101593514412,-427.62375074907249,910.04845912772566,-239.32191961282996,1620.0507994565864,1551.1532242142669,1723.2861115804483,-268.55411192360032,169.01637351908192,-169.01637351908192,268.55411192360032,3225.1869589557155,0.0
628204.59901257406,4067374.0504322448,-42500.0,111.89682353605562,-648.02051988309915,704.92686560671643,-470.61763142680542,1412.3300300965207,1387.1233435773688,1622.1686338711561,-104.03594525709086,-139.17107105545284,139.17107105545284,104.03594525709086,3021.5728786048876,0.0
633204.59901257406,4067374.0504322448,-42500.0,268.75786841773049,-789.39672922296052,428.85254761121456,-635.48559600916656,1123.5948272476517,1156.7939504767469,1485.7815168112511,115.78655063513736,-432.41880378361623,432.41880378361623,-115.78655063513736,2745.9846980013303,0.0
638204.59901257406,4067374.0504322448,-42500.0,440.70898195855443,-832.96961839685832,121.22383587749226,-715.17947191737335,790.4128971002541,887.35842336475253,1334.6476920175369,349.6554444822915,-667.79559641056869,667.79559641056869,-349.6554444822915,2436.0792627682504,0.0
643204.59901257406,4067374.0504322448,-42500.0,590.29578724298233,-781.02750700102354,-176.33546113084171,-708.48649518998798,453.03806354572959,609.42774336594846,1189.5830112528922,556.11444460036114,-817.68900498063545,817.68900498063545,-556.11444460036114,2134.0942717872035,0.0
648204.59901257406,4067374.0504322448,-42500.0,689.36377273695564,-653.52786028676337,-430.22649936561663,-629.60430265411571,146.01085077052286,350.07057237886835,1066.0456751602992,704.6601820134656,-874.59640399183149,874.59640399183149,-704.6601820134656,1877.0165472332385,0.0
653204.59901257406,4067374.0504322448,-42500.0,724.82770776223492,-479.8259138770614,-620.7656153588473,-501.81091084748851,-107.81937750715353,128.1468905306188,970.87378204291326,781.32787615921086,-848.76706365273765,848.76706365273765,-781.32787615921086,1686.646380631594,0.0
658204.59901257406,4067374.0504322448,-42500.0,698.34002845999976,-289.79225247079779,-742.66668282446176,-350.23016940227319,-298.64308232111847,-47.062802485686483,902.36170063400914,787.90909000068336,-761.33228687136011,761.33228687136011,-787.90909000068336,1563.8032087367128,0.0
663204.59901257406,4067374.0504322448,-42500.0,621.83160636076673,-107.55985655834245,-801.65946604239798,-196.37820553418152,-427.44285105773133,-174.54229651528564,853.30848349937423,737.03203544211897,-636.6955407297603,636.6955407297603,-737.03203544211897,1491.7874597846494,0.0
668204.59901257406,4067374.0504322448,-42500.0,511.8775513754556,51.088927876508052,-809.71115831751638,-55.504228453641538,-502.13712693528777,-258.90099804504928,815.21017807165663,646.19204000746538,-496.8522001178772,496.8522001178772,-646.19204000746538,1447.5985416443809,0.0
673204.59901257406,4067374.0504322448,-42500.0,385.06374785940773,178.42804427856518,-780.77569643755498,63.669514081618196,-533.81525252719916,-307.64378557097746,781.26463455259307,532.92678002189473,-358.48735867349069,358.48735867349069,-532.92678002189473,1412.0859975343142,0.0
678204.59901257406,4067374.0504322448,-42500.0,255.19855416453984,272.94643669222444,-727.92918883129914,157.79678520076899,-533.94801178704256,-329.04231500130533,747.34894399407131,411.94073181045036,-232.38494541622168,232.38494541622168,-411.94073181045036,1373.6791223662308,0.0
683204.59901257406,4067374.0504322448,-42500.0,132.23701357854594,337.12392502620526,-661.92380901447927,227.26646097094542,-512.75081153889994,-330.79781973783781,711.65458223822782,294.0001776428071,-124.21603826030777,124.21603826030777,-294.0001776428071,1327.4096897392299,0.0
688204.59901257406,4067374.0504322448,-42500.0,22.358743337316568,375.5006152368469,-590.78152982862457,274.65780108273827,-478.47946651444596,-319.38462127860089,673.89091411545496,186.00590879493939,-35.863647630092046,35.863647630092046,-186.00590879493939,1272.5303771416122,0.0
693204.59901257406,4067374.0504322448,-42500.0,-71.366438251272839,393.28861356700992,-519.99649738717392,303.54944275308856,-437.33538982548208,-299.8650331298079,634.56945811451283,91.661525836953956,33.24826079167579,-33.24826079167579,-91.661525836953956,1210.4588066274096,0.0
698204.59901257406,4067374.0504322448,-42500.0,-148.1371197452207,395.51678625706887,-453.00399595330902,317.72434397135044,-393.69361031827549,-275.97529994293205,594.51393994155876,12.319117827241968,85.072878909270443,-85.072878909270443,-12.319117827241968,1143.4350104723426,0.0
703204.59901257406,4067374.0504322448,-42500.0,-208.63579269605407,386.58939465140764,-391.70202694162106,320.70727403754796,-350.45435106694555,-250.33402519899948,554.57545889176527,-52.231889969254652,122.16854115208683,-122.16854115208683,52.231889969254652,1073.7722076369755,0.0
708204.59901257406,4067374.0504322448,-42500.0,-254.39951725934898,370.12312521523307,-336.91868908152082,315.54250461314308,-309.40479812713198,-224.68269208003531,515.4928894718222,-103.13048061908891,147.20437674912321,-147.20437674912321,103.13048061908891,1003.5005224921854,0.0
713204.59901257406,4067374.0504322448,-42500.0,-287.36433389696157,348.94829259276474,-288.78510805562809,304.72521512407417,-271.53549996905059,-200.10966265455883,477.84104645832423,-141.98263548811894,162.67810754489756,-162.67810754489756,141.98263548811894,934.23821992719718,0.0
543204.59901257406,4072374.0504322448,-42500.0,324.20785462034672,-154.24735326014596,-320.95075290264754,96.183400689070851,-148.99907774809284,1.2150582620079045,399.12335222607805,359.31050978262448,-355.78938385336397,355.78938385336397,-359.31050978262448,691.30676678219686,0.0
548204.59901257406,4072374.0504322448,-42500.0,401.18472332075612,-123.60620419962466,-345.93457398599878,147.89024084273245,-140.44828298206394,25.774207228329558,442.37168079321634,422.05311196106771,-357.82405130392948,357.82405130392948,-422.05311196106771,767.63993561675341,0.0
553204.59901257406,4072374.0504322448,-42500.0,484.25672044913711,-80.518271341966482,-366.37891825210522,211.72786143020716,-121.48563959477039,61.015480322845967,493.35191209540631,486.77665812958173,-348.36336339628804,348.36336339628804,-486.77665812958173,860.7566290265512,0.0
558204.59901257406,4072374.0504322448,-42500.0,570.57114082114538,-23.12750276953188,-378.8366294408869,288.74018172173174,-88.119342724233505,110.22610853729638,553.99928485313683,550.07020778437641,-323.52870346020001,323.52870346020001,-550.07020778437641,975.32040365827629,0.0
563204.59901257406,4072374.0504322448,-42500.0,655.63166392173355,49.755382904463367,-378.80175594224187,379.1344846745107,-35.486621649562366,177.28521242769247,626.58951233657297,607.00704654534297,-279.11290399576552,279.11290399576552,-607.00704654534297,1116.4604067453845,0.0
568204.59901257406,4072374.0504322448,-42500.0,733.02028266499565,137.99756244932166,-360.72245695558621,481.68028115676594,42.013196774137647,266.51296326782381,713.64939722376994,650.99575353907437,-211.06540960483161,211.06540960483161,-650.99575353907437,1289.2386332849894,0.0
573204.59901257406,4072374.0504322448,-42500.0,794.34474473577757,239.26605375988851,-318.26643678622946,592.93878671031939,150.31642043325147,382.30399160445575,817.76246440938951,673.90016986960518,-116.33346717941748,116.33346717941748,-673.90016986960518,1497.8314661101799,0.0
578204.59901257406,4072374.0504322448,-42500.0,829.63155385685525,347.98776013438834,-245.00157354449317,706.39093558620925,294.88085771023543,528.44111756843608,941.17980343350132,666.64049310069174,5.8622231938544473,-5.8622231938544473,-666.64049310069174,1744.4190674562433,0.0
583204.59901257406,4072374.0504322448,-42500.0,828.43482426508047,454.34071626583795,-135.66455722412141,811.64287184788225,479.317835224399,706.98874532861578,1084.9986031651836,620.51774725219343,152.33068477384217,-152.33068477384217,-620.51774725219343,2027.7959347572125,0.0
588204.59901257406,4072374.0504322448,-42500.0,781.91203073897464,543.66470474150276,11.868004921022049,894.05158876051473,703.39567746479804,916.72041535291794,1247.6574545980156,529.45463639947184,313.99749077861009,-313.99749077861009,-529.45463639947184,2341.7823541762723,0.0
593204.59901257406,4072374.0504322448,-42500.0,685.92908232743514,596.90539431693617,193.99108916415625,935.29439864521794,960.53315667690345,1151.1804568354726,1423.1904097378454,393.12169205756237,474.30295711665082,-474.30295711665082,-393.12169205756237,2673.6535824641696,0.0
598204.59901257406,4072374.0504322448,-42500.0,544.81297840942489,592.8474771481051,398.63605552625455,915.5181307228994,1235.2629880908644,1396.7544313048336,1600.433492492821,220.44911454893071,608.84062341205731,-608.84062341205731,-220.44911454893071,3003.040925091962,0.0
603204.59901257406,4072374.0504322448,-42500.0,374.6308489690814,512.73447613527765,603.43140507531587,817.55970495007705,1501.6686321674842,1631.5156291251089,1763.6311282101165,32.299327057879964,687.47990527953925,-687.47990527953925,-32.299327057879964,3302.0388691588469,0.0
608204.59901257406,4072374.0504322448,-42500.0,204.04039681692387,347.11314016282586,776.33896895823295,633.08200643384532,1724.2791556423456,1825.9855527516088,1894.1508354066414,-138.66033360361092,680.04698637998376,-680.04698637998376,138.66033360361092,3537.4074891482433,0.0
613204.59901257406,4072374.0504322448,-42500.0,70.448059630334285,103.25396409966507,880.36750044768348,369.20440852429323,1862.9199026880369,1946.9748796104259,1973.4065965424575,-252.96327587132419,565.51461282303694,-565.51461282303694,252.96327587132419,3675.5704828806192,0.0
618204.59901257406,4072374.0504322448,-42500.0,10.357304932388123,-190.2800651301674,882.79623257027652,52.669108534817646,1881.9244107447703,1964.8631836263792,1987.0646545868897,-274.92690560731296,342.3894275888274,-342.3894275888274,274.92690560731296,3690.2460591738486,0.0
623204.59901257406,4072374.0504322448,-42500.0,45.928717648143376,-486.01416031744247,766.75826316035102,-272.04854574479998,1761.7089657882259,1862.8386942076881,1929.7904300041082,-186.2754993609563,35.492634913774722,-35.492634913774722,186.2754993609563,3571.0769622333237,0.0
628204.59901257406,4072374.0504322448,-42500.0,173.64563185761114,-728.81207949741292,540.18134338008576,-552.50187692190218,1507.9987551007757,1644.4723103202757,1808.8653095254836,3.3790052852104679,-306.16125360838669,306.16125360838669,-3.3790052852104679,3330.1690486534512,0.0
633204.59901257406,4072374.0504322448,-42500.0,362.20650653326288,-872.83473501039612,236.54913628727988,-743.3884783778509,1153.341747234477,1335.3554736012784,1644.6061880727889,256.0641882405705,-622.12703549782498,622.12703549782498,-256.0641882405705,3003.1790319394013,0.0
638204.59901257406,4072374.0504322448,-42500.0,562.5806657930973,-896.3456391282034,-94.424989113654334,-820.29922764479113,748.7604032740702,976.89613458794804,1466.0162257265852,517.17000151526031,-859.20690098785121,859.20690098785121,-517.17000151526031,2643.1849635781286,0.0
643204.59901257406,4072374.0504322448,-42500.0,725.56589949960721,-806.75628994162832,-402.14264233288895,-785.27989424833845,348.97546261249079,614.71480957558958,1301.9151350408606,733.96007037405207,-986.93501298773685,986.93501298773685,-733.96007037405207,2308.0119345468197,0.0
648204.59901257406,4072374.0504322448,-42500.0,817.50318439640898,-634.18565638539405,-648.91516055255579,-662.21557899892457,-1.7626763480540522,287.08637299617703,1171.312409214082,871.29651857417878,-1002.7289461835272,1002.7289461835272,-871.29651857417878,2043.5468906040549,0.0
653204.59901257406,4072374.0504322448,-42500.0,827.07163748476034,-418.46305765962848,-816.50762266147933,-485.87889479890225,-277.49012233244503,18.103317979897643,1078.6585070018887,917.82926335344894,-926.29425123701151,926.29425123701151,-917.82926335344894,1868.3549372050813,0.0
658204.59901257406,4072374.0504322448,-42500.0,762.55774634893999,-196.696828352994,-904.78970993374082,-290.74104727691628,-470.7605764785838,-183.18271807060822,1016.3656589218593,882.5482329088411,-788.50616233984556,788.50616233984556,-882.5482329088411,1769.7743262987105,0.0
663204.59901257406,4072374.0504322448,-42500.0,643.87153460879085,4.0996727030143676,-925.72113521554274,-103.71839600600634,-587.85528428045234,-319.42885536114352,971.88801296632914,786.28990733025432,-620.85628297411029,620.85628297411029,-786.28990733025432,1717.155789168567,0.0
668204.59901257406,4072374.0504322448,-42500.0,494.24292820068791,168.81927626387841,-896.57218304720675,58.31148903934475,-642.53754971799253,-400.21171834880857,934.12204757686891,653.18896726152525,-448.85637475919907,448.85637475919907,-653.18896726152525,1680.6721249048207,0.0
673204.59901257406,4072374.0504322448,-42500.0,334.43810842311422,292.41590172908468,-834.78371418420409,187.59405057989002,-650.81522302680776,-437.78494370340189,896.11430318331952,504.82828200105871,-289.68794260077755,289.68794260077755,-504.82828200105871,1641.1231501600766,0.0
678204.59901257406,4072374.0504322448,-42500.0,180.02621309567641,376.66128362331398,-755.10433171060629,283.04529090468486,-627.60885268557695,-444.20942063691689,854.81083931810747,357.51503805786717,-152.7398504205199,152.7398504205199,-357.51503805786717,1589.9814928959174,0.0
683204.59901257406,4072374.0504322448,-42500.0,40.942571065896836,427.03003070625198,-668.58608873907974,347.63298970840526,-585.17229515631232,-429.84299290847576,809.73659992261264,221.86591787853558,-41.458928684655064,41.458928684655064,-221.86591787853558,1525.7535807266929,0.0
688204.59901257406,4072374.0504322448,-42500.0,-77.690500601327741,450.37406673806601,-582.71334759117337,386.26756863566715,-532.71189877796871,-402.81791105023603,761.74554599827422,103.6388991358491,44.589363256373758,-44.589363256373758,-103.6388991358491,1450.5251957674384,0.0
693204.59901257406,4072374.0504322448,-42500.0,-174.29818648299752,453.47213142227412,-502.04668685816893,404.37497650746474,-476.65727508872476,-369.09831835520293,712.17582848046789,4.9974454011854732,107.99724115744034,-107.99724115744034,-4.9974454011854732,1367.6971449384707,0.0
698204.59901257406,4072374.0504322448,-42500.0,-249.61834756135462,442.28043351788847,-428.98926661761033,407.06773444237223,-421.19381881956423,-332.80755723145001,662.37791912415491,-74.261931342256517,152.28651621798531,-152.28651621798531,74.261931342256517,1280.7551335600442,0.0
703204.59901257406,4072374.0504322448,-42500.0,-305.70437215324938,421.65342783660054,-364.47746317423173,398.7492181745904,-368.83149383888218,-296.63291070976106,613.496678827148,-135.7198899489332,181.13659917536114,-181.13659917536114,135.7198899489332,1192.7101050195993,0.0
708204.59901257406,4072374.0504322448,-42500.0,-345.20983376328542,395.33674635470271,-308.52446761578386,382.99122798740075,-320.90295617913381,-262.20671931265269,566.4005293100065,-181.62321312596248,197.9578212884644,-197.9578212884644,181.62321312596248,1105.9144300113176,0.0
713204.59901257406,4072374.0504322448,-42500.0,-370.92277187361805,366.09417656662356,-260.61258290077006,362.56432996874645,-277.95682648500201,-230.42322493602973,521.68666399451388,-214.41931981201583,205.69706931154349,-205.69706931154349,214.41931981201583,1022.068216667307,0.0
718204.59901257406,4072374.0504322448,-42500.0,-385.49101844849827,335.88307408133932,-219.95853302248682,339.53981378012207,-240.04776916657741,-201.68277619076304,479.71914342752655,-236.47821504989716,206.78429406426019,-206.78429406426019,236.47821504989716,942.30738440518644,0.0
538204.59901257406,4077374.0504322448,-42500.0,193.06598297879353,-238.50311459554732,-305.630311445605,2.96683680147212,-187.70401365566482,-46.389282210998431,389.2843732032282,264.12938986305051,-393.20163819308902,393.20163819308902,-264.12938986305051,680.43909960676649,0.0
543204.59901257406,4077374.0504322448,-42500.0,265.00435715283578,-228.54888506149061,-340.90093713377013,40.240370133280145,-195.16436376656213,-34.616467692245486,427.04948668641453,328.25688527632326,-416.70565953316418,416.70565953316418,-328.25688527632326,742.41568388632061,0.0
548204.59901257406,4077374.0504322448,-42500.0,347.52878737029238,-208.76297891506175,-376.74484870909822,89.317814711938709,-196.84098993679035,-14.976855664362105,470.35288711824342,399.60503407897045,-434.39913086883462,434.39913086883462,-399.60503407897045,815.07511745895556,0.0
553204.59901257406,4077374.0504322448,-42500.0,439.82390953615021,-176.53722033576651,-411.14008145668083,152.39142204305429,-189.5296492393831,15.603349450410285,520.69720887428502,476.68564479145812,-442.93337138696825,442.93337138696825,-476.68564479145812,902.23968408904022,0.0
558204.59901257406,4077374.0504322448,-42500.0,539.74201731753385,-129.21192811123527,-441.05759546463037,231.4546421452047,-168.95678489840802,61.067758099883278,580.08625135095122,556.68497729233388,-438.13743749870366,438.13743749870366,-556.68497729233388,1008.9863752706144,0.0
563204.59901257406,4077374.0504322448,-42500.0,643.29097536804397,-64.482279656150681,-462.22972391065667,327.85059655773534,-129.63713999062446,126.30354341341875,651.10541378078597,635.0402921876871,-415.12947214538235,415.12947214538235,-635.0402921876871,1141.6045779487417,0.0
568204.59901257406,4077374.0504322448,-42500.0,744.12399579938676,18.930420129240193,-469.00258105142768,441.57745977499297,-64.86667709842817,217.08565821236346,736.93955915733954,705.06696261005914,-368.68688210823348,368.68688210823348,-705.06696261005914,1307.1921760622536,0.0
573204.59901257406,4077374.0504322448,-42500.0,833.1860295654958,120.28432025406217,-454.4040342567219,570.31127313261038,33.008654477402885,339.77511142699927,841.2702617809324,757.79916430731441,-294.0207683090232,294.0207683090232,-757.79916430731441,1512.7689918523711,0.0
578204.59901257406,4077374.0504322448,-42500.0,898.78086495603816,235.50381688557329,-410.625467333318,708.16888920610882,171.84815120645891,500.6091450024839,967.93787259485271,782.30527156596725,-188.10518751946722,188.10518751946722,-782.30527156596725,1763.8617070521718,0.0
583204.59901257406,4077374.0504322448,-42500.0,927.44398202161926,355.69443576087417,-330.17306530778473,844.36858629522112,358.2517317433431,704.39017477635707,1120.0789145969272,766.83638488108431,-51.649974360944668,51.649974360944668,-766.83638488108431,2062.59564664245,0.0
588204.59901257406,4077374.0504322448,-42500.0,906.06479266109079,465.88509871367802,-207.93055615296549,962.17257855715252,595.1596558066085,952.40392185410803,1298.2598744185254,701.18504077489081,108.39382364596872,-108.39382364596872,-701.18504077489081,2405.3844937046288,0.0
593204.59901257406,4077374.0504322448,-42500.0,825.58978725982786,544.74943955125366,-44.21228861155609,1038.8168826500419,878.48463157025526,1239.5490532537005,1497.7841098062158,580.46577472003366,276.29772052575834,-276.29772052575834,-580.46577472003366,2780.4430762750508,0.0
598204.59901257406,4077374.0504322448,-42500.0,686.15494513051385,566.40523552175137,151.55364059783346,1047.4485047953262,1193.2010525076164,1551.0302618659559,1706.7925457284834,409.99765811196869,426.09261374024334,-426.09261374024334,-409.99765811196869,3165.6353831545825,0.0
603204.59901257406,4077374.0504322448,-42500.0,502.47980024730947,505.44171955800749,357.64256941862004,962.14372021076917,1510.1055931896708,1859.6170730538383,1906.3616828477393,209.95652398234623,522.91981570643668,-522.91981570643668,-209.95652398234623,3527.6331616968159,0.0
608204.59901257406,4077374.0504322448,-42500.0,306.90138024943008,345.58793243394365,539.42234697421202,766.42278441067049,1785.4414525212687,2125.309901890816,2072.3613770229135,17.133590811871102,529.11360785890065,-529.11360785890065,-17.133590811871102,3823.8417456609127,0.0
613204.59901257406,4077374.0504322448,-42500.0,146.28004944723463,90.416864751909785,653.87627895851767,463.8068468953245,1966.1073446242056,2299.7642899012644,2179.18857518714,-119.71376587125388,415.78299251812842,-415.78299251812842,119.71376587125388,4008.5730751806045,0.0
618204.59901257406,4077374.0504322448,-42500.0,69.872075114607625,-228.5668160642245,660.69801148007832,86.049805645470983,2002.0444837301395,2336.981899015464,2205.754610723076,-153.17830844675353,177.45833100565773,-177.45833100565773,153.17830844675353,4043.8698515203523,0.0
623204.59901257406,4077374.0504322448,-42500.0,109.83241358139246,-553.14443331202028,537.79542100712035,-307.43060764743393,1863.6655976890725,2208.6690904322318,2142.8774715757718,-56.70367129802991,-157.01818732946884,157.01818732946884,56.70367129802991,3912.9577921817131,0.0
628204.59901257406,4077374.0504322448,-42500.0,263.1298525319653,-813.16795141229636,294.18996208248393,-643.38897269369522,1556.974316265055,1918.0650419429185,1999.4344852200122,158.903633028044,-526.11846021601627,526.11846021601627,-158.903633028044,3631.3157766799495,0.0
633204.59901257406,4077374.0504322448,-42500.0,487.256653648015,-950.95044585711901,-28.446792818302669,-858.62662278479957,1126.8044367769376,1503.7539991590907,1803.6856690775367,443.71726594719303,-853.53239637263391,853.53239637263391,-443.71726594719303,3249.1740615493136,0.0
638204.59901257406,4077374.0504322448,-42500.0,715.60195397441328,-942.65813311292834,-368.99878763069233,-922.06817564730704,643.80174408569235,1029.09021859718,1596.7995363234027,726.16043178086227,-1075.1405110709984,1075.1405110709984,-726.16043178086227,2841.5713173349591,0.0
643204.59901257406,4077374.0504322448,-42500.0,884.5169839548355,-804.17258084821174,-668.36174377655288,-842.50443781138438,181.17333085830404,561.91988996113002,1418.2299257440027,940.64941666784887,-1160.1208514072734,1160.1208514072734,-940.64941666784887,2486.4714342227571,0.0
648204.59901257406,4077374.0504322448,-42500.0,955.77890786700698,-579.44698726131094,-887.20046077845211,-659.05758109875785,-206.26832534810768,155.43402313251201,1289.3014895881274,1049.2183666720575,-1115.2661979371119,1115.2661979371119,-1049.2183666720575,2236.0887196805261,0.0
653204.59901257406,4077374.0504322448,-42500.0,923.47913224682964,-320.659606970808,-1012.1066341939101,-422.51113586787125,-491.51593794906574,-161.32583621525535,1207.5464733707859,1047.1071129115364,-973.72168934026604,973.72168934026604,-1047.1071129115364,2095.7909019574327,0.0
658204.59901257406,4077374.0504322448,-42500.0,806.55293941424873,-71.672296912893842,-1050.9088776648491,-178.56988828655574,-672.78539405688775,-382.32110802422829,1155.8504997970842,954.36977042397473,-777.9439859761759,777.9439859761759,-954.36977042397473,2030.8349718668542,0.0
663204.59901257406,4077374.0504322448,-42500.0,635.49972492235156,139.61911299017993,-1023.1485776763433,40.950704281585303,-764.55060112796832,-517.27019124904882,1115.903067778936,802.27309112203284,-566.10014680753534,566.10014680753534,-802.27309112203284,1996.2657744734779,0.0
668204.59901257406,4077374.0504322448,-42500.0,440.96390858504083,301.08491672869314,-951.31588745254112,219.30657133802768,-788.13957826951673,-583.47611350882505,1075.5448311477644,621.94145013239086,-365.45746087430399,365.45746087430399,-621.94145013239086,1959.9356435234804,0.0
673204.59901257406,4077374.0504322448,-42500.0,247.2904066273085,412.15233785496741,-855.35760384323123,351.67657103561424,-765.044643162228,-599.67005895938019,1029.358176513359,438.08744259066935,-191.61463838931041,191.61463838931041,-438.08744259066935,1906.77560076502,0.0
678204.59901257406,4077374.0504322448,-42500.0,70.580442782505116,478.90002085319412,-750.40250337762257,440.81765360818781,-713.42998364193375,-582.51755428236504,976.46758730525266,267.19897072984202,-50.82371071457456,50.82371071457456,-267.19897072984202,1833.6605464724798,0.0
683204.59901257406,4077374.0504322448,-42500.0,-80.538935409145537,510.15377472768341,-646.60080818369988,493.29799829296797,-647.01782817783294,-545.23254385333018,918.28321559906499,118.36018519190881,56.860534637485301,-56.860534637485301,-118.36018519190881,1743.5642908082773,0.0
688204.59901257406,4077374.0504322448,-42500.0,-203.05530858974396,514.99541639303732,-549.96772410561982,516.88750819388997,-575.31472948415364,-497.46707558482558,856.99528564062848,-4.89712665275934,134.81832224497708,-134.81832224497708,4.89712665275934,1641.6550960302598,0.0
693204.59901257406,4077374.0504322448,-42500.0,-297.61907880142456,501.46989653365284,-463.50197601985468,519.04124691786217,-504.40200382986677,-445.81026359120762,794.77275539740492,-102.67594624817229,187.88936059636092,-187.88936059636092,102.67594624817229,1533.2276881015218,0.0
698204.59901257406,4077374.0504322448,-42500.0,-366.94371361226422,476.09325432230827,-388.20174733025061,506.17518820499475,-437.8262572048219,-394.46962942451086,733.41203958531594,-177.15364628231941,221.15085132755593,-221.15085132755593,177.15364628231941,1422.7910076968635,0.0
703204.59901257406,4077374.0504322448,-42500.0,-414.66731026075286,443.82266448888981,-323.85619550556362,483.4418686032746,-377.38772033682051,-345.92786568116361,674.24405574864682,-231.47372331730574,239.26486676840594,-239.26486676840594,231.47372331730574,1313.8027751893592,0.0
708204.59901257406,4077374.0504322448,-42500.0,-444.62568108787838,408.24387699823342,-269.60044189592361,454.77491922717087,-323.75354955537665,-301.48454288397494,618.16091821232271,-269.03771912568465,246.19859687080125,-246.19859687080125,269.03771912568465,1208.7054484824521,0.0
713204.59901257406,4077374.0504322448,-42500.0,-460.43649723003438,371.83319545566712,-224.27736006098951,423.0555131523459,-276.90106705853293,-261.66736526742153,565.69063509039051,-293.09741443801914,245.16290064096273,-245.16290064096273,293.09741443801914,1109.0849558794093,0.0
718204.59901257406,4077374.0504322448,-42500.0,-465.29554001083346,336.21800456385262,-186.65730039543797,390.31464888872932,-236.42018533606728,-226.52643596176597,517.08145457356886,-306.55113235551215,238.66380294566883,-238.66380294566883,306.55113235551215,1015.8580009483106,0.0
538204.59901257406,4082374.0504322448,-42500.0,111.80569666532205,-300.56135189328836,-305.15795118867436,-61.508886154658406,-222.73426576724287,-83.696054118519399,422.80496090507154,208.96906075653905,-429.31023247768769,429.31023247768769,-208.96906075653905,749.50354398556874,0.0
543204.59901257406,4082374.0504322448,-42500.0,182.97877537837618,-302.7153788036855,-346.87919787302008,-31.125685785232236,-239.69597656497899,-78.791497020200865,462.28190255575112,275.66157652631233,-465.97499072990917,465.97499072990917,-275.66157652631233,812.86578936686931,0.0
548204.59901257406,4082374.0504322448,-42500.0,267.50991591288096,-296.3790155012569,-391.84850796265204,11.582607206983333,-252.93976658891143,-66.786399653020311,506.53412349409467,352.62526722947121,-499.85017634606788,499.85017634606788,-352.62526722947121,884.27714853512327,0.0
553204.59901257406,4082374.0504322448,-42500.0,365.56844238529578,-278.59523110392644,-438.74661060949614,69.553566995856002,-259.43625382002745,-44.34105103524216,556.75126860825753,439.3070762092043,-527.8627266693062,527.8627266693062,-439.3070762092043,966.71228147897727,0.0
558204.59901257406,4082374.0504322448,-42500.0,476.0745140325206,-246.05292079584774,-485.28693434479669,145.82270678341254,-254.91468265420247,-6.9737734630006418,614.66667391265378,533.8792540756242,-545.91169418760819,545.91169418760819,-533.8792540756242,1064.6740686290411,0.0
563204.59901257406,4082374.0504322448,-42500.0,596.04898456852015,-195.40594707099524,-527.88866996416834,243.0991109472609,-233.58311077311805,51.145803586804576,682.76608245447085,632.67511515234332,-548.83401536692281,548.83401536692281,-632.67511515234332,1184.5857163320711,0.0
568204.59901257406,4082374.0504322448,-42500.0,719.86154050293533,-123.8880830857938,-561.36877363971189,363.03353547162749,-187.93658493430397,137.30007182946071,764.49743478751691,729.57953540153312,-530.6005649995293,530.6005649995293,-729.57953540153312,1334.8853374123769,0.0
573204.59901257406,4082374.0504322448,-42500.0,838.51395967469784,-30.336178678852484,-578.77678899379669,505.08085800555619,-108.80966881049537,260.08044010095148,864.40574641238391,815.52566641375654,-484.92383123766911,484.92383123766911,-815.52566641375654,1525.4800652507681,0.0
578204.59901257406,4082374.0504322448,-42500.0,939.24207112748513,83.30487887676307,-571.58780721536277,664.90359619041362,14.075404080831488,428.77300244627634,988.03426534897903,878.38526424813006,-406.5027248046523,406.5027248046523,-878.38526424813006,1766.255221267661,0.0
583204.59901257406,4082374.0504322448,-42500.0,1005.9132776795093,210.05315446776922,-530.57206306880005,832.39728060777065,190.71050032615304,651.95867941840663,1141.2090542910362,903.70691698319069,-293.11447508593773,293.11447508593773,-903.70691698319069,2064.5481768767609,0.0
588204.59901257406,4082374.0504322448,-42500.0,1020.887610951879,335.88276545817803,-447.7213726963812,989.70549490956603,428.15026601199986,934.96989141247877,1327.9288987957887,876.89537280142463,-148.59901188192572,148.59901188192572,-876.89537280142463,2421.7669610905164,0.0
593204.59901257406,4082374.0504322448,-42500.0,969.0350005228936,438.46304438789997,-319.51416409755416,1110.0631744390344,726.3294702317595,1275.9428422745402,1546.473621556464,787.37252297940108,13.65130064068552,-13.65130064068552,-787.37252297940108,2829.5142677988761,0.0
598204.59901257406,4082374.0504322448,-42500.0,844.2026361180009,488.06957382655025,-151.38043194080913,1158.9269367294767,1072.5618295472575,1660.626500376216,1785.6616760312695,634.77747823577113,167.86458165065707,-167.86458165065707,-634.77747823577113,3265.8365915141585,0.0
603204.59901257406,4082374.0504322448,-42500.0,657.20308610402685,452.49965604188509,37.704318145670982,1099.3129762936044,1436.0079745653566,2057.0676753065195,2023.8288577120193,436.01526566452668,275.9390476153763,-275.9390476153763,-436.01526566452668,3692.7910264008901,0.0
608204.59901257406,4082374.0504322448,-42500.0,442.17698980087977,307.32121264412979,212.93557823506808,902.8639790864919,1765.0318979275044,2412.8467561677876,2230.5926622576185,229.90812371438059,293.30881267264652,-293.30881267264652,-229.90812371438059,4057.4243001373252,0.0
613204.59901257406,4082374.0504322448,-42500.0,255.64953709532921,50.368361860256556,327.32782242982591,565.77336807997301,1991.8842077197244,2659.1526057052092,2371.4031466945644,74.127402377018299,182.71149158573303,-182.71149158573303,-74.127402377018299,4298.8839618273314,0.0
618204.59901257406,4082374.0504322448,-42500.0,162.34824950543253,-285.28816488964458,334.1726054539397,123.71156145209372,2048.4665413453731,2725.6862925058558,2415.8293517689376,29.518227306386308,-66.171264573956179,66.171264573956179,-29.518227306386308,4363.3139698051737,0.0
623204.59901257406,4082374.0504322448,-42500.0,207.79584346109607,-630.11486228814738,206.64552936717701,-345.29100277999055,1891.6654773900079,2565.6239779019543,2348.8890421841943,133.19285530326681,-420.28938973591505,420.28938973591505,-133.19285530326681,4224.4613575693447,0.0
628204.59901257406,4082374.0504322448,-42500.0,390.05140937272523,-896.8889977732307,-44.659284561360074,-739.80022020166928,1527.3732395287459,2180.5453462107166,2181.3733894682823,373.27190377224747,-803.78399679100244,803.78399679100244,-373.27190377224747,3902.1710041896959,0.0
633204.59901257406,4082374.0504322448,-42500.0,651.63703138436779,-1015.0426115948145,-369.36184347296086,-972.44108951508088,1016.6574687159024,1628.7124264470924,1952.8675258484941,684.84387337860005,-1122.7546239905128,1122.7546239905128,-684.84387337860005,3467.4694898420821,0.0
638204.59901257406,4082374.0504322448,-42500.0,903.02124866741121,-960.81055450364829,-695.56408442702104,-1005.1863559147114,455.60793835342162,1006.9397041032784,1721.7604060589715,975.80896215416385,-1303.3732669819096,1303.3732669819096,-975.80896215416385,3025.8555826447664,0.0
643204.59901257406,4082374.0504322448,-42500.0,1064.0029219258374,-763.03524623510748,-958.5960949310296,-859.50770671623309,-60.634752776028542,415.08531223873439,1540.4192178507633,1167.5291740620696,-1319.3560522045709,1319.3560522045709,-1167.5291740620696,2678.3314399483479,0.0
648204.59901257406,4082374.0504322448,-42500.0,1094.812143782681,-483.13588106118794,-1122.1976911354511,-597.5103470645455,-467.745430869465,-75.195892068599989,1427.7313296332673,1223.312108245374,-1192.9087924372307,1192.9087924372307,-1223.312108245374,2473.4199273913105,0.0
653204.59901257406,4082374.0504322448,-42500.0,1000.7097695412737,-186.13607015109739,-1182.2528942183733,-290.94012496529268,-741.87286801375865,-432.33629023488845,1366.6337843860092,1150.7753529364782,-974.45185760595996,974.45185760595996,-1150.7753529364782,2387.3972004114817,0.0
658204.59901257406,4082374.0504322448,-42500.0,816.15526008683878,79.695038222653665,-1156.9989032987019,2.5562991693928367,-891.43035267200389,-658.49549762183437,1327.6827605948843,985.27141432786698,-718.31578955534269,718.31578955534269,-985.27141432786698,2358.2274381252982,0.0
663204.59901257406,4082374.0504322448,-42500.0,584.35390693980332,288.96771918845491,-1073.6448753261257,248.4752462721172,-942.04103210261758,-775.37910237964797,1288.9495401056511,769.81916475606613,-467.03004862448506,467.03004862448506,-769.81916475606613,2332.6913502848151,0.0
668204.59901257406,4082374.0504322448,-42500.0,342.96830723795063,435.36892437134225,-958.39490775223032,433.31458386209795,-923.61272010906248,-811.28610059100254,1240.3290762043737,541.50907595343756,-246.4420844464951,246.4420844464951,-541.50907595343756,2283.604494031877,0.0
673204.59901257406,4082374.0504322448,-42500.0,118.19634006518999,524.43776448604524,-831.63028564458898,557.840049175785,-862.75930188549614,-792.98606688255404,1180.0235406269292,326.08401833150072,-67.817729398380322,67.817729398380322,-326.08401833150072,2204.2415914462631,0.0
678204.59901257406,4082374.0504322448,-42500.0,-75.306739177125763,567.09041939709266,-706.95152056020754,630.37182946591145,-779.88522677616481,-742.11987287180239,1110.3243301072441,138.06952151246659,67.543107597818761,-67.543107597818761,-138.06952151246659,2098.5636305244348,0.0
683204.59901257406,4082374.0504322448,-42500.0,-231.85622761925453,575.31634737888146,-592.18225237160414,661.93732872029364,-689.06982702883931,-674.49311031276909,1034.839938862282,-16.652670435310114,163.89261772459909,-163.89261772459909,16.652670435310114,1974.3784149431972,0.0
688204.59901257406,4082374.0504322448,-42500.0,-351.65845547025651,559.90502558971411,-490.96397209477487,663.42438515889285,-599.17248685881987,-600.77066006377424,957.08090326406045,-137.85798398180955,227.82746338090519,-227.82746338090519,137.85798398180955,1839.7445142244781,0.0
693204.59901257406,4082374.0504322448,-42500.0,-438.21863011855243,529.56701327969654,-404.24513908008623,644.23040883686429,-515.22177206695972,-527.63085939603047,879.8950825107313,-228.49716667600362,266.33180262754229,-266.33180262754229,228.49716667600362,1701.4608245021468,0.0
698204.59901257406,4082374.0504322448,-42500.0,-496.50401749835976,490.84048868435298,-331.42100862299918,611.83414934669258,-439.65573345969278,-458.90227264196426,805.34471241999029,-292.95084791889485,285.7653934335741,-285.7653934335741,292.95084791889485,1564.6554280939067,0.0
703204.59901257406,4082374.0504322448,-42500.0,-531.79242944294697,448.36016416748782,-271.10963905317624,571.85390498951278,-373.27713945887598,-396.49786822131432,734.77886945760815,-335.94042732104117,291.45603133521979,-291.45603133521979,335.94042732104117,1432.874668865946,0.0
708204.59901257406,4082374.0504322448,-42500.0,-549.03426538156589,405.24462145984273,-221.63713608116166,528.31871728458918,-315.92957032492109,-341.11410406812871,668.97570384888672,-361.92483480755084,287.63285466200477,-287.63285466200477,361.92483480755084,1308.3628322450229,0.0
713204.59901257406,4082374.0504322448,-42500.0,-552.55280653387808,363.47523101834861,-181.31515638098242,483.99389142759463,-266.94476788957189,-292.71898248181719,608.28727132829852,-374.81596673282729,277.5243306885651,-277.5243306885651,374.81596673282729,1192.3684118431227,0.0
718204.59901257406,4082374.0504322448,-42500.0,-545.95297944505762,324.21964063556436,-148.58472887468363,440.69031319740793,-225.42527006586303,-250.87897404782237,552.76819927827751,-377.88846830280767,263.52082085207002,-263.52082085207002,377.88846830280767,1085.4242459156185,0.0
723204.59901257406,4082374.0504322448,-42500.0,-532.14191426336856,288.08456482154338,-122.07753267455371,399.52358551865387,-190.41237333243132,-214.96705188277997,502.27614367136181,-373.79416479229775,247.3451820851835,-247.3451820851835,373.79416479229775,987.57107488672068,0.0
533204.59901257406,4087374.0504322448,-42500.0,-41.323221773076781,-336.93201547534932,-251.28408172663828,-148.92631287532413,-226.5342863834002,-119.56679571056196,423.80226910982651,80.81075954000184,-403.3033593698807,403.3033593698807,-80.81075954000184,771.25713571004599,0.0
538204.59901257406,4087374.0504322448,-42500.0,11.122052798285848,-356.12647127212921,-291.17235092881879,-137.93350252303966,-252.60560514549317,-126.99717623793636,462.8704338241705,134.42540317952918,-449.5061463469707,449.5061463469707,-134.42540317952918,835.27844291549388,0.0
543204.59901257406,4087374.0504322448,-42500.0,77.402175949091216,-371.34372173273721,-336.69336825409977,-117.95503748583985,-279.12296856568491,-131.20851448932822,505.62863516014255,199.82233678125968,-497.93701924539016,497.93701924539016,-199.82233678125968,904.30433420890438,0.0
548204.59901257406,4087374.0504322448,-42500.0,159.33222471864613,-380.19560925583681,-387.88897824894059,-85.989650209104454,-304.45610386907242,-129.86730923567944,552.5284954979129,278.16519139270952,-547.00753831053191,547.00753831053191,-278.16519139270952,979.15301144379373,0.0
553204.59901257406,4087374.0504322448,-42500.0,258.23240718377986,-379.63738156919311,-444.28984678068321,-38.453504315018101,-326.01378997586994,-119.59195366113427,604.25657381291444,370.02876593132589,-594.23820196958411,594.23820196958411,-370.02876593132589,1061.3780464940253,0.0
558204.59901257406,4087374.0504322448,-42500.0,374.40615190644922,-365.98666786495295,-504.61769784578502,28.699703411780632,-339.8808796938286,-95.611499392793647,661.92036518367013,474.91547084315727,-636.02192247206915,636.02192247206915,-474.91547084315727,1153.8238925010737,0.0
563204.59901257406,4087374.0504322448,-42500.0,506.3987389500632,-335.11109110183111,-566.40375715303549,119.6438452908107,-340.40313216065863,-51.394164772630482,727.33740515624845,590.59506853015205,-667.4394944382957,667.4394944382957,-590.59506853015205,1261.3887807122696,0.0
568204.59901257406,4087374.0504322448,-42500.0,650.03579893666733,-282.91075275754923,-625.55536880734178,237.99606820786997,-319.7889222219855,21.679397389426626,803.44534426291546,712.28794321380326,-682.24562611688987,682.24562611688987,-712.28794321380326,1391.8604277855213,0.0
573204.59901257406,4087374.0504322448,-42500.0,797.32942341656587,-206.25753995255721,-675.96627965908897,385.61614709665082,-267.87963436832206,134.44301675760593,894.80493856573651,831.8015320735343,-673.22258293480229,673.22258293480229,-831.8015320735343,1556.4046308307063,0.0
578204.59901257406,4087374.0504322448,-42500.0,935.51033962437157,-104.55479977611829,-709.37381998103569,560.72894673430653,-172.37206061088693,299.59213164324285,1008.0487036376676,936.89181461737235,-633.18788984809498,633.18788984809498,-936.89181461737235,1768.9563120873274,0.0
583204.59901257406,4087374.0504322448,-42500.0,1046.7144485097097,18.015337547662828,-715.81218953385212,755.31547359486603,-19.946726516542675,530.40549543941449,1151.8012001813515,1011.3622679382845,-556.99137241783274,556.99137241783274,-1011.3622679382845,2043.7070407471474,0.0
588204.59901257406,4087374.0504322448,-42500.0,1109.1907008229159,149.7781867412306,-685.15029003691643,952.0235081793038,201.08724977966176,837.93207981616695,1334.8523155074356,1036.6865070613164,-444.73962158256467,444.73962158256467,-1036.6865070613164,2390.4320551469791,0.0
593204.59901257406,4087374.0504322448,-42500.0,1101.1558458680881,269.18336635737722,-610.2107493285497,1121.4654158527694,496.01859519679442,1225.9912432830756,1561.0565220945155,996.08876190077206,-306.07290288398656,306.07290288398656,-996.08876190077206,2808.2975376572454,0.0
598204.59901257406,4087374.0504322448,-42500.0,1008.2429827104468,344.4207070874163,-491.61502659203512,1221.7579007728511,856.66254650660676,1683.696014139706,1822.5735715827373,881.6974229001321,-164.39782546742737,164.39782546742737,-881.6974229001321,3279.3994290584042,0.0
603204.59901257406,4087374.0504322448,-42500.0,834.24968277340759,337.5726468585064,-343.50258494642782,1203.2718453283089,1253.1047964539421,2176.4155373712501,2096.4606004965735,704.06751088108012,-58.524998704874577,58.524998704874577,-704.06751088108012,3763.7107532280565,0.0
608204.59901257406,4087374.0504322448,-42500.0,611.92690040793661,215.82222796263471,-197.52944631305942,1021.8845250554378,1627.7794973761429,2638.6330789557642,2345.9544588001868,500.59688064866521,-37.71718937413209,37.71718937413209,-500.59688064866521,4198.186229397289,0.0
613204.59901257406,4087374.0504322448,-42500.0,406.08596739913628,-30.289364266047603,-100.65365690816451,661.5100630844222,1898.3266205053596,2975.6884981615472,2525.7909866513282,335.63017006146026,-146.38035398745669,146.38035398745669,-335.63017006146026,4504.246056312646,0.0
618204.59901257406,4087374.0504322448,-42500.0,298.63948129314366,-367.9863544173129,-102.23870684653208,159.08584230881902,1976.3093553196304,3083.0563066453915,2593.2972478026236,283.59732789719737,-399.33880127123859,399.33880127123859,-283.59732789719737,4607.5432869976094,0.0
623204.59901257406,4087374.0504322448,-42500.0,351.72842147996317,-717.16635586687505,-231.15670833249891,-385.53795552088121,1802.2167245677776,2885.4769167096806,2525.3406272339598,393.71628688202827,-758.94747318954046,758.94747318954046,-393.71628688202827,4468.7109428255335,0.0
628204.59901257406,4087374.0504322448,-42500.0,565.03660069536511,-973.27265920119123,-474.08548940461208,-834.34387889157813,1381.7269401630763,2380.6557637826459,2335.2646181731507,653.01880784241735,-1134.2472436223511,1134.2472436223511,-653.01880784241735,4113.4625058180354,0.0
633204.59901257406,4087374.0504322448,-42500.0,861.71632881984658,-1053.9328147768526,-772.94924152590352,-1068.9024521313397,796.15403190843836,1656.0599532959623,2078.8087426948177,978.79162375916826,-1414.4635318625621,1414.4635318625621,-978.79162375916826,3641.8626707845724,0.0
638204.59901257406,4087374.0504322448,-42500.0,1123.9349718870085,-939.53024054130981,-1049.1527452161215,-1045.7648005499339,171.85507132987149,857.90735491472253,1837.7111896366746,1256.1446617496899,-1520.7395384466749,1520.7395384466749,-1256.1446617496899,3198.8443760007626,0.0
643204.59901257406,4087374.0504322448,-42500.0,1254.8303280005405,-676.86771925290441,-1239.3182715646394,-808.28045317621832,-373.38733806806584,129.78020206697232,1676.3280205801266,1396.011331429987,-1439.1531370714079,1439.1531370714079,-1396.011331429987,2903.9849759058761,0.0
648204.59901257406,4087374.0504322448,-42500.0,1219.2959749378388,-346.83228188123513,-1317.4066538320812,-451.04440829348744,-770.28065381560452,-436.6758419631031,1599.3135693875415,1370.1168714374903,-1213.9388788358592,1213.9388788358592,-1370.1168714374903,2779.8548075444501,0.0
653204.59901257406,4087374.0504322448,-42500.0,1041.5863690194515,-24.91138680366473,-1293.0282149119485,-70.658844594841369,-1004.6795966048167,-813.62913915202341,1565.9305071169019,1205.5303602791305,-914.64819456407577,914.64819456407577,-1205.5303602791305,2757.9013179572298,0.0
658204.59901257406,4087374.0504322448,-42500.0,776.39853550030227,241.00108227573705,-1195.419521768348,265.22421844963679,-1100.0264051440242,-1019.6012138264426,1536.3803103878827,956.19881082618258,-604.76367780282271,604.76367780282271,-956.19881082618258,2754.5865956896587,0.0
663204.59901257406,4087374.0504322448,-42500.0,480.11268371085634,432.44338072134911,-1057.2152270747167,524.03060299449885,-1094.821480516724,-1094.3317201896066,1490.9139010912072,676.13443154078811,-326.46534042649489,326.46534042649489,-676.13443154078811,2720.7651927304264,0.0
668204.59901257406,4087374.0504322448,-42500.0,195.17383208140913,551.52379807731882,-905.03798381226375,699.89837509335916,-1026.8637551253139,-1080.100738607651,1425.5010199435287,405.42971023634112,-99.889879867643401,99.889879867643401,-405.42971023634112,2641.8128889040258,0.0
673204.59901257406,4087374.0504322448,-42500.0,-53.349909196787884,610.66796218002582,-756.69245831544879,802.09285449117169,-926.08824076773737,-1012.4069670786311,1343.7486447106926,167.58326687547248,70.821600995154682,-70.821600995154682,-167.58326687547248,2522.2328910460283,0.0
678204.59901257406,4087374.0504322448,-42500.0,-254.77675451753439,625.22459958903062,-622.09588545004556,845.89918797456403,-813.21725329869093,-917.34566784592812,1251.5948383040413,-27.3991479120875,190.61745355915738,-190.61745355915738,27.3991479120875,2373.5768963868372,0.0
683204.59901257406,4087374.0504322448,-42500.0,-408.0425058895442,609.43447853345663,-505.4761098046373,847.15717642453239,-701.12331149716977,-812.36939218870361,1154.7480234458105,-178.43099432923901,268.31324505743396,-268.31324505743396,178.43099432923901,2208.0663943408567,0.0
688204.59901257406,4087374.0504322448,-42500.0,-517.4695665582592,574.81718778314382,-407.50802036224655,819.65796285467627,-596.92864142557107,-708.20704901409033,1057.7444490336511,-289.37906609384515,313.42025655412033,-313.42025655412033,289.37906609384515,2035.9713781220792,0.0
693204.59901257406,4087374.0504322448,-42500.0,-589.76132777549196,529.9221329904625,-326.93183783199737,774.29963441536131,-503.9368855641714,-610.84219119076477,963.7960660402839,-366.28302637568117,334.55170067326469,-334.55170067326469,366.28302637568117,1864.9379997009064,0.0
698204.59901257406,4087374.0504322448,-42500.0,-632.1503523166441,480.69419347760567,-261.61764222433072,719.14443298188178,-423.10882502652242,-523.13513682861571,874.95675891592316,-415.66049878676256,338.8170247025613,-338.8170247025613,415.66049878676256,1700.1632880585041,0.0
703204.59901257406,4087374.0504322448,-42500.0,-651.40144490654893,431.03160795886993,-209.1973558870028,659.85276674020895,-354.08276761020193,-446.01512688672454,792.38252102406568,-443.60322719552568,331.75081583092907,-331.75081583092907,443.60322719552568,1544.8659837593571,0.0
708204.59901257406,4087374.0504322448,-42500.0,-653.36213235584239,383.32808682707122,-167.40098052044218,600.20490019683109,-295.82954918087813,-379.29324842218585,716.57826090479682,-455.37515919251121,317.4837768475245,-317.4837768475245,455.37515919251121,1400.7817686325172,0.0
713204.59901257406,4087374.0504322448,-42500.0,-642.84181019888604,338.92789279402109,-134.21218146808215,542.59103585860635,-247.05267127164009,-322.19392941567253,647.6090010662499,-455.30681027394502,298.99888988649849,-298.99888988649849,455.30681027394502,1268.6073716436492,0.0
718204.59901257406,4087374.0504322448,-42500.0,-623.65785558837456,298.4725430060227,-107.91819833702846,488.41268830412685,-206.41529556234246,-273.68232950248898,585.25785960379051,-446.83976758036601,278.38746772272168,-278.38746772272168,446.83976758036601,1148.3441412973898,0.0
723204.59901257406,4087374.0504322448,-42500.0,-598.75788754870939,262.15221327134589,-87.104947893299425,438.39195685839741,-172.65932131581795,-232.65691472870975,529.14003371900083,-432.63827919830612,257.07226946555284,-257.07226946555284,432.63827919830612,1039.5526008812792,0.0
528204.59901257406,4092374.0504322448,-42500.0,-180.20518718173693,-340.76447545746873,-191.08204485512459,-217.04653489956954,-212.20615040258983,-142.28189728455413,424.46018771015355,-41.545317634684807,-350.08400033650719,350.08400033650719,41.545317634684807,791.67682618565539,0.0
533204.59901257406,4092374.0504322448,-42500.0,-149.709458386965,-370.47829509462838,-224.26547943618016,-223.48934175275019,-241.70746770569076,-158.84256251668518,464.91000114809134,-5.539571242311581,-397.3640692392907,397.3640692392907,5.539571242311581,861.29759365505492,0.0
538204.59901257406,4092374.0504322448,-42500.0,-107.32590162565782,-400.07440314565451,-263.4610839458586,-224.94083417711758,-274.29046305577947,-175.51432742075875,509.04340152719459,41.245599073191613,-449.84992302987251,449.84992302987251,-41.245599073191613,935.9811640438819,0.0
543204.59901257406,4092374.0504322448,-42500.0,-50.491139400828608,-428.10796574746439,-309.47389654926315,-218.97975256022394,-309.49188095888871,-191.0670141028159,556.99880037336573,100.85701014893854,-507.25550985872758,507.25550985872758,-100.85701014893854,1015.612267389125,0.0
548204.59901257406,4092374.0504322448,-42500.0,23.478310490135808,-452.51129350358497,-362.99749293144862,-202.43921419083745,-346.27785755583756,-203.50259985528686,608.8922503774329,175.34331939368371,-568.75462109667444,568.75462109667444,-175.34331939368371,1100.059377068503,0.0
553204.59901257406,4092374.0504322448,-42500.0,117.10836201029058,-470.45757566041277,-424.44267389516972,-171.30860102242428,-382.73949808503414,-209.71180804765532,664.86542378149352,266.48187051534592,-632.73103023935687,632.73103023935687,-266.48187051534592,1189.3690001097452,0.0
558204.59901257406,4092374.0504322448,-42500.0,232.28686623044214,-478.26923895735223,-493.67383449565637,-120.72367193066751,-415.68094636911189,-205.02500706372351,725.20398366554411,375.32844611158498,-696.47957905955127,696.47957905955127,-375.32844611158498,1284.1761315197664,0.0
563204.59901257406,4092374.0504322448,-42500.0,369.50593370615212,-471.44989872308804,-569.63174967393536,-45.147378531363898,-440.0980618680191,-182.66344640474,790.58344580800622,501.53417661285573,-755.89724737802783,755.89724737802783,-501.53417661285573,1386.4618028523382,0.0
568204.59901257406,4092374.0504322448,-42500.0,526.76860976475029,-444.97260498346867,-649.84252664370058,61.096286791100106,-448.58747048466512,-133.14237636509918,862.52718273047481,642.39689325542781,-805.26049323043708,805.26049323043708,-642.39689325542781,1500.7764467036343,0.0
573204.59901257406,4092374.0504322448,-42500.0,698.17014057851679,-394.0216995378787,-729.864811021783,202.70182948962167,-430.81162380045743,-43.769254420999076,944.17815154675282,791.68758721493396,-837.27721376293698,837.27721376293698,-791.68758721493396,1635.867311421089,0.0
578204.59901257406,4092374.0504322448,-42500.0,872.3330498109475,-315.43520601826918,-802.83323626676861,381.38868507621277,-373.30140830855447,101.45586708970067,1041.434463985925,938.45679706569149,-843.72807342180181,843.72807342180181,-938.45679706569149,1806.1058022402099,0.0
583204.59901257406,4092374.0504322448,-42500.0,1031.2016411561526,-210.0603246346088,-859.43090980980423,592.7864594803508,-260.11573675824906,320.97571515553238,1164.1735665118342,1066.3225361946716,-817.13551516285531,817.13551516285531,-1066.3225361946716,2031.1770045008802,0.0
588204.59901257406,4092374.0504322448,-42500.0,1150.1949873976209,-85.989234177729202,-888.83341482767821,822.21554407282736,-75.164224230931694,632.95110074211277,1326.1111405399993,1154.1564069033889,-753.90057964762411,753.90057964762411,-1154.1564069033889,2331.8983076748918,0.0
593204.59901257406,4092374.0504322448,-42500.0,1201.2781102483973,37.987404153566224,-881.29697067849099,1040.0931392352936,192.81936376498726,1049.4955843878001,1539.7911160747824,1179.491994220778,-659.00892564263665,659.00892564263665,-1179.491994220778,2721.269310704291,0.0
598204.59901257406,4092374.0504322448,-42500.0,1160.712126151034,130.48978072715508,-832.82272444353362,1199.0579102929812,541.95690061609957,1566.8032231599593,1805.5379903122778,1125.9585598540366,-551.41278530702289,551.41278530702289,-1125.9585598540366,3192.8204061168071,0.0
603204.59901257406,4092374.0504322448,-42500.0,1022.2375639668649,150.37879492368941,-751.33503142334962,1236.8817609577973,946.25214290830263,2151.3863055282159,2102.6834071521057,994.85746317108851,-467.37557667808255,467.37557667808255,-994.85746317108851,3710.3657592446712,0.0
608204.59901257406,4092374.0504322448,-42500.0,812.94143217327246,58.078537167644434,-661.83051906298704,1090.8183958430861,1345.7884932896241,2726.2250914293427,2389.3340616263404,817.70010406290044,-456.89623547322958,456.89623547322958,-817.70010406290044,4203.6266982141678,0.0
613204.59901257406,4092374.0504322448,-42500.0,602.3882944345188,-163.16048529067629,-605.54851638843468,727.2216049492414,1646.5398997002023,3167.0717906941495,2608.6091836147211,660.98187148701231,-567.75424048133323,567.75424048133323,-660.98187148701231,4575.4111424089233,0.0
618204.59901257406,4092374.0504322448,-42500.0,489.056112981691,-482.5289769652112,-627.64335822750786,180.01136431937871,1740.9595121184063,3324.9557273026894,2703.0927343856847,610.07884695344706,-816.6575512572083,816.6575512572083,-610.07884695344706,4727.0209344164996,0.0
623204.59901257406,4092374.0504322448,-42500.0,553.45747363364558,-811.98212009577696,-753.19743410999092,-427.61918918086633,1553.1749034477461,3084.4123932439979,2639.4478247903021,725.84645086277396,-1160.466267102018,1160.466267102018,-725.84645086277396,4602.5797945336835,0.0
628204.59901257406,4092374.0504322448,-42500.0,796.83447971117607,-1032.9850763212673,-964.10971884010917,-913.57403900458144,1089.6404762098475,2436.5003568373186,2435.3088203656298,993.75197640336842,-1494.6358901654983,1494.6358901654983,-993.75197640336842,4236.0081389242296,0.0
633204.59901257406,4092374.0504322448,-42500.0,1118.726528371322,-1056.3394481313558,-1198.4173638497143,-1122.9833307776792,454.31147799062728,1510.1191480467926,2169.1051446854071,1311.8292978746626,-1696.9433074238509,1696.9433074238509,-1311.8292978746626,3765.5394763414879,0.0
638204.59901257406,4092374.0504322448,-42500.0,1369.5768843819494,-872.66648985986387,-1380.2426684100192,-1011.863159800208,-195.98135027068832,519.90692300630849,1949.9172025967575,1543.5287063096366,-1693.0963559853576,1693.0963559853576,-1543.5287063096366,3379.1234339674133,0.0
643204.59901257406,4092374.0504322448,-42500.0,1439.8300267685563,-550.22763929587802,-1458.8785972076503,-657.65752063454738,-726.257270547649,-336.21900981183717,1842.5386598802029,1596.3907479549102,-1491.359147697317,1491.359147697317,-1596.3907479549102,3193.2356138654736,0.0
648204.59901257406,4092374.0504322448,-42500.0,1308.958964320824,-187.13502216813828,-1426.6325736589451,-196.45319063131765,-1071.3945554716147,-950.25183095075556,1817.9378084582227,1460.4291085445445,-1162.3734674425461,1162.3734674425461,-1460.4291085445445,3173.5966259839361,0.0
653204.59901257406,4092374.0504322448,-42500.0,1028.7165490288025,137.23698034000503,-1308.8568371442004,250.14361998133035,-1234.4575630802867,-1309.4616522937692,1809.8590566750506,1188.5937886079678,-792.08178876467446,792.08178876467446,-1188.5937886079678,3206.483647962647,0.0
658204.59901257406,4092374.0504322448,-42500.0,676.58723589647195,382.13807466999754,-1142.7522834275803,610.49769908213341,-1256.6560332442784,-1459.0746952324491,1778.5083401543029,853.7490093995475,-446.42590671598509,446.42590671598509,-853.7490093995475,3206.1375552505178,0.0
663204.59901257406,4092374.0504322448,-42500.0,319.67146009254259,540.1264818744902,-961.31150760661853,860.91433977061786,-1187.9772827505785,-1462.3676873703719,1714.110948923267,517.0602385924708,-160.72789564523296,160.72789564523296,-517.0602385924708,3141.0857222433933,0.0
668204.59901257406,4092374.0504322448,-42500.0,0.88511914373402578,622.82191540144765,-786.93590813395087,1008.000421187493,-1070.8351782052009,-1376.85217129228,1621.8609712798714,216.79416256073196,54.759628294060093,-54.759628294060093,-216.79416256073196,3014.1983186096977,0.0
673204.59901257406,4092374.0504322448,-42500.0,-259.66440554094947,648.69729255378638,-631.6885566088356,1071.7807220599573,-935.14874331090505,-1245.7222468912869,1511.4047977266241,-29.61918594960585,204.74807410262244,-204.74807410262244,29.61918594960585,2841.821687073259,0.0
678204.59901257406,4092374.0504322448,-42500.0,-457.76596847553918,635.947641609161,-500.11851787038506,1074.956831478919,-799.39957198382581,-1097.772261391154,1391.995457897398,-218.97727585430664,300.518698804049,-300.518698804049,218.97727585430664,2642.2149230477507,0.0
683204.59901257406,4092374.0504322448,-42500.0,-598.21735475271851,599.48249343973339,-392.23512248847885,1037.7049368257026,-673.60471717297889,-950.43048924537572,1270.8587134150821,-355.98894066813153,354.73831959268244,-354.73831959268244,355.98894066813153,2430.8218265322971,0.0
688204.59901257406,4092374.0504322448,-42500.0,-689.83778153705168,550.29806925432956,-305.74543630215078,975.92619149939071,-562.23719139523325,-813.18403288410002,1153.0048668698541,-448.79454486220141,378.89495965368303,-378.89495965368303,448.79454486220141,2219.0604420222267,0.0
693204.59901257406,4092374.0504322448,-42500.0,-742.43064099579783,495.91711717029165,-237.47303679426335,901.22838369962199,-466.46012375676077,-690.40055310741479,1041.5709628478423,-506.28376292773805,382.36063609464054,-382.36063609464054,506.28376292773805,2014.5993707907799,0.0
698204.59901257406,4092374.0504322448,-42500.0,-765.18620878171691,441.15740042732,-184.14938883349893,821.59846081188789,-385.63810613887694,-583.36354131482676,938.28310883323616,-536.71210971140408,372.30167581828039,-372.30167581828039,536.71210971140408,1822.1140192207372,0.0
703204.59901257406,4092374.0504322448,-42500.0,-765.99230973203191,388.88782675132757,-142.79788406089367,742.23610108669868,-318.2818799183031,-491.63267830413469,843.87980866075941,-547.12302674977786,353.95481790085285,-353.95481790085285,547.12302674977786,1644.0862770907218,0.0
708204.59901257406,4092374.0504322448,-42500.0,-751.25819351457039,340.64824569122902,-110.87923230796173,666.31705150630978,-262.59984924985292,-413.90235068693926,758.44730250481518,-543.21793201066521,331.01158992778278,-331.01158992778278,543.21793201066521,1481.4835666314079,0.0
713204.59901257406,4092374.0504322448,-42500.0,-725.9966024354876,297.1137379287303,-86.311210353596181,595.61082769111397,-216.79843378059959,-348.51755464187488,681.66699002917358,-529.44666382691821,305.99093812604798,-305.99093812604798,529.44666382691821,1334.2830195769448,0.0
718204.59901257406,4092374.0504322448,-42500.0,-694.01529138200453,258.42277828749673,-67.429084873801415,530.9469019190243,-179.22958394749162,-293.76667871532783,612.98897974960835,-509.1878618375344,280.55426941383786,-280.55426941383786,509.1878618375344,1201.8525419237772,0.0
723204.59901257406,4092374.0504322448,-42500.0,-658.13664463099337,224.39999610513439,-52.9240671567091,472.55085174696075,-148.45036045191955,-248.03539172956067,551.74925251065599,-484.94915081141755,255.75327783198716,-255.75327783198716,484.94915081141755,1083.2166870214305,0.0
528204.59901257406,4097374.0504322448,-42500.0,-286.33526588106389,-352.7353230131597,-158.07675896530424,-284.59939252948038,-214.64138852468619,-175.69434184047051,463.21992592569563,-129.95193715841157,-323.93193087989533,323.93193087989533,129.95193715841157,876.90983740578929,0.0
533204.59901257406,4097374.0504322448,-42500.0,-268.70491122241646,-389.02381002156324,-187.61672655521701,-303.66563316712518,-247.44672263114973,-200.63529190740996,509.48360207366431,-104.13856045728156,-372.33061030801309,372.33061030801309,104.13856045728156,959.18496189171663,0.0
538204.59901257406,4097374.0504322448,-42500.0,-239.93936404409888,-427.21592396675447,-223.27143089981871,-319.98484181656795,-284.78982852745179,-227.88169290298282,560.14397132047134,-67.906543781636714,-427.48377373916833,427.48377373916833,67.906543781636714,1047.9738566966762,0.0
543204.59901257406,4097374.0504322448,-42500.0,-197.03074448893074,-466.34086204063266,-266.17998869774686,-331.35675377233775,-326.73205919710244,-256.73648853754725,615.2727530586186,-18.731453092064157,-489.74313906775365,489.74313906775365,18.731453092064157,1142.9315797241436,0.0
548204.59901257406,4097374.0504322448,-42500.0,-136.56141820475068,-504.84533055122552,-317.55313338426782,-334.72748241507753,-372.9158937792198,-285.81195401193457,674.79184786226483,46.191372391423045,-559.10215665110468,559.10215665110468,-46.191372391423045,1243.3636998982033,0.0
553204.59901257406,4097374.0504322448,-42500.0,-54.880621548315844,-540.4083419051799,-378.56873415156491,-325.98950263060055,-422.27770114111661,-312.6511892163528,738.43789034506949,129.76681338305232,-634.9609842332776,634.9609842332776,-129.76681338305232,1348.2094634679936,0.0
558204.59901257406,4097374.0504322448,-42500.0,51.518759664930897,-569.75794956253469,-450.18231350861674,-299.82115946003506,-472.63043252950644,-333.19714979213603,805.75902529479185,234.64393756743704,-715.8128915066934,715.8128915066934,-234.64393756743704,1456.1548807319214,0.0
563204.59901257406,4097374.0504322448,-42500.0,185.31823054253792,-588.55211741382846,-532.81758472536706,-249.66083395079289,-520.09007479522666,-341.08414141914892,876.19802448391363,362.59964196830293,-798.86508654036811,798.86508654036811,-362.59964196830293,1566.0279525906158,0.0
568204.59901257406,4097374.0504322448,-42500.0,347.26722330996012,-591.44469730581011,-625.9058692924732,-167.98818771507877,-558.34772514749704,-326.76193966435022,949.36701484497758,513.57306371278196,-879.65369837736648,879.65369837736648,-513.57306371278196,1677.728007082889,0.0
573204.59901257406,4097374.0504322448,-42500.0,534.56364272784526,-572.54358312055626,-727.27566860923048,-47.194351850181675,-577.86580014242486,-276.55185484253963,1025.7067024376536,684.30229584366634,-951.80453881090966,951.80453881090966,-684.30229584366634,1794.0279848278346,0.0
578204.59901257406,4097374.0504322448,-42500.0,738.76798945276346,-526.56642241367865,-832.47908408158276,118.54980047358308,-565.23878912853752,-171.92209954939472,1107.8445768846068,866.6510351314322,-1007.2395327344399,1007.2395327344399,-866.6510351314322,1923.4651258808196,0.0
583204.59901257406,4097374.0504322448,-42500.0,943.63590101513739,-451.04594022719147,-934.31538085380225,329.94480938867298,-503.24781640731243,10.389204617043356,1203.0000775054777,1046.0243149320017,-1037.3181685955933,1037.3181685955933,-1046.0243149320017,2083.6870518579453,0.0
588204.59901257406,4097374.0504322448,-42500.0,1123.884947071396,-349.78125584351,-1023.0745125253698,577.40022829815564,-372.55850905541348,296.23757741322578,1325.9823941613238,1200.8137791032148,-1035.5286213269212,1035.5286213269212,-1200.8137791032148,2302.4167997779168,0.0
593204.59901257406,4097374.0504322448,-42500.0,1246.812264736215,-237.11054786765388,-1088.2719462586526,834.43659897727957,-156.41783535741456,708.11384039293034,1498.4663931933828,1304.5116688940348,-1002.1329631243993,1002.1329631243993,-1304.5116688940348,2610.7135511537726,0.0
598204.59901257406,4097374.0504322448,-42500.0,1279.428677355445,-141.24664247827644,-1122.551472546475,1051.7413366783587,150.3545412925877,1253.2153937893352,1735.8991078717495,1332.5477246831481,-950.1746386640956,950.1746386640956,-1332.5477246831481,3025.4558027012454,0.0
603204.59901257406,4097374.0504322448,-42500.0,1203.2437885585769,-103.02293264532413,-1127.4640955581347,1156.9200743230215,528.20007450763478,1904.4696707594178,2027.7723657697074,1275.035862883266,-910.11506928197207,910.11506928197207,-1275.035862883266,3527.3912423122615,0.0
608204.59901257406,4097374.0504322448,-42500.0,1035.0947831195938,-165.15345636063864,-1118.6812202850842,1068.2935659699642,919.39951273079873,2577.9417226137484,2331.596547952925,1153.0368210757565,-927.56124796836775,927.56124796836775,-1153.0368210757565,4047.6587406188423,0.0
613204.59901257406,4097374.0504322448,-42500.0,843.60676771965007,-349.25671487060089,-1125.6439113482859,730.87697454870329,1224.5381060530869,3120.1010832301558,2580.3894377898341,1028.7606242216652,-1047.3982950384088,1047.3982950384088,-1028.7606242216652,4473.2904573955157,0.0
618204.59901257406,4097374.0504322448,-42500.0,739.51855332785033,-626.98805689378753,-1180.3076384297865,170.46180616330102,1323.8478645795844,3330.8971568771726,2701.4934131305308,992.36586085225372,-1282.8694372758828,1282.8694372758828,-992.36586085225372,4679.7655333943467,0.0
623204.59901257406,4097374.0504322448,-42500.0,819.98241578792738,-907.05727329552087,-1295.4480549155498,-468.18907254003187,1130.9206180958702,3044.7691918185628,2651.5961691816947,1112.5684310092911,-1584.0233556147,1584.0233556147,-1112.5684310092911,4592.810692742577,0.0
628204.59901257406,4097374.0504322448,-42500.0,1086.4598625944589,-1065.6297772158248,-1445.8080168189997,-956.19280134300436,655.91125327526231,2244.1032519236537,2457.4610114661277,1372.167318598347,-1838.1026700344667,1838.1026700344667,-1372.167318598347,4257.2591186569134,0.0
633204.59901257406,4097374.0504322448,-42500.0,1412.7773610110219,-1016.8433585839315,-1573.1165855733054,-1102.2666459433697,23.017393811353358,1111.5719702646252,2225.1657816194734,1651.751643355509,-1923.4616371297973,1923.4616371297973,-1651.751643355509,3854.2698296792178,0.0
638204.59901257406,4097374.0504322448,-42500.0,1619.6497783159905,-768.15518385425275,-1619.0284625144991,-871.06611168073391,-590.2000785756602,-53.743281379554396,2078.5458997909172,1800.0969889369348,-1784.281869516496,1784.281869516496,-1800.0969889369348,3600.1615879745982,0.0
643204.59901257406,4097374.0504322448,-42500.0,1594.6587817337168,-407.64357436562341,-1559.1295383549852,-386.16425538678556,-1046.1628541514624,-996.50482176762898,2056.1414531503478,1733.0590260040747,-1458.9455017312164,1458.9455017312164,-1733.0590260040747,3566.2005804042419,0.0
648204.59901257406,4097374.0504322448,-42500.0,1343.8523110667986,-41.618100130627383,-1409.4642452208027,171.23318713927031,-1296.1394446444201,-1603.9885672371627,2084.3488832525295,1468.886518639109,-1042.2663582920036,1042.2663582920036,-1468.886518639109,3645.1707503476578,0.0
653204.59901257406,4097374.0504322448,-42500.0,952.27194165343428,257.03288833402945,-1207.9835631011874,661.06733394416619,-1364.8445092715001,-1893.4818990176423,2086.2358351762832,1088.8008552586016,-627.47232685685913,627.47232685685913,-1088.8008552586016,3703.3893595700079,0.0
658204.59901257406,4097374.0504322448,-42500.0,518.16490392227149,461.16732091411268,-992.70313815181896,1017.7453181179151,-1308.5244243896552,-1945.8946075239403,2036.3646038277279,680.17147450759444,-273.46283179074516,273.46283179074516,-680.17147450759444,3676.0840232317205,0.0
663204.59901257406,4097374.0504322448,-42500.0,113.51925227862036,575.88809044655511,-790.23108008790041,1233.9775230198031,-1182.7228040434288,-1849.9892453459868,1940.202380263958,304.62514957616509,-2.7548232333006126,2.7548232333006126,-304.62514957616509,3557.6890504772582,0.0
668204.59901257406,4097374.0504322448,-42500.0,-223.83989145160885,620.68033737174142,-614.37200600822337,1332.2826662601424,-1028.722826664821,-1676.4427801635427,1812.7742573917612,-6.8416421118925541,186.32712100216187,-186.32712100216187,6.8416421118925541,3369.0885891305634,0.0
673204.59901257406,4097374.0504322448,-42500.0,-482.33047828029856,617.33781110405187,-469.42192778587537,1343.898433111541,-872.31761624989372,-1472.9405072618897,1668.8937544377002,-245.96255713499917,306.88573961562486,-306.88573961562486,245.96255713499917,3136.6515881189366,0.0
678204.59901257406,4097374.0504322448,-42500.0,-665.81805814031566,584.37224657707259,-354.11718221001564,1297.9481798223103,-727.35556269805545,-1268.1146118010226,1520.0350800069048,-417.47244137893017,375.02631390086071,-375.02631390086071,417.47244137893017,2883.2749577411596,0.0
683204.59901257406,4097374.0504322448,-42500.0,-785.27616079655832,535.50259496099034,-264.62162485344601,1217.5607595270194,-599.87516212967728,-1077.2880914595864,1374.0282942573244,-531.83440988272616,405.62456052475147,-405.62456052475147,531.83440988272616,2625.9458823759328,0.0
688204.59901257406,4097374.0504322448,-42500.0,-853.67894570595718,480.02680408997685,-196.34853432834828,1119.4821628172995,-491.35124358028543,-907.35156002372446,1235.6950978741118,-600.89057052302121,410.77389087139386,-410.77389087139386,600.89057052302121,2376.0304987805298,0.0
693204.59901257406,4097374.0504322448,-42500.0,-883.35650653808455,423.79923237702678,-144.90526069396955,1015.0526507292421,-400.86632219624261,-760.24127833564853,1107.6562543219177,-635.67135371835514,399.60694053943359,-399.60694053943359,635.67135371835514,2140.4316042369755,0.0
698204.59901257406,4097374.0504322448,-42500.0,-884.8735044359446,370.22539410453589,-106.49119122840732,911.49557816700838,-326.42745095447503,-635.20416493215282,991.03139525116558,-645.5132815969248,378.68436842667052,-378.68436842667052,645.5132815969248,1922.8139127763052,0.0
703204.59901257406,4097374.0504322448,-42500.0,-866.74407227676352,321.07488802495669,-78.00027600908102,813.09626209494184,-265.70811990225883,-530.18959403611223,885.97490941807678,-637.87837598556769,352.53978589257827,-352.53978589257827,637.87837598556769,1724.6381349608291,0.0
708204.59901257406,4097374.0504322448,-42500.0,-835.55058826289394,277.07948160415242,-56.981913757349041,722.14020030742631,-216.43321060312479,-442.66083414668941,792.05781860792138,-618.50204831931364,324.19814116637485,-324.19814116637485,618.50204831931364,1545.9457987768867,0.0
713204.59901257406,4097374.0504322448,-42500.0,-796.2259881244795,238.34636371902243,-41.546244860278506,639.60825553507925,-176.55544833679676,-370.04117671901497,708.52883736295632,-591.66569328324749,295.60430441822911,-295.60430441822911,591.66569328324749,1385.9222821874962,0.0
718204.59901257406,4097374.0504322448,-42500.0,-752.3691411539096,204.63023825660889,-30.257661083001665,565.66454280433675,-144.31582127091434,-309.93662059763545,634.48266960854335,-560.48649377618028,267.95098970037498,-267.95098970037498,560.48649377618028,1243.2766464620279,0.0
723204.59901257406,4097374.0504322448,-42500.0,-706.54296891796241,175.50803923319359,-22.036988441813168,499.99194961624295,-118.2459477003257,-260.23207549220666,568.96976118318366,-527.18390388826924,241.92131687858256,-241.92131687858256,527.18390388826924,1116.499329237939,0.0
528204.59901257406,4102374.0504322448,-42500.0,-396.07263746403265,-348.95874807024711,-119.92504156165575,-353.50702737534721,-207.89864765017526,-209.54732540750069,503.06303260648292,-223.99384250751888,-281.74092055790442,281.74092055790442,223.99384250751888,964.06664298737064,0.0
533204.59901257406,4102374.0504322448,-42500.0,-393.40690773046185,-389.16020602137331,-143.91101785871183,-386.37917026813716,-241.92948671628227,-243.42339480058763,555.95721909431359,-210.7739998798674,-327.7217910835522,327.7217910835522,210.7739998798674,1060.7149477218843,0.0
538204.59901257406,4102374.0504322448,-42500.0,-381.0969013054866,-432.95132542222797,-173.48140937428892,-419.31423179404936,-281.50937351552869,-282.13871338018691,614.33602296193862,-188.28023484892265,-381.26340484007585,381.26340484007585,188.28023484892265,1166.1509637356435,0.0
543204.59901257406,4102374.0504322448,-42500.0,-355.88744573626286,-479.87696876482312,-209.92503443336588,-450.56258906975512,-327.1671585787347,-325.7098098554452,678.35838051127246,-153.7147189690366,-443.25300693672631,443.25300693672631,153.7147189690366,1280.1529670855912,0.0
548204.59901257406,4102374.0504322448,-42500.0,-313.84229817450415,-529.00180720597564,-254.75075154902748,-477.48949549611075,-379.18879163819287,-373.62786472615761,747.96117888714912,-103.74132194436461,-514.42844940753287,514.42844940753287,103.74132194436461,1401.9517668468357,0.0
553204.59901257406,4102374.0504322448,-42500.0,-250.39334264841779,-578.70740350943822,-309.65866616673219,-496.2855059133758,-437.37612338283202,-424.48254291280807,822.75082915753035,-34.547579628443884,-595.1921558222225,595.1921558222225,34.547579628443884,1530.0327715872259,0.0
558204.59901257406,4102374.0504322448,-42500.0,-160.56018544046458,-626.45474034135884,-376.45012190793307,-501.65596802388353,-500.67066956143094,-475.39637233317433,901.87767149365368,57.944383689660299,-685.3355717329963,685.3355717329963,-57.944383689660299,1661.952598237036,0.0
563204.59901257406,4102374.0504322448,-42500.0,-39.464556010308961,-668.54984174870549,-456.83593400125699,-486.56228499377903,-566.59530833060444,-521.20887528617118,983.91958789104297,177.6155845818659,-783.66124667814984,783.66124667814984,-177.6155845818659,1794.2703643692244,0.0
568204.59901257406,4102374.0504322448,-42500.0,116.69111667282198,-700.00503094993451,-552.0927433949546,-442.17128517850045,-630.47865108778376,-553.36472966674967,1066.8457877210349,327.30212653564786,-887.52084150553833,887.52084150553833,-327.30212653564786,1922.8108612477527,0.0
573204.59901257406,4102374.0504322448,-42500.0,308.98709308028953,-714.68182021291489,-662.52137553800355,-358.30919471200963,-684.48009211031024,-558.5283670400654,1148.2266384238294,507.41759668462186,-992.36020907080228,992.36020907080228,-507.41759668462186,2043.6777879452357,0.0
578204.59901257406,4102374.0504322448,-42500.0,533.36384074677073,-706.03578026214552,-786.70927381810441,-224.91864378219034,-716.57800650723232,-517.12937919139711,1226.0523487177554,713.97764678455064,-1091.5076386012333,1091.5076386012333,-713.97764678455064,2155.7082484611028,0.0
583204.59901257406,4102374.0504322448,-42500.0,777.57026620856709,-668.91822358934166,-920.73544161010932,-35.241270628084536,-709.99108258832734,-402.44658287857419,1300.9025116618895,936.22470061205888,-1176.6712559372045,1176.6712559372045,-936.22470061205888,2265.170040922575,0.0
588204.59901257406,4102374.0504322448,-42500.0,1018.3445955508187,-602.86677754019786,-1057.7258815841276,208.49511796548975,-644.03228633133597,-181.58144272049927,1380.6379554258967,1154.6596867272915,-1239.8588990817329,1239.8588990817329,-1154.6596867272915,2392.4565941925007,0.0
593204.59901257406,4102374.0504322448,-42500.0,1220.9438931104253,-516.79301197993288,-1188.5185157728347,486.6706254646092,-498.05559256913534,179.21804403801116,1487.0469047133065,1341.2890216555386,-1277.4157368588337,1277.4157368588337,-1341.2890216555386,2576.1697605898521,0.0
598204.59901257406,4102374.0504322448,-42500.0,1344.605548839203,-433.48564430533276,-1304.2942289528223,752.9048289648473,-260.41184594382202,701.39157731603552,1652.2970850437368,1464.8920579102241,-1295.9784896338961,1295.9784896338961,-1464.8920579102241,2862.578268646047,0.0
603204.59901257406,4102374.0504322448,-42500.0,1357.7551157792464,-389.88449546516546,-1401.162085840223,929.5322030622865,57.06668563096499,1370.127857104538,1888.5048598394555,1503.7974911107488,-1317.7290907218796,1317.7290907218796,-1503.7974911107488,3271.6666254100251,0.0
608204.59901257406,4102374.0504322448,-42500.0,1262.954576554901,-427.21679264404952,-1484.3411880434487,919.08996045068784,403.12003625478997,2102.0218180803167,2163.7193533374134,1464.9038064393226,-1378.9083008424382,1378.9083008424382,-1464.9038064393226,3758.4667956072494,0.0
613204.59901257406,4102374.0504322448,-42500.0,1120.7818207947785,-567.54603163103184,-1567.0311266976071,644.85106129728501,681.38103218919639,2720.6499946384638,2410.023857871171,1399.0502120841827,-1514.3316721711592,1514.3316721711592,-1399.0502120841827,4206.0346535940998,0.0
618204.59901257406,4102374.0504322448,-42500.0,1045.8051051257025,-783.90544647546994,-1660.0658610983076,119.98425289708732,772.38870236034586,2977.0360432511284,2547.3282606351263,1392.2070680430122,-1727.0967055442131,1727.0967055442131,-1392.2070680430122,4466.9359945321894,0.0
623204.59901257406,4102374.0504322448,-42500.0,1145.1703631719433,-988.02096228544156,-1755.9997911884016,-495.92802920107238,591.79230242800429,2653.7176747488966,2532.1802991974446,1513.8781418164481,-1959.9160848008987,1959.9160848008987,-1513.8781418164481,4448.1569415244485,0.0
628204.59901257406,4102374.0504322448,-42500.0,1418.134396015226,-1064.5629581098678,-1821.6054954871893,-934.55304010685461,157.77815089235756,1724.6123968113411,2408.2297823437284,1743.2214867448781,-2101.9848088469921,2101.9848088469921,-1743.2214867448781,4204.4601554737083,0.0
633204.59901257406,4102374.0504322448,-42500.0,1716.3830994698178,-944.86208945742931,-1812.6411272978514,-977.81144103291831,-396.08173751360414,431.27234903163242,2278.3880666781215,1950.5915655151864,-2049.6749541750701,2049.6749541750701,-1950.5915655151864,3948.1154538501773,0.0
638204.59901257406,4102374.0504322448,-42500.0,1841.9910372623037,-656.44766124669354,-1703.8788734571465,-610.04988847706818,-894.6139602565986,-841.85533097614541,2240.7413812424993,1983.7704411529305,-1778.7717516885125,1778.7717516885125,-1983.7704411529305,3881.9982327071307,0.0
643204.59901257406,4102374.0504322448,-42500.0,1694.3460024575381,-296.96890794108953,-1506.6881123579185,-5.1515862945941544,-1219.794146602967,-1793.7647396506622,2306.3394049567428,1780.1320255602432,-1357.3035803060839,1357.3035803060839,-1780.1320255602432,3997.0387745575104,0.0
648204.59901257406,4102374.0504322448,-42500.0,1314.9178596601903,34.501827573283421,-1259.2000235503015,618.24589441767955,-1348.7226624526038,-2324.7070884423756,2368.0314365382051,1390.9076920236348,-892.4449244389308,892.4449244389308,-1390.9076920236348,4136.610027459099,0.0
653204.59901257406,4102374.0504322448,-42500.0,820.57019309556858,282.14926228823748,-1003.4590508907078,1115.1507260958938,-1323.8993571863748,-2493.4060265612275,2358.8892660801653,920.80743428876667,-471.24699913169519,471.24699913169519,-920.80743428876667,4182.387846324189,0.0
658204.59901257406,4102374.0504322448,-42500.0,322.65800858809854,434.98485110486502,-769.63606104946757,1436.6417431258485,-1206.5716379599037,-2417.968920230725,2276.2125949541214,462.94404334101495,-137.43374722768539,137.43374722768539,-462.94404334101495,4103.3487622951834,0.0
663204.59901257406,4102374.0504322448,-42500.0,-109.644160145767,507.82125535592002,-572.59941798987199,1596.3625530495792,-1048.2488154928501,-2208.1968481204494,2140.822699891894,72.147746843075737,101.27468953838593,-101.27468953838593,-72.147746843075737,3919.4335274715013,0.0
668204.59901257406,4102374.0504322448,-42500.0,-448.34669699088295,523.50676015206636,-415.58594571288705,1632.6978001766524,-882.67122546047619,-1942.1954771238575,1975.6443022145795,-231.66174137358928,256.76394442675314,-256.76394442675314,231.66174137358928,3665.8159847037377,0.0
673204.59901257406,4102374.0504322448,-42500.0,-692.18454816516169,503.21074770184242,-295.27575846969734,1586.0320335845925,-728.21112352481236,-1667.4901584230824,1798.7581445345111,-450.34030505928928,347.58509713609391,-347.58509713609391,450.34030505928928,3375.3363263298597,0.0
678204.59901257406,4102374.0504322448,-42500.0,-853.05508310060748,463.07342861768819,-205.66367666817959,1489.5433555264658,-592.89677147081102,-1409.4989244540379,1622.4692206314608,-595.95403916326586,391.91356246481655,-391.91356246481655,595.95403916326586,3072.9613262247644,0.0
683204.59901257406,4102374.0504322448,-42500.0,-947.25713797597029,414.09246335036164,-140.32621176882563,1367.3706016935564,-478.74491915345675,-1179.6845532164646,1454.3125309266898,-683.54872493893367,404.76836338194471,-404.76836338194471,683.54872493893367,2775.5770169578605,0.0
688204.59901257406,4102374.0504322448,-42500.0,-990.89560037444096,363.15842850631373,-93.494510154012545,1235.746476533767,-384.69465664381579,-981.44877417406838,1298.3935352798517,-727.48267304037893,397.49243753298776,-397.49243753298776,727.48267304037893,2493.5457683900718,0.0
693204.59901257406,4102374.0504322448,-42500.0,-997.91462440856844,314.24546442880364,-60.422017300693497,1104.8822825162749,-308.35867495172943,-813.90679818711089,1156.5294000361389,-739.94702067057642,378.17804227730744,-378.17804227730744,739.94702067057642,2232.4976415242563,0.0
698204.59901257406,4102374.0504322448,-42500.0,-979.54617949749093,269.40305123696828,-37.398214456713596,980.73742639146417,-246.97874050441143,-674.14987135807962,1029.095758590405,-730.6328475391681,352.36118321081091,-352.36118321081091,730.6328475391681,1994.8554805340684,0.0
703204.59901257406,4102374.0504322448,-42500.0,-944.42640679557189,229.48066014559822,-21.614842985610601,866.42000508548062,-197.89957431160568,-558.53074397009846,915.61273198215997,-706.91917208203802,323.6937676342601,-323.6937676342601,706.91917208203802,1780.9871939817915,0.0
708204.59901257406,4102374.0504322448,-42500.0,-898.97331319675675,194.62065616188013,-10.992073916918212,763.20832570673815,-158.77202242166609,-463.35138958677874,815.13359979770655,-674.24879921830234,294.49561233282486,-294.49561233282486,674.24879921830234,1590.022375964706,0.0
713204.59901257406,4102374.0504322448,-42500.0,-847.82439356297709,164.57711467008085,-4.0123620266,671.2597705109157,-127.61254551155844,-385.19842666229869,726.4935969018527,-636.53202194010566,266.17292518671684,-266.17292518671684,636.53202194010566,1420.4059196929234,0.0
718204.59901257406,4102374.0504322448,-42500.0,-794.24387843842419,138.91427630579878,0.41965841685460026,590.08572707932478,-102.79300395411147,-321.07964731585503,648.4640944338596,-596.50966587884216,239.52121107681671,-239.52121107681671,596.50966587884216,1270.2607584202981,0.0
723204.59901257406,4102374.0504322448,-42500.0,-740.46533330341595,117.12475519383007,3.088182822374351,518.85864467848091,-83.000296018497167,-268.45230479495461,579.84253280662119,-556.05234850289162,214.93735139919903,-214.93735139919903,556.05234850289162,1137.6140976394388,0.0
523204.59901257406,4107374.0504322448,-42500.0,-485.8572867941408,-291.59041026841993,-66.057006985490204,-377.49306986037845,-163.55408911919943,-206.1538830493333,488.86383535181659,-312.8525881765247,-191.18824113391497,191.18824113391497,312.8525881765247,948.61713957767859,0.0
528204.59901257406,4107374.0504322448,-42500.0,-504.26337058447353,-327.88003452221972,-79.678030513082788,-420.77638763799524,-191.23428793937231,-242.44883130671761,542.48031032297945,-318.96636303675962,-224.8178807201823,224.8178807201823,318.96636303675962,1049.3058961679553,0.0
533204.59901257406,4107374.0504322448,-42500.0,-517.61025140560935,-368.61739054784329,-96.839706165719434,-467.83379363444902,-223.9988618852752,-285.35078007516768,602.44584694052821,-319.80697343831372,-264.8033689603572,264.8033689603572,319.80697343831372,1161.0480425008832,0.0
538204.59901257406,4107374.0504322448,-42500.0,-523.36986512598082,-414.01126728163797,-118.52553026879333,-518.12192246595237,-262.67718116014743,-335.80780083237244,669.27337917793932,-313.16308390278209,-312.27259409889757,312.27259409889757,313.16308390278209,1284.410330345899,0.0
543204.59901257406,4107374.0504322448,-42500.0,-518.24277168829735,-464.06377918962227,-145.97966729933441,-570.53190810238675,-308.11587550817978,-394.68164169992235,743.35534697479716,-296.18323320286072,-368.45971345447163,368.45971345447163,296.18323320286072,1419.5920710114797,0.0
548204.59901257406,4107374.0504322448,-42500.0,-498.02323180561842,-518.43468915308006,-180.75607593928655,-623.1204148816829,-361.08017639224602,-462.55326854730629,824.85870137524057,-265.27052591259655,-434.64631357221685,434.64631357221685,265.27052591259655,1566.1930048855695,0.0
553204.59901257406,4107374.0504322448,-42500.0,-457.51045585943575,-576.25319534055325,-224.75869860762066,-672.75543140504658,-422.07608302660441,-539.39126287553552,913.57317056076738,-216.01851105481708,-512.04816553583407,512.04816553583407,216.01851105481708,1722.8996648802322,0.0
558204.59901257406,4107374.0504322448,-42500.0,-390.53861487251481,-635.87254280317416,-280.25332961135882,-714.67807902645757,-491.04979826895021,-624.01142776765357,1008.7014508867094,-143.24865165544725,-601.6212454689437,601.6212454689437,143.24865165544725,1887.0894704313471,0.0
563204.59901257406,4107374.0504322448,-42500.0,-290.25087617820367,-694.58043754249627,-349.81696233144788,-742.01731199725089,-566.90750731554522,-713.23350978513474,1108.5874289736871,-41.252217037506853,-703.7579065189127,703.7579065189127,41.252217037506853,2054.3890573771914,0.0
568204.59901257406,4107374.0504322448,-42500.0,-149.81692433550688,-748.31896992975214,-436.17035871060358,-745.37026749197594,-646.79155360053471,-800.62666607105098,1210.4003849548726,95.602332100298383,-817.85331987761106,817.85331987761106,-95.602332100298383,2218.3061770923086,0.0
573204.59901257406,4107374.0504322448,-42500.0,36.124038392176985,-791.55227791882874,-541.81982325509875,-712.71167210948715,-725.07376281658378,-874.76196126545108,1309.8556293544254,271.67456660486988,-941.7652949684184,941.7652949684184,-271.67456660486988,2370.2375688355028,0.0
578204.59901257406,4107374.0504322448,-42500.0,268.97288424148962,-817.56473103882627,-668.43252501771599,-630.15759932934782,-792.12832011489616,-917.02723602164326,1401.2012667533049,488.02943273385057,-1071.2985455165456,1071.2985455165456,-488.02943273385057,2500.4991808303675,0.0
583204.59901257406,4107374.0504322448,-42500.0,542.46604036133158,-819.67474219986195,-815.93518718923292,-484.49637273445279,-833.22472851295811,-899.46321214964621,1478.0705137408702,739.49866477836849,-1200.0677844939487,1200.0677844939487,-739.49866477836849,2601.5948948293249,0.0
588204.59901257406,4107374.0504322448,-42500.0,838.24297771932208,-793.98551217704801,-981.53001438218121,-268.76452114431009,-828.45951267984196,-783.98873991055234,1536.674973608345,1011.2989118444748,-1320.4228980863081,1320.4228980863081,-1011.2989118444748,2675.461380465294,0.0
593204.59901257406,4107374.0504322448,-42500.0,1122.7174477782241,-743.98028146508591,-1159.206863757564,8.0575523116088998,-755.5446920453852,-526.03563032451154,1584.4359598404371,1276.9235350841332,-1426.3354285781793,1426.3354285781793,-1276.9235350841332,2745.2674985504532,0.0
598204.59901257406,4107374.0504322448,-42500.0,1349.6653106200315,-685.78577651764954,-1340.6611978440144,308.17393761933516,-597.96428739912005,-87.646722621731996,1653.8027245534583,1500.7744782252403,-1518.5323647904297,1518.5323647904297,-1500.7744782252403,2864.5047961908908,0.0
603204.59901257406,4107374.0504322448,-42500.0,1474.4209245420516,-649.86819144918763,-1517.9925464865655,555.17314482273582,-359.79298012627265,534.56492941929127,1786.5969784979393,1649.6693263222789,-1609.6610141983144,1609.6610141983144,-1649.6693263222789,3099.2612924926502,0.0
608204.59901257406,4107374.0504322448,-42500.0,1481.8476499551853,-672.18670297109929,-1686.2130164174903,641.50831241882634,-82.894062536394983,1267.3763078631798,1967.7358172484794,1713.6055300007902,-1723.1630469251613,1723.1630469251613,-1713.6055300007902,3466.1024266346744,0.0
613204.59901257406,4107374.0504322448,-42500.0,1416.9814591088279,-771.01252785336158,-1840.8856779061507,471.35819649431585,147.23413873918324,1924.0456394363937,2127.8992120492226,1725.722998181019,-1878.4078802494039,1878.4078802494039,-1725.722998181019,3877.8486783548524,0.0
618204.59901257406,4107374.0504322448,-42500.0,1387.232721964343,-919.14808658209381,-1968.7860528466897,41.620839321235586,225.39358626121401,2220.1503257243498,2224.0779396779467,1758.588610278714,-2063.6370853576236,2063.6370853576236,-1758.588610278714,4176.6019886756885,0.0
623204.59901257406,4107374.0504322448,-42500.0,1499.7525996164434,-1037.6902884106612,-2039.9779145479156,-486.20782415114252,84.421573790911935,1896.3198291201479,2328.0581727382141,1874.8679782867,-2216.4076968326544,2216.4076968326544,-1874.8679782867,4248.726557306456,0.0
628204.59901257406,4107374.0504322448,-42500.0,1750.820469565763,-1034.4769686860197,-2016.0102562811294,-824.62783742087447,-246.68618412739784,918.51672367066794,2369.7443892902079,2051.5906974652094,-2240.9840425223051,2240.9840425223051,-2051.5906974652094,4144.8304122885265,0.0
633204.59901257406,4107374.0504322448,-42500.0,1982.9887669845484,-869.67385806761445,-1875.136030207047,-747.21164303962598,-644.23727633046803,-426.38704405369674,2348.5049237386083,2162.235316665347,-2067.9041339168029,2067.9041339168029,-2162.235316665347,4072.3021460277605,0.0
638204.59901257406,4107374.0504322448,-42500.0,1999.8557252325888,-586.60544010100409,-1632.3073870980561,-262.63502410020089,-966.46319494600698,-1694.4947262361479,2401.0505074714151,2070.4959683314928,-1708.3724111983199,1708.3724111983199,-2070.4959683314928,4178.9655795749541,0.0
643204.59901257406,4107374.0504322448,-42500.0,1725.6703333383909,-274.92420483226891,-1333.0199190919561,417.84043343069874,-1135.2817889209582,-2565.3715329815177,2533.7906763184455,1742.9434313119123,-1247.2268349505734,1247.2268349505734,-1742.9434313119123,4388.7098889016106,0.0
648204.59901257406,4107374.0504322448,-42500.0,1235.5810970298639,-10.365582937125422,-1028.5983579696053,1058.6894555821632,-1153.2240426128731,-2965.0257614281031,2605.5796732910644,1258.2396063972983,-785.87935246768723,785.87935246768723,-1258.2396063972983,4540.181531580869,0.0
653204.59901257406,4107374.0504322448,-42500.0,667.09285018872424,173.7249411934126,-755.98203543290697,1524.9960324896656,-1067.2611887329731,-2990.7526019623283,2572.5197610132759,732.81594962229997,-393.92328161864731,393.92328161864731,-732.81594962229997,4547.9782960454486,0.0
658204.59901257406,4107374.0504322448,-42500.0,133.61315113827504,279.01744011914462,-532.43075211345683,1789.4095609796809,-929.3362437144516,-2787.2069409688888,2454.1650679342029,255.94800354719439,-98.06190087095581,98.06190087095581,-255.94800354719439,4411.3398831607637,0.0
663204.59901257406,4107374.0504322448,-42500.0,-304.62943377972761,323.45577113932762,-360.19802117849503,1884.4479750234593,-777.49400455617376,-2474.6140524146044,2282.7997389128686,-128.62682895076077,105.01581019375729,-105.01581019375729,128.62682895076077,4167.989003560986,0.0
668204.59901257406,4107374.0504322448,-42500.0,-630.98790426028063,327.49764859509031,-233.42553995578143,1859.9037972845601,-633.59710849751093,-2131.1936113030329,2086.0626166292359,-412.22635088169125,232.23137475852536,-232.23137475852536,412.22635088169125,3861.207679916452,0.0
673204.59901257406,4107374.0504322448,-42500.0,-853.46534784714595,307.96618561208311,-143.35342437099899,1761.1719052130393,-507.55204157243583,-1800.3060086725666,1883.3046671116415,-605.02867492858661,303.22267401587783,-303.22267401587783,605.02867492858661,3526.4238545627304,0.0
678204.59901257406,4107374.0504322448,-42500.0,-990.10249142153828,276.705141142971,-81.234542105474802,1622.5402410776187,-402.11370126352119,-1502.3820281563021,1686.5668852949577,-724.21343127782052,335.27077053014591,-335.27077053014591,724.21343127782052,3188.5356699376794,0.0
683204.59901257406,4107374.0504322448,-42500.0,-1060.7086860944851,241.25542879432976,-39.585707932872282,1467.3758374140116,-316.37974025422636,-1244.5051756753428,1502.5799176597629,-787.49851742539681,341.79957386485717,-341.79957386485717,787.49851742539681,2863.3247485232882,0.0
688204.59901257406,4107374.0504322448,-42500.0,-1083.1015443794247,206.02366117597731,-12.506188796860704,1310.4531778524538,-247.90006878281977,-1026.6609547758283,1334.5511039313865,-810.35322777729641,332.52116104664685,-332.52116104664685,810.35322777729641,2559.7847752663165,0.0
693204.59901257406,4107374.0504322448,-42500.0,-1071.8536387775612,173.33845817731091,4.4329856614389698,1160.4399272322389,-193.81059882983502,-845.45006729038516,1183.4864251860256,-805.19508507969965,314.13808246517817,-314.13808246517817,805.19508507969965,2282.250012917531,0.0
698204.59901257406,4107374.0504322448,-42500.0,-1038.2330909111101,144.23810105647385,14.45030849149,1021.9177984018908,-151.37707079273858,-696.16779904502573,1049.089547115871,-781.4962314740078,291.10898408862795,-291.10898408862795,781.4962314740078,2032.0362819507475,0.0
703204.59901257406,4107374.0504322448,-42500.0,-990.62421045292751,119.00593034531133,19.832038342860475,896.85923093340841,-118.21523603906179,-573.90497668810656,930.34779956967907,-746.2294750594067,266.30011772438775,-266.30011772438775,746.2294750594067,1808.6131143966925,0.0
708204.59901257406,4107374.0504322448,-42500.0,-935.08008805655084,97.513015751374553,22.174761236399871,785.64608301554711,-92.345696339717449,-474.08427254288529,825.90183767334702,-704.38437158676322,241.48437283233022,-241.48437283233022,704.38437158676322,1610.4013038385704,0.0
713204.59901257406,4107374.0504322448,-42500.0,-875.85370836891229,79.428169002491998,22.578013577981835,687.74642125011428,-72.172556436546699,-392.68260884681285,734.27196252358817,-659.44018052640922,217.70293723172591,-217.70293723172591,659.44018052640922,1435.2965488369587,0.0
718204.59901257406,4107374.0504322448,-42500.0,-815.85069058453621,64.341248048483479,21.789431234040844,602.14963010226506,-56.432184233601056,-326.28537807044296,653.99074314466827,-613.7582156675328,195.51843215002162,-195.51843215002162,613.7582156675328,1281.0001228864601,0.0
723204.59901257406,4107374.0504322448,-42500.0,-756.99067452050861,51.83184685244283,20.310813337708261,527.63684888383693,-44.135278512015205,-272.05720193909497,583.67543756446514,-568.88937989747228,175.18774185877973,-175.18774185877973,568.88937989747228,1145.2178345097852,0.0
523204.59901257406,4112374.0504322448,-42500.0,-573.19409690223608,-256.20569397550258,-33.327469876896636,-428.86278234459962,-140.43204696932844,-230.04015941153858,520.43237559585066,-391.04843598658908,-130.44589358446618,130.44589358446618,391.04843598658908,1015.7808088229309,0.0
528204.59901257406,4112374.0504322448,-42500.0,-605.2008243555016,-289.2334270969564,-40.926261323101841,-483.13625058582022,-164.60422816378292,-272.88587610329523,579.84252304739516,-409.47398724154846,-155.89054776241929,155.89054776241929,409.47398724154846,1128.6432681908102,0.0
533204.59901257406,4112374.0504322448,-42500.0,-634.27352897626554,-326.7457428255978,-50.894651360413967,-543.78640855129777,-193.41863898162444,-324.35609278373767,646.840820656598,-424.58460588603396,-186.71895593002887,186.71895593002887,424.58460588603396,1255.0745282574755,0.0
538204.59901257406,4112374.0504322448,-42500.0,-658.0827730125817,-369.15365062908165,-64.019682181362143,-610.89304245290384,-227.73089688130543,-386.06781902720132,722.21948297815516,-434.36563147429217,-224.07788064440072,224.07788064440072,434.36563147429217,1396.1687978952489,0.0
543204.59901257406,4112374.0504322448,-42500.0,-673.44363435099899,-416.76431076766653,-81.34808025753253,-684.09121005355803,-268.47858286927953,-459.7771315073291,806.70433804420884,-436.09250740194693,-269.31544624649609,269.31544624649609,436.09250740194693,1552.7335910603967,0.0
548204.59901257406,4112374.0504322448,-42500.0,-676.097559267816,-469.68085640571712,-104.26320432168029,-762.29716385331506,-316.6248315718118,-547.25359402787728,900.84952904620559,-426.15195326739155,-323.97971086738102,323.97971086738102,426.15195326739155,1725.0399884367362,0.0
553204.59901257406,4112374.0504322448,-42500.0,-660.49285302910175,-527.65393757854167,-134.57524584817904,-843.31911763167466,-373.04284632402801,-650.02875817687209,1004.8735441039846,-399.86147309649306,-389.7863823665312,389.7863823665312,399.86147309649306,1912.4580797220617,0.0
558204.59901257406,4112374.0504322448,-42500.0,-619.61873047540575,-589.87190988401755,-174.61696098414086,-923.32729670260312,-438.30308612518161,-768.93734424687477,1118.4123600013477,-351.33131467922101,-468.53202485691838,468.53202485691838,351.33131467922101,2112.9469840142506,0.0
563204.59901257406,4112374.0504322448,-42500.0,-545.00311113126236,-654.68465497374109,-227.32527731235788,-996.17595475395353,-512.30800388557304,-903.33144228790968,1240.1619773446882,-273.45711484315893,-561.91989513761268,561.91989513761268,273.45711484315893,2322.3835666071477,0.0
568204.59901257406,4112374.0504322448,-42500.0,-427.07544722151124,-719.27918644746558,-296.26691108100334,-1052.6252408288169,-593.70126712471881,-1049.8013877700914,1367.3850286497518,-158.20427434201071,-671.25682450279351,671.25682450279351,158.20427434201071,2533.7614843696456,0.0
573204.59901257406,4112374.0504322448,-42500.0,-256.23289390752797,-779.38448482720173,-385.5321823951399,-1079.6442179189655,-678.9739408690516,-1200.204623446471,1495.2800235918871,2.547132062885737,-796.98563942712826,796.98563942712826,-2.547132062885737,2736.4170613694364,0.0
578204.59901257406,4112374.0504322448,-42500.0,-25.106002556352806,-829.20916466854749,-499.37802890960751,-1060.2631491082202,-761.2404974179201,-1338.8532872204287,1616.2974959092128,215.20713323701847,-938.06848526305703,938.06848526305703,-215.20713323701847,2915.7316291522029,0.0
583204.59901257406,4112374.0504322448,-42500.0,267.42725317090952,-862.03465417489838,-641.47674051832325,-974.96817195903134,-828.85598433352243,-1439.0185947303544,1719.7222507892104,481.31078280236272,-1091.3889552282076,1091.3889552282076,-481.31078280236272,3054.353487676733,0.0
588204.59901257406,4112374.0504322448,-42500.0,610.35791051662829,-872.1518525357435,-813.69466622157211,-806.38391531987293,-864.57261480069906,-1459.8729189883211,1792.4708240101677,792.92260064333163,-1251.659792486575,1251.659792486575,-792.92260064333163,3137.0101878448577,0.0
593204.59901257406,4112374.0504322448,-42500.0,974.30358116388197,-858.80904179852564,-1014.6020839359488,-549.4360246476574,-846.96050384869568,-1347.1626580725433,1823.792295647833,1127.8444791752997,-1412.7263003192099,1412.7263003192099,-1127.8444791752997,3161.9770589981922,0.0
598204.59901257406,4112374.0504322448,-42500.0,1309.8198662172836,-831.63987907485682,-1238.3868296708506,-227.60251801115231,-757.00204513187498,-1044.3521287239789,1821.4991273183593,1448.432907832266,-1571.01395418281,1571.01395418281,-1448.432907832266,3160.0642365263243,0.0
603204.59901257406,4112374.0504322448,-42500.0,1558.7373100815651,-813.64265941267047,-1474.9128402090253,90.660306164271645,-592.13620410289377,-523.06616288272187,1845.0960614751773,1710.2097743055299,-1729.7718506967196,1729.7718506967196,-1710.2097743055299,3206.8757963770017,0.0
608204.59901257406,4112374.0504322448,-42500.0,1684.2390521687953,-833.79641336729185,-1710.067512060481,292.96973198006748,-383.74521461086283,165.27074609253359,1952.8678710980819,1883.5665749187572,-1898.2405361575759,1898.2405361575759,-1883.5665749187572,3384.9168397872604,0.0
613204.59901257406,4112374.0504322448,-42500.0,1708.6330438006437,-904.71306735736732,-1922.9415362762486,265.91283649226045,-202.12091289860183,839.41140841426352,2072.0109547948382,1978.8924272333761,-2078.3453937361573,2078.3453937361573,-1978.8924272333761,3684.7580231856323,0.0
618204.59901257406,4112374.0504322448,-42500.0,1722.7482343658485,-998.31884846387061,-2079.1884244116886,-15.556185445828557,-129.49494297939532,1198.5534417681067,2149.7053085065986,2049.3438088135108,-2243.0825814268037,2243.0825814268037,-2049.3438088135108,3972.0903205628069,0.0
623204.59901257406,4112374.0504322448,-42500.0,1826.7883079268288,-1048.8698605401519,-2131.778783802642,-406.08369231421131,-206.2144175379492,956.35384859558849,2302.2917277951874,2147.7415801135917,-2329.7835210036369,2329.7835210036369,-2147.7415801135917,4111.5575355380261,0.0
628204.59901257406,4112374.0504322448,-42500.0,2020.0199163312104,-995.32440088370413,-2042.7175630594459,-626.36416409854519,-393.55485081793836,64.159657343435271,2380.075899934182,2255.9248181017629,-2268.2824381361243,2268.2824381361243,-2255.9248181017629,4122.9531709060211,0.0
633204.59901257406,4112374.0504322448,-42500.0,2157.8403736087785,-829.27976067673762,-1813.5231278300366,-458.39027911256034,-596.36647122070349,-1183.5242668925655,2363.5828232496269,2267.1602540874355,-2029.3422560892507,2029.3422560892507,-2267.1602540874355,4174.5791111698136,0.0
638204.59901257406,4112374.0504322448,-42500.0,2066.805055122963,-599.37854218670282,-1491.4684596027882,76.674922283971128,-729.21896522726365,-2331.9331950215301,2469.3492251299231,2073.3768452420959,-1650.2787226957203,1650.2787226957203,-2073.3768452420959,4364.5133433806141,0.0
643204.59901257406,4112374.0504322448,-42500.0,1697.7941290703691,-371.27274186827191,-1143.2325750159778,761.50614123667981,-761.63672730181588,-3067.4069034574763,2650.2317577694148,1666.0222468280715,-1212.9861554303209,1212.9861554303209,-1666.0222468280715,4597.1716194956743,0.0
648204.59901257406,4112374.0504322448,-42500.0,1143.6154771418323,-188.83630300644828,-823.09598833181053,1369.2429888684298,-711.78459170492704,-3335.6609466121099,2721.9342345519181,1135.2584966020058,-797.97083276270666,797.97083276270666,-1135.2584966020058,4730.0946523153088,0.0
653204.59901257406,4112374.0504322448,-42500.0,544.51905854456709,-64.981169569293016,-559.39174393900487,1782.4721845537008,-615.775641262509,-3250.3675476445528,2669.6756138226588,595.02821475902374,-454.13198180611897,454.13198180611897,-595.02821475902374,4702.3818368287102,0.0
658204.59901257406,4112374.0504322448,-42500.0,6.3566557123999665,7.4505419300344995,-358.29131888786617,1989.8440627214061,-505.05130727260121,-2962.1196240935369,2528.565363572965,124.86751028905536,-196.34371305657476,196.34371305657476,-124.86751028905536,4528.3778429556596,0.0
663204.59901257406,4112374.0504322448,-42500.0,-420.96693939039125,42.651962800162025,-213.385050894843,2033.5112555800163,-399.16004338659303,-2589.1806159890684,2336.8081192825703,-241.71992066361082,-17.751775473249936,17.751775473249936,241.71992066361082,4252.4428917604873,0.0
668204.59901257406,4112374.0504322448,-42500.0,-729.32441781030195,54.208627797545958,-113.57233225954541,1967.0545681570284,-307.28366726503282,-2204.6058832699423,2123.7112274664692,-503.55663539923734,97.404669757023328,-97.404669757023328,503.55663539923734,3919.6951638015071,0.0
673204.59901257406,4112374.0504322448,-42500.0,-932.21271862969672,52.390996948583982,-47.543454533849818,1836.1199421299279,-232.01663087952724,-1846.4114425802231,1908.55740386045,-675.2128793144127,165.85599102634788,-165.85599102634788,675.2128793144127,3565.2351188137386,0.0
678204.59901257406,4112374.0504322448,-42500.0,-1050.6086044781712,44.023062315539065,-5.6779977781179589,1673.6794593945003,-172.54287042028255,-1530.6903040802761,1702.740898074406,-775.93088396377618,201.84340475886802,-201.84340475886802,775.93088396377618,3212.9031245253759,0.0
683204.59901257406,4112374.0504322448,-42500.0,-1105.5670336975395,33.24011564611758,19.490655692115137,1501.3610088627363,-126.64474136229171,-1261.3627223816507,1512.2518943641639,-824.07251838344655,216.26564981345285,-216.26564981345285,824.07251838344655,2877.3238022168844,0.0
688204.59901257406,4112374.0504322448,-42500.0,-1115.1945703091976,22.341328756229125,33.448283077450768,1332.3094860967358,-91.782758083938205,-1036.2356899533006,1339.6481614645763,-835.01400599704471,216.96693976628166,-216.96693976628166,835.01400599704471,2566.4829407142706,0.0
693204.59901257406,4112374.0504322448,-42500.0,-1093.8792411655495,12.471230829580136,40.081557267781911,1173.8488781436772,-65.595198580275365,-850.45059615649075,1185.4168981560297,-820.76068364120761,209.37058624858906,-209.37058624858906,820.76068364120761,2283.9055164611273,0.0
698204.59901257406,4112374.0504322448,-42500.0,-1052.5139160128097,4.0939653708486379,42.072775488249526,1029.5249657819847,-46.082318928598816,-698.34193157212269,1048.8686873674867,-790.28209710142005,197.11525696710243,-197.11525696710243,790.28209710142005,2030.2886165810689,0.0
703204.59901257406,4112374.0504322448,-42500.0,-999.06521903850478,-2.7021627223765767,41.234645914123789,900.540473763318,-31.635075437089238,-574.37323883489717,928.70037420510869,-750.06819101364499,182.57803362876729,-182.57803362876729,750.06819101364499,1804.6395072476084,0.0
708204.59901257406,4112374.0504322448,-42500.0,-939.19594868453305,-8.0190099560190582,38.769328451717925,786.71836058958706,-20.997850568078068,-473.56010081869198,823.34129961352028,-704.69003311861525,167.26873027769579,-167.26873027769579,704.69003311861525,1605.0389760105511,0.0
713204.59901257406,4112374.0504322448,-42500.0,-876.82316935682695,-12.040911889472412,35.458926064708749,687.12637573981021,-13.209266971714023,-391.61589043663582,731.15909150360676,-657.28386790047625,152.11307130297996,-152.11307130297996,657.28386790047625,1429.1344183133763,0.0
718204.59901257406,4112374.0504322448,-42500.0,-814.57740420104972,-14.975252435833944,31.800953430013919,600.47053993376301,-7.5421733267057043,-324.95635159977905,650.5772990916314,-609.93992329098728,137.65046829677505,-137.65046829677505,609.93992329098728,1274.4483013176455,0.0
723204.59901257406,4112374.0504322448,-42500.0,-754.15854595342273,-17.022227278627472,28.102709378672419,525.33215043040605,-3.4505760438169473,-270.63700441861675,580.13496107316598,-563.99893682424511,124.16871553268209,-124.16871553268209,563.99893682424511,1138.557059430047,0.0
523204.59901257406,4117374.0504322448,-42500.0,-649.13707084906105,-207.45320768412262,-5.19762560220898,-473.42248637733849,-110.08174443422719,-250.77172578156492,548.73433022010931,-460.34988631120052,-63.463947861264614,63.463947861264614,460.34988631120052,1074.56075738819,0.0
528204.59901257406,4117374.0504322448,-42500.0,-693.14832109146244,-234.24544412108523,-7.4098344541541499,-537.32171193253623,-128.76401570460212,-299.35148752321481,613.40170825380574,-489.93097926996813,-78.966198101108404,78.966198101108404,489.93097926996813,1198.2356777062939,0.0
533204.59901257406,4117374.0504322448,-42500.0,-736.19918533475254,-264.834309150568,-10.856705296940895,-609.93575527517498,-151.0382703730244,-358.3548609131683,686.83065397995108,-518.08865269375497,-98.346589730752868,98.346589730752868,518.08865269375497,1337.8100371322298,0.0
538204.59901257406,4117374.0504322448,-42500.0,-776.19441457123582,-299.65687707427691,-16.092795443760014,-691.93543378606171,-177.58710502647133,-430.01540432467419,770.10175599890704,-543.05716859319455,-122.60421643163136,122.60421643163136,543.05716859319455,1494.9185119845258,0.0
543204.59901257406,4117374.0504322448,-42500.0,-810.13438273276586,-339.11596636324077,-23.90251156161564,-783.67962898979999,-209.17486241687075,-516.92621629554776,864.29937359862015,-562.32942422976942,-152.98620954876637,152.98620954876637,562.32942422976942,1671.0249987895791,0.0
548204.59901257406,4117374.0504322448,-42500.0,-833.83001186989657,-383.51874455244734,-35.389248156167326,-884.95027604981385,-246.61574767248214,-621.99043902752533,970.41823021025436,-572.42162686049414,-191.03492584116174,191.03492584116174,572.42162686049414,1867.1826755751831,0.0
553204.59901257406,4117374.0504322448,-42500.0,-841.5724182939116,-432.98090322883633,-52.093863001490284,-994.55118482371961,-290.70230879817012,-748.26595763109492,1089.2075333728185,-568.59742088484279,-238.63146587953815,238.63146587953815,568.59742088484279,2083.6641038112721,0.0
558204.59901257406,4117374.0504322448,-42500.0,-825.79032564023862,-487.28398712991935,-76.14613827332083,-1109.7206106714468,-342.06674427528145,-898.62027621801985,1220.9209661677758,-544.57557377237333,-298.02232182440423,298.02232182440423,544.57557377237333,2319.4121420469928,0.0
563204.59901257406,4117374.0504322448,-42500.0,-776.78004503025807,-545.67414920858062,-110.44646943337503,-1225.3066671705744,-400.9327453531335,-1075.0605616355804,1364.9290969314745,-492.28557897577269,-371.80453350349779,371.80453350349779,492.28557897577269,2571.2598740277663,0.0
568204.59901257406,4117374.0504322448,-42500.0,-682.68972352111655,-606.60030514668779,-158.85803371397557,-1332.6779842083283,-466.69686424829945,-1277.5264262741493,1519.1366714722367,-401.81191888468936,-462.82725764271493,462.82725764271493,401.81191888468936,2832.8830131230629,0.0
573204.59901257406,4117374.0504322448,-42500.0,-530.11360201968364,-667.42113235665704,-226.3550051166782,-1418.4387768557269,-537.26080071628985,-1501.8381760656612,1679.1436882741561,-261.80522039797154,-573.94513635426711,573.94513635426711,261.80522039797154,3093.5244826826997,0.0
578204.59901257406,4117374.0504322448,-42500.0,-305.92155864647094,-724.19312927168914,-319.00829995061804,-1463.2796396843098,-608.04448902075683,-1736.41658996295,1837.1188779113199,-60.852275784420897,-707.54530610524807,707.54530610524807,60.852275784420897,3336.7424320869936,0.0
583204.59901257406,4117374.0504322448,-42500.0,-1.2475731509221237,-771.82965471336479,-443.59416132270189,-1441.9049258551238,-670.71614815990597,-1957.5127912978912,1980.495699646609,209.46478075417753,-864.80940082039865,864.80940082039865,-209.46478075417753,3539.9590125452651,0.0
588204.59901257406,4117374.0504322448,-42500.0,381.47843406507405,-805.21252799874014,-606.5164386908524,-1326.1107799520205,-712.05719757783686,-2123.5068402870857,2091.0144142922413,549.10989169619052,-1044.8578963264192,1044.8578963264192,-549.10989169619052,3676.6914327482777,0.0
593204.59901257406,4117374.0504322448,-42500.0,818.96595915121463,-822.04512689716762,-811.75758173838051,-1094.4610376306784,-714.31105577277162,-2171.3609252190877,2145.6495598441752,942.07756873395965,-1244.3287709580732,1244.3287709580732,-942.07756873395965,3725.1104696022444,0.0
598204.59901257406,4117374.0504322448,-42500.0,1259.7494124196903,-827.53114820627252,-1057.9085981689529,-751.5939728160688,-659.81936296900062,-2023.4796816641249,2123.5923499429055,1350.3694042696977,-1458.2593738906778,1458.2593738906778,-1350.3694042696977,3687.3999520942443,0.0
603204.59901257406,4117374.0504322448,-42500.0,1630.4704412324647,-837.84787335549856,-1334.9273822256473,-353.09942800188082,-542.95537731613979,-1618.528925458822,2035.5498089249327,1717.8057959958298,-1682.0527787921085,1682.0527787921085,-1717.8057959958298,3616.5469588851802,0.0
608204.59901257406,4117374.0504322448,-42500.0,1867.433549346521,-874.47486523807845,-1621.3373797059401,-14.895758129083742,-386.46654798378535,-973.56556191807715,2024.4066262644822,1991.8932350126634,-1910.482403946583,1910.482403946583,-1991.8932350126634,3615.8065677695886,0.0
613204.59901257406,4117374.0504322448,-42500.0,1964.5455250712291,-943.63412061287602,-1881.6277518442478,127.01248346614757,-245.35169730792049,-251.20552448246434,2160.5635338794605,2156.6615336446062,-2127.5800518867195,2127.5800518867195,-2156.6615336446062,3752.4344170558193,0.0
618204.59901257406,4117374.0504322448,-42500.0,1993.9174747361546,-1015.550605428858,-2065.4063312243547,14.791596374986211,-177.51978194012059,242.27087024692935,2275.9264766478896,2245.9280978768738,-2292.9441379692871,2292.9441379692871,-2245.9280978768738,3952.8597390869168,0.0
623204.59901257406,4117374.0504322448,-42500.0,2053.0430583913558,-1036.166910828716,-2117.5826452725323,-239.19991537458489,-195.02044062944023,197.54724578000759,2348.6011382705092,2308.7206698249411,-2348.2642359001948,2348.2642359001948,-2308.7206698249411,4074.9330372641748,0.0
628204.59901257406,4117374.0504322448,-42500.0,2158.8254048170202,-972.64394138848684,-2006.4651855208886,-382.16934978641774,-250.75206374942948,-466.76099761238402,2346.2947448821988,2344.2262847976381,-2252.2701789118546,2252.2701789118546,-2344.2262847976381,4095.3532278367456,0.0
633204.59901257406,4117374.0504322448,-42500.0,2201.2240098533107,-841.99130110698377,-1750.1200226028079,-205.69600233859427,-282.84661253790307,-1494.9076122133547,2235.7237007496869,2278.768070913382,-2010.8858048433112,2010.8858048433112,-2278.768070913382,4142.8985276818557,0.0
638204.59901257406,4117374.0504322448,-42500.0,2039.9565121156165,-690.35106085471705,-1410.3662677213661,283.82769580530288,-264.09428505871836,-2466.6220306019932,2364.2574452723634,2033.423842693634,-1672.9657021021144,1672.9657021021144,-2033.423842693634,4306.4477774927018,0.0
643204.59901257406,4117374.0504322448,-42500.0,1639.2478452471623,-555.25027980692892,-1058.6112484070081,899.03085636080414,-206.26405178111685,-3084.1610050523209,2586.6915780624277,1608.853325520706,-1302.7777694375679,1302.7777694375679,-1608.853325520706,4508.1322047371204,0.0
648204.59901257406,4117374.0504322448,-42500.0,1085.012232324176,-450.8835280469296,-746.003474754178,1439.6290193711891,-134.4676132237463,-3287.9767089538791,2664.8535338235411,1086.7414077003518,-954.27326701840707,954.27326701840707,-1086.7414077003518,4620.6457326444233,0.0
653204.59901257406,4117374.0504322448,-42500.0,502.8611624712558,-375.35040844741548,-495.42210904200681,1801.4806366663847,-67.632768671656677,-3175.7599802125596,2613.9574649840783,567.23476171810444,-659.1018772357545,659.1018772357545,-567.23476171810444,4585.7279538824168,0.0
658204.59901257406,4117374.0504322448,-42500.0,-13.516268915753445,-321.27711412339733,-308.67794746905724,1975.2641241068982,-14.427404633108329,-2882.3067318366034,2475.1066806192107,119.41784311669085,-427.54895017340482,427.54895017340482,-119.41784311669085,4414.2506283990842,0.0
663204.59901257406,4117374.0504322448,-42500.0,-421.00060629087756,-281.5199367875303,-176.87964927267942,1999.8590088981337,23.573142577001128,-2514.7905908984353,2287.0183493852992,-228.487558967902,-255.89353129016675,255.89353129016675,228.487558967902,4146.3749500169915,0.0
668204.59901257406,4117374.0504322448,-42500.0,-714.05316719201232,-250.82948434309742,-87.914746114385096,1924.4600784560237,48.207451056685422,-2139.7937667210681,2078.444348779647,-476.89573887799588,-134.03907125425656,134.03907125425656,476.89573887799588,3824.1148640859324,0.0
673204.59901257406,4117374.0504322448,-42500.0,-906.44693672465519,-225.80789798432096,-30.325224827592155,1790.9841760034265,62.414153235649628,-1791.995882546822,1868.0939341561368,-640.0884680007689,-50.610823901090043,50.610823901090043,640.0884680007689,3480.6841287194147,0.0
678204.59901257406,4117374.0504322448,-42500.0,-1018.4591485795124,-204.42329326258445,5.2502573683139389,1629.7223656299045,69.09638641394929,-1485.9645131257437,1666.9728865432101,-736.32717316403694,4.5501990464885012,-4.5501990464885012,736.32717316403694,3138.9180301748802,0.0
683204.59901257406,4117374.0504322448,-42500.0,-1070.1857527747522,-185.53065122138173,25.88155793938239,1460.5383619002439,70.678128235057883,-1225.0479564257844,1480.8547622075821,-782.89733591380354,39.578868618317301,-39.578868618317301,782.89733591380354,2812.979422539363,0.0
688204.59901257406,4117374.0504322448,-42500.0,-1078.8306348891062,-168.51258300562819,36.655621762304541,1295.480903655141,69.007533842310607,-1006.94447130452,1312.1969721623072,-794.24279191213782,60.607505773561286,-60.607505773561286,794.24279191213782,2510.6925514788127,0.0
693204.59901257406,4117374.0504322448,-42500.0,-1058.045503754121,-153.04217698984954,41.114436156638021,1141.2299452488624,65.411350128962212,-826.89521896079168,1161.4604521436149,-781.64550352364427,72.09435713042177,-72.09435713042177,781.64550352364427,2235.5829030276404,0.0
698204.59901257406,4117374.0504322448,-42500.0,-1018.1659960702689,-138.93970740485065,41.664365335733777,1000.9749226849675,60.798959940696363,-679.41001394343573,1027.9696093091313,-753.54885964700622,77.206041532597055,-77.206041532597055,753.54885964700622,1988.4231919845786,0.0
703204.59901257406,4117374.0504322448,-42500.0,-966.75730979599552,-126.09253431522686,39.907218544333304,875.73929888119346,55.768514656130371,-559.14054438628511,910.4551316097494,-716.07775612165551,78.155670832577016,-78.155670832577016,716.07775612165551,1768.3262943508728,0.0
708204.59901257406,4117374.0504322448,-42500.0,-909.20470916676618,-114.41457550861224,36.888680416019355,765.27279095073675,50.697221797495558,-461.27639324123805,807.3892093746399,-673.5607745180456,76.470233931768689,-76.470233931768689,673.5607745180456,1573.4867343530493,0.0
713204.59901257406,4117374.0504322448,-42500.0,-849.2397567957961,-103.82716109337072,33.277075694824838,668.62975233717782,45.810577355179475,-381.68037782756602,717.18371573456898,-628.97981882238571,73.191392626273228,-73.191392626273228,628.97981882238571,1401.6604484069987,0.0
718204.59901257406,4117374.0504322448,-42500.0,-789.37314858713694,-94.252234547692993,29.488463036369929,584.53442958074697,41.233196665439948,-316.89144007750861,638.30388920298901,-584.33184725365595,69.021173724282221,-69.021173724282221,584.33184725365595,1250.4673723625588,0.0
723204.59901257406,4117374.0504322448,-42500.0,-731.23236777536931,-85.61098561125155,25.772504379104145,511.602532145868,37.024450126779215,-264.06491132477873,569.3275418561816,-540.90679924739061,64.425900984217151,-64.425900984217151,540.90679924739061,1117.5711937835408,0.0
523204.59901257406,4122374.0504322448,-42500.0,-709.59295548747764,-147.60150439803695,15.673426938008204,-508.95066068386302,-73.742311858771743,-267.36837377602842,572.34205302917167,-516.66473072100155,5.7918942824387329,-5.7918942824387329,516.66473072100155,1122.3225946923969,0.0
528204.59901257406,4122374.0504322448,-42500.0,-762.93892559352525,-165.64899723732219,17.447256993356508,-580.39768333627751,-85.271677866012737,-320.48878350879517,641.2952476588257,-555.15931035498534,1.015662601467227,-1.015662601467227,555.15931035498534,1254.6711542466405,0.0
533204.59901257406,4122374.0504322448,-42500.0,-816.8410877131563,-186.16975022923592,18.840853997804604,-662.37886933205266,-98.818445201177724,-385.45259630387017,719.96674908320267,-593.7406522129811,-5.8575922142945842,5.8575922142945842,593.7406522129811,1404.8013556156311,0.0
538204.59901257406,4122374.0504322448,-42500.0,-869.38680790489946,-209.45954170148474,19.485484931091513,-756.02694241944687,-114.71170887434319,-464.98266349078131,809.67747301039287,-630.85139633445488,-15.580310616365637,15.580310616365637,630.85139633445488,1574.8014053185786,0.0
543204.59901257406,4122374.0504322448,-42500.0,-917.72488209044434,-235.81013521828055,18.813810599685418,-862.26982596677328,-133.29764939714607,-562.33988409844551,911.81493508117171,-664.17576183923347,-29.16507952079013,29.16507952079013,664.17576183923347,1766.6983970729455,0.0
548204.59901257406,4122374.0504322448,-42500.0,-957.73046296575637,-265.48376506347961,15.966855590761845,-981.57579083534699,-154.91058222802658,-681.33837664651594,1027.7540781010732,-690.36322834174121,-47.970720615198616,47.970720615198616,690.36322834174121,1982.2377944339578,0.0
553204.59901257406,4122374.0504322448,-42500.0,-983.59020631667238,-298.6733050532111,9.6621661618787051,-1113.5477358135445,-179.81897503749423,-826.27471540950057,1158.7158414572411,-704.68145987062792,-73.811659517304065,73.811659517304065,704.68145987062792,2222.5282799446459,0.0
558204.59901257406,4122374.0504322448,-42500.0,-987.32182862304876,-335.44395299205615,-1.9887347532501933,-1256.2973990459045,-208.13178227143123,-1001.6883899305478,1305.5279815144297,-700.60525230684084,-109.09163462830622,109.09163462830622,700.60525230684084,2487.4922050088894,0.0
563204.59901257406,4122374.0504322448,-42500.0,-958.28751675964213,-375.65225115218357,-21.724079613342987,-1405.5114311993618,-239.64375520987988,-1211.8100432340816,1468.2349029277477,-669.38211210969791,-156.95468708408293,156.95468708408293,669.38211210969791,2775.0464953464834,0.0
568204.59901257406,4122374.0504322448,-42500.0,-882.85762940017639,-418.84091235111936,-53.437425464579789,-1553.1153695682974,-273.5882424365609,-1459.4545727618254,1645.4787191132061,-599.68967503311933,-221.42727599465206,221.42727599465206,599.68967503311933,3079.9317892586469,0.0
573204.59901257406,4122374.0504322448,-42500.0,-744.57639126930121,-464.12189735370151,-102.51794313983595,-1685.4910427570585,-308.25866198988257,-1743.9626524841983,1833.5477747076568,-477.65235264824344,-307.4893388791271,307.4893388791271,477.65235264824344,3392.1400505292904,0.0
578204.59901257406,4122374.0504322448,-42500.0,-525.53669348937831,-510.09638986486999,-176.13327661430068,-1781.4160523454086,-340.46001440065351,-2057.5904215623868,2024.9790968878392,-287.76562465386451,-420.94699260602215,420.94699260602215,287.76562465386451,3695.0290500332453,0.0
583204.59901257406,4122374.0504322448,-42500.0,-210.20057610171193,-554.95293038674833,-283.23170137388627,-1810.5270030119309,-364.80275640553896,-2379.639196015994,2206.6856194337943,-15.703540988724228,-567.89418659307944,567.89418659307944,15.703540988724228,3963.6531673693007,0.0
588204.59901257406,4122374.0504322448,-42500.0,206.69258969541301,-597.06905068838853,-433.82441142331311,-1734.5488720604355,-373.07024390240304,-2668.1372045459798,2357.9144193726693,345.65790496478451,-753.51065111919308,753.51065111919308,-345.65790496478451,4164.916440850915,0.0
593204.59901257406,4122374.0504322448,-42500.0,707.40531302152408,-636.62937857155418,-636.85301378434588,-1515.9095614631283,-354.507655878761,-2851.5050955364713,2449.2235062190439,786.27343581889431,-980.09784653036195,980.09784653036195,-786.27343581889431,4263.2900582867169,0.0
598204.59901257406,4122374.0504322448,-42500.0,1237.7345379215201,-678.41073234111354,-895.899485749522,-1139.7077965095164,-299.03025547880793,-2829.479750308798,2445.1996292869035,1267.7755877807392,-1244.7133511369132,1244.7133511369132,-1267.7755877807392,4238.2144420779414,0.0
603204.59901257406,4122374.0504322448,-42500.0,1706.8820362264271,-733.62779671369685,-1202.6961093134344,-648.39690084453787,-205.82595988748162,-2502.3782429689672,2315.0566898204343,1721.3371044832361,-1536.9769270936172,1536.9769270936172,-1721.3371044832361,4115.7409051685372,0.0
608204.59901257406,4122374.0504322448,-42500.0,2020.5337637861835,-814.47897406391883,-1530.3036023397863,-165.55453151808811,-95.217974834570413,-1845.0653881213295,2064.5309383403669,2069.3232447708174,-1836.236403071802,1836.236403071802,-2069.3232447708174,3990.5815600406427,0.0
613204.59901257406,4122374.0504322448,-42500.0,2143.8453925720905,-916.49034096803393,-1830.4055337061311,139.49163376188696,-8.7628889053059673,-998.24155134207217,2191.3619916419616,2269.4123915382916,-2106.1465230820631,2106.1465230820631,-2269.4123915382916,3969.6859558961683,0.0
618204.59901257406,4122374.0504322448,-42500.0,2139.3522367433234,-1003.4874047402176,-2040.7009681943348,164.57873409721526,21.063101907245258,-280.08134566934035,2323.8364784666255,2343.8451864709132,-2292.9615961495338,2292.9615961495338,-2343.8451864709132,4039.39264145882,0.0
623204.59901257406,4122374.0504322448,-42500.0,2118.3237381861991,-1027.3783992405777,-2106.1063856650999,-15.285529607729188,11.958650408701226,-35.320262697460855,2348.9000298654246,2352.2758598989226,-2345.3628785483147,2345.3628785483147,-2352.2758598989226,4068.6266548238686,0.0
628204.59901257406,4122374.0504322448,-42500.0,2130.9041428483761,-975.68193659487042,-2006.5158761352161,-169.47794107626061,23.474785986877613,-395.52472077937153,2292.5813009269596,2323.9029682565729,-2250.2071307378278,2250.2071307378278,-2323.9029682565729,3998.9845083476462,0.0
633204.59901257406,4122374.0504322448,-42500.0,2109.2970341881214,-884.94319952132969,-1769.7232823102734,-84.261507785056239,95.026480951104361,-1168.2564417616647,2136.8922023863179,2221.0059438592875,-2041.3015525177011,2041.3015525177011,-2221.0059438592875,3933.6017061167113,0.0
638204.59901257406,4122374.0504322448,-42500.0,1939.7344565028443,-800.81367731514115,-1455.939141054781,273.70042407243062,209.92197963704379,-1985.2630586004586,2133.7916998617984,1983.6247191788918,-1770.4937136592082,1770.4937136592082,-1983.6247191788918,3986.1057886793437,0.0
643204.59901257406,4122374.0504322448,-42500.0,1579.8672048609808,-741.44537688844139,-1128.1062443976653,768.39279530848387,322.75708926400011,-2558.0745182621645,2346.7655688662448,1603.1924682294821,-1480.7744657964995,1480.7744657964995,-1603.1924682294821,4121.0760979919141,0.0
648204.59901257406,4122374.0504322448,-42500.0,1087.8282145678752,-699.77528257217955,-830.93655777997299,1230.761672257345,400.54688409062567,-2796.7541900303972,2436.6425728069853,1137.0714809360534,-1201.0254589304027,1201.0254589304027,-1137.0714809360534,4220.513176800453,0.0
653204.59901257406,4122374.0504322448,-42500.0,563.63493153201011,-662.84273342340384,-586.07483598484828,1559.9478445627824,435.26725203481232,-2757.9238797716644,2409.2839182800531,665.25557218787765,-949.23898021152229,949.23898021152229,-665.25557218787765,4209.8126942705976,0.0
658204.59901257406,4122374.0504322448,-42500.0,88.546894524043068,-622.90504421894161,-397.44836615806202,1734.4009314434334,434.67412952489951,-2545.9964779931893,2298.4510006593282,248.35204955387078,-734.5847944267332,734.5847944267332,-248.35204955387078,4080.6777909957004,0.0
663204.59901257406,4122374.0504322448,-42500.0,-295.7913365217513,-578.19553653356627,-259.10561809128473,1778.4678956622372,410.95338659867429,-2252.5137334277033,2138.0631300113569,-85.089477583895103,-559.04505311147477,559.04505311147477,85.089477583895103,3860.0925647406698,0.0
668204.59901257406,4122374.0504322448,-42500.0,-580.20480835877072,-530.13318617048128,-161.37258666978605,1730.4700016955196,374.77517655052537,-1938.6981197730306,1954.4778689152488,-331.45535271642433,-419.80163100911437,419.80163100911437,331.45535271642433,3583.0123420480936,0.0
673204.59901257406,4122374.0504322448,-42500.0,-773.79359643087855,-481.01387089047728,-94.418334355632311,1625.8145028557028,333.68808216804166,-1639.054075127083,1765.5766596077103,-500.58566821635623,-311.69243186761207,311.69243186761207,500.58566821635623,3279.6413890529052,0.0
678204.59901257406,4122374.0504322448,-42500.0,-892.87823346389689,-432.89268975747564,-49.821722731842186,1491.4939307222085,292.40639174880664,-1369.9585936727349,1582.3667211270033,-607.18629144311763,-228.98744859458276,228.98744859458276,607.18629144311763,2972.0213368493446,0.0
683204.59901257406,4122374.0504322448,-42500.0,-954.71607096756043,-387.24028270233492,-20.981617509157267,1346.0137871643303,253.57117543932947,-1136.998985200441,1410.9820203612076,-666.08620754443677,-166.36117357391535,166.36117357391535,666.08620754443677,2674.5673306322151,0.0
688204.59901257406,4122374.0504322448,-42500.0,-974.65874577142199,-344.94742334305511,-2.9902569456937433,1201.1070524352679,218.45673598606857,-939.92666711688696,1254.3511024074969,-690.18469146098687,-119.28483383357826,119.28483383357826,690.18469146098687,2395.7688887745035,0.0
693204.59901257406,4122374.0504322448,-42500.0,-965.23399834757276,-306.44383432337838,7.6782689972330598,1063.6409239609009,187.49767966625276,-775.66969623396596,1113.4006733663975,-689.87017831995126,-84.094695016578896,84.094695016578896,689.87017831995126,2139.9180183846224,0.0
698204.59901257406,4122374.0504322448,-42500.0,-936.14572258690612,-271.83207314819197,13.497839205858726,937.19827569388872,160.64745464905573,-640.05354117192394,987.8691154651965,-673.12091577931369,-57.91361161369224,57.91361161369224,673.12091577931369,1908.5162054575819,0.0
703204.59901257406,4122374.0504322448,-42500.0,-894.64313506235783,-241.00155977757299,16.173997219471531,823.25052773646678,137.60835666715479,-528.72906346846992,876.83736752900461,-645.86370230148384,-38.522946814596821,38.522946814596821,645.86370230148384,1701.3165137835133,0.0
708204.59901257406,4122374.0504322448,-42500.0,-845.98817989491647,-213.7151999838062,16.865953098373176,721.97590435825316,117.97229918645392,-437.63269096986932,779.06471472591204,-612.38639773367481,-24.231394780992616,24.231394780992616,612.38639773367481,1517.0506941000572,0.0
713204.59901257406,4122374.0504322448,-42500.0,-793.9023912411327,-189.67073895281251,16.351473950955466,632.80888371853814,101.30271687838915,-363.18172563001019,693.19571585702636,-575.71803470981581,-13.759043378431443,13.759043378431443,575.71803470981581,1353.9170848462404,0.0
718204.59901257406,4122374.0504322448,-42500.0,-740.94830006586994,-168.54184372460733,15.145492622377088,554.79658118934094,87.179103788656363,-302.3252398865481,617.88235811811182,-537.94668270212821,-6.1418460211782531,6.1418460211782531,537.94668270212821,1209.8947170311374,0.0
723204.59901257406,4122374.0504322448,-42500.0,-688.83530461353018,-150.00375344048186,13.58374438493307,486.82174023851849,75.218491055793223,-252.52148560549534,551.85130803299035,-500.4710652639435,-0.65564085374180081,0.65564085374180081,500.4710652639435,1082.935914020853,0.0
523204.59901257406,4127374.0504322448,-42500.0,-751.384136326158,-79.896690348199513,27.237130404763338,-533.71468239921489,-33.152806462427414,-279.06067309456148,589.86463830669118,-556.70436420534827,73.066987109135226,-73.066987109135226,556.70436420534827,1156.9707400867619,0.0
528204.59901257406,4127374.0504322448,-42500.0,-810.5586905390212,-87.479223575349678,30.999770809389481,-610.07270183839148,-36.379028867072776,-335.23103928044276,661.75737236629845,-600.9905954113317,78.700404143418893,-78.700404143418893,600.9905954113317,1295.2356011821694,0.0
533204.59901257406,4127374.0504322448,-42500.0,-871.10612959699699,-95.784870824226886,34.759718875230902,-698.06292112897211,-39.691201744776428,-404.15618224331774,743.98352388751834,-646.23081296769021,83.977371048371424,-83.977371048371424,646.23081296769021,1452.5037359669429,0.0
538204.59901257406,4127374.0504322448,-42500.0,-931.17224300556734,-104.85634557984078,38.216993565304548,-799.07118144052868,-42.94265288542276,-488.85946348940445,838.01052597370847,-690.95384852995471,88.395432926545993,-88.395432926545993,690.95384852995471,1631.1480227753511,0.0
543204.59901257406,4127374.0504322448,-42500.0,-987.92528248490328,-114.73588884989734,40.879621744249782,-914.32685419754182,-45.894974289487145,-593.00677263774764,945.40889165812916,-732.90334099329493,91.186575385264803,-91.186575385264803,732.90334099329493,1833.5481635807052,0.0
548204.59901257406,4127374.0504322448,-42500.0,-1037.1863792374136,-125.47245132824253,41.966128468348117,-1044.646508469737,-48.176172077901505,-720.95772298818838,1067.7813870711072,-768.73189362600306,91.19695059035439,-91.19695059035439,768.73189362600306,2061.883501144106,0.0
553204.59901257406,4127374.0504322448,-42500.0,-1072.9590673216589,-137.13922668976647,40.264388853389377,-1190.0138981298735,-49.22443304242362,-877.7406025962423,1206.6299014635176,-793.60533973357587,86.717514729618415,-86.717514729618415,793.60533973357587,2317.7887756394612,0.0
558204.59901257406,4127374.0504322448,-42500.0,-1086.8623609288743,-149.87010234394705,33.931437823477715,-1348.9150579624015,-48.216238778731849,-1068.8683438480632,1363.1232372203808,-800.71452756761255,75.250808612202832,-75.250808612202832,800.71452756761255,2601.808602065571,0.0
563204.59901257406,4127374.0504322448,-42500.0,-1067.5132286726675,-163.92774002971279,20.218456481739622,-1517.3152679404388,-43.981509860695958,-1299.8447855986954,1537.7066275152533,-780.722092293473,53.202287519533797,-53.202287519533797,780.722092293473,2912.5606372435136,0.0
568204.59901257406,4127374.0504322448,-42500.0,-1000.0026797695269,-179.82291061155379,-4.8884938527620525,-1687.140996163055,-34.918114131128014,-1575.0976518259947,1729.4655206757261,-721.2457859772594,15.498568625097676,-15.498568625097676,721.2457859772594,3245.5003496022405,0.0
573204.59901257406,4127374.0504322448,-42500.0,-865.82057273822772,-198.50898117036667,-47.096893872235334,-1844.1444719194915,-18.935991415185413,-1895.8769720933612,1935.1142148724309,-606.64331142966705,-44.820562747932399,44.820562747932399,606.64331142966705,3591.177505355311,0.0
578204.59901257406,4127374.0504322448,-42500.0,-643.99999874878336,-221.67683160862833,-114.22661004198542,-1965.2092647379993,6.5076436395902153,-2256.3671663055652,2147.4532937818813,-418.69137886807829,-136.88766498836156,136.88766498836156,418.69137886807829,3932.9719308078779,0.0
583204.59901257406,4127374.0504322448,-42500.0,-314.94528913658024,-252.16910352937188,-216.39793736364535,-2015.7897156424649,44.159127784400226,-2636.9576967766361,2353.1898464025526,-139.31117141419696,-271.82471656002258,271.82471656002258,139.31117141419696,4244.6582623842505,0.0
588204.59901257406,4127374.0504322448,-42500.0,130.84638441765961,-294.49423440461351,-365.4936087459343,-1949.846067360259,96.278377606571368,-2993.8745154277831,2530.3525976083142,242.86240637003306,-461.44057494301825,461.44057494301825,-242.86240637003306,4489.2090996248162,0.0
593204.59901257406,4127374.0504322448,-42500.0,677.46408884984146,-355.28868414581029,-572.97818368747812,-1717.8117045674376,163.08350575708781,-3246.9375462525904,2646.5442897166695,720.48954483138255,-714.89714078632278,714.89714078632278,-720.48954483138255,4622.597361380198,0.0
598204.59901257406,4127374.0504322448,-42500.0,1265.103264256054,-443.09472562920644,-844.81039083511837,-1291.1104280718253,239.71899711037437,-3275.3568653511375,2661.3981515216615,1252.1721265798967,-1032.6855908418968,1032.6855908418968,-1252.1721265798967,4609.7535514854799,0.0
603204.59901257406,4127374.0504322448,-42500.0,1784.947477442518,-565.5705892162257,-1172.7936369404531,-706.00301846372452,311.74044664520574,-2945.5473132881903,2540.1524714755178,1755.5457294398143,-1398.7140302316457,1398.7140302316457,-1755.5457294398143,4458.7791949754119,0.0
608204.59901257406,4127374.0504322448,-42500.0,2115.4693849360342,-720.89383624390075,-1524.9317880922908,-101.17601459606173,352.7724280636474,-2196.8812790673992,2308.2330649521,2130.1073594919776,-1773.9016563812161,1773.9016563812161,-2130.1073594919776,4255.9747672380572,0.0
613204.59901257406,4127374.0504322448,-42500.0,2203.2340510848494,-884.0162485758982,-1843.3429043831557,314.40117530429853,335.10486185677303,-1158.7315489885593,2292.3415736190891,2314.9861834288154,-2097.107525374026,2097.107525374026,-2314.9861834288154,4129.2892264801903,0.0
618204.59901257406,4127374.0504322448,-42500.0,2119.1809470111925,-1003.9228519412842,-2060.2103156310259,395.33610049040362,260.66524136494655,-175.83896466797825,2366.7140884511314,2335.5878854076286,-2301.0057223964791,2301.0057223964791,-2335.5878854076286,4103.5272429901497,0.0
623204.59901257406,4127374.0504322448,-42500.0,2005.7008483716245,-1034.949251023671,-2128.8474050605937,193.87966792023695,185.69776823960862,361.62764086142175,2326.7433969989402,2277.5270977083264,-2345.9640366926569,2345.9640366926569,-2277.5270977083264,4053.3374865480619,0.0
628204.59901257406,4127374.0504322448,-42500.0,1949.6052507828142,-982.96653783617933,-2046.1807540348493,-60.429333440684005,188.98609928418239,275.50279639988565,2235.0009546993965,2204.217073387701,-2248.9799349210189,2248.9799349210189,-2204.217073387701,3885.4010938278402,0.0
633204.59901257406,4127374.0504322448,-42500.0,1914.0094832559676,-904.33936611146748,-1847.1531195165433,-134.3069561842988,299.61672891315681,-294.15907364560735,2114.0380010801432,2104.6939324737177,-2068.6891920788767,2068.6891920788767,-2104.6939324737177,3673.4161483305884,0.0
638204.59901257406,4127374.0504322448,-42500.0,1795.7317519689761,-852.08472438264016,-1581.5090330691128,49.968135961533477,472.06974362364156,-1022.881887742565,2004.5141073584482,1923.8533691214898,-1858.6492569676147,1858.6492569676147,-1923.8533691214898,3561.654999258345,0.0
643204.59901257406,4127374.0504322448,-42500.0,1532.6321005411733,-837.63253277397735,-1295.0381115040261,407.07854641941805,633.22135131036066,-1625.7263779268269,2039.8346950913613,1632.229460870878,-1643.6515585727861,1643.6515585727861,-1632.229460870878,3584.0036783029273,0.0
648204.59901257406,4127374.0504322448,-42500.0,1146.6565408782526,-841.24689956025702,-1021.6725296001657,795.36043459284758,735.36467214624292,-1975.7380701890331,2106.8660625074067,1255.8792981616944,-1430.5586969876858,1430.5586969876858,-1255.8792981616944,3650.176347020803,0.0
653204.59901257406,4127374.0504322448,-42500.0,708.8907002468394,-839.73679571837636,-781.86832604957453,1110.9562869752144,769.06763253751478,-2081.5425395963061,2105.4016295471438,852.26450143922159,-1223.8536001428379,1223.8536001428379,-852.26450143922159,3666.2728954814529,0.0
658204.59901257406,4127374.0504322448,-42500.0,289.0716176004845,-820.94637122379015,-584.12475756080835,1313.0944767242599,748.26430433574058,-2012.3694877747675,2034.7989893872077,474.69256079169651,-1029.8895468646961,1029.8895468646961,-474.69256079169651,3594.9550199358205,0.0
663204.59901257406,4127374.0504322448,-42500.0,-69.307452066534708,-783.58368189907912,-428.3702206195718,1405.8069208518932,693.18668409934844,-1842.3882716352757,1916.2853001046592,155.09509431041033,-854.6293387913687,854.6293387913687,-155.09509431041033,3442.16605487586,0.0
668204.59901257406,4127374.0504322448,-42500.0,-349.56381341735903,-732.04740870984631,-309.74572095914601,1412.8267105431134,621.24653958480167,-1628.0421658747871,1771.0008713622562,-95.522538627038216,-701.55119831082209,701.55119831082209,95.522538627038216,3231.2163196140468,0.0
673204.59901257406,4127374.0504322448,-42500.0,-552.83916886176928,-672.18204558877153,-221.58518610719028,1361.22393094106,544.51681993055092,-1405.3800698838807,1615.0509377507922,-279.78793647583365,-571.38925731468635,571.38925731468635,279.78793647583365,2987.0949662219605,0.0
678204.59901257406,4127374.0504322448,-42500.0,-689.16085294944116,-609.14191636409294,-157.22682095621647,1274.1399084862906,470.26128358892544,-1194.5654219448763,1459.2810476794248,-406.93102227294469,-462.89236216117092,462.89236216117092,406.93102227294469,2730.2244686954223,0.0
683204.59901257406,4127374.0504322448,-42500.0,-771.48559070056785,-546.71723410194977,-110.86561496707155,1168.8745012367201,402.27317461195878,-1005.2214031769283,1310.3450727324794,-488.15965605749227,-373.7284767671739,373.7284767671739,488.15965605749227,2475.1636009144681,0.0
688204.59901257406,4127374.0504322448,-42500.0,-812.50081542344708,-487.36369338729025,-77.810701885815433,1057.3097778441149,342.11809378404246,-840.61880925210244,1171.9097147329528,-534.21289617031255,-301.17015859492346,301.17015859492346,534.21289617031255,2231.2854086241887,0.0
693204.59901257406,4127374.0504322448,-42500.0,-823.22484223958486,-432.47432793308104,-54.441623058984682,947.05138355072438,290.05021031506203,-700.50159779559715,1045.6442818418036,-554.32253284824344,-242.51328673973308,242.51328673973308,554.32253284824344,2003.9834175011474,0.0
698204.59901257406,4127374.0504322448,-42500.0,-812.60330264456218,-382.68310288280458,-38.044831182150794,842.60534849615215,245.62009626345952,-582.85454915285061,931.9515980431504,-555.94680230248127,-195.29272097655775,195.29272097655775,555.94680230248127,1795.8422978715751,0.0
703204.59901257406,4127374.0504322448,-42500.0,-787.58550022759459,-338.12179947088464,-26.625793260559767,746.35162220297138,208.05097414138027,-484.94519495445405,830.47275780438338,-544.86974475299826,-157.36937263434487,157.36937263434487,544.86974475299826,1607.5791306299523,0.0
708204.59901257406,4127374.0504322448,-42500.0,-753.3990964316863,-298.61397252338776,-18.737601839084391,659.27985729631121,176.45894342918297,-403.90579844108447,740.4263577286597,-525.44614339994666,-126.94426517950743,126.94426517950743,525.44614339994666,1438.745213351714,0.0
713204.59901257406,4127374.0504322448,-42500.0,-713.87318986749881,-263.81048677892397,-13.340093312852353,581.51168338126683,149.97282133496265,-337.03174176714015,660.82611727668132,-500.87645654857204,-102.53529137825959,102.53529137825959,500.87645654857204,1288.2147195925004,0.0
718204.59901257406,4127374.0504322448,-42500.0,-671.74573122547565,-233.28020063735335,-9.6902448227450826,512.65946561862654,127.79350504429617,-281.91528455591657,590.61835825944479,-473.46319762570261,-82.93828628039455,82.93828628039455,473.46319762570261,1154.5161484925159,0.0
723204.59901257406,4127374.0504322448,-42500.0,-628.9254405182196,-206.56716805471279,-7.2597909251761576,452.06246531830925,109.21772327508216,-236.48573687767038,528.76314086034688,-444.82724533070643,-67.184033386007854,67.184033386007854,444.82724533070643,1036.044281497288,0.0
523204.59901257406,4132374.0504322448,-42500.0,-772.58533221841185,-8.2578032248054853,28.319628912695343,-546.64515319079567,9.6005347819474789,-285.36488035616924,600.23329240774979,-578.34501435518621,134.26363102168546,-134.26363102168546,578.34501435518621,1177.0977460193444,0.0
528204.59901257406,4132374.0504322448,-42500.0,-833.61018486872877,-4.6662114777743176,31.751751389014807,-624.94971663394904,15.180828365802356,-342.91437728782483,673.4671362966177,-624.76475843544313,148.92633281359105,-148.92633281359105,624.76475843544313,1318.1226499610345,0.0
533204.59901257406,4132374.0504322448,-42500.0,-895.99733560547588,0.088195807534128645,34.980929098730137,-715.15004907470654,22.737501466852137,-413.54595313224183,757.23181299813098,-672.21189853380451,164.62314801084713,-164.62314801084713,672.21189853380451,1478.5796895236811,0.0
538204.59901257406,4132374.0504322448,-42500.0,-957.79163948621078,6.2385660825623308,37.624099318695727,-818.63323422312351,32.928792124659573,-500.35913220484889,853.02073443687664,-719.13461858598384,181.00873578021719,-181.00873578021719,719.13461858598384,1660.9070613029112,0.0
543204.59901257406,4132374.0504322448,-42500.0,-1016.0088811848537,14.015570020449431,39.075517385899424,-936.60279918548474,46.622821253805846,-607.10866067568156,962.43028318016684,-763.14734934802038,197.44426943604378,-197.44426943604378,763.14734934802038,1867.5553583572114,0.0
548204.59901257406,4132374.0504322448,-42500.0,-1066.2470939182731,23.604034067796647,38.399835648854904,-1069.8019189749348,64.953597230009407,-738.25265611908094,1087.0861908388013,-800.70482306259055,212.8399154612959,-212.8399154612959,800.70482306259055,2100.7769847794052,0.0
553204.59901257406,4132374.0504322448,-42500.0,-1102.1930923310665,35.062451148125881,34.180241118150924,-1218.061664591434,89.380438609083058,-898.91922330468992,1228.5061544186092,-826.68081773696588,225.42550257840833,-225.42550257840833,826.68081773696588,2362.2758064535942,0.0
558204.59901257406,4132374.0504322448,-42500.0,-1115.0299298243028,48.180903250155346,24.308202083710899,-1379.5860554966064,121.7366662287556,-1094.7024600100826,1387.859796260195,-833.84933729787713,232.42322800486858,-232.42322800486858,833.84933729787713,2652.6480020827626,0.0
563204.59901257406,4132374.0504322448,-42500.0,-1092.7979401788111,62.243876670632581,5.7032987802671018,-1549.8542568424889,164.23791312223696,-1331.1297744511455,1565.5671446998201,-812.30051385703587,229.59769876504816,-229.59769876504816,812.30051385703587,2970.5226273639719,0.0
568204.59901257406,4132374.0504322448,-42500.0,-1019.8671064951894,75.652149167790483,-26.03751737538818,-1719.9900372016211,219.38782142417949,-1612.5163954817524,1760.6437494700683,-748.90366586464461,210.67189064766495,-210.67189064766495,748.90366586464461,3311.2811428689261,0.0
573204.59901257406,4132374.0504322448,-42500.0,-876.9083112559473,85.357260835218057,-77.029713602296141,-1874.4672130276338,289.66715165509964,-1939.7154140378082,1969.6631114395861,-627.11012644762604,166.65231552381988,-166.65231552381988,627.11012644762604,3665.2342522654667,0.0
578204.59901257406,4132374.0504322448,-42500.0,-642.20278511584456,86.092573212776983,-155.42298210877308,-1988.2058531677421,376.8096962775922,-2305.9444595575815,2185.178172689084,-427.74929509685614,85.246493803195904,-85.246493803195904,427.74929509685614,4015.2144101223594,0.0
583204.59901257406,4132374.0504322448,-42500.0,-295.88779208199662,69.506194601571423,-271.39284181773087,-2023.7965850560772,480.37205824272991,-2689.5179646140723,2393.5086539296876,-132.09246907939513,-49.137533144607964,49.137533144607964,132.09246907939513,4333.9035968524468,0.0
588204.59901257406,4132374.0504322448,-42500.0,170.42480566727463,23.615175689687472,-436.25606721162609,-1931.4076906542209,595.27009858597103,-3042.5149170207269,2572.1895257639158,270.80246403664933,-253.77426921306107,253.77426921306107,-270.80246403664933,4582.3065993679375,0.0
593204.59901257406,4132374.0504322448,-42500.0,736.72506605206183,-66.358736470401396,-659.76333209363645,-1657.4802016243129,708.24104871700513,-3277.0708778198787,2688.5819470960978,770.63874039803784,-542.6962283931847,542.6962283931847,-770.63874039803784,4713.3074065212222,0.0
598204.59901257406,4132374.0504322448,-42500.0,1334.1252266324043,-213.81095679998884,-944.38979445029236,-1171.8792324932467,794.36999663567872,-3259.8511081000438,2703.9923710907119,1318.5317509925665,-916.84109301674403,916.84109301674403,-1318.5317509925665,4688.1685589630733,0.0
603204.59901257406,4132374.0504322448,-42500.0,1839.528672451346,-421.08868748721443,-1276.4068978209534,-517.2744558770936,817.55211807304977,-2841.2890769251653,2594.146257713508,1819.3081031072811,-1350.4624977726166,1350.4624977726166,-1819.3081031072811,4513.7371203158564,0.0
608204.59901257406,4132374.0504322448,-42500.0,2118.1899686140309,-665.51180734795844,-1617.4830464863035,147.48189732257072,742.05473034339502,-1949.7534588856604,2419.2805744137049,2158.9419237179122,-1782.1410895523181,1782.1410895523181,-2158.9419237179122,4284.0187221543138,0.0
613204.59901257406,4132374.0504322448,-42500.0,2118.5271506380336,-891.70665733055807,-1907.0438385791872,583.2373436677675,559.89714025716455,-722.24230721754191,2374.9583620906924,2274.6293317599475,-2125.3268462500409,2125.3268462500409,-2274.6293317599475,4145.5817316328375,0.0
618204.59901257406,4132374.0504322448,-42500.0,1936.5565894680367,-1029.2759101997585,-2085.055484612104,623.41486611834841,321.05512727034505,468.41776886298038,2373.3896044021139,2211.354491778246,-2305.6562191631078,2305.6562191631078,-2211.354491778246,4132.5421512270304,0.0
623204.59901257406,4132374.0504322448,-42500.0,1748.9186546931469,-1039.5956010611349,-2124.7745921212268,322.28963396855102,129.68500888340043,1203.4510377516574,2248.5530014844762,2087.253877527462,-2305.8559815666872,2305.8559815666872,-2087.253877527462,4098.0975510302233,0.0
628204.59901257406,4132374.0504322448,-42500.0,1665.956610425932,-953.20088092953222,-2043.8184495682747,-75.945426230911309,83.845590033100009,1286.0902535175233,2093.0573955053915,1992.0044227741353,-2178.0308408446685,2178.0308408446685,-1992.0044227741353,3906.6200017778683,0.0
633204.59901257406,4132374.0504322448,-42500.0,1661.477463116046,-849.06839545538458,-1881.9971722173166,-320.18187763445565,203.4428818152,831.38739320303978,2023.899298564404,1925.9464575301379,-2003.3216203558775,2003.3216203558775,-1925.9464575301379,3591.4240422016719,0.0
638204.59901257406,4132374.0504322448,-42500.0,1630.2401353097123,-791.66193267971289,-1674.598147670614,-303.38859154512971,421.54103496656802,132.7627608321618,1905.4555430878127,1828.4873700908408,-1835.9651012295633,1835.9651012295633,-1828.4873700908408,3302.2544269843984,0.0
643204.59901257406,4132374.0504322448,-42500.0,1489.446988767673,-793.23408161030488,-1445.6503500398962,-74.385782264631516,642.49114317917042,-533.64367802200547,1814.37665235295,1647.6650378085878,-1685.8448436755634,1685.8448436755634,-1647.6650378085878,3148.3915683648365,0.0
648204.59901257406,4132374.0504322448,-42500.0,1228.6113870753989,-827.3791055350423,-1213.3501212679971,247.47460411244052,800.38839939232764,-1016.4900409702375,1795.9922557845744,1379.8013407101521,-1540.4173789260603,1540.4173789260603,-1379.8013407101521,3111.3452914043855,0.0
653204.59901257406,4132374.0504322448,-42500.0,891.99285698270648,-861.27531310801987,-993.02616292272091,556.5581842815393,875.21061974741724,-1285.4909814678456,1787.490561283724,1060.0974620827831,-1389.2629035854741,1389.2629035854741,-1060.0974620827831,3105.2812336789757,0.0
658204.59901257406,4132374.0504322448,-42500.0,537.83754468766347,-874.63650286342909,-795.88570147237192,794.84954565014993,878.06264942100188,-1377.7037547818782,1744.6560849977966,733.66295716046216,-1231.9103694666346,1231.9103694666346,-733.66295716046216,3065.3907896462297,0.0
663204.59901257406,4132374.0504322448,-42500.0,211.25029640231298,-861.68132362966674,-627.74658947496823,946.49338637179028,831.46685117369486,-1349.478715883168,1664.8529462308652,435.24846234544242,-1074.3094035571332,1074.3094035571332,-435.24846234544242,2969.7455646756653,0.0
668204.59901257406,4132374.0504322448,-42500.0,-63.156087024122591,-825.68862320718142,-489.5762397788269,1019.8802887840678,757.12425283826951,-1251.2742975505123,1558.9198710670676,183.58000136557348,-923.60003044438849,923.60003044438849,-183.58000136557348,2823.5235788950513,0.0
673204.59901257406,4132374.0504322448,-42500.0,-277.59876266120625,-773.44651629019347,-379.11476927233934,1032.7098596850274,671.33302450171414,-1119.8959595380616,1438.7529995736288,-15.832390829352676,-785.18764582780352,785.18764582780352,15.832390829352676,2642.0550737209028,0.0
678204.59901257406,4132374.0504322448,-42500.0,-434.71223054790681,-711.89260379428129,-292.52250379197744,1003.4773444291903,584.65195840112938,-979.08255483202095,1313.8206146317507,-165.67771795239199,-662.02479233118004,662.02479233118004,165.67771795239199,2441.4520584615057,0.0
683204.59901257406,4132374.0504322448,-42500.0,-542.19975395912331,-646.67615442658109,-225.55385431392614,947.83589796720889,503.11234817526218,-842.66351867341223,1190.6998619848832,-272.61943515415828,-554.98832060227255,554.98832060227255,272.61943515415828,2234.9046149565725,0.0
688204.59901257406,4132374.0504322448,-42500.0,-609.3829904290003,-581.83522307447186,-174.2206945964397,877.66516822865731,429.64353333233743,-717.77409191091863,1073.5272688932114,-344.55413606103502,-463.55240335572239,463.55240335572239,344.55413606103502,2031.8829679295463,0.0
693204.59901257406,4132374.0504322448,-42500.0,-645.31141037460611,-519.96862667271284,-135.08529807200665,801.34186115689431,365.23921036964481,-607.35978709585731,964.61973734094772,-389.10575808311711,-386.39605241688793,386.39605241688793,389.10575808311711,1838.5196757329145,0.0
698204.59901257406,4132374.0504322448,-42500.0,-657.90290225313754,-462.56236582324357,-105.33215310201285,724.42188548070021,309.78302698284875,-511.92068823075522,865.03490331297485,-412.94220082676782,-321.84289086547449,321.84289086547449,412.94220082676782,1658.3513924984109,0.0
703204.59901257406,4132374.0504322448,-42500.0,-653.67245643979868,-410.31381756328773,-82.72913705660207,650.3592668180703,262.58613147753397,-430.6435098740169,775.00617720461742,-421.56287013858901,-268.14189139993357,268.14189139993357,421.56287013858901,1493.0537638260857,0.0
708204.59901257406,4132374.0504322448,-42500.0,-637.76399158080915,-363.39769364921727,-65.543775499359938,581.12233781424663,222.71528429771462,-362.09867013820292,694.25701691648214,-419.32939126774511,-223.62739529274211,223.62739529274211,419.32939126774511,1343.0471081404914,0.0
713204.59901257406,4132374.0504322448,-42500.0,-614.11800691375765,-321.66536414174107,-52.450041395882884,517.67514483515322,189.18197771002013,-304.64955754871528,622.22015208370351,-409.6048785112547,-186.79868422910533,186.79868422910533,409.6048785112547,1207.9573910411693,0.0
718204.59901257406,4132374.0504322448,-42500.0,-585.67928356095661,-284.78399683673626,-42.442189092507,460.32951167954957,161.04273190761498,-256.67676498575952,558.18208957706304,-394.92509832010182,-156.34900664399538,156.34900664399538,394.92509832010182,1086.941885661269,0.0
723204.59901257406,4132374.0504322448,-42500.0,-554.60100709895369,-252.32995371679326,-34.761649928939228,408.99403069924625,137.44636356235705,-216.69058725053776,501.37680620215332,-377.16619892489325,-131.16602202862893,131.16602202862893,377.16619892489325,978.91335178889483,0.0
523204.59901257406,4137374.0504322448,-42500.0,-772.71214697377525,63.12548310018866,18.766924674678418,-547.43582367360727,52.28548465638746,-286.12684521688328,602.88238813429416,-580.84736786960866,185.87409033490164,-185.87409033490164,580.84736786960866,1182.072769554301,0.0
528204.59901257406,4137374.0504322448,-42500.0,-831.56966847251044,77.513693900981835,19.558462143522664,-624.66893829352978,66.479056661841028,-343.34370731535569,675.75654562009038,-625.630920673319,207.31750953657303,-207.31750953657303,625.630920673319,1322.5574447987626,0.0
533204.59901257406,4137374.0504322448,-42500.0,-890.96710902502457,94.772048309018416,19.388883656560399,-713.22330734601746,84.597098632963323,-413.37549364485562,758.92114986990782,-670.71478868129338,230.59842055523171,-230.59842055523171,670.71478868129338,1482.0732385800241,0.0
538204.59901257406,4137374.0504322448,-42500.0,-948.70380380349741,115.33581961941582,17.653402162823646,-814.24055425902532,107.75057069920624,-499.17211683624214,853.77126853327457,-714.30739161885253,255.3685027268175,-255.3685027268175,714.30739161885253,1662.8943000141817,0.0
543204.59901257406,4137374.0504322448,-42500.0,-1001.4947181524691,139.60632105261377,13.464135554215478,-928.58113434115967,137.34887846685126,-604.26035400649948,961.76776774770838,-753.71979030708439,280.91795076078756,-280.91795076078756,753.71979030708439,1867.2473770056097,0.0
548204.59901257406,4137374.0504322448,-42500.0,-1044.5828093899611,167.86190151931513,5.5326438976343972,-1056.5125061470692,175.15543343783099,-732.75172280456809,1084.3504837033149,-785.03335806981954,305.97578781425682,-305.97578781425682,785.03335806981954,2097.0812114518985,0.0
553204.59901257406,4137374.0504322448,-42500.0,-1071.2615327975859,200.10275328061829,-7.9879196957111569,-1197.2138842677155,223.32837690798752,-889.24892338792199,1222.7840425725522,-802.68238975795077,328.42015014757078,-328.42015014757078,802.68238975795077,2353.6914502382028,0.0
558204.59901257406,4137374.0504322448,-42500.0,-1072.3277453245523,235.79233148832256,-29.707038957812316,-1348.0125186134414,284.41560798695315,-1078.5533730259351,1377.8980451305731,-798.96162279173154,344.86877015613845,-344.86877015613845,798.96162279173154,2637.1332351851447,0.0
563204.59901257406,4137374.0504322448,-42500.0,-1035.5428291838959,273.44344331815768,-63.243899535758992,-1503.241792910424,361.24315399559839,-1305.0046553380205,1549.6646405749884,-763.51312998943251,350.12279086003502,-350.12279086003502,763.51312998943251,2945.33254359583,0.0
568204.59901257406,4137374.0504322448,-42500.0,-945.30102910885898,309.98790551060944,-113.49096392183066,-1652.600221934611,456.5855833232107,-1571.1608452295397,1736.5312787631237,-682.9433122347524,336.46212926593023,-336.46212926593023,682.9433122347524,3272.7902710723279,0.0
573204.59901257406,4137374.0504322448,-42500.0,-782.94905496915339,339.87967657049376,-186.81759408495259,-1778.9408307103665,572.42440044006901,-1875.3319837555134,1934.3997871412823,-540.91911185161382,292.86718317974623,-292.86718317974623,540.91911185161382,3608.7854074109396,0.0
578204.59901257406,4137374.0504322448,-42500.0,-528.65589402144417,353.96080092006781,-291.03846285479881,-1855.6676764678652,708.4843116298706,-2207.1969181769155,2135.1428997184344,-319.46742077112316,204.43411609378049,-204.43411609378049,319.46742077112316,3935.102921314588,0.0
583204.59901257406,4137374.0504322448,-42500.0,-166.43069025551478,338.37305554018167,-434.80301802294002,-1844.6827427767719,859.6367177029415,-2540.4964765877462,2324.6725151867327,-2.7935887439581286,52.660929666578497,-52.660929666578497,2.7935887439581286,4223.7491166859063,0.0
588204.59901257406,4137374.0504322448,-42500.0,305.49783287335356,274.39690967969517,-625.82731665643496,-1697.6821943182836,1011.8598707191558,-2822.2155715300355,2481.0617754155905,414.48490331852122,-182.00922030420057,182.00922030420057,-414.48490331852122,4436.3133573887344,0.0
593204.59901257406,4137374.0504322448,-42500.0,857.74652609580812,141.18470670200821,-867.22100613096438,-1366.9330979416263,1137.2904835201125,-2960.6190040195761,2574.6224044448172,913.40266479946342,-513.20527965324857,513.20527965324857,-913.40266479946342,4529.2911500440823,0.0
598204.59901257406,4137374.0504322448,-42500.0,1411.4708099047391,-75.56499546063786,-1151.5360651150729,-834.31720873725158,1191.4445602916765,-2823.2739365195152,2575.0884850917364,1434.4628280156312,-935.40351931039083,935.40351931039083,-1434.4628280156312,4473.5213926475626,0.0
603204.59901257406,4137374.0504322448,-42500.0,1838.7010567042303,-367.31243032222665,-1454.0562402342878,-159.85998147696844,1120.1930493434086,-2270.5947067656211,2477.9332265981056,1874.3381300717551,-1407.2108669451977,1407.2108669451977,-1874.3381300717551,4294.597418455216,0.0
608204.59901257406,4137374.0504322448,-42500.0,2012.4584106909601,-685.43117291506417,-1730.8308318016254,481.5009365341657,885.99837574810158,-1250.3799515441613,2363.8817401741831,2120.7872241110258,-1844.6053592485468,1844.6053592485468,-2120.7872241110258,4111.5127738136543,0.0
613204.59901257406,4137374.0504322448,-42500.0,1904.1843076833923,-943.63952682542697,-1929.8389280188028,846.37294648280147,509.87657558504969,80.870069103881605,2354.5097890493353,2128.4220433786286,-2144.903897303102,2144.903897303102,-2128.4220433786286,4078.4691194340944,0.0
618204.59901257406,4137374.0504322448,-42500.0,1639.0248766531627,-1058.7842622120154,-2016.448613639227,780.2912844596716,94.887640993592953,1346.0358945461078,2375.015979644043,1971.2538532932563,-2242.5448986421957,2242.5448986421957,-1971.2538532932563,4194.5157438733195,0.0
623204.59901257406,4137374.0504322448,-42500.0,1412.8412321985347,-1009.6259301958347,-1995.0918709954185,356.03034501564406,-211.15918590336551,2141.1046531257844,2325.1656846557134,1793.465339262654,-2154.7463977697898,2154.7463977697898,-1793.465339262654,4265.948856701224,0.0
628204.59901257406,4137374.0504322448,-42500.0,1339.2777833453501,-857.29115362990092,-1902.5382779763986,-172.75455481500649,-301.17920786782128,2284.2135811804587,2230.8066080560602,1696.0345457443359,-1969.3138416664087,1969.3138416664087,-1696.0345457443359,4126.9948636354757,0.0
633204.59901257406,4137374.0504322448,-42500.0,1388.7683534329913,-701.94440530208476,-1776.9496994779809,-553.8019215196972,-170.46642283520302,1881.1581388981533,2101.7203984297439,1677.9306835602245,-1782.8222025268517,1782.8222025268517,-1677.9306835602245,3782.6485003839557,0.0
638204.59901257406,4137374.0504322448,-42500.0,1451.139612369625,-616.50666869872157,-1635.9495938887346,-670.50397130947078,95.871489643317418,1195.2769867765917,1919.7257869115483,1669.6385963319419,-1645.5362733686368,1645.5362733686368,-1669.6385963319419,3364.8561444248439,0.0
643204.59901257406,4137374.0504322448,-42500.0,1430.1927100441148,-614.93920041327283,-1480.9058888074267,-549.36875425712049,386.78560799004401,481.18352716929854,1739.9828398166778,1601.8148605288261,-1553.8064332902359,1553.8064332902359,-1601.8148605288261,3016.8082875074297,0.0
648204.59901257406,4137374.0504322448,-42500.0,1292.4327387978651,-667.73697834986854,-1311.9233266727958,-290.13665914609635,621.66488576029963,-104.65063124852814,1617.1194600546928,1447.4800731814253,-1478.732902812138,1478.732902812138,-1447.4800731814253,2800.9940128705034,0.0
653204.59901257406,4137374.0504322448,-42500.0,1059.8809629022514,-734.74491166791972,-1135.1585361209354,5.6197699856839751,767.8211094167483,-508.29857863383853,1549.9307399122042,1221.7743270628714,-1395.2960451012852,1395.2960451012852,-1221.7743270628714,2687.6499420200148,0.0
658204.59901257406,4137374.0504322448,-42500.0,778.61113223486416,-786.8798836319279,-960.76755538321663,270.0037879386515,828.6054901059349,-741.53898666840576,1497.380548937467,959.78726086264862,-1293.4468217741087,1293.4468217741087,-959.78726086264862,2613.0796101802412,0.0
663204.59901257406,4137374.0504322448,-42500.0,492.55476658944167,-811.18752706508883,-798.30231539173906,472.00295044463491,824.1792946643136,-843.46885788669704,1433.710697405972,696.09771866443964,-1175.3193542443987,1175.3193542443987,-696.09771866443964,2531.1866922559234,0.0
668204.59901257406,4137374.0504322448,-42500.0,231.88671929859808,-806.73937026984675,-654.01595508541425,606.37762561719376,777.58384465074369,-856.41077815531287,1354.1092799522719,454.98125751333248,-1048.5653176337087,1048.5653176337087,-454.98125751333248,2423.7503880326549,0.0
673204.59901257406,4137374.0504322448,-42500.0,12.142833614180992,-778.79130026019664,-530.52022424565962,681.34183094531625,708.10030454447678,-815.42596909922509,1262.4929386952042,249.18369185902242,-921.35790450074069,921.35790450074069,-249.18369185902242,2290.569397394243,0.0
678204.59901257406,4137374.0504322448,-42500.0,-162.12028289853441,-734.48192184722473,-427.66461915394808,709.93650046144626,629.49072160743299,-745.89591075098929,1164.6198420058033,82.575739846195404,-800.04529336066093,800.04529336066093,-82.575739846195404,2139.0385122677767,0.0
683204.59901257406,4137374.0504322448,-42500.0,-293.04078226405238,-680.50914756351358,-343.65686592412123,705.30335109760665,550.52739724490357,-664.61561794870033,1065.5650449092873,-46.494538884310259,-688.61912436071043,688.61912436071043,46.494538884310259,1978.0545947428516,0.0
688204.59901257406,4137374.0504322448,-42500.0,-386.08924755158557,-622.21257480060478,-275.96606184828488,678.63458850244945,476.22263443881894,-581.8788482249214,969.06652574140674,-142.49140229912859,-589.03341855335555,589.03341855335555,142.49140229912859,1815.3417942156782,0.0
693204.59901257406,4137374.0504322448,-42500.0,-447.87836572494007,-563.42737378512982,-221.90984068645773,638.615561350858,409.03732055689733,-503.47727405329175,877.5667585509608,-210.89060370542134,-501.77204670692015,501.77204670692015,210.89060370542134,1656.6508163275732,0.0
698204.59901257406,4137374.0504322448,-42500.0,-484.9184044545301,-506.67828849300707,-178.97808454995138,591.5724433847372,349.83208123391114,-432.27615750438798,792.46902103929438,-257.13767785938285,-426.38662456589782,426.38662456589782,257.13767785938285,1505.8071875985243,0.0
703204.59901257406,4137374.0504322448,-42500.0,-503.0101996994681,-453.47372288458257,-144.97757804261548,541.88112930519674,298.53631895317784,-369.34032332351404,714.41730493197463,-286.12858107325593,-361.91058422644807,361.91058422644807,286.12858107325593,1365.060198628393,0.0
708204.59901257406,4137374.0504322448,-42500.0,-507.02453991788576,-404.59162283760458,-118.07113121543095,492.42142922704988,254.58776366992589,-314.69271327634527,643.53826993319308,-302.01135163652123,-307.1449309761374,307.1449309761374,302.01135163652123,1235.4888465845518,0.0
713204.59901257406,4137374.0504322448,-42500.0,-500.89129160044092,-360.31500038095402,-96.761179663718607,444.98090380391551,217.2049609856339,-267.80096942341208,579.62723905429948,-308.16505057821041,-260.83871188387991,260.83871188387991,308.16505057821041,1117.3594433543535,0.0
718204.59901257406,4137374.0504322448,-42500.0,-487.69029694962956,-320.6099148092415,-79.848714307693342,400.58005657595146,185.5469032610747,-227.87705449093275,522.28286140987132,-307.26656888470518,-221.79325462665452,221.79325462665452,307.26656888470518,1010.4074876125784,0.0
723204.59901257406,4137374.0504322448,-42500.0,-469.7810191264827,-285.25317334366844,-66.385252430949024,359.71932832861916,158.80073295758439,-194.05363006386895,471.00095370773607,-301.39230481864507,-188.91611285818635,188.91611285818635,301.39230481864507,914.04682524932412,0.0
523204.59901257406,4142374.0504322448,-42500.0,-752.72977615865352,130.22815533287434,-0.55635902816394311,-536.55310209570314,92.742465821492303,-281.52815355157992,597.76823824092241,-564.89689580641971,225.32862488996045,-225.32862488996045,564.89689580641971,1172.0579295756802,0.0
528204.59901257406,4142374.0504322448,-42500.0,-805.79001599611024,154.03280023041972,-4.3817213252622,-609.91709941449449,114.70226357188129,-336.80009970382122,668.63014596415246,-604.59373382035142,250.75434064485904,-250.75434064485904,604.59373382035142,1308.8159267972114,0.0
533204.59901257406,4142374.0504322448,-42500.0,-857.90877342455406,181.96351766956533,-10.349224520833506,-693.29396197159804,142.19979669520498,-404.08043118221366,749.13807965484023,-643.19993347796333,278.1166547898722,-278.1166547898722,643.19993347796333,1463.4325652646289,0.0
538204.59901257406,4142374.0504322448,-42500.0,-906.55570159065576,214.50851151713834,-19.366593873878806,-787.38423288699119,176.65985198464386,-485.97551083326402,840.48243420420181,-678.5829773622238,306.88599497465736,-306.88599497465736,678.5829773622238,1637.8179540456026,0.0
543204.59901257406,4142374.0504322448,-42500.0,-948.07986819143673,252.04374289604274,-32.689664648229538,-892.46490326640492,219.83461304336143,-585.51852735165312,943.85445008716226,-707.6582081234676,336.06646609044878,-336.06646609044878,707.6582081234676,1833.7245098400249,0.0
548204.59901257406,4142374.0504322448,-42500.0,-977.35084243742256,294.6877223076936,-52.040501888927267,-1008.041049445007,273.83365041198329,-706.11218661937244,1060.3408443342457,-726.07301906333601,363.95559554607553,-363.95559554607553,726.07301906333601,2052.488036306218,0.0
553204.59901257406,4142374.0504322448,-42500.0,-987.34343664019605,342.06328087467693,-79.752046432853064,-1132.3149157459231,341.11162050772793,-851.34384675489775,1190.7482785014952,-727.83323790657755,387.80584550709887,-387.80584550709887,727.83323790657755,2294.6220703511058,0.0
558204.59901257406,4142374.0504322448,-42500.0,-968.7117060245248,392.92122720756987,-118.93070766825879,-1261.4015775615692,424.36380099449178,-1024.569333824174,1335.3229106851024,-704.904652980008,403.36410693827406,-403.36410693827406,704.904652980008,2559.205261257292,0.0
563204.59901257406,4142374.0504322448,-42500.0,-909.46735782474877,444.57017900785087,-173.60922125782065,-1388.2117980244875,526.24016200576989,-1228.0931579236451,1493.3163456265333,-646.87949406840687,404.27889639854095,-404.27889639854095,646.87949406840687,2842.9883978305761,0.0
568204.59901257406,4142374.0504322448,-42500.0,-795.01289077885428,492.05863440184476,-248.82343693197606,-1500.9447383393604,648.72577741701036,-1461.6684461546008,1662.3369513759685,-540.91047906405447,381.40996590532114,-381.40996590532114,540.91047906405447,3139.1525301060997,0.0
573204.59901257406,4142374.0504322448,-42500.0,-609.02608102155159,527.09831294385776,-350.47645411421536,-1581.2388043380413,791.94324364342344,-1719.8870826775251,1837.4230305932115,-372.32364070607417,322.18860846268416,-322.18860846268416,372.32364070607417,3435.7010113095516,0.0
578204.59901257406,4142374.0504322448,-42500.0,-336.09184541026809,536.87075097957279,-484.74163102637198,-1602.3556434656111,952.03043409279144,-1987.8628785012418,2009.8244006244411,-126.6653216809181,210.42642959253703,-210.42642959253703,126.6653216809181,3713.6661361912156,0.0
583204.59901257406,4142374.0504322448,-42500.0,32.519089180089246,503.24641538214195,-656.60801246100448,-1528.5912190245058,1117.7213135054606,-2234.6011747622533,2165.6827420340464,205.60981551717754,27.443895875885445,-27.443895875885445,-205.60981551717754,3945.8640941175854,0.0
588204.59901257406,4142374.0504322448,-42500.0,488.39765629701873,403.7484660205829,-867.08388800529178,-1318.8011138591917,1265.6099904215509,-2404.2381695178656,2285.4109116260415,620.41593332836544,-243.89945243140411,243.89945243140411,-620.41593332836544,4098.2693066961037,0.0
593204.59901257406,4142374.0504322448,-42500.0,991.14319507306993,216.79359995105608,-1108.8369541735838,-939.40534955299768,1355.4862496205299,-2408.452478192035,2346.0665833023022,1087.2052769141042,-610.17226052107026,610.17226052107026,-1087.2052769141042,4138.6662689286586,0.0
598204.59901257406,4142374.0504322448,-42500.0,1456.0423459561682,-65.693722676323191,-1361.2720817450672,-392.87994629453766,1330.4940400748258,-2130.8835352519945,2332.1005809380385,1537.2328230530688,-1052.5490762104732,1052.5490762104732,-1537.2328230530688,4060.1051648712355,0.0
603204.59901257406,4142374.0504322448,-42500.0,1763.4332557495686,-418.64092493245874,-1588.717686556339,241.72276728755892,1131.409230761315,-1464.0858569855411,2263.7609659535001,1868.2983330256311,-1511.6351809260245,1511.6351809260245,-1868.2983330256311,3921.2236905236086,0.0
608204.59901257406,4142374.0504322448,-42500.0,1812.9607110583663,-769.12746924298699,-1747.9622256261139,788.00967175524556,732.88749430669668,-393.20361711965325,2231.4417104829645,1986.1174534126415,-1888.7454628475723,1888.7454628475723,-1986.1174534126415,3865.2649590593169,0.0
613204.59901257406,4142374.0504322448,-42500.0,1609.3319085425146,-1011.7449184741812,-1808.0569023014164,1028.5321156017164,188.98016032932728,912.36096895041624,2314.8751020723857,1875.4159467232764,-2083.1523306917347,2083.1523306917347,-1875.4159467232764,4016.7341045074768,0.0
618204.59901257406,4142374.0504322448,-42500.0,1295.8370979505646,-1065.5424174768423,-1771.8245596194188,845.87692836183248,-357.25237845986453,2109.3563169953077,2461.4916740998096,1636.3771755050302,-2055.0249613825636,2055.0249613825636,-1636.3771755050302,4301.5713792656561,0.0
623204.59901257406,4142374.0504322448,-42500.0,1064.3221179543725,-933.4615141808124,-1677.7355301916796,329.74264025221714,-735.71418717757342,2852.5688632859983,2564.8913435481859,1423.6043869866951,-1859.3458906858953,1859.3458906858953,-1423.6043869866951,4492.6885213832775,0.0
628204.59901257406,4142374.0504322448,-42500.0,1016.5676457674375,-703.63105046289047,-1574.779832885903,-277.85226239559108,-844.10677397045856,2994.6066688635606,2535.1369965500676,1335.5795895474573,-1610.4111971741634,1610.4111971741634,-1335.5795895474573,4428.0865968793078,0.0
633204.59901257406,4142374.0504322448,-42500.0,1117.6957302362259,-489.8874061081184,-1491.3971430204888,-743.66617878399973,-694.24304346034705,2628.9275171173404,2360.0337953687094,1365.1578452176343,-1409.3843035333728,1409.3843035333728,-1365.1578452176343,4105.9881391110057,0.0
638204.59901257406,4142374.0504322448,-42500.0,1257.9393063690254,-367.94101822507321,-1425.2278873554847,-954.5849035742516,-382.82562707744063,1978.9640941378946,2097.7044683808631,1436.6076967051804,-1297.5964544597855,1297.5964544597855,-1436.6076967051804,3637.7737925515685,0.0
643204.59901257406,4142374.0504322448,-42500.0,1336.728322607082,-352.12705301836542,-1356.9354542480664,-922.09897608145934,-27.223000371640701,1265.2343682510525,1825.1348544922944,1470.4144126708163,-1259.3592327925569,1259.3592327925569,-1470.4144126708163,3161.2273688963542,0.0
648204.59901257406,4142374.0504322448,-42500.0,1306.6674828729265,-412.35994657026146,-1269.856081005317,-726.51754677541544,284.45635949781325,634.1609307484207,1600.8222434297111,1423.6550546444882,-1253.6423900545647,1253.6423900545647,-1423.6550546444882,2773.8712001026956,0.0
653204.59901257406,4142374.0504322448,-42500.0,1172.3483519911795,-504.76254088850965,-1159.5512133396796,-459.16816551372983,509.69154145244903,150.11696724798398,1446.1488172436311,1294.7579552912953,-1243.6861584066251,1243.6861584066251,-1294.7579552912953,2505.0329235351264,0.0
658204.59901257406,4142374.0504322448,-42500.0,967.21432334374617,-593.59273869583717,-1032.0772347398699,-189.68891482861505,642.95967701315885,-180.66235598994919,1343.4850344515871,1107.5963207494813,-1209.7828876477849,1209.7828876477849,-1107.5963207494813,2329.1718615825866,0.0
663204.59901257406,4142374.0504322448,-42500.0,730.66166356624763,-658.71251219755334,-897.86389685552604,41.994890122545364,699.09701387280427,-381.56744736820963,1263.2013708550169,893.13562152016436,-1148.0945751856511,1148.0945751856511,-893.13562152016436,2202.5128144777786,0.0
668204.59901257406,4142374.0504322448,-42500.0,494.82189387143893,-693.57464798304932,-766.72390437791205,220.23072793837085,699.5490056093397,-485.07336149230224,1187.1311661530904,677.8503879716086,-1064.1056922689579,1064.1056922689579,-677.8503879716086,2090.9945723847868,0.0
673204.59901257406,4142374.0504322448,-42500.0,280.46073184120741,-700.09436658311461,-645.56395365847811,344.61460046525991,664.53193569184657,-521.76442328066048,1108.9800229354717,479.52550425724883,-966.58231047515221,966.58231047515221,-479.52550425724883,1977.2932853479824,0.0
678204.59901257406,4142374.0504322448,-42500.0,98.04375376295134,-684.0492963256869,-538.11567724427084,422.33576908250546,609.9367857118782,-516.12528805132956,1028.4316010200994,307.58825823466714,-863.92299983279531,863.92299983279531,-307.58825823466714,1856.3767069331136,0.0
683204.59901257406,4142374.0504322448,-42500.0,-49.385494916818367,-652.09646213053077,-445.60276446378765,463.1665900950436,546.92487038173806,-485.97457381403075,947.27664464616407,165.21936015552382,-762.61891059672644,762.61891059672644,-165.21936015552382,1729.5241298060605,0.0
688204.59901257406,4142374.0504322448,-42500.0,-163.33153989623719,-610.24251790349103,-367.61092572829079,476.73095481038013,482.67079792807942,-443.42811124961196,867.62297092103927,51.643868122056858,-666.98665243105802,666.98665243105802,-51.643868122056858,1600.2763825360046,0.0
693204.59901257406,4142374.0504322448,-42500.0,-247.642137136,-563.26687249697056,-302.82494169565263,471.2886056659957,421.39000160843597,-396.2590200962797,791.21298283779788,-36.040737550944471,-579.47860343683897,579.47860343683897,36.040737550944471,1472.3407154015886,0.0
698204.59901257406,4142374.0504322448,-42500.0,-307.04681311252023,-514.66243032881118,-249.54655748793655,453.38588934240545,365.27499255844367,-349.16262228436517,719.2502286701291,-101.61745992874569,-501.16289209767876,501.16289209767876,101.61745992874569,1348.7355918334433,0.0
703204.59901257406,4142374.0504322448,-42500.0,-346.2944046573009,-466.80708641771531,-206.01510191629893,427.9362871019614,315.2229672209769,-304.76400381530647,652.43540962979898,-148.992496353494,-432.17980983528656,432.17980983528656,148.992496353494,1231.5797675079541,0.0
708204.59901257406,4142374.0504322448,-42500.0,-369.70561325193114,-421.20222342949796,-170.58148370922811,398.47235803754114,271.35130246110327,-264.35482708870052,591.06764030279555,-181.78798361784038,-372.1022049401513,372.1022049401513,181.78798361784038,1122.1588617427672,0.0
713204.59901257406,4142374.0504322448,-42500.0,-380.98832043899102,-378.70561885301146,-141.78849441605087,367.43886298898474,233.34368071176743,-228.40588178132165,535.15694038489937,-203.16043891069017,-320.19629226959881,320.19629226959881,203.16043891069017,1021.0954293874019,0.0
718204.59901257406,4142374.0504322448,-42500.0,-383.20251899543325,-339.72502474738809,-118.3941197586761,336.46139858864115,200.66976582316352,-196.9078018907301,484.51940380541691,-215.75178956064195,-275.59487429955226,275.59487429955226,215.75178956064195,928.52569398524292,0.0
523204.59901257406,4147374.0504322448,-42500.0,-714.88453033803989,189.5864804462017,-27.911550090507944,-515.15547705483016,129.08599582620067,-272.0542028468281,585.30826706242556,-532.46221792135475,251.20349239133495,-251.20349239133495,532.46221792135475,1147.9513426071467,0.0
528204.59901257406,4147374.0504322448,-42500.0,-759.25517497843612,220.64731277594049,-37.739933006242332,-582.30465180013937,157.43602256715533,-323.98991913718294,652.68637380853397,-564.30293542166783,277.64149945207714,-277.64149945207714,564.30293542166783,1278.1391579110737,0.0
533204.59901257406,4147374.0504322448,-42500.0,-800.79664038643261,256.46042517934654,-51.098634916877316,-657.61298838295056,192.44313955600717,-386.69654380990727,728.74055860499516,-593.24311124735948,305.4306939748061,-305.4306939748061,593.24311124735948,1424.3803689069296,0.0
538204.59901257406,4147374.0504322448,-42500.0,-836.65169775999709,297.38433048896133,-69.196577065377326,-741.22710467929414,235.65931490513887,-462.29982304683892,814.38464994305355,-616.79754159084234,333.71597167838627,-333.71597167838627,616.79754159084234,1588.0804593882938,0.0
543204.59901257406,4147374.0504322448,-42500.0,-862.85288754630562,343.54160638447468,-93.628314809958326,-832.72063118646099,288.92164373828388,-553.16241686726073,910.45668070829583,-631.51411298098844,361.05780918250878,-361.05780918250878,631.51411298098844,1770.3541211763045,0.0
548204.59901257406,4147374.0504322448,-42500.0,-874.0245028241917,394.61422922764183,-126.47179833328464,-930.72399750470481,354.33158204399928,-661.75485388145455,1017.596842172934,-632.70505182763361,385.16585267525232,-385.16585267525232,632.70505182763361,1971.7418588971184,0.0
553204.59901257406,4147374.0504322448,-42500.0,-863.07743537775741,449.52792088339459,-170.38681959991339,-1032.3882494165887,434.15903844287794,-790.37784307309778,1136.0573928981698,-614.16393022873035,402.54241154242624,-402.54241154242624,614.16393022873035,2191.7873879767994,0.0
558204.59901257406,4147374.0504322448,-42500.0,-820.97080160332484,505.982554096961,-228.68656190484913,-1132.6362319717521,530.60504972277852,-940.63319034222798,1265.4165013869072,-567.9288207902008,408.02903255711999,-408.02903255711999,567.9288207902008,2428.4292347646297,0.0
563204.59901257406,4147374.0504322448,-42500.0,-736.6922404985163,559.78751894441973,-305.32615351363518,-1223.169322000115,645.31526880484716,-1112.4856282799381,1404.1640982168385,-484.21922437856301,394.279439654572,-394.279439654572,484.21922437856301,2677.1651149873965,0.0
568204.59901257406,4147374.0504322448,-42500.0,-597.74537345399597,603.98547465522267,-404.70093204381374,-1291.2559964499599,778.47491936776123,-1302.6826942287646,1549.1308164124102,-351.79426673735861,351.25253821037177,-351.25253821037177,351.79426673735861,2929.9792012981902,0.0
573204.59901257406,4147374.0504322448,-42500.0,-391.64511414279099,627.83862747126057,-531.07295755305245,-1318.4876403681913,927.24610832853978,-1502.2187887961215,1694.761793531171,-159.16821880434696,265.96754389629098,-265.96754389629098,159.16821880434696,3174.1295112240155,0.0
578204.59901257406,4147374.0504322448,-42500.0,-109.20566619710773,615.97746551939542,-687.34834605656476,-1280.0620550409492,1083.2684931873443,-1692.505276444921,1832.3414267931294,102.62101425871469,123.04331160152302,-123.04331160152302,-102.62101425871469,3391.1777788467621,0.0
583204.59901257406,4147374.0504322448,-42500.0,249.39822200516792,548.4909008113367,-872.87309191413067,-1145.918891199045,1229.0736377975502,-1840.1466607474804,1949.5570691541725,434.7942434853282,-93.011361413601151,93.011361413601151,-434.7942434853282,3557.3076307580604,0.0
588204.59901257406,4147374.0504322448,-42500.0,665.2549808942623,403.54745453350887,-1080.0732528594356,-886.32489579899459,1333.8983525700626,-1891.2682398154095,2031.4642977312731,822.58082553148358,-392.30267894884616,392.30267894884616,-822.58082553148358,3647.3457494597524,0.0
593204.59901257406,4147374.0504322448,-42500.0,1089.8658830777867,164.99683942691004,-1290.5170444507692,-485.74583248842021,1351.1195660399301,-1769.1876288183412,2065.2979220398456,1225.2944251182807,-769.51987062427088,769.51987062427088,-1225.2944251182807,3647.0342546453962,0.0
598204.59901257406,4147374.0504322448,-42500.0,1440.6094802067155,-163.1446419153381,-1472.7808028340951,32.603118361693106,1222.7423543015536,-1384.4867817434395,2053.6129353034794,1571.1284344634118,-1190.4452140173539,1190.4452140173539,-1571.1284344634118,3578.6502818698764,0.0
603204.59901257406,4147374.0504322448,-42500.0,1618.0516396595763,-538.58281420895685,-1586.9268266575737,578.93251570646703,899.09167086932086,-670.66594573101941,2038.3098977529328,1769.9959169302394,-1582.8179789239878,1582.8179789239878,-1769.9959169302394,3532.0850772546073,0.0
608204.59901257406,4147374.0504322448,-42500.0,1557.3903568400588,-873.76268825499994,-1600.1479404953836,993.45944034298202,376.5988737584604,351.90685541164356,2105.0418040986337,1756.1708022980326,-1847.8705236523745,1847.8705236523745,-1756.1708022980326,3646.0426586804879,0.0
613204.59901257406,4147374.0504322448,-42500.0,1292.7421649856653,-1062.090753180184,-1509.5946185276512,1104.2937175441546,-265.07799223974774,1520.098152730531,2294.5103617994673,1545.4336387912285,-1904.4698608870422,1904.4698608870422,-1545.4336387912285,3974.319239128788,0.0
618204.59901257406,4147374.0504322448,-42500.0,967.74511600873177,-1038.1291021941604,-1354.2213558737733,837.37608027039346,-868.65968118321427,2553.7363167681647,2529.1034135934883,1251.62633586828,-1745.5149948539365,1745.5149948539365,-1251.62633586828,4380.6341893989802,0.0
623204.59901257406,4147374.0504322448,-42500.0,751.58319459649192,-826.66808687984428,-1198.0825804137792,286.45419317604131,-1268.3984017541361,3187.7368307720521,2683.630225012198,1022.995257950317,-1454.1276074210659,1454.1276074210659,-1022.995257950317,4648.4985155525874,0.0
628204.59901257406,4147374.0504322448,-42500.0,728.08590274190431,-530.12898046305622,-1093.9303179144422,-338.7277890304382,-1376.0456338798576,3312.0134584131501,2679.8236211852773,947.18619122957125,-1155.2176383802907,1155.2176383802907,-947.18619122957125,4644.5890187669083,0.0
633204.59901257406,4147374.0504322448,-42500.0,862.36205769018602,-265.42523126586957,-1057.1175308644574,-838.19065779911784,-1213.028170613356,2998.9839160610809,2517.5307693405607,1012.875928129613,-945.05042408962584,945.05042408962584,-1012.875928129613,4368.536520036926,0.0
638204.59901257406,4147374.0504322448,-42500.0,1053.2918986885675,-106.86978018181911,-1067.1277390190569,-1108.45607161724,-876.22759335424905,2423.1642774239376,2250.1913229164297,1144.4763218315341,-855.04148038671713,855.04148038671713,-1144.4763218315341,3911.6552111544552,0.0
643204.59901257406,4147374.0504322448,-42500.0,1203.7239648310556,-69.342220145522575,-1088.2056856528873,-1148.4024789682885,-479.58944722262032,1763.3680299613679,1947.3083276859929,1259.5010625963989,-861.26691892728684,861.26691892728684,-1259.5010625963989,3392.6001435831063,0.0
648204.59901257406,4147374.0504322448,-42500.0,1259.2143971050998,-124.89426413645268,-1090.4121404108341,-1018.2573383798067,-111.57222083025606,1147.2094064965825,1667.5192308147609,1305.5256721549299,-915.80475438466738,915.80475438466738,-1305.5256721549299,2909.433779959747,0.0
653204.59901257406,4147374.0504322448,-42500.0,1211.0674796777082,-229.8116474549324,-1059.5672246347053,-794.74600024664301,179.57503346696615,640.60058185615958,1444.6545324187869,1267.9141348796632,-974.4044095572151,974.4044095572151,-1267.9141348796632,2517.1288959167264,0.0
658204.59901257406,4147374.0504322448,-42500.0,1080.3762207802945,-345.05328031163504,-996.11112087112622,-542.86565387100904,380.35797987624386,261.59524699578049,1282.840151805384,1159.2833459718279,-1009.5739183071422,1009.5739183071422,-1159.2833459718279,2226.5050790887485,0.0
663204.59901257406,4147374.0504322448,-42500.0,899.43648802231849,-445.03563784659866,-908.86273400400466,-305.6758995757674,498.88508654868633,0.10295804736114289,1165.269072491315,1004.3929091353273,-1011.0772313989914,1011.0772313989914,-1004.3929091353273,2018.3223638134075,0.0
668204.59901257406,4147374.0504322448,-42500.0,698.87510392780939,-517.70890862996646,-808.96695490189961,-105.50867058805042,552.6725710944944,-166.0391066313021,1072.3964376064762,828.6234269861676,-980.51333420753315,980.51333420753315,-828.6234269861676,1863.146514768833,0.0
673204.59901257406,4147374.0504322448,-42500.0,501.73870516422778,-560.77532972235224,-706.20466474435216,50.286539662186328,560.64929231729388,-261.08005078814483,991.49255539421097,652.07758003383401,-925.27017786937108,925.27017786937108,-652.07758003383401,1735.9590395689406,0.0
678204.59901257406,4147374.0504322448,-42500.0,322.47409633056338,-577.45266700030515,-607.57411445729394,163.30682085809235,539.18823456077303,-306.45224709755905,916.37581134508082,488.01633403630888,-854.18263628967986,854.18263628967986,-488.01633403630888,1621.1539585692674,0.0
683204.59901257406,4147374.0504322448,-42500.0,168.32382100802326,-573.25241614669176,-517.27080157810519,239.48620870572682,500.82387899517795,-319.10017022092183,844.75479289071563,343.62674215278429,-775.17626093402191,775.17626093402191,-343.62674215278429,1511.2367352895624,0.0
688204.59901257406,4147374.0504322448,-42500.0,41.426059285042911,-554.00796551846929,-437.26776095500611,286.15329556126005,454.37525739733093,-311.49181071067778,776.20073853507461,221.60983204037132,-694.3595379408182,694.3595379408182,-221.60983204037132,1403.764730978528,0.0
693204.59901257406,4147374.0504322448,-42500.0,-59.245813638386267,-524.88660145141102,-368.01462451247795,310.41438724074573,405.62689232744344,-292.32586485657248,710.9993270762983,121.7679248269794,-615.94192689448039,615.94192689448039,-121.7679248269794,1298.80147616824,0.0
698204.59901257406,4147374.0504322448,-42500.0,-136.40734260839218,-490.02807878562197,-309.0368321089191,318.41639589638874,358.11161652680829,-267.40430111364088,649.58638343882194,42.265944165625541,-542.52075492531537,542.52075492531537,-42.265944165625541,1197.3422872788751,0.0
703204.59901257406,4147374.0504322448,-42500.0,-193.46683665624801,-452.52460351712034,-259.37487628269884,315.12391263581287,313.79841890899996,-240.43079400654406,592.30979172275374,-19.487867579263025,-475.47307998691184,475.47307998691184,19.487867579263025,1100.5032099246234,0.0
708204.59901257406,4147374.0504322448,-42500.0,-233.91708419450495,-414.55573214815826,-217.87419481270999,304.36180128644594,273.62653809906629,-213.65357418478251,539.35612951364749,-66.285248351370257,-415.32453830912425,415.32453830912425,66.285248351370257,1009.175420510217,0.0
713204.59901257406,4147374.0504322448,-42500.0,-261.00319516677308,-377.57267482971054,-183.36058943966722,288.9728578259178,237.8912399713407,-188.347110455212,490.75327244023993,-100.79943083864143,-362.04865199460426,362.04865199460426,100.79943083864143,923.92754656980617,0.0
718204.59901257406,4147374.0504322448,-42500.0,-277.56969645119347,-342.47722001863252,-154.73519383920143,271.00622301577164,206.50745218384597,-165.15514885860014,446.40017792390842,-125.42632107665646,-315.28766482628487,315.28766482628487,125.42632107665646,845.01952720619431,0.0
523204.59901257406,4152374.0504322448,-42500.0,-662.39429603500128,238.59537685056509,-60.941628881584762,-484.93972475782692,159.85925232440437,-258.43083636456686,566.29202582012067,-486.50420954875506,263.2645247565988,-263.2645247565988,486.50420954875506,1111.2671598192278,0.0
528204.59901257406,4152374.0504322448,-42500.0,-696.14219043576531,274.28428196228566,-77.423439633737999,-544.13849903178152,192.87546555761298,-305.94694442763381,628.99801878800247,-508.63746383852674,287.93989617604484,-287.93989617604484,508.63746383852674,1232.559395503886,0.0
533204.59901257406,4152374.0504322448,-42500.0,-725.06230377141264,314.6647616526086,-98.7865674789536,-609.33168328041313,233.09769508931797,-362.7064914176762,699.19282141018334,-525.93689503401902,312.83591292680171,-312.83591292680171,525.93689503401902,1367.6582260298339,0.0
538204.59901257406,4152374.0504322448,-42500.0,-746.06092973172622,359.79846173139947,-126.4570118684062,-680.09301776600444,282.01101753330869,-430.28649849097502,777.4851543667022,-535.6464187187986,336.70042228467048,-336.70042228467048,535.6464187187986,1517.3998851208391,0.0
543204.59901257406,4152374.0504322448,-42500.0,-755.01039205806774,409.36213407042879,-162.23103761072912,-755.30333210747835,341.280593098319,-510.30592199219643,864.3367682512561,-534.0926848986677,357.59896597661964,-357.59896597661964,534.0926848986677,1682.204105784992,0.0
548204.59901257406,4152374.0504322448,-42500.0,-746.5418126879224,462.39442171799965,-208.32703564038104,-832.78613802572818,412.66571074862958,-604.23654371156226,959.93319864289106,-516.49488569713219,372.65009737821492,-372.65009737821492,516.49488569713219,1861.7835971052518,0.0
553204.59901257406,4152374.0504322448,-42500.0,-713.88708401150211,516.9285458862131,-267.40287370079409,-908.81022645188932,497.82804425935132,-713.05715673025418,1063.9949368034045,-476.81346530511189,377.69700362503636,-377.69700362503636,476.81346530511189,2054.7335647546292,0.0
558204.59901257406,4152374.0504322448,-42500.0,-648.8663891417699,569.48379764838239,-342.49365493036004,-977.44436483116942,597.9615063514135,-836.66117607422109,1175.5132567472633,-407.72180364830234,366.9347167151505,-366.9347167151505,407.72180364830234,2257.9787581412666,0.0
563204.59901257406,4152374.0504322448,-42500.0,-542.19578217713092,614.40519174403016,-436.78929667577933,-1029.7848580470745,713.13339257082293,-972.89103625326152,1292.4000668828483,-300.85582611725641,332.55791248866473,-332.55791248866473,300.85582611725641,2466.0771458812069,0.0
568204.59901257406,4152374.0504322448,-42500.0,-384.40374270187215,643.09673186647035,-553.12358908173576,-1053.1639412099557,841.18631932490928,-1116.038365622536,1411.0639595132659,-147.60133346483059,264.58437680566283,-264.58437680566283,147.60133346483059,2670.4457828419163,0.0
573204.59901257406,4152374.0504322448,-42500.0,-167.79302669241687,643.32553954710568,-692.98855539449119,-1030.6315545335374,976.0249911364607,-1254.6420478487098,1525.9844889060755,59.182615374815455,151.17071009438132,-151.17071009438132,-59.182615374815455,2858.7313086300519,0.0
578204.59901257406,4152374.0504322448,-42500.0,109.99817248430679,599.04259809828568,-854.85513392622454,-941.3579062997137,1105.1671196038164,-1368.5173295724821,1629.5024509601253,321.98695902770135,-20.011466918442267,20.011466918442267,-321.98695902770135,3014.8968033753686,0.0
583204.59901257406,4152374.0504322448,-42500.0,440.4007521876382,491.63036886352126,-1031.6689410700708,-763.18952912384998,1206.7234845110065,-1425.3433825339898,1712.3625998221169,633.58588697033326,-258.46845187705844,258.46845187705844,-633.58588697033326,3121.2987196084923,0.0
588204.59901257406,4152374.0504322448,-42500.0,796.71161532749295,304.0816079807035,-1207.8081618095309,-479.28938443954348,1246.7725351614295,-1378.1790017956587,1766.1586533859288,970.37273041531159,-564.67650454844272,564.67650454844272,-970.37273041531159,3165.2037148649611,0.0
593204.59901257406,4152374.0504322448,-42500.0,1128.1340927930346,29.821105126527229,-1356.8389203232896,-90.854453230894862,1179.7298024737768,-1167.384547141259,1789.73221072871,1286.5151037392986,-920.8184215580884,920.8184215580884,-1286.5151037392986,3153.2385798323294,0.0
598204.59901257406,4152374.0504322448,-42500.0,1362.1976336236748,-313.7538295426944,-1443.1294594716155,364.73226407406537,956.50568238232404,-733.20366206847325,1801.5393857323234,1515.2147668795208,-1281.2777744484663,1281.2777744484663,-1515.2147668795208,3133.9118198902111,0.0
603204.59901257406,4152374.0504322448,-42500.0,1425.7869693661066,-672.48004701499292,-1431.5216351049035,799.05694935760164,545.52496735786997,-45.259757623250081,1851.9877082929877,1586.4588022535652,-1571.2648586898292,1571.2648586898292,-1586.4588022535652,3207.7894568451443,0.0
608204.59901257406,4152374.0504322448,-42500.0,1287.5726259898311,-957.26350514744547,-1306.2440019293342,1081.2925612953943,-35.504025185478056,855.22125911743728,2001.8344058694179,1464.8136748075826,-1705.7666686195798,1705.7666686195798,-1464.8136748075826,3471.8575591204872,0.0
613204.59901257406,4152374.0504322448,-42500.0,999.20482504879317,-1075.0121423171845,-1090.2071180156315,1088.7983005771803,-696.26955572411839,1828.3521887989,2247.8891909279446,1188.731131026329,-1631.728494945884,1631.728494945884,-1188.731131026329,3906.8312533440785,0.0
618204.59901257406,4152374.0504322448,-42500.0,690.06464874558469,-981.07821760983677,-846.12489037420187,783.10460454710267,-1289.4128475162486,2664.983707635025,2502.6788898392624,871.19267050490453,-1369.6781079298371,1369.6781079298371,-871.19267050490453,4359.9417352017508,0.0
623204.59901257406,4152374.0504322448,-42500.0,498.21839218922628,-713.55053776172576,-649.53852527971958,249.66648712327191,-1672.0777147859794,3176.964992355689,2664.6530327546479,642.42919612202695,-1014.7678229588873,1014.7678229588873,-642.42919612202695,4655.0589746036449,0.0
628204.59901257406,4152374.0504322448,-42500.0,489.67511304394634,-374.75454596145886,-550.69285495777206,-343.72181916496407,-1772.9597097651861,3285.6093070820089,2677.70072942363,576.09889744455745,-687.54079831083891,687.54079831083891,-576.09889744455745,4691.9430171062049,0.0
633204.59901257406,4152374.0504322448,-42500.0,634.89885688086929,-74.998301183816508,-554.50580199517947,-835.78804778093456,-1614.1443696993922,3039.6617451048742,2543.5087827874181,660.78754152038914,-473.99646711226006,473.99646711226006,-660.78754152038914,4470.6475515924849,0.0
638204.59901257406,4152374.0504322448,-42500.0,847.82301438949264,115.32677823768428,-628.81949042139547,-1135.6789067542468,-1281.588567315363,2564.5985696247858,2303.7339375961678,827.76902099008089,-398.31660678314819,398.31660678314819,-827.76902099008089,4061.9531573916884,0.0
643204.59901257406,4152374.0504322448,-42500.0,1040.5810551148611,179.40526802387839,-727.69713910900794,-1231.7255036769257,-877.39687299456364,1996.5197695849424,2014.3861253965692,998.1214293807036,-433.90429762109329,433.90429762109329,-998.1214293807036,3562.0878568380072,0.0
648204.59901257406,4152374.0504322448,-42500.0,1156.9221156472527,140.19214163598707,-812.23078896147251,-1164.6518388360632,-484.54256276865021,1440.3205197288271,1726.2925077775401,1115.4590371903041,-531.49148992516052,531.49148992516052,-1115.4590371903041,3057.5284659294716,0.0
653204.59901257406,4152374.0504322448,-42500.0,1178.5788219246028,37.724458590309531,-860.35701277042278,-994.5886093943077,-153.16501799635751,957.64984242867251,1474.5660766934832,1155.7234776908133,-643.78528297063622,643.78528297063622,-1155.7234776908133,2607.2737518564745,0.0
658204.59901257406,4152374.0504322448,-42500.0,1115.4293260502743,-89.069010267768547,-866.51679608114932,-777.81485766168953,97.028754090069796,573.14352685486642,1274.2133602090576,1121.2521979282089,-738.19974507813595,738.19974507813595,-1121.2521979282089,2239.2933134735576,0.0
663204.59901257406,4152374.0504322448,-42500.0,991.37990101677929,-211.61714957090771,-836.1504748433523,-556.01911332835869,267.26677191227157,286.91297384225481,1121.9033428663915,1029.2466720791856,-798.86045425004852,798.86045425004852,-1029.2466720791856,1955.7141961994416,0.0
668204.59901257406,4152374.0504322448,-42500.0,832.98505541803831,-313.50966745757512,-779.59550140082695,-354.65663327842691,369.76477589851112,86.221152317838687,1005.1466559067483,901.46991364882854,-822.77507490344203,822.77507490344203,-901.46991364882854,1742.4816539548431,0.0
673204.59901257406,4152374.0504322448,-42500.0,662.90352736894363,-388.26984233219463,-707.69602373298267,-185.89419914294479,420.3749381085575,-46.257206386417131,911.57268157712474,757.76756531208389,-814.53174317219509,814.53174317219509,-757.76756531208389,1579.7317270427109,0.0
678204.59901257406,4152374.0504322448,-42500.0,497.46600923093541,-435.94105377653722,-629.50749219493616,-52.839118352167006,434.29926242190771,-127.64481247700721,832.47044614408605,613.23226356840644,-781.89276920301143,781.89276920301143,-613.23226356840644,1449.3815071339216,0.0
683204.59901257406,4152374.0504322448,-42500.0,346.76383721481659,-460.04414977303873,-551.56365941022943,46.674646936077494,424.17163207739208,-172.63403310878178,762.61901791016066,477.78201370447243,-732.96955490818016,732.96955490818016,-477.78201370447243,1338.4316186820101,0.0
688204.59901257406,4152374.0504322448,-42500.0,215.87151946946418,-465.4299906818261,-478.01763565945828,117.32535251707733,399.59283769986632,-192.82412178594481,699.1921587572466,356.93949133605327,-674.78610761582456,674.78610761582456,-356.93949133605327,1238.9992191693379,0.0
693204.59901257406,4152374.0504322448,-42500.0,106.32713259977263,-456.99861274577574,-411.13690319858978,164.55308978933334,367.39288819328124,-196.86678601615478,640.77978245949112,252.98905674322702,-612.77454970704628,612.77454970704628,-252.98905674322702,1146.9579717632355,0.0
698204.59901257406,4152374.0504322448,-42500.0,17.442778521094041,-439.06197894318814,-351.85531954596479,193.58595742963035,332.16515859486964,-190.94399777696603,586.72218084512042,166.07847004112148,-550.78866825277123,550.78866825277123,-166.07847004112148,1060.4731039390281,0.0
703204.59901257406,4152374.0504322448,-42500.0,-52.698667214180745,-415.113446572096,-300.24698273735174,208.98429377941264,296.82986478657023,-179.31756050200977,536.71128259713896,95.095113778104945,-491.34735362826098,491.34735362826098,-95.095113778104945,978.91416912360501,0.0
708204.59901257406,4152374.0504322448,-42500.0,-106.55875727192493,-387.82185470299135,-255.88313848591557,214.49504512329884,263.12182507413746,-164.82933162773901,490.57401359328571,38.290574880239745,-435.94111231423676,435.94111231423676,-38.290574880239745,902.18237834498279,0.0
713204.59901257406,4152374.0504322448,-42500.0,-146.71225520532215,-359.13121915517212,-218.07910456981725,213.07225235464009,231.97249366447139,-149.30918970866824,448.16683570801956,-6.3104250372513491,-385.3200531268136,385.3200531268136,6.3104250372513491,830.34535077902262,0.0
523204.59901257406,4157374.0504322448,-42500.0,-599.0576826690201,275.66913091581461,-96.986071435274241,-447.94296738452601,184.12279210780886,-241.54152879608401,541.78206552388133,-430.59446352224859,262.35529757829988,-262.35529757829988,430.59446352224859,1063.9726099378693,0.0
528204.59901257406,4157374.0504322448,-42500.0,-621.28062862864954,313.22943204131957,-120.01621112871338,-498.13522925004281,219.93571528692243,-283.90654576548849,598.97533108785092,-442.17332236983663,282.98164236481517,-282.98164236481517,442.17332236983663,1174.6671752630202,0.0
533204.59901257406,4157374.0504322448,-42500.0,-636.84506897024426,354.79402346017656,-149.02194592422876,-552.08441431123788,262.94130467109898,-333.84767654792336,662.37381686154151,-447.14593923402407,302.36950528309734,-302.36950528309734,447.14593923402407,1296.6927442068099,0.0
538204.59901257406,4157374.0504322448,-42500.0,-642.57504144446557,400.01532598071941,-185.50375639474626,-608.85533771553662,314.39250465894492,-392.39148682266085,732.29449124942641,-442.63822693007961,318.88507717366662,-318.88507717366662,442.63822693007961,1430.326341301371,0.0
543204.59901257406,4157374.0504322448,-42500.0,-634.40631212019628,448.01807818738615,-231.25535497305697,-666.75574318752285,375.57868664300923,-460.43646948867706,808.85632593972855,-424.98092911677747,330.16514836136776,-330.16514836136776,424.98092911677747,1575.337551057713,0.0
548204.59901257406,4157374.0504322448,-42500.0,-607.28863329543583,497.12143244137343,-288.34908989966863,-723.00830851667376,447.67504260311239,-538.52687943278352,891.85639246705296,-389.62058361106915,332.88776398792845,-332.88776398792845,389.62058361106915,1730.7139562605171,0.0
553204.59901257406,4157374.0504322448,-42500.0,-555.1884467804017,544.463649838013,-359.05155277788236,-773.3351248362045,531.46795505625073,-626.47868601757273,980.60253882843449,-331.12036704066907,322.52061467731903,-322.52061467731903,331.12036704066907,1894.300090047039,0.0
558204.59901257406,4157374.0504322448,-42500.0,-471.29983101967667,585.52540308004188,-445.61163420772965,-811.47134963154599,626.88741960118216,-722.78910365826835,1073.7009277426732,-243.34942900616025,293.09385419324821,-293.09385419324821,243.34942900616025,2062.3549163460502,0.0
563204.59901257406,4157374.0504322448,-42500.0,-348.63380150299815,613.58258692346828,-549.83378069873675,-828.67339488590881,732.255201922129,-823.74559544936938,1168.8115137080517,-120.01794347281682,237.09851766943618,-237.09851766943618,120.01794347281682,2229.0721761858663,0.0
568204.59901257406,4157374.0504322448,-42500.0,-181.23340174536114,619.19835735167351,-672.31594954423542,-813.38514328687552,843.14584479077996,-922.15321735415762,1262.4226240234307,44.210473597143903,145.70579139842181,-145.70579139842181,-44.210473597143903,2386.2024618868586,0.0
573204.59901257406,4157374.0504322448,-42500.0,33.677183558116468,590.01420371262634,-811.21540324328225,-751.39873651020775,950.78627477895907,-1005.650360289272,1349.7744861104629,251.73517419880289,9.6411536261004329,-9.6411536261004329,-251.73517419880289,2523.1050663688452,0.0
578204.59901257406,4157374.0504322448,-42500.0,292.34598307598924,511.35398312945847,-960.45682834352533,-627.11703546736226,1040.0576273841536,-1054.7529248703531,1425.2185790921708,498.90014025598771,-178.7859038354834,178.7859038354834,-498.90014025598771,2627.9225016165528,0.0
583204.59901257406,4157374.0504322448,-42500.0,580.03193309306516,368.49455443769227,-1107.5216866885489,-426.86039233265916,1087.5319987768735,-1041.1802009490168,1483.5776906147235,771.7814897649331,-421.90689567662696,421.90689567662696,-771.7814897649331,2691.1810114957811,0.0
588204.59901257406,4157374.0504322448,-42500.0,866.5062152965462,151.70067736188591,-1231.518778638623,-145.32620248085172,1060.7387641135072,-927.83282602067072,1523.4463959533175,1041.8242649653298,-710.86570876282633,710.86570876282633,-1041.8242649653298,2713.7965828507663,0.0
593204.59901257406,4157374.0504322448,-42500.0,1104.5349805103083,-135.30263981987613,-1303.2394106760651,204.36984614129909,921.02774666333141,-673.01255465260169,1553.396438571142,1264.0746125305168,-1018.6442218622543,1018.6442218622543,-1264.0746125305168,2720.7015951346584,0.0
598204.59901257406,4157374.0504322448,-42500.0,1236.6882756279176,-464.89237539441433,-1289.9774945183665,579.35533424600578,633.3194339637015,-242.3467452888558,1599.6848414599617,1383.0001101273438,-1295.5428485383313,1295.5428485383313,-1383.0001101273438,2773.6565099692839,0.0
603204.59901257406,4157374.0504322448,-42500.0,1215.6065893011951,-779.16077647136501,-1167.529533066162,902.0208567024539,184.6101847664788,369.96502604613016,1704.811466367632,1350.9688896963696,-1474.102874837534,1474.102874837534,-1350.9688896963696,2956.9596988765093,0.0
608204.59901257406,4157374.0504322448,-42500.0,1034.873152649518,-998.0311139567965,-937.48214416252722,1073.7111706531598,-393.57561562966731,1116.7481113791678,1897.4339655100757,1157.4718060039895,-1490.2854798701455,1490.2854798701455,-1157.4718060039895,3312.0757958030927,0.0
613204.59901257406,4157374.0504322448,-42500.0,751.55937055881657,-1048.6876133496291,-639.68937275572932,1013.5894209674805,-1014.2201761329668,1888.3552779807742,2150.6907093302871,852.2664230469511,-1317.6084477405154,1317.6084477405154,-852.2664230469511,3778.4519647082307,0.0
618204.59901257406,4157374.0504322448,-42500.0,473.6049067200035,-905.42295972005093,-345.74407020514593,706.61454234888186,-1553.4380261154522,2538.0078209024105,2390.3944801122902,537.01674353087594,-993.23184113404056,993.23184113404056,-537.01674353087594,4221.5343418069651,0.0
623204.59901257406,4157374.0504322448,-42500.0,307.99208982683598,-610.67018040400433,-130.34511630859788,223.70094417526715,-1897.9545370239057,2938.6018077112658,2542.6249672592785,319.10120535717249,-610.27404037595898,610.27404037595898,-319.10120535717249,4510.090456641462,0.0
628204.59901257406,4157374.0504322448,-42500.0,305.52157296550325,-256.6068197329937,-37.995943920030221,-308.26024249333494,-1992.3574524880071,3035.147708534395,2567.1587228882181,258.23286197497896,-275.49668868171341,275.49668868171341,-258.23286197497896,4571.3910883958024,0.0
633204.59901257406,4157374.0504322448,-42500.0,444.27530311010008,59.420398337455964,-68.163717772764613,-765.05131505521399,-1853.9835966160044,2856.7152873971449,2464.2832792260092,345.75307578661045,-62.72768895057456,62.72768895057456,-345.75307578661045,4404.1976835945416,0.0
638204.59901257406,4157374.0504322448,-42500.0,655.78542335852012,272.86732177460743,-184.9726402610477,-1070.0026740604876,-1551.7787134884477,2487.6290719568442,2263.9133015578682,524.19299183199905,7.7589714079125542,-7.7589714079125542,-524.19299183199905,4060.1479053816988,0.0
643204.59901257406,4157374.0504322448,-42500.0,865.05149117340045,364.24242164071552,-339.17154591272879,-1204.3591073157806,-1170.866170101606,2025.9298922888304,2008.7333725238025,723.20776378648111,-39.79399619509087,39.79399619509087,-723.20776378648111,3613.5842687366289,0.0
648204.59901257406,4157374.0504322448,-42500.0,1018.2287402285604,349.56498206426022,-487.4771780884592,-1192.020757730993,-784.50448108889293,1553.4429427803852,1740.1325026519369,887.25724369114528,-159.58386703998599,159.58386703998599,-887.25724369114528,3136.1041246433183,0.0
653204.59901257406,4157374.0504322448,-42500.0,1091.1222294441134,262.5691715647132,-602.3025607627826,-1076.8465562907895,-441.30586338676375,1123.9093908441046,1489.9067783381129,986.54920124710929,-305.28542034570205,305.28542034570205,-986.54920124710929,2682.1933062492622,0.0
658204.59901257406,4157374.0504322448,-42500.0,1084.337112728708,139.18530603044181,-672.52732446007474,-904.45946223266515,-164.9244199157429,764.14223161471807,1276.4631985373305,1014.9480889566548,-442.08156290185303,442.08156290185303,-1014.9480889566548,2284.8231902087737,0.0
663204.59901257406,4157374.0504322448,-42500.0,1013.3533712746627,8.4523981666347296,-699.26011423573368,-712.12546200218821,39.863008563384255,481.03708277016108,1104.4850490827303,981.94761971413959,-549.92860971941832,549.92860971941832,-981.94761971413959,1957.3203763984554,0.0
668204.59901257406,4157374.0504322448,-42500.0,899.20895072434291,-110.53244661075048,-690.37989253134685,-525.45899092226375,179.66206302716066,269.42263164035762,968.98672316425314,904.20415606122788,-621.41730307687999,621.41730307687999,-904.20415606122788,1698.273029054893,0.0
673204.59901257406,4157374.0504322448,-42500.0,762.18013047941395,-207.84863880151849,-656.06523485442892,-359.24797197759619,266.23843150361347,118.3722816139576,861.52667577072771,799.31139236315187,-657.62879049023411,657.62879049023411,-799.31139236315187,1497.4178301416739,0.0
678204.59901257406,4157374.0504322448,-42500.0,618.60134291104544,-280.37050049664236,-606.00083192974603,-220.01602211048549,312.38951293940568,15.384750994321646,774.25045367471444,682.32692924810931,-664.15089024088684,664.15089024088684,-682.32692924810931,1341.1286362660703,0.0
683204.59901257406,4157374.0504322448,-42500.0,479.97379809943777,-329.20930615594693,-548.06439164299616,-108.81988241274145,329.70341013957318,-51.281018337577585,701.18077077411635,564.47095481121733,-648.15537164389343,648.15537164389343,-564.47095481121733,1216.4368368113355,0.0
688204.59901257406,4157374.0504322448,-42500.0,353.37096805603682,-357.65023498422789,-487.99977910700471,-23.575572299344255,327.64598012524073,-91.565802869234048,638.19431036626543,453.15226170663743,-616.63384389262399,616.63384389262399,-453.15226170663743,1113.0951623139097,0.0
693204.59901257406,4157374.0504322448,-42500.0,242.38184494623687,-369.74767442680366,-429.61375308537635,39.281459053992457,313.43056422744075,-113.35048271703057,582.61179634490213,352.61904458443206,-575.54002218777487,575.54002218777487,-352.61904458443206,1023.9913561820008,0.0
698204.59901257406,4157374.0504322448,-42500.0,148.13457173714136,-369.49378600691392,-375.17498142576733,83.741314733048327,292.26894379352819,-122.59895537968166,532.75324801686247,264.78232392883331,-529.51601623204419,529.51601623204419,-264.78232392883331,944.64294504661257,0.0
703204.59901257406,4157374.0504322448,-42500.0,70.181563854504446,-360.4035354066645,-325.8369305184064,113.62387284698968,267.75882788151745,-123.6671297476597,487.57744812320107,189.97816582375808,-481.94192138908898,481.94192138908898,-189.97816582375808,872.42646927333396,0.0
708204.59901257406,4157374.0504322448,-42500.0,7.175354851052024,-345.36244408036714,-282.00111032608811,132.29149688433372,242.27491267415266,-119.64457772900809,446.42531317980053,127.57626250082558,-435.12768406900454,435.12768406900454,-127.57626250082558,805.88656597280738,0.0
713204.59901257406,4157374.0504322448,-42500.0,-42.658518459626087,-326.62362503555056,-243.59737872351411,142.55113873070962,217.30696821913904,-112.66598592205163,408.85431670157772,76.4227311729056,-390.54466625289683,390.54466625289683,-76.4227311729056,744.23696791205657,0.0
528204.59901257406,4162374.0504322448,-42500.0,-539.60884717526471,337.11155277079092,-162.20730849582947,-447.12656419809502,238.25784107293757,-259.17441199638989,564.22723989054361,-369.6371835673591,265.12902842981828,-265.12902842981828,369.6371835673591,1107.3565339420209,0.0
533204.59901257406,4162374.0504322448,-42500.0,-542.26245274270218,376.80446445161488,-197.67637347640965,-489.57222755596757,281.7382371216907,-301.91692879612452,620.38067607824712,-362.76740392165948,277.30492295425415,-277.30492295425415,362.76740392165948,1215.2377665226554,0.0
538204.59901257406,4162374.0504322448,-42500.0,-533.73261831837874,418.54268136818246,-241.2147441521459,-532.34835503959414,332.82225707136649,-351.09399189938455,681.54511755162684,-345.09598071058616,284.77141344920386,-284.77141344920386,345.09598071058616,1331.7389826663295,0.0
543204.59901257406,4162374.0504322448,-42500.0,-510.25511760644889,460.8978446840286,-294.39716999262225,-573.37642285987226,392.30240827752488,-406.97891345753305,747.56903600153385,-313.20497703355102,284.89549458161707,-284.89549458161707,313.20497703355102,1456.1020615415209,0.0
548204.59901257406,4162374.0504322448,-42500.0,-467.39182618840408,501.53668472714998,-358.87467466108285,-609.55527346001588,460.65528069973567,-469.35437680379277,817.97310540158264,-263.08267980648975,274.17031318887643,-274.17031318887643,263.08267980648975,1586.7869074588232,0.0
553204.59901257406,4162374.0504322448,-42500.0,-400.18105606662215,536.88552657096488,-436.18986479352924,-636.45633768491666,537.71561442443601,-537.15100851981458,891.82215031731585,-190.2702062146719,248.07553884200163,-248.07553884200163,190.2702062146719,1721.1936958434753,0.0
558204.59901257406,4162374.0504322448,-42500.0,-303.527554698561,561.75191825626689,-527.4368024037002,-648.02127370791391,622.16974138432636,-607.91682602906656,967.58616911094714,-90.233772074079837,201.02959441114317,-201.02959441114317,90.233772074079837,1855.3728829446807,0.0
563204.59901257406,4162374.0504322448,-42500.0,-172.97345095171676,568.97293572547687,-632.69078991349238,-636.35471253606602,710.8103412334309,-677.07728691106308,1043.0247553326858,40.902595390769015,126.5540248032797,-126.5540248032797,-40.902595390769015,1983.8099767924621,0.0
568204.59901257406,4162374.0504322448,-42500.0,-6.024301418633752,549.24452123075764,-750.12451661367641,-591.79376722154166,797.51020949557585,-736.97306911713213,1115.1728614743465,205.09520257767625,17.848260589532799,-17.848260589532799,-205.09520257767625,2099.4780112528197,0.0
573204.59901257406,4162374.0504322448,-42500.0,195.81847812063415,491.42473498002227,-874.76002302284132,-503.56634069330835,871.94435089061142,-775.74312769507287,1180.5862273249054,400.43805330414392,-130.93868035207589,130.93868035207589,-400.43805330414392,2194.5455464222032,0.0
578204.59901257406,4162374.0504322448,-42500.0,424.32211376813706,383.78887201622814,-996.92717479752696,-361.50975388923661,918.2658406076838,-776.29798280712407,1236.1332997999114,618.5280166603161,-322.39844630814872,322.39844630814872,-618.5280166603161,2262.4419908267287,0.0
583204.59901257406,4162374.0504322448,-42500.0,661.52215941883298,216.87521701948376,-1100.7934713642635,-159.42372930662614,914.29549432190186,-715.96116092882437,1280.7751350881613,841.53342469277788,-552.28169676510777,552.28169676510777,-841.53342469277788,2302.3504082195191,0.0
588204.59901257406,4162374.0504322448,-42500.0,877.75767492642342,-11.524769720896456,-1163.8648330477258,99.551589659089259,832.35121223401484,-567.86239708878259,1318.7689107589704,1040.1840946356979,-804.91831335989934,804.91831335989934,-1040.1840946356979,2327.0550101274066,0.0
593204.59901257406,4162374.0504322448,-42500.0,1033.25944041706,-289.46060023392613,-1159.0453319520859,396.05321130724241,643.44928514950197,-305.66911964053202,1363.8681462582122,1175.0916812906667,-1049.1211463375739,1049.1211463375739,-1175.0916812906667,2372.2580246079324,0.0
598204.59901257406,4162374.0504322448,-42500.0,1086.5568283424034,-584.22139161740324,-1061.1366099353611,688.72339705586364,326.57877721582651,86.909403414781309,1440.9633752306877,1204.6163665986667,-1237.9293118452385,1237.9293118452385,-1204.6163665986667,2496.3714894397126,0.0
603204.59901257406,4162374.0504322448,-42500.0,1011.2049362264349,-841.18875646316292,-858.33908843062181,915.02281484242974,-117.23354444482409,602.4546268432706,1576.9610265034562,1100.98222188713,-1316.8585764424847,1316.8585764424847,-1100.98222188713,2752.0759284481283,0.0
608204.59901257406,4162374.0504322448,-42500.0,815.98264531416953,-994.62219778240353,-565.28713136973897,1004.9661697746488,-651.19418833319514,1197.3416891720565,1777.7875624298736,870.40886139334646,-1243.0955371506207,1243.0955371506207,-870.40886139334646,3138.4635104704439,0.0
613204.59901257406,4162374.0504322448,-42500.0,555.08890545975351,-991.99381872511901,-228.98834212330388,908.32985665224453,-1199.813415748368,1790.6905977851156,2011.8559645785497,564.54767471719822,-1009.8992230935047,1009.8992230935047,-564.54767471719822,3585.5678962663164,0.0
618204.59901257406,4162374.0504322448,-42500.0,314.11110621077142,-821.55161606761749,81.205524645134119,623.13438005862679,-1665.9652844751731,2283.1877044738771,2223.0170820612057,268.93246216097009,-660.69073606403254,660.69073606403254,-268.93246216097009,3988.2537679628658,0.0
623204.59901257406,4162374.0504322448,-42500.0,173.36755919360021,-523.93504721257102,298.72506534340556,204.87419048833971,-1964.4020437055024,2591.1503713765146,2358.9072283129399,68.4067391250328,-278.2786956677395,278.2786956677395,-68.4067391250328,4252.5723131193008,0.0
628204.59901257406,4162374.0504322448,-42500.0,171.48545010391987,-176.72100167177351,385.86351752516703,-253.76236150287093,-2053.0595252064372,2676.6092822293358,2390.3505125922143,10.268570846896484,48.011525173094824,-48.011525173094824,-10.268570846896484,4326.2682478155311,0.0
633204.59901257406,4162374.0504322448,-42500.0,293.76895029440777,138.35546234313577,344.65018045150651,-660.08484705332774,-1943.2589937654573,2555.2186235149948,2315.9849371362407,89.447163778490989,256.48099589585536,-256.48099589585536,-89.447163778490989,4206.5434089213632,0.0
638204.59901257406,4162374.0504322448,-42500.0,488.52257849228079,364.11063915378543,208.65714385282229,-951.77463186692569,-1686.2752364701428,2280.9998126790579,2156.0981556530028,261.03221540665623,328.72202587567955,-328.72202587567955,-261.03221540665623,3929.2338640553476,0.0
643204.59901257406,4162374.0504322448,-42500.0,694.79739947893154,478.99397905517714,24.769372232165757,-1106.9449992045379,-1348.9564651377625,1921.6121081196679,1941.9248810855524,465.99578088239707,283.73285894638991,-283.73285894638991,-465.99578088239707,3549.5563314134556,0.0
648204.59901257406,4162374.0504322448,-42500.0,864.19158920299026,491.75356674454196,-163.64083576689742,-1136.7779223292939,-992.57452770812733,1538.075820049821,1705.8075470073848,653.35289475663922,160.68438058331645,-160.68438058331645,-653.35289475663922,3124.2709450386437,0.0
653204.59901257406,4162374.0504322448,-42500.0,970.0114644234834,428.51267378544844,-326.1497348271252,-1070.9833971318365,-661.45519734963705,1174.5370829510832,1474.7144090193001,791.11352841614678,1.8267439276730784,-1.8267439276730784,-791.11352841614678,2700.262456493449,0.0
658204.59901257406,4162374.0504322448,-42500.0,1006.072205987928,320.19707429027801,-447.2474812056422,-944.38491866073707,-380.73902379862557,856.68523615517802,1266.881241746695,867.05250060183835,-158.45226430683721,158.45226430683721,-867.05250060183835,2309.8487594072471,0.0
663204.59901257406,4162374.0504322448,-42500.0,980.38910539804829,194.15232249678374,-523.62404496179727,-788.18874456171011,-159.61346239592712,595.01990960363241,1090.7329940567827,883.80564288803953,-297.77086968168766,297.77086968168766,-883.80564288803953,1970.8383676984295,0.0
668204.59901257406,4162374.0504322448,-42500.0,908.09624263103944,70.37041020099602,-559.77556962023914,-626.02817275209543,3.5148385874848427,389.68527644337792,946.45758954648556,852.46693219814563,-405.1507985440154,405.1507985440154,-852.46693219814563,1689.1014202945601,0.0
673204.59901257406,4162374.0504322448,-42500.0,805.90413156107036,-38.934385002475302,-563.92256447239356,-473.38285359251313,116.14060656357807,234.94255321453969,829.7326316161957,787.16096640294472,-478.16653445971639,478.16653445971639,-787.16096640294472,1462.0504257367597,0.0
678204.59901257406,4162374.0504322448,-42500.0,688.72953750858335,-127.97462588165972,-545.0917097015448,-338.79753993150598,188.02494493667632,122.51042731225688,735.02550789566226,701.46873895051897,-519.68321925464932,519.68321925464932,-701.46873895051897,1282.1270434855237,0.0
683204.59901257406,4162374.0504322448,-42500.0,568.19721404838378,-195.47621600159783,-511.43735361912309,-225.72164701004758,228.92540798384277,43.698938573706272,657.22324922248549,606.60665091780368,-535.1447366377464,535.1447366377464,-606.60665091780368,1139.8012712352363,0.0
688204.59901257406,4162374.0504322448,-42500.0,452.39650474052303,-242.89761080198238,-469.51984138724214,-134.28728040815756,247.42427637090125,-9.4282425950101754,592.15987213342646,510.86343301248615,-530.70809847221517,530.70809847221517,-510.86343301248615,1025.7686627818816,0.0
693204.59901257406,4162374.0504322448,-42500.0,346.3104839913251,-273.06383248095761,-424.18535816433655,-62.730882935794682,250.49464828370708,-43.556802774503758,536.67275259281053,419.76823879757285,-512.15544761279432,512.15544761279432,-419.76823879757285,932.2065157084794,0.0
698204.59901257406,4162374.0504322448,-42500.0,252.50282018785848,-289.25041912182775,-378.75617794283261,-8.399437066698999,243.49281511892644,-64.023774323511304,488.47327402399742,336.58880533278318,-484.38109973917278,484.38109973917278,-336.58880533278318,853.19521000774091,0.0
703204.59901257406,4162374.0504322448,-42500.0,171.81749978207182,-294.6406588563658,-335.33719731349169,31.606080797280409,230.35638731501996,-74.92703719615298,445.95579473037731,262.90772440028906,-451.24382492896967,451.24382492896967,-262.90772440028906,784.58873591075098,0.0
708204.59901257406,4162374.0504322448,-42500.0,103.97664894838061,-292.05001315941394,-295.13029708102135,60.060133533947059,213.87264130138882,-79.320060038317848,408.00952137515065,199.14731173063325,-415.62023357415109,415.62023357415109,-199.14731173063325,723.64000561372711,0.0
528204.59901257406,4167374.0504322448,-42500.0,-455.70992131653014,346.71966980431165,-201.13700188191726,-393.80063562600157,248.12638260425288,-233.00889203091813,526.42723522327685,-295.43325061937725,237.35917225034316,-237.35917225034316,295.43325061937725,1033.5811453131194,0.0
533204.59901257406,4167374.0504322448,-42500.0,-446.81737637990227,382.09109302338936,-241.32757796635778,-425.21326761252647,290.09405620812805,-268.60282549112219,575.33593868661967,-278.12088508591717,241.56754355650324,-241.56754355650324,278.12088508591717,1127.0442203261048,0.0
538204.59901257406,4167374.0504322448,-42500.0,-426.0716738930771,417.65042190305257,-289.54933509389633,-454.89744623431278,338.41084217895678,-308.65746459796628,627.91301920278886,-249.37963464177378,239.49761947093393,-239.49761947093393,249.37963464177378,1226.3976361303353,0.0
543204.59901257406,4167374.0504322448,-42500.0,-390.20809247627034,451.50872941542605,-346.9798475475738,-480.59618789398502,393.33974712273266,-352.95749362332793,683.82384456691614,-206.25729201116545,228.45279616094828,-228.45279616094828,206.25729201116545,1330.5235683493081,0.0
548204.59901257406,4167374.0504322448,-42500.0,-335.61382972545323,480.85931492042113,-414.650333298296,-499.16448868138639,454.6679388878747,-400.73433897193723,742.4367487471618,-145.52205221976459,205.03010758041188,-205.03010758041188,145.52205221976459,1437.5958954923046,0.0
553204.59901257406,4167374.0504322448,-42500.0,-258.59037007395608,501.72061969970997,-493.18391550983318,-506.38380652195866,521.36862991359897,-450.34870217448673,802.7451579778907,-63.923848908197229,165.1045560048002,-165.1045560048002,63.923848908197229,1544.9078569572869,0.0
558204.59901257406,4167374.0504322448,-42500.0,-155.85130687536474,508.69914056238173,-582.37827326817853,-496.83534873279007,591.11694493761991,-498.85734052331674,863.31093335193123,41.316733979100462,103.95488723709329,-103.95488723709329,-41.316733979100462,1648.7556929539433,0.0
563204.59901257406,4167374.0504322448,-42500.0,-25.354455797340584,494.86513402560439,-680.58318392247384,-463.93154033395263,659.63642680763132,-541.45799757151588,922.2750536832541,171.69512391359876,16.648636728022822,-16.648636728022822,-171.69512391359876,1744.4925498327063,0.0
568204.59901257406,4167374.0504322448,-42500.0,132.44416217365486,451.91070243702558,-783.84415853537598,-400.2718040243351,719.89153738532741,-570.84658358532806,977.5249897597057,326.19736343888894,-101.14789816069666,101.14789816069666,-326.19736343888894,1826.9753529687791,0.0
573204.59901257406,4167374.0504322448,-42500.0,312.90233077725793,370.85943983104966,-884.8507310831294,-298.56544395354058,761.22837481602073,-576.60089912420358,1027.1680913680848,499.64548174406053,-251.73968332006922,251.73968332006922,-499.64548174406053,1891.7883700963828,0.0
578204.59901257406,4167374.0504322448,-42500.0,505.25940267109502,243.69105541517163,-971.88254452558272,-153.42037583284969,768.73505517658941,-544.84908439285641,1070.5263474132898,680.78994781405754,-433.20218501589585,433.20218501589585,-680.78994781405754,1937.8201808280753,0.0
583204.59901257406,4167374.0504322448,-42500.0,691.04456454217063,66.242286560019494,-1028.2262963972059,35.754427769484678,723.36416872928589,-458.69877694836106,1109.8556728097806,850.71117029728714,-636.48182924017453,636.48182924017453,-850.71117029728714,1971.7627242391507,0.0
588204.59901257406,4167374.0504322448,-42500.0,844.00681903642442,-157.54241815092146,-1032.9230452861666,260.81129437947277,603.68322081981637,-300.14088696502483,1152.6358941482436,982.68460337362274,-842.41288502611258,842.41288502611258,-982.68460337362274,2014.0212059013843,0.0
593204.59901257406,4167374.0504322448,-42500.0,933.30408443845999,-410.76429941136394,-964.009995412325,500.77174317421861,390.27952693519944,-54.217158333263434,1213.0866575311416,1045.2418813663101,-1020.187151549101,1020.187151549101,-1045.2418813663101,2101.6218111723056,0.0
598204.59901257406,4167374.0504322448,-42500.0,931.50614074776513,-660.34394504692682,-805.14730300647352,719.76948486473896,73.350844368526381,284.25399559918367,1309.6121613079445,1010.0488576949271,-1129.7963829672176,1129.7963829672176,-1010.0488576949271,2278.0157169496856,0.0
603204.59901257406,4167374.0504322448,-42500.0,826.95383143241156,-859.09526218607061,-554.96717152907115,870.38402265985371,-337.74330235183368,702.63975455824277,1455.1675939713314,864.33006845037858,-1130.9374520383171,1130.9374520383171,-864.33006845037858,2565.6223569391186,0.0
608204.59901257406,4167374.0504322448,-42500.0,635.82098739453215,-956.4102909916204,-235.52434609163805,905.04715922423941,-807.13189664956133,1164.8462756278127,1644.4296483357784,623.45018380033662,-998.23516633333929,998.23516633333929,-623.45018380033662,2942.1000787103853,0.0
613204.59901257406,4167374.0504322448,-42500.0,405.31167455919308,-916.59621591361486,106.3388649032979,793.94600320106667,-1273.5648969047161,1613.3817436854092,1849.3430729546353,335.17665486322517,-737.156995085988,737.156995085988,-335.17665486322517,3344.7567045484934,0.0
618204.59901257406,4167374.0504322448,-42500.0,201.1789873781336,-736.79260910623839,409.42749631744283,541.29363519833214,-1664.0504441474247,1982.2211441331524,2029.1950245592466,68.375706041133895,-390.42901597277273,390.42901597277273,-68.375706041133895,3695.8567774107369,0.0
623204.59901257406,4167374.0504322448,-42500.0,82.689648783131375,-452.79120891762534,618.04758066988052,189.06592489251878,-1916.3246887506475,2216.783173955354,2147.0905275503587,-111.67372473505802,-27.478405934677546,27.478405934677546,111.67372473505802,3929.0784848305602,0.0
628204.59901257406,4167374.0504322448,-42500.0,79.019705056003062,-127.14813154468501,701.14809973351316,-196.27241849859641,-1998.9165678449917,2291.0129186378613,2181.682105446303,-168.06763640680282,279.62151628833715,-279.62151628833715,168.06763640680282,4006.8547258247768,0.0
633204.59901257406,4167374.0504322448,-42500.0,181.11281730524624,173.87384807639114,660.24194231325964,-546.91410622855858,-1918.1282813532305,2212.5460177516538,2130.5465961054797,-102.76609375172944,480.3148675697567,-480.3148675697567,102.76609375172944,3925.3861631126292,0.0
638204.59901257406,4167374.0504322448,-42500.0,351.37638164958651,401.24773293683256,523.52995948199987,-813.76569746692041,-1710.1358005416969,2014.9690059886739,2006.8762815635682,50.882731104061719,557.4041995770084,-557.4041995770084,-50.882731104061719,3708.6547805566661,0.0
643204.59901257406,4167374.0504322448,-42500.0,542.17804468925908,532.7848057807289,332.0674855896757,-975.00631226943426,-1425.0967572277123,1743.5952199824735,1832.8615476885398,245.68148545228709,523.95033847277989,-523.95033847277989,-245.68148545228709,3396.4942643317299,0.0
648204.59901257406,4167374.0504322448,-42500.0,712.19515809315067,571.00147705472853,126.0490442350975,-1033.3718171853986,-1111.9762905902526,1442.3391255817742,1633.0066233729447,437.42558687492857,411.22209410739327,-411.22209410739327,-437.42558687492857,3032.4614325183202,0.0
653204.59901257406,4167374.0504322448,-42500.0,835.02552405868732,534.44602135268212,-63.871158108872407,-1007.4675916820578,-809.08357788034482,1145.7489036627469,1429.2303134157175,594.85948570323194,255.50793008742454,-255.50793008742454,-594.85948570323194,2655.1067174253931,0.0
658204.59901257406,4167374.0504322448,-42500.0,900.26686148222643,448.08345814677989,-219.45798189145009,-922.44454307670514,-540.86596727638516,876.40142738365353,1237.9841030008149,702.2008383784746,88.652534470985699,-88.652534470985699,-702.2008383784746,2293.5314930426857,0.0
663204.59901257406,4167374.0504322448,-42500.0,910.03766047137833,336.04365698065158,-333.65089374469829,-803.02370042898394,-319.07001583262729,645.91860882384606,1068.9157533183891,756.72849488180066,-66.46768653442075,66.46768653442075,-756.72849488180066,1966.4110672491367,0.0
668204.59901257406,4167374.0504322448,-42500.0,874.00092494252624,217.63828815923975,-407.40320238686604,-669.60204607883327,-145.95534469206058,457.6453288074668,925.19913432036981,764.36331723620856,-196.5423913794736,196.5423913794736,-764.36331723620856,1683.1332693330301,0.0
673204.59901257406,4167374.0504322448,-42500.0,804.87890061843575,106.11287222721495,-446.28725133559357,-536.90340117745029,-17.840848964539969,309.58983918870854,805.61346665460849,735.3163278114647,-296.19071752120169,296.19071752120169,-735.3163278114647,1445.8802109073335,0.0
678204.59901257406,4167374.0504322448,-42500.0,715.29904642319093,9.1125783493770989,-457.75954478508976,-414.24195228566731,71.934952041146047,196.89774895578486,706.96860116720848,680.80538821793664,-365.5433066777108,365.5433066777108,-680.80538821793664,1251.8999489831911,0.0
683204.59901257406,4167374.0504322448,-42500.0,616.03185676917292,-70.074186085256414,-449.3482822485787,-306.55663987259891,130.93843752080716,113.62149430117644,625.61436293438703,611.04735737631916,-407.94697124722484,407.94697124722484,-611.04735737631916,1095.5773406730507,0.0
688204.59901257406,4167374.0504322448,-42500.0,515.31065156519537,-131.12780973476731,-427.66739435013557,-215.64133701150888,166.39325098774344,53.824489765314212,558.11394638863749,534.31494210156472,-428.19340801669705,428.19340801669705,-534.31494210156472,970.13038381689682,0.0
693204.59901257406,4167374.0504322448,-42500.0,418.83918372684678,-175.49650693201423,-398.02664913834224,-141.25773630518393,184.56090439853116,12.171123901665762,501.51121776642992,456.71618167565396,-431.34317553131689,431.34317553131689,-456.71618167565396,868.85093930269238,0.0
698204.59901257406,4167374.0504322448,-42500.0,330.15265922092084,-205.4986921492042,-364.40569499366882,-82.00621778668156,190.53389440241233,-15.831088157310996,453.41045789407951,382.38101501367186,-422.05329324395353,422.05329324395353,-382.38101501367186,785.86503302775941,0.0
703204.59901257406,4167374.0504322448,-42500.0,251.10253159668613,-223.72353126388219,-329.613109961926,-35.941195543127918,188.26533347226371,-33.798207411698193,411.95378736919531,313.82495108652245,-404.26669206685926,404.26669206685926,-313.82495108652245,716.46091540404188,0.0
528204.59901257406,4172374.0504322448,-42500.0,-373.48007236673124,343.71402169497156,-234.6200121560118,-340.50899314811033,250.32778123419504,-206.53082139942893,487.17620549784795,-223.30082669148973,202.85438841046968,-202.85438841046968,223.30082669148973,956.14888444485098,0.0
533204.59901257406,4172374.0504322448,-42500.0,-355.00702918626774,373.06066527370638,-277.51557747490881,-361.89868787532322,289.2346791166089,-235.36438075320825,529.18915302027074,-197.5401020768368,199.18681667627359,-199.18681667627359,197.5401020768368,1035.5930018548925,0.0
538204.59901257406,4172374.0504322448,-42500.0,-324.68622250703658,400.74700182006728,-327.82481631673659,-380.01860680360323,333.01937498640552,-266.96961850289352,573.74448828174832,-160.41687429316733,188.11402179721773,-188.11402179721773,160.41687429316733,1118.5994910726986,0.0
543204.59901257406,4172374.0504322448,-42500.0,-279.88250610798548,424.57726847275404,-386.21939906763384,-392.62312586644271,381.45686744441667,-300.79074771170173,620.40966129939579,-109.58930838760578,167.08057348026094,-167.08057348026094,109.58930838760578,1203.8711412315561,0.0
548204.59901257406,4172374.0504322448,-42500.0,-217.91108004272178,441.50776826790025,-453.02087415802532,-396.7564901137024,433.74696480487927,-335.71899887464161,668.51481913899784,-42.730124524164012,133.04312568214982,-133.04312568214982,42.730124524164012,1289.5352959821603,0.0
553204.59901257406,4172374.0504322448,-42500.0,-136.36331809216895,447.48901380122118,-527.89955486836459,-388.67558742713123,488.20006289314398,-369.83649404439711,717.12685707039896,42.144194895292884,82.566300681576635,-82.566300681576635,-42.144194895292884,1373.0842775765871,0.0
558204.59901257406,4172374.0504322448,-42500.0,-33.636943460687043,437.37991983617803,-609.44019103925905,-363.86528548134572,541.8212080645817,-400.09280309152859,765.06825432838968,146.14299460158776,12.083937920442324,-12.083937920442324,-146.14299460158776,1451.4271901128318,0.0
563204.59901257406,4172374.0504322448,-42500.0,90.279052316442858,405.03309955528374,-694.55844123780696,-317.23590308553793,589.80073726718842,-421.93109753540506,811.0310918945504,268.71948892784621,-81.578128911905679,81.578128911905679,-268.71948892784621,1521.181585999951,0.0
568204.59901257406,4172374.0504322448,-42500.0,232.7518600579883,343.70499597785454,-777.78981282978873,-243.63154805436966,624.96390725763433,-428.91878579464145,853.86630762072832,406.62293979772306,-200.30519284311646,200.30519284311646,-406.62293979772306,1579.4191265753095,0.0
573204.59901257406,4172374.0504322448,-42500.0,387.2698475792393,246.99826560169822,-850.55624761825788,-138.8084190450509,637.31595939003887,-412.50369992772363,893.15799595995827,552.66684660713997,-343.33005221665701,343.33005221665701,-552.66684660713997,1625.1809928112004,0.0
578204.59901257406,4172374.0504322448,-42500.0,542.29999755675817,110.55665809714458,-900.66201798948589,-1.0282664543059592,613.9502186569847,-362.11355919498709,930.18190912000614,694.58323035884177,-505.41274025954175,505.41274025954175,-694.58323035884177,1662.090539085998,0.0
583204.59901257406,4172374.0504322448,-42500.0,680.80392985798073,-65.375423704550926,-912.47964466018561,166.71123145312899,539.75192326034573,-265.92855689727821,969.18807813872172,814.52674482670784,-674.8244449388468,674.8244449388468,-814.52674482670784,1701.9511708149919,0.0
588204.59901257406,4172374.0504322448,-42500.0,781.30158908795829,-272.76203172376017,-868.49189016362448,354.10548416086226,399.4576550099639,-112.72592313146284,1018.4511085581643,890.12683864440521,-831.83972742463231,831.83972742463231,-890.12683864440521,1767.5439657564307,0.0
593204.59901257406,4172374.0504322448,-42500.0,821.48294680323113,-492.86270731741655,-752.86348028845828,541.49374333184539,181.53783316183251,104.9147204677711,1089.6721111184502,898.12406420602872,-949.00271170895746,949.00271170895746,-898.12406420602872,1889.7527325536259,0.0
598204.59901257406,4172374.0504322448,-42500.0,784.81544420651903,-695.38732521966028,-557.19316928948967,699.86943129556505,-116.21364220358058,386.23823396343317,1194.0394137790342,821.11244601682347,-994.75238431385219,994.75238431385219,-821.11244601682347,2094.1862268313839,0.0
603204.59901257406,4172374.0504322448,-42500.0,668.95548740034224,-841.9954987198696,-287.27047242934407,794.75375896661433,-480.74635052771828,717.923390409288,1335.3829977947887,656.29279278104286,-941.37047156072663,941.37047156072663,-656.29279278104286,2383.0046903517177,0.0
608204.59901257406,4172374.0504322448,-42500.0,492.3541593327314,-895.44304520366074,32.163096526517748,794.74080334834616,-880.38000279024016,1071.9448805061436,1504.4396165271346,422.66768514450808,-776.02209148626753,776.02209148626753,-422.66768514450808,2727.6224283057236,0.0
613204.59901257406,4172374.0504322448,-42500.0,294.03017724889872,-832.58552451078162,358.5838607697408,682.82908531917201,-1267.439618360454,1408.2534814251362,1678.7514163732126,161.50518613493597,-510.43728980940415,510.43728980940415,-161.50518613493597,3077.5486569335321,0.0
618204.59901257406,4172374.0504322448,-42500.0,123.58499462924732,-655.56979656538499,640.91575624629979,465.51185950227472,-1588.3562396498864,1683.1827273405736,1829.2440890797543,-73.249338441127122,-183.04129697360696,183.04129697360696,73.249338441127122,3376.565429920784,0.0
623204.59901257406,4172374.0504322448,-42500.0,24.411407716598994,-394.41520112993555,834.3033279204609,173.97212688136258,-1798.3338988234279,1861.1077881751692,1929.8557321660285,-232.12569063991378,149.99985732436812,-149.99985732436812,232.12569063991378,3577.8983144318718,0.0
628204.59901257406,4172374.0504322448,-42500.0,18.473551184263759,-98.291660820264482,913.65432182862514,-144.49114580486233,-1874.0316803709338,1924.1872822991972,1964.8598624336742,-286.59963885278984,431.80705201669724,-431.80705201669724,286.59963885278984,3654.4132488204691,0.0
633204.59901257406,4172374.0504322448,-42500.0,100.64056495792771,180.31779625158993,879.37702854655947,-440.80418932814166,-1818.3144320586025,1875.6878442678765,1931.3849926753023,-236.45214361603388,621.56379175207326,-621.56379175207326,236.45214361603388,3601.9716721451805,0.0
638204.59901257406,4172374.0504322448,-42500.0,244.26323694557993,400.52613713281301,753.56219699391306,-677.18129340515509,-1655.8342460502647,1736.1528144673641,1837.7320303440163,-105.54764266301538,703.36543452260457,-703.36543452260457,105.54764266301538,3436.2261792637337,0.0
643204.59901257406,4172374.0504322448,-42500.0,413.18439033585753,540.94736801269767,570.10431345272059,-833.81818131482396,-1423.0281616574187,1535.3681579398542,1699.3481401902945,69.724952530124881,685.03508130980276,-685.03508130980276,-69.724952530124881,3185.3547949911081,0.0
648204.59901257406,4172374.0504322448,-42500.0,573.52696124629665,599.56392884177967,364.11623867433661,-908.54496087466055,-1157.6565206586195,1304.1330077828609,1534.3840309851571,252.71938783208458,590.16533127267166,-590.16533127267166,-252.71938783208458,2882.0015957059441,0.0
653204.59901257406,4172374.0504322448,-42500.0,701.05486974305313,588.34084724339891,164.42325439885485,-911.97796912169065,-891.39782245933395,1068.4930593172355,1360.1147494070385,414.91228698620262,448.4142898768248,-448.4142898768248,-414.91228698620262,2556.8495854675839,0.0
658204.59901257406,4172374.0504322448,-42500.0,783.38271358585882,526.27582834345083,-9.7544163288357986,-861.37447610486697,-646.47155014242651,847.10594834948654,1190.5861057145971,539.19810531702558,287.73945184746941,-287.73945184746941,-539.19810531702558,2234.7799719902141,0.0
663204.59901257406,4172374.0504322448,-42500.0,818.48337755543332,433.499095833502,-148.72640804837476,-775.40838635815464,-435.51051912565686,651.09771551163078,1035.2809011081499,619.22903168499079,129.97362640711503,-129.97362640711503,-619.22903168499079,1933.4329083015596,0.0
668204.59901257406,4172374.0504322448,-42500.0,811.48060525847313,327.49992686719742,-250.3445858406877,-670.76471922403266,-263.298482280999,485.34568973990156,898.83084003018621,656.67846446963927,-10.550658472537179,10.550658472537179,-656.67846446963927,1663.4486030094345,0.0
673204.59901257406,4172374.0504322448,-42500.0,771.27484935704422,221.43057484715655,-317.42040468612629,-560.51131674829037,-129.15230461520912,350.2680327065795,782.03732678231688,658.01723052858802,-126.35803197974752,126.35803197974752,-658.01723052858802,1429.6189118214297,0.0
678204.59901257406,4172374.0504322448,-42500.0,707.84731464157289,123.91180352612442,-355.37944427920723,-453.77364862292529,-29.166821345750794,243.53459316555666,683.54634457382008,631.75121828317788,-215.23194367587894,215.23194367587894,-631.75121828317788,1232.3610762857786,0.0
683204.59901257406,4172374.0504322448,-42500.0,630.50093688252389,39.680218552852601,-370.51488027266669,-356.16881642202907,42.036296256892477,161.42598673098416,601.1183454797158,586.48510478583341,-278.43262610083707,278.43262610083707,-586.48510478583341,1069.1613151148779,0.0
688204.59901257406,4172374.0504322448,-42500.0,546.94984841527457,-29.443872612209276,-368.8834539014772,-270.56190318691785,90.127445949559785,99.778465856078881,532.28436522898835,529.80277090739241,-319.1574370232604,319.1574370232604,-529.80277090739241,935.82015571013403,0.0
693204.59901257406,4172374.0504322448,-42500.0,463.02869909468774,-83.593686723669762,-355.72940891827403,-197.86418466215531,120.37729434380554,54.563968195585879,474.66269530983436,467.78295774560149,-341.40207572238273,341.40207572238273,-467.78295774560149,827.44242376209945,0.0
698204.59901257406,4172374.0504322448,-42500.0,382.78122887161032,-124.05636352356777,-335.27517009782486,-137.72677149171096,137.32442447948191,22.19487973439718,426.12179465673933,404.93094328833013,-349.21933370103557,349.21933370103557,-404.93094328833013,739.15904873753755,0.0
703204.59901257406,4172374.0504322448,-42500.0,308.73731278711426,-152.68255948068852,-310.73292076987167,-89.077603973623013,144.67633411462302,-0.35591384001579035,384.85501504557215,344.34009115120631,-346.29932401784885,346.29932401784885,-344.34009115120631,666.58984028908742,0.0
533204.59901257406,4177374.0504322448,-42500.0,-270.14418089325767,352.6762589730248,-304.81233343560871,-301.86478648697585,280.76136914069372,-203.36263064448178,483.52824583627154,-124.18180211461464,153.864860966702,-153.864860966702,124.18180211461464,943.9101479074933,0.0
538204.59901257406,4177374.0504322448,-42500.0,-233.08047306460182,371.75656159710201,-354.73074744710874,-310.29079206958619,318.90466668366747,-227.46566158424338,520.84593175760494,-81.541695411096356,135.0544627106182,-135.0544627106182,81.541695411096356,1011.9604084258277,0.0
543204.59901257406,4177374.0504322448,-42500.0,-182.80073806429971,385.21176445995087,-411.12749318639243,-312.34243640671576,359.79025545066696,-252.21691475514356,559.35259745003987,-26.53321665431821,105.97950111704233,-105.97950111704233,26.53321665431821,1080.4105373618033,0.0
548204.59901257406,4177374.0504322448,-42500.0,-117.54119735345726,389.99984083788723,-473.63178338544219,-305.41368746759696,402.18443927233568,-276.34971256196411,598.43468435776094,42.258557423935976,64.135813706531195,-64.135813706531195,-42.258557423935976,1147.5450280196735,0.0
553204.59901257406,4177374.0504322448,-42500.0,-36.071182970808067,382.30537938923237,-541.0655635899675,-286.38690801106264,443.97639579541323,-297.89868042577183,637.33704708905884,125.64448715495837,6.9418396129047721,-6.9418396129047721,-125.64448715495837,1211.2890904382928,0.0
558204.59901257406,4177374.0504322448,-42500.0,61.808313949691332,357.58717938817375,-611.04614888554374,-251.74527580844207,481.85537074055975,-313.97963235391035,675.24077955237624,223.32621136427815,-67.919570046924619,67.919570046924619,-223.32621136427815,1269.4036911845058,0.0
563204.59901257406,4177374.0504322448,-42500.0,174.60038848577074,310.82060130626854,-679.50661926089208,-197.8595694315664,510.95934653553212,-320.56772481724136,711.44439229962859,333.22577319900358,-161.93095338549426,161.93095338549426,-333.22577319900358,1319.9528829474884,0.0
568204.59901257406,4177374.0504322448,-42500.0,298.32138065598286,237.05381212664869,-740.19203538832551,-121.53520601310431,524.56475929059161,-312.33156420304744,745.70539653382389,450.68904067828544,-274.88553171878561,274.88553171878561,-450.68904067828544,1362.2174448626097,0.0
573204.59901257406,4177374.0504322448,-42500.0,425.71686625623551,132.40974781400013,-784.26784702315945,-20.903393843476806,513.95300951279114,-282.62669219810351,778.79322626830924,567.69683352998902,-403.74099688798401,403.74099688798401,-567.69683352998902,1398.24164336022,0.0
578204.59901257406,4177374.0504322448,-42500.0,545.7633593242665,-4.3749692119925436,-800.28993977439688,103.30796255897341,468.67422558922289,-223.80615432367628,813.23005853044128,672.36619695704519,-541.29421481544125,541.29421481544125,-672.36619695704519,1435.0110638128231,0.0
583204.59901257406,4177374.0504322448,-42500.0,643.91136671283266,-169.93188726971471,-774.90853258187485,246.22067452078571,377.50553319432089,-128.0472171139225,853.97366358265481,749.20767609951838,-675.00567475426226,675.00567475426226,-749.20767609951838,1486.5178925960602,0.0
588204.59901257406,4177374.0504322448,-42500.0,703.64328170189924,-354.12851475513673,-694.7348452693094,397.3118199654196,230.40472905497947,11.122844883129872,908.3988364492343,780.73466226714402,-786.59871897740265,786.59871897740265,-780.73466226714402,1573.4327406434263,0.0
593204.59901257406,4177374.0504322448,-42500.0,709.8034250896518,-538.64729292995276,-549.64621470364091,539.65797688707664,21.576483089557488,196.56889748326299,984.67409248659123,750.91987713127173,-853.3208237616409,853.3208237616409,-750.91987713127173,1717.1900253154447,0.0
598204.59901257406,4177374.0504322448,-42500.0,653.57341704428495,-697.53122942796369,-337.2693112999126,650.87317453429625,-246.71857816149068,424.87734072622686,1088.2931581445184,650.41676481703576,-851.70191016861486,851.70191016861486,-650.41676481703576,1928.8951889390596,0.0
603204.59901257406,4177374.0504322448,-42500.0,537.84111689611814,-800.92879045389157,-67.435975968990576,706.58859734551049,-560.75075997493786,684.11671002937237,1218.1994781334083,482.3140155843675,-763.91357657938238,763.91357657938238,-482.3140155843675,2200.4275807964782,0.0
608204.59901257406,4177374.0504322448,-42500.0,380.47167080954603,-822.28087968642672,235.56345245189945,686.47561058251995,-894.14336278235612,953.31652412813173,1364.762997593521,265.87281157599557,-585.29825676541759,585.29825676541759,-265.87281157599557,2504.5599277121978,0.0
613204.59901257406,4177374.0504322448,-42500.0,212.70295765155825,-747.19041182138824,535.22297008889905,581.25660698407444,-1210.6965009160588,1204.8334686637525,1510.8019277613237,35.287558770857345,-329.92680963801746,329.92680963801746,-35.287558770857345,2802.5303710370936,0.0
618204.59901257406,4177374.0504322448,-42500.0,71.603009961622973,-580.23911435024672,790.31021712434722,397.72264782230957,-1471.5532758694667,1409.7256626204467,1635.6169394194874,-167.86043311334981,-30.610846222384112,30.610846222384112,167.86043311334981,3053.9127726668048,0.0
623204.59901257406,4177374.0504322448,-42500.0,-11.113864963829144,-345.89109223992824,965.49496458189674,158.85043771256088,-1644.6686703836428,1544.594807317141,1720.6847744418067,-306.35757435021577,268.1552776699927,-268.1552776699927,306.35757435021577,3225.5391622468574,0.0
628204.59901257406,4177374.0504322448,-42500.0,-18.926632771447398,-82.247840121042373,1040.7505236858449,-101.72722846237768,-1712.8087790194966,1597.2094291488738,1754.3451333408082,-358.2718271030347,522.04953213043791,-522.04953213043791,358.2718271030347,3297.682539165547,0.0
633204.59901257406,4177374.0504322448,-42500.0,45.564227942329353,169.71787375945283,1015.4873123967338,-348.64654375225626,-1676.7690396944483,1568.6276397823733,1733.6982760300675,-322.09035089226927,698.46958068454376,-698.46958068454376,322.09035089226927,3266.3370201001658,0.0
638204.59901257406,4177374.0504322448,-42500.0,163.77415426918645,376.62170228842609,906.23061806193198,-553.27624024092609,-1552.9854619343571,1471.3259936528214,1663.8149663878003,-214.44901852343429,783.06660584548194,-783.06660584548194,214.44901852343429,3141.5442297214904,0.0
643204.59901257406,4177374.0504322448,-42500.0,308.81198142884199,518.90469066163041,739.83986610407987,-698.68363173270109,-1367.3651926574867,1324.6887219838584,1555.3051109111948,-62.67978207577687,779.6712030983914,-779.6712030983914,62.67978207577687,2942.9992835193384,0.0
648204.59901257406,4177374.0504322448,-42500.0,453.73876581431966,591.73231947016598,545.67253098974481,-780.30137312273314,-1148.2759284806305,1149.9499573240346,1421.4048636951884,103.8470957690617,705.27336751919393,-705.27336751919393,-103.8470957690617,2694.7766995360498,0.0
653204.59901257406,4177374.0504322448,-42500.0,577.45928831528499,601.91134802464774,349.43837426293442,-803.41425762422523,-921.02512476503546,966.21776115912485,1275.4292322219749,260.38017692648123,583.15747274238288,-583.15747274238288,-260.38017692648123,2420.7331145390926,0.0
658204.59901257406,4177374.0504322448,-42500.0,667.26571354037549,563.11636481167943,169.89061206882582,-779.28970364650945,-704.79864401714053,788.24568382901441,1128.9361006278762,390.15342164351466,436.82357489982644,-436.82357489982644,-390.15342164351466,2141.3994030033177,0.0
663204.59901257406,4177374.0504322448,-42500.0,718.58796573366305,491.34421802480352,18.129689883874139,-721.46598649738166,-511.87274054519042,625.8127614722481,990.53841562138962,484.79530947729654,286.00983810995774,-286.00983810995774,-484.79530947729654,1872.4587881794662,0.0
668204.59901257406,4177374.0504322448,-42500.0,733.13034928934485,401.61796099644806,-101.37080166114065,-643.00732821209704,-348.35493965220826,484.19158754197792,865.35299653755931,542.86949464454779,144.94028080665652,-144.94028080665652,-542.86949464454779,1624.4822926003606,0.0
673204.59901257406,4177374.0504322448,-42500.0,716.50407195145806,306.15932555896046,-188.97066798945008,-554.91307860965912,-215.65085236185564,365.14680760004012,755.3604341829074,567.66939045336926,22.256914411098535,-22.256914411098535,-567.66939045336926,1403.4576399051402,0.0
678204.59901257406,4177374.0504322448,-42500.0,676.08597536386389,213.77518928436845,-248.00336038605425,-465.49831559913918,-112.05651530994726,268.04547411415729,660.48386201771802,565.06141204396727,-78.078831413329709,78.078831413329709,-565.06141204396727,1211.6962504504859,0.0
683204.59901257406,4177374.0504322448,-42500.0,619.43669974846239,130.03828087638067,-283.23441895876385,-380.42994466112248,-34.133473269608665,190.83585558356933,579.60405966033613,541.7851872270935,-155.52017940465174,155.52017940465174,-541.7851872270935,1048.8251534658282,0.0
688204.59901257406,4177374.0504322448,-42500.0,553.32816054837951,57.870755336718375,-299.76808935775637,-303.1174338375618,22.265169532900845,130.79633768601988,511.15021010869407,504.32217244266201,-211.69791912810453,211.69791912810453,-504.32217244266201,912.69976540313473,0.0
693204.59901257406,4177374.0504322448,-42500.0,483.27773408943062,-1.7532763654596069,-302.37777192176708,-235.23274631406491,61.318861011723001,85.045592295028598,453.40262794428025,458.2712311137488,-249.40843167320446,249.40843167320446,-458.2712311137488,800.16417247287507,0.0
698204.59901257406,4177374.0504322448,-42500.0,413.43788274059369,-49.152980336411453,-295.1680722494504,-177.22177049467118,86.850874893801162,50.852157565914354,404.66819998186543,408.1017358034162,-271.88357443011819,271.88357443011819,-408.1017358034162,707.64421932475932,0.0
533204.59901257406,4182374.0504322448,-42500.0,-194.35971738466048,324.05002818244714,-322.74163213312244,-246.66835106251895,266.42364897909493,-173.44050549800781,439.48850939480894,-60.022522208289899,108.69694210604965,-108.69694210604965,60.022522208289899,854.46529987257259,0.0
538204.59901257406,4182374.0504322448,-42500.0,-153.25813263438596,334.59803025256093,-370.15057500719536,-247.37156296384777,298.41014537738386,-191.12275679032552,470.44591028584108,-14.57928108117212,83.835327497224796,-83.835327497224796,14.57928108117212,909.31564989109734,0.0
543204.59901257406,4182374.0504322448,-42500.0,-100.62279920090195,338.25464046090337,-422.17723028646418,-241.4095984995727,331.43491735293725,-208.32225174895555,501.95694359218231,41.465063301110575,49.0160043714381,-49.0160043714381,-41.465063301110575,963.32595183718536,0.0
548204.59901257406,4182374.0504322448,-42500.0,-35.518404526249419,332.17935591194265,-477.85749526244996,-226.61076648818542,363.99778381471651,-223.75363152575696,533.5307615239094,108.69891530501832,2.3628644874851901,-2.3628644874851901,-108.69891530501832,1015.0873974859425,0.0
553204.59901257406,4182374.0504322448,-42500.0,42.309908630869693,313.01070254189756,-535.35748957077351,-200.52816082251056,393.79884951158681,-235.56335456147326,564.64861228283087,186.95703861535054,-57.81725836832365,57.81725836832365,-186.95703861535054,1063.103560129462,0.0
558204.59901257406,4182374.0504322448,-42500.0,132.01191349559835,277.01245290882366,-591.64925808431462,-160.6050402017689,417.51331071488391,-241.19539664251022,594.87970264255432,274.88673360722765,-132.66708563368536,132.66708563368536,-274.88673360722765,1106.0900850214859,0.0
563204.59901257406,4182374.0504322448,-42500.0,231.12247712797065,220.4080348498853,-642.16607261436991,-104.48743497679946,430.58372210803935,-237.28237269528566,624.09027677974461,369.42950490636832,-222.23599830593895,222.23599830593895,-369.42950490636832,1143.5394201211845,0.0
568204.59901257406,4182374.0504322448,-42500.0,335.03315328669458,139.98181538840308,-680.51287295862403,-30.532207356973576,427.10016092007351,-219.61246288667334,652.77288164668801,465.28657232316635,-324.75217192604117,324.75217192604117,-465.28657232316635,1176.6572801092793,0.0
573204.59901257406,4182374.0504322448,-42500.0,436.58637770539366,34.010894296930992,-698.36893374721478,61.460554204188909,399.88282970691938,-183.24947312058234,682.48672164606967,554.51348043850226,-435.75880683818332,435.75880683818332,-554.51348043850226,1209.6922353578568,0.0
578204.59901257406,4182374.0504322448,-42500.0,526.0284183625464,-96.474434600294344,-685.7905859784953,169.31855927125568,340.92538873505458,-122.90660263807855,716.29513552804178,626.4880665065524,-547.27085685047803,547.27085685047803,-626.4880665065524,1251.3388050084795,0.0
583204.59901257406,4182374.0504322448,-42500.0,591.63930838131,-246.24541285716441,-632.17145056297477,287.50867234158852,242.37610758186872,-33.678305754481627,758.89505883920378,668.58446832584968,-647.26312366162847,647.26312366162847,-668.58446832584968,1315.1414832532582,0.0
588204.59901257406,4182374.0504322448,-42500.0,621.3571622945492,-404.61845959745062,-528.08511892954061,406.38735195147922,98.180973555573857,87.810792222024702,815.9617641290256,667.89240747717827,-719.96558774309483,719.96558774309483,-667.89240747717827,1417.0841096606161,0.0
593204.59901257406,4182374.0504322448,-42500.0,605.51974447692885,-555.02820802878125,-368.02934173215772,512.16040284044675,-93.671615971426121,241.90981472185211,892.40698919692613,614.1292401488198,-747.50758642362837,747.50758642362837,-614.1292401488198,1569.5332982060354,0.0
598204.59901257406,4182374.0504322448,-42500.0,540.37582088108172,-676.21956872023657,-153.65750862688847,588.08873698219065,-328.70621998471495,424.389658943249,990.00456995225079,503.41131088997446,-713.2520092471882,713.2520092471882,-503.41131088997446,1774.3009694831412,0.0
603204.59901257406,4182374.0504322448,-42500.0,431.33016794928523,-745.62927220510653,103.50979318191425,617.27046309347463,-594.14353644852667,625.38740392195916,1105.5576686459208,341.82639039432217,-606.5413289742678,606.5413289742678,-341.82639039432217,2019.5834865164136,0.0
608204.59901257406,4182374.0504322448,-42500.0,294.32341276172497,-744.74042980537229,381.34003097431588,586.73298069633597,-868.80385784751809,829.5403666844918,1230.4909363211516,147.12397514984482,-427.6114390195338,427.6114390195338,-147.12397514984482,2282.2354032338121,0.0
613204.59901257406,4182374.0504322448,-42500.0,153.88617213416964,-664.98768585810228,649.55504465502145,491.71873742081937,-1125.5801756919532,1017.8125585169654,1351.9185514107405,-53.08463355024405,-190.60323089314392,190.60323089314392,53.08463355024405,2533.1038327214815,0.0
618204.59901257406,4182374.0504322448,-42500.0,37.620941028443461,-511.84247018383547,875.51524304681357,338.43563018621802,-1336.4044747059436,1170.9012742527018,1455.0619004398641,-227.02112074664132,77.319348075781349,-77.319348075781349,227.02112074664132,2743.0488459854591,0.0
623204.59901257406,4182374.0504322448,-42500.0,-31.247264699703472,-304.91205723725955,1031.7328765439754,143.77634012824464,-1478.3530229122669,1273.2983858628784,1526.6512629222086,-346.75556195433762,341.31536392789985,-341.31536392789985,346.75556195433762,2888.3510853315315,0.0
628204.59901257406,4182374.0504322448,-42500.0,-40.277337593481562,-73.517230595657551,1102.3479523334183,-68.266080444077858,-1538.7168986800316,1316.5874895474051,1557.9839055872781,-395.45997963861902,567.06916272858689,-567.06916272858689,395.45997963861902,2954.5610251711805,0.0
633204.59901257406,4182374.0504322448,-42500.0,9.46755009328486,150.6120896191706,1086.0949687055108,-272.20458898442092,-1517.1771024131597,1300.7956030601631,1546.3628025460462,-370.98942710461694,728.72487571980264,-728.72487571980264,370.98942710461694,2938.0593340351093,0.0
638204.59901257406,4182374.0504322448,-42500.0,105.15499673377334,340.62375472774875,994.96054925043825,-446.54746508434255,-1424.5471255971599,1233.4880565670639,1494.7840533158324,-284.72525825397827,813.66592667914995,-813.66592667914995,284.72525825397827,2845.2035911670891,0.0
643204.59901257406,4182374.0504322448,-42500.0,227.05293736385093,479.31430364942128,849.6419798356178,-577.36615459917675,-1279.0051749696838,1127.2320856094095,1410.4730650384449,-156.83131739055273,822.98312920058015,-822.98312920058015,156.83131739055273,2689.6732679006136,0.0
648204.59901257406,4182374.0504322448,-42500.0,354.20619357110559,560.42627305724943,673.91534945663022,-659.26929273589019,-1101.4792909258638,996.51758501511949,1302.9843011037947,-10.273877149415057,768.42822472949683,-768.42822472949683,10.273877149415057,2489.0431381977201,0.0
653204.59901257406,4182374.0504322448,-42500.0,468.9421250976286,587.05202114088809,489.81603243902737,-694.22140930998148,-911.67450996780121,855.10199207165294,1182.4208267228005,134.2497328021152,667.70441190831832,-667.70441190831832,-134.2497328021152,2261.5627464149252,0.0
658204.59901257406,4182374.0504322448,-42500.0,559.2914506014763,568.50116102993081,314.63704895286907,-689.20191042995805,-725.53380462528355,714.29207460947327,1058.0510309881151,261.35422346326845,539.88931568384055,-539.88931568384055,-261.35422346326845,2023.7536880438079,0.0
663204.59901257406,4182374.0504322448,-42500.0,619.41452861437563,516.95583373986506,159.83075384643047,-653.67551862447317,-554.21440951128966,582.21822377894739,937.32627853518647,361.91449858901672,402.08038140358678,-402.08038140358678,-361.91449858901672,1789.0142204939229,0.0
668204.59901257406,4182374.0504322448,-42500.0,648.67219827271867,444.76709280569315,31.339963944993421,-597.50804551192789,-404.22588900105075,463.87727642167175,825.2696613340612,432.48237422126772,267.57395847349733,-267.57395847349733,-432.48237422126772,1567.1199668762688,0.0
673204.59901257406,4182374.0504322448,-42500.0,650.07727845375973,362.71747158485169,-69.27871572368673,-529.5794397359092,-278.24102592750182,361.62990582698069,724.44975510667757,473.90358493817587,145.36044816004065,-145.36044816004065,-473.90358493817587,1364.3635269640536,0.0
678204.59901257406,4182374.0504322448,-42500.0,628.6980256117763,279.19868529031731,-143.48450600771338,-457.0733073320061,-176.15273209353299,275.87659387072654,635.60477933978018,489.74394191870385,40.496175548326391,-40.496175548326391,-489.74394191870385,1184.0605457342544,0.0
683204.59901257406,4182374.0504322448,-42500.0,590.34124797840514,200.07119617412405,-194.48744004071204,-385.28488552454957,-96.092235090852199,205.72483285023714,558.4194710870928,484.90336834229345,-45.085104401449001,45.085104401449001,-484.90336834229345,1027.2038709229505,0.0
688204.59901257406,4182374.0504322448,-42500.0,540.63365186333715,128.9358019271547,-226.25736913412106,-317.75648488963179,-35.261379590202374,149.54712339489009,492.03876166047451,464.58333482742415,-111.65027829942852,111.65027829942852,-464.58333482742415,893.11854337280397,0.0
693204.59901257406,4182374.0504322448,-42500.0,484.48519327254877,67.593104948344816,-242.84308654392126,-256.57702306169796,9.4637645024190924,105.39675907378297,435.34012694398547,433.62557675894743,-160.83101698262954,160.83101698262954,-433.62557675894743,780.04051634187852,0.0
698204.59901257406,4182374.0504322448,-42500.0,425.85369320610835,16.537314745523499,-247.9648310184871,-202.72961597645048,41.141916511102096,71.287237592240174,387.0935871810006,396.16230558972859,-194.96280900981469,194.96280900981469,-396.16230558972859,685.58853620446791,0.0
538204.59901257406,4187374.0504322448,-42500.0,-85.960583268780567,292.81584720072931,-374.87701189874224,-192.11004044408975,273.73483262270395,-158.50508783909262,423.31327080328276,39.911626475779372,36.959298015949543,-36.959298015949543,-39.911626475779372,812.71800060373369,0.0
543204.59901257406,4187374.0504322448,-42500.0,-33.538399173385677,287.86993437846513,-420.86486902926845,-180.45989442514554,299.16306928145951,-169.63513081135693,448.98500126778322,94.441698645811755,-1.2972799155609565,1.2972799155609565,-94.441698645811755,854.76926237435453,0.0
548204.59901257406,4187374.0504322448,-42500.0,28.784235676560403,272.79253909357953,-468.15475180130699,-160.57164618413668,322.60677407538537,-178.32008625947324,474.49359812195661,157.50688700644764,-49.970159916682341,49.970159916682341,-157.50688700644764,894.28452198566345,0.0
553204.59901257406,4187374.0504322448,-42500.0,100.52704668184123,244.80065858979452,-514.48422347032499,-130.63647899148856,341.76783081340773,-182.91140130780983,499.57295012509638,228.2100421566127,-109.93133498158345,109.93133498158345,-228.2100421566127,930.40522521612434,0.0
558204.59901257406,4187374.0504322448,-42500.0,180.14642600302864,201.03230066243327,-556.50410334008825,-88.936203554621883,353.52634057366674,-181.25159642312897,524.15481616570764,304.51018078378445,-181.3334088268638,181.3334088268638,-304.51018078378445,962.78347074848148,0.0
563204.59901257406,4187374.0504322448,-42500.0,264.68123752048132,138.91332066101481,-589.569559475029,-34.138567769472829,353.84708937366764,-170.64090542053839,548.57074122752965,382.86207564917191,-263.14227137181518,263.14227137181518,-382.86207564917191,992.16220958015651,0.0
568204.59901257406,4187374.0504322448,-42500.0,349.44944943577269,56.728081110652084,-607.63482104819775,34.274540879011042,337.79126773217149,-147.87949451485139,573.82088216546526,457.91216423394297,-352.57357194039042,352.57357194039042,-457.91216423394297,1021.1992702076044,0.0
573204.59901257406,4187374.0504322448,-42500.0,427.91997788277024,-45.593326364493898,-603.36876050209059,115.45087893503542,299.71876871896245,-109.43705023185635,601.85480572651818,522.3809725466474,-444.50880305770818,444.50880305770818,-522.3809725466474,1055.3936599827748,0.0
578204.59901257406,4187374.0504322448,-42500.0,491.93558009667049,-165.52572073306118,-568.64329662199111,206.53820760767286,233.78254290934265,-51.807306625531403,635.71461926932341,567.31716949625661,-531.04821057081563,531.04821057081563,-567.31716949625661,1103.6008694109753,0.0
583204.59901257406,4187374.0504322448,-42500.0,532.48327809395562,-297.00557064346202,-495.54746941499684,302.1133689545033,134.80375928414085,27.907626932146734,679.28743297184064,582.93286007744916,-601.45240040751708,601.45240040751708,-582.93286007744916,1177.1555005031253,0.0
588204.59901257406,4187374.0504322448,-42500.0,541.15262325876608,-429.81132051210943,-378.00695326480371,393.89618792713986,-0.45077395301219103,131.18473995189512,736.44100101508195,560.17545812899084,-642.79345980089943,642.79345980089943,-560.17545812899084,1286.7706207217568,0.0
593204.59901257406,4187374.0504322448,-42500.0,512.23424572198587,-549.7143951062194,-213.89844304944904,471.04485040031932,-171.7137542296044,257.13229872352503,809.62905962419359,492.99907277415753,-641.60252429516902,641.60252429516902,-492.99907277415753,1437.975022168974,0.0
598204.59901257406,4187374.0504322448,-42500.0,445.08060834213501,-639.85141409303117,-7.241050106435492,521.30648920299041,-373.72558094643023,401.62685422838109,898.51672399790289,380.95141285574465,-586.57739711114527,586.57739711114527,-380.95141285574465,1627.6828100981254,0.0
603204.59901257406,4187374.0504322448,-42500.0,345.96496728805801,-683.51630903920591,230.2883971080991,533.10295237193338,-595.35956459228612,556.872520120525,999.28001627422395,231.27490590896821,-471.96216315019478,471.96216315019478,-231.27490590896821,1843.8544053618734,0.0
608204.59901257406,4187374.0504322448,-42500.0,228.4630529045898,-668.01748475834279,479.42141832795681,498.25085829118291,-819.98356568250085,711.74254048886758,1104.7868156758723,59.469906220224587,-300.64939080562175,300.64939080562175,-59.469906220224587,2067.8198933198596,0.0
613204.59901257406,4187374.0504322448,-42500.0,111.62532912469769,-588.55288783448077,715.57514637859049,414.56792052764598,-1027.438184191036,853.10359226582841,1205.4455416714038,-112.51451792460578,-85.697226685386184,85.697226685386184,112.51451792460578,2277.8060912812725,0.0
618204.59901257406,4187374.0504322448,-42500.0,16.009465749890428,-450.63000823140567,913.19295967699804,287.37222642728693,-1197.4392902720101,967.97391916053482,1290.6435691439797,-260.47721163389838,150.81958417372513,-150.81958417372513,260.47721163389838,2452.6762754407596,0.0
623204.59901257406,4187374.0504322448,-42500.0,-41.302980949436083,-269.82023298211703,1051.0151481402731,129.10082104151311,-1313.5318287933451,1045.9676512029544,1350.791949631883,-363.43395491946706,381.77226625247499,-381.77226625247499,363.43395491946706,2575.3016204072351,0.0
628204.59901257406,4187374.0504322448,-42500.0,-50.917772091606082,-68.637021467704216,1116.5353729795349,-43.033719263518968,-1366.3323070978884,1081.2612582364513,1379.3497786936016,-408.46973137684222,580.65322512036869,-580.65322512036869,408.46973137684222,2635.0125195714231,0.0
633204.59901257406,4187374.0504322448,-42500.0,-13.015156361728952,128.43619347265079,1108.126882576925,-210.60748501943627,-1355.0002079934568,1073.4561099578621,1373.9230652503052,-393.23846086125377,727.04277163617644,-727.04277163617644,393.23846086125377,2628.6729484381694,0.0
638204.59901257406,4187374.0504322448,-42500.0,63.593348930676441,300.01305912645176,1034.3022739158055,-357.56251960158431,-1286.5936287099501,1027.145708191825,1336.2012958540115,-325.41782183159762,810.0837181964248,-810.0837181964248,325.41782183159762,2560.2589636167836,0.0
643204.59901257406,4187374.0504322448,-42500.0,164.54657475437753,431.3802751436919,910.71530738520198,-472.72406013641921,-1173.7745411970673,950.48003740126467,1271.0767888660814,-219.70925610888872,829.15209014814718,-829.15209014814718,219.70925610888872,2439.2480740261976,0.0
648204.59901257406,4187374.0504322448,-42500.0,273.7905969704434,515.83813962792851,756.1913853635657,-550.75876606172244,-1031.80125740943,853.29642521280607,1185.4044914799451,-93.762856491639923,792.07321369860074,-792.07321369860074,93.762856491639923,2278.3980283584328,0.0
653204.59901257406,4187374.0504322448,-42500.0,376.91972919220984,553.99965743387554,589.06715021195691,-591.70902522810627,-875.73729195275973,745.3800127215336,1086.7696191199639,35.574267108837489,711.96603635919689,-711.96603635919689,-35.574267108837489,2091.51968586358,0.0
658204.59901257406,4187374.0504322448,-42500.0,463.26542837092126,551.81925489137234,424.63832852802051,-599.62814748364417,-718.46193183706089,635.20895652799379,982.46999406105465,154.81336105796163,603.89883286740883,-603.89883286740883,-154.81336105796163,1891.6754922593295,0.0
663204.59901257406,4187374.0504322448,-42500.0,526.62021659655977,518.22388925713233,273.93263264619043,-580.91369306441197,-569.65379185206018,529.29281270863089,878.74487047318894,254.95802495242225,482.19273017839913,-482.19273017839913,-254.95802495242225,1689.9999917103391,0.0
668204.59901257406,4187374.0504322448,-42500.0,564.90311952183458,463.00102008337495,143.59862269113583,-542.79268592325388,-435.60927715449139,432.02482803608297,780.21010841128532,331.46161821654664,358.72822106297167,-358.72822106297167,-331.46161821654664,1495.1320203122746,0.0
673204.59901257406,4187374.0504322448,-42500.0,579.22389886808958,395.27592693268946,36.516045469734372,-492.19783237689762,-319.62059877827653,345.88558343656371,689.63327931195454,383.45187395921704,242.22440922017148,-242.22440922017148,-383.45187395921704,1313.1341601764971,0.0
678204.59901257406,4187374.0504322448,-42500.0,572.75944393348686,322.63762852610859,-47.265587330604077,-435.08761085965585,-222.62978950183719,271.82693752641427,608.22670075992085,412.65527608576201,138.25052385773927,-138.25052385773927,-412.65527608576201,1147.7310665079578,0.0
683204.59901257406,4187374.0504322448,-42500.0,549.72274656034449,250.80835273937066,-109.55317454832453,-376.14883084534358,-143.94155903443408,209.70369992410767,536.21097377812384,422.33493556726779,49.675953235671443,-49.675953235671443,-422.33493556726779,1000.7133243670538,0.0
688204.59901257406,4187374.0504322448,-42500.0,514.56417735760954,183.68826309553234,-153.1723741021423,-318.77274479925796,-81.861626821040858,158.66899702405905,473.25325527892323,416.41599904179111,-22.694368816806588,22.694368816806588,-416.41599904179111,872.39071605446475,0.0
693204.59901257406,4187374.0504322448,-42500.0,471.43914356233842,123.61192433967945,-181.33516586488878,-265.19491533362827,-34.200370800738639,117.49381174610458,418.70816199685544,398.85987513786813,-79.473985693193953,79.473985693193953,-398.85987513786813,762.02291722322559,0.0
543204.59901257406,4192374.0504322443,-42500.0,19.296934576858558,237.34905546759919,-409.27403154336588,-129.36374316074381,265.27092324880795,-136.25005922894209,400.81634835017906,133.46191571416128,-43.641161782106828,43.641161782106828,-133.46191571416128,755.98919275501692,0.0
548204.59901257406,4192374.0504322443,-42500.0,77.037834753719238,215.35575983374434,-447.48024620649613,-106.65154875222525,280.69562061346181,-139.90144989889316,421.56298119043782,190.63353891749421,-91.988686613908499,91.988686613908499,-190.63353891749421,786.14334312394101,0.0
553204.59901257406,4192374.0504322443,-42500.0,141.27367176308732,181.22136046103154,-482.44500897227391,-75.322694936404503,290.90224053361595,-139.38841533500053,442.10279767758539,252.45716196283058,-149.25304363172461,149.25304363172461,-252.45716196283058,813.73117388802564,0.0
558204.59901257406,4192374.0504322443,-42500.0,210.07818303903065,132.92282258947196,-510.77454100853487,-34.338423875380876,293.10938804072731,-132.95825750277149,462.66797808165541,316.52857023498683,-214.83050605152559,214.83050605152559,-316.52857023498683,839.22943771370888,0.0
563204.59901257406,4192374.0504322443,-42500.0,280.35871039689249,68.934533424779374,-528.0612622945041,16.873541077078137,283.90109647305144,-118.52003309114829,483.92117319787349,379.20288572569382,-286.96235169708746,286.96235169708746,-379.20288572569382,864.34664222862273,0.0
568204.59901257406,4192374.0504322443,-42500.0,347.72421032929287,-11.276826135496737,-528.91545521196565,78.083370917589889,259.31664514839821,-93.721314754142739,507.13762246518991,435.46893172184105,-362.33645082665248,362.33645082665248,-435.46893172184105,892.63122484615383,0.0
573204.59901257406,4192374.0504322443,-42500.0,406.53689560857742,-106.6356218372115,-507.20993056684375,147.86368185798733,215.10048212256947,-56.121608507790143,534.32479393404196,479.02114043810741,-435.7410264198104,435.7410264198104,-479.02114043810741,929.91533971494607,0.0
578204.59901257406,4192374.0504322443,-42500.0,450.26480079439403,-213.79424420439034,-456.63565434148211,223.1930561023419,147.16941168241573,-3.4913283073788759,568.14447113744609,502.65442310914568,-499.90476257054979,499.90476257054979,-502.65442310914568,984.07178847202351,0.0
583204.59901257406,4192374.0504322443,-42500.0,472.24097854597602,-326.57953649704149,-371.64244370590171,299.16685177037078,52.330309590141162,65.751361495340134,611.49013875029914,499.09718224044155,-545.70630531421898,545.70630531421898,-499.09718224044155,1063.4959193390548,0.0
588204.59901257406,4192374.0504322443,-42500.0,466.86374967642053,-435.78977124350945,-248.75796145514829,368.97101962418083,-70.780098562060331,151.9909105485265,666.6931952824807,462.32456740944428,-562.94728951596596,562.94728951596596,-462.32456740944428,1174.3576880678534,0.0
593204.59901257406,4192374.0504322443,-42500.0,431.12305170798942,-529.62927132232562,-88.129032508012372,424.29231342307037,-220.66353521955111,253.83488567860243,734.58204829235888,389.23730779548322,-541.81175611155538,541.81175611155538,-389.23730779548322,1317.8266787403647,0.0
598204.59901257406,4192374.0504322443,-42500.0,366.12627754102692,-595.01147461325525,105.06842244876283,456.28837691949832,-392.09244722529201,367.6556185145883,813.79235024119635,281.36436334329528,-474.94460751100769,474.94460751100769,-281.36436334329528,1488.783215944019,0.0
603204.59901257406,4192374.0504322443,-42500.0,278.09781598618446,-619.74490603644244,319.87596734021832,457.09294875506566,-575.75818387420486,487.45071491669353,900.60724874774678,146.0259850580938,-359.78063159128374,359.78063159128374,-146.0259850580938,1676.4167945641595,0.0
608204.59901257406,4192374.0504322443,-42500.0,178.27835707468699,-595.25308413035737,539.99646738735817,421.60155089540456,-758.77306475221508,605.20350048500279,989.29308626071941,-3.6756277708996663,-200.44909802320564,200.44909802320564,3.6756277708996663,1866.0414010191437,0.0
613204.59901257406,4192374.0504322443,-42500.0,81.378053382680648,-519.09678122769549,745.72698643000717,349.05476768997289,-926.17842079961292,711.8124525923181,1072.7174806918008,-150.44909289804593,-8.4503297725127453,8.4503297725127453,150.44909289804593,2041.3966089237642,0.0
618204.59901257406,4192374.0504322443,-42500.0,2.7480469967371932,-396.39312311761114,917.16409099106625,243.84971744615504,-1063.2668848497453,798.46476360736187,1143.2040451852408,-275.86714612377989,198.46993413801783,-198.46993413801783,275.86714612377989,2187.0266678710941,0.0
623204.59901257406,4192374.0504322443,-42500.0,-44.976336518290601,-239.45415853158755,1037.895090180856,115.17600354373994,-1158.1622408101991,858.12896768924111,1193.7615267458848,-364.11355745027305,399.22524561659321,-399.22524561659321,364.11355745027305,2290.4352279925065,0.0
628204.59901257406,4192374.0504322443,-42500.0,-54.673886390119378,-65.580065626890956,1098.0750826799012,-24.531959544619781,-1203.9152945740866,886.74792204403161,1219.4377421265074,-405.2568738282726,573.3302192986381,-573.3302192986381,405.2568738282726,2343.6778753965586,0.0
633204.59901257406,4192374.0504322443,-42500.0,-26.051601671588195,106.3469188293077,1095.9514337722103,-161.89062834235293,-1199.5026170129215,883.79219487852811,1218.1651924465116,-397.00143891305152,704.68705080280483,-704.68705080280483,397.00143891305152,2344.1060890855897,0.0
638204.59901257406,4192374.0504322443,-42500.0,34.856472792504107,259.39293375743938,1037.4786924977041,-284.91624723400133,-1149.5084251671153,852.05780580475721,1190.8235936083552,-344.46658630570613,784.10505113304635,-784.10505113304635,344.46658630570613,2294.1708446249008,0.0
643204.59901257406,4192374.0504322443,-42500.0,117.64245800271684,381.21900912472188,934.35347820032621,-384.78398377125546,-1062.7240674015025,796.84553453687363,1140.710650231146,-258.29328722636996,809.99254368975994,-809.99254368975994,258.29328722636996,2200.4382162846637,0.0
648204.59901257406,4192374.0504322443,-42500.0,210.12958207089065,465.29615786111412,801.2505204735819,-456.64918585269584,-950.19666900429206,724.82488899089651,1072.7288154646747,-151.88828599993735,787.35251471543438,-787.35251471543438,151.88828599993735,2072.1477166714812,0.0
653204.59901257406,4192374.0504322443,-42500.0,300.80003494996043,510.70818423278166,653.10362022060463,-499.54187789528117,-823.29735591801386,642.90559070281415,992.53451625142986,-38.702539012857983,725.70529071163151,-725.70529071163151,38.702539012857983,1919.6821179726676,0.0
658204.59901257406,4192374.0504322443,-42500.0,380.49476588919669,520.96217809780933,503.03191690415434,-515.60137595646177,-692.22053307711246,557.35202782471856,905.8011563393145,69.814449546449339,636.69968622209944,-636.69968622209944,-69.814449546449339,1753.2453246465029,0.0
663204.59901257406,4192374.0504322443,-42500.0,443.20932000265384,502.3632147270672,361.15423510879145,-509.00750316283592,-565.08800429134578,473.24199664897736,817.63374527091435,165.32902628684397,532.02148160477157,-532.02148160477157,-165.32902628684397,1581.9118191600144,0.0
668204.59901257406,4192374.0504322443,-42500.0,486.10433839449308,462.42659345533025,234.23489338126726,-484.91639593083323,-447.63059393905746,394.25820765818628,732.09815245673326,242.87571619719174,421.92591073218784,-421.92591073218784,-242.87571619719174,1413.0841932134774,0.0
673204.59901257406,4192374.0504322443,-42500.0,508.99644001186397,408.61772447111508,125.93580944090836,-448.59442647731356,-343.30268196025139,322.7328934207307,651.92036781566117,300.49635324960644,314.45618007031857,-314.45618007031857,-300.49635324960644,1252.3041686632021,0.0
678204.59901257406,4192374.0504322443,-42500.0,513.61091461184276,347.52623983571954,37.408911413529111,-404.82825446540443,-253.6536324852718,259.84731276109056,578.55114060390633,338.55470133207712,215.2381286138567,-215.2381286138567,-338.55470133207712,1103.3237433848269,0.0
683204.59901257406,4192374.0504322443,-42500.0,502.81545162880593,284.44815999595522,-31.997510619475445,-357.60163260295161,-178.8004995044972,205.896889130593,512.54362007486702,358.96651466832009,127.66754051488307,-127.66754051488307,-358.96651466832009,968.33235376802952,0.0
688204.59901257406,4192374.0504322443,-42500.0,479.96783844039999,223.28341467032678,-84.070707019884622,-309.98509977403347,-117.89423623060141,160.55939883538466,453.92109010241973,364.50162930611248,53.309155859191179,-53.309155859191179,-364.50162930611248,848.25612242339787,0.0
548204.59901257406,4197374.0504322443,-42500.0,111.4546041260588,162.22316648743714,-418.84322561666022,-63.679051908297808,240.21035109872392,-108.00071175165471,374.65657673285932,210.53812627918677,-123.86249480123183,123.86249480123183,-210.53812627918677,690.80888578371525,0.0
553204.59901257406,4197374.0504322443,-42500.0,167.59386988927528,124.38327830899998,-443.01686081125348,-32.719954097315643,243.22384455309148,-104.07205382743611,391.88050404559459,263.0488113950147,-176.71239725760188,176.71239725760188,-263.0488113950147,712.64620394907422,0.0
558204.59901257406,4197374.0504322443,-42500.0,225.71261320964089,74.279430120856375,-458.99795839614876,5.923511427083997,238.18854967661218,-94.788222112094857,409.67326647295903,315.22410011720626,-235.06576715033887,235.06576715033887,-315.22410011720626,734.13756403595153,0.0
563204.59901257406,4197374.0504322443,-42500.0,282.83716079221375,11.230653300784269,-462.81723526551883,52.297505543051564,222.3165258253635,-78.576002115743194,428.88999414459704,363.58794889617621,-296.75539414400413,296.75539414400413,-363.58794889617621,757.61997195945844,0.0
568204.59901257406,4197374.0504322443,-42500.0,335.07119607922311,-64.439330435580132,-449.88785594725539,105.7238556607353,192.54020838315785,-53.755071193776146,450.88066715095579,403.69687782943885,-358.3163310833292,358.3163310833292,-403.69687782943885,786.98091446941532,0.0
573204.59901257406,4197374.0504322443,-42500.0,377.74740802297686,-150.9494382559333,-415.30942206411726,164.53539965638916,145.76333029253203,-18.692382965372794,477.47972131236628,430.31851803296087,-414.81999593705024,414.81999593705024,-430.31851803296087,827.65820058076133,0.0
578204.59901257406,4197374.0504322443,-42500.0,405.81589871666415,-244.63248945372729,-354.41153737701478,225.84657375838106,79.263378010506855,27.96294749645865,510.80358458907301,437.86730848400634,-459.90023479766728,459.90023479766728,-437.86730848400634,885.92757357129062,0.0
583204.59901257406,4197374.0504322443,-42500.0,414.51461001781985,-339.65778714321021,-263.55847431648186,285.43950754527242,-8.7527353242585431,86.967720003745598,552.80847396106344,421.1480027556687,-486.09239573133334,486.09239573133334,-421.1480027556687,967.33063040083289,0.0
588204.59901257406,4197374.0504322443,-42500.0,400.30208093090579,-428.0736958777905,-141.16658892027021,337.8656042355318,-118.48494904854434,158.1249392845254,604.68467258078761,376.389476391904,-485.58965427223387,485.58965427223387,-376.389476391904,1074.7202286863462,0.0
593204.59901257406,4197374.0504322443,-42500.0,361.926353685452,-500.34182038135862,11.220044935114661,376.85707441191596,-247.87963953338891,239.94041593107707,666.29686749536359,302.43727410471354,-451.44630337386877,451.44630337386877,-302.43727410471354,1206.8623651493751,0.0
598204.59901257406,4197374.0504322443,-42500.0,301.37652023177264,-546.46282112378344,188.06867927461275,396.0921606991281,-392.15180295268561,329.39322516323602,735.89262363445891,201.83394547671423,-379.11353452184881,379.11353452184881,-201.83394547671423,1358.1896290705649,0.0
603204.59901257406,4197374.0504322443,-42500.0,224.37177781349544,-557.63134144826279,379.55972674007154,390.25640517159974,-543.70482097467846,421.93250566195002,810.16540867821755,81.410513553462948,-268.00646316636448,268.00646316636448,-81.410513553462948,1519.5583627550052,0.0
608204.59901257406,4197374.0504322443,-42500.0,140.05977819234386,-528.12912485110758,572.16267707468876,356.20768275895904,-692.62680258691637,511.78920921037587,884.58512368072138,-47.980709185066409,-122.64233650838779,122.64233650838779,47.980709185066409,1679.5472129915186,0.0
613204.59901257406,4197374.0504322443,-42500.0,59.775581329556232,-456.95994312082797,750.20186254492523,293.93920927569951,-827.80996570856792,592.61787907195992,953.83493239983659,-172.77971504860105,47.135207311148946,-47.135207311148946,172.77971504860105,1825.9701533789782,0.0
618204.59901257406,4197374.0504322443,-42500.0,-4.9691177625337355,-348.67202299911872,898.20330097666147,207.01341917910912,-938.53645803362906,658.37660795484305,1012.3181716608678,-278.92708629725735,227.14339729636677,-227.14339729636677,278.92708629725735,1947.425136287593,0.0
623204.59901257406,4197374.0504322443,-42500.0,-44.766140436515258,-212.98805778881149,1003.4858950725198,102.25425522043734,-1016.1777194619334,704.25241783915249,1054.8918326669732,-354.44722289116999,400.97982735481435,-400.97982735481435,354.44722289116999,2034.7019219655394,0.0
628204.59901257406,4197374.0504322443,-42500.0,-54.191536991490835,-63.238227613477612,1058.2980618030108,-11.286405754348705,-1055.5651044887188,727.39693525420489,1077.7779133948948,-391.67831989488593,552.77707935170315,-552.77707935170315,391.67831989488593,2081.8350174941261,0.0
633204.59901257406,4197374.0504322443,-42500.0,-32.725770953618571,85.991367310663037,1060.9136880466151,-123.82685201475442,-1055.671384356825,727.28425976779181,1079.21957632202,-388.50545333132681,669.84344981979689,-669.84344981979689,388.50545333132681,2086.6227697146555,0.0
638204.59901257406,4197374.0504322443,-42500.0,15.503438137714689,221.32999634409347,1015.4491111765544,-226.4122974958151,-1019.4628157502552,705.62000527023918,1059.6026950219061,-348.30421631905733,744.49036986323017,-744.49036986323017,348.30421631905733,2050.5450337343573,0.0
643204.59901257406,4197374.0504322443,-42500.0,82.963836381521716,332.56720701948512,930.57876577104412,-312.13978591104501,-953.04104372920096,665.86788047374,1021.1402639832287,-278.74518900087787,774.66179893985759,-774.66179893985759,278.74518900087787,1978.1578034793667,0.0
648204.59901257406,4197374.0504322443,-42500.0,160.47498271739676,413.68219883365214,817.62316932869464,-376.81657175121859,-864.37655347942382,612.55511070758405,967.33394773086786,-189.93607021735863,763.39748726304003,-763.39748726304003,189.93607021735863,1876.1524710768697,0.0
653204.59901257406,4197374.0504322443,-42500.0,238.94993122598166,462.90676702474235,688.5595519854561,-419.01939366946704,-761.98392925187545,550.54413690999513,902.38566344125149,-92.472337358066909,717.48405357349611,-717.48405357349611,92.472337358066909,1752.3077111188418,0.0
658204.59901257406,4197374.0504322443,-42500.0,310.72822758768416,482.04219955981108,554.38828907178151,-439.68574381285862,-653.81692311925656,484.41980092842942,830.66749834971131,4.1497607145607276,645.77675694088362,-645.77675694088362,-4.1497607145607276,1614.5314187249867,0.0
663204.59901257406,4197374.0504322443,-42500.0,370.32492205862064,475.37398228705899,424.07731079260611,-441.44427796285106,-546.53079918781282,418.07293660030365,756.28742365152812,92.526668076804214,557.61947058300609,-557.61947058300609,-92.526668076804214,1470.1193102859954,0.0
668204.59901257406,4197374.0504322443,-42500.0,414.61804275310828,448.51348446263393,304.10355351305958,-427.88590929670966,-445.13166442221592,354.49318229956833,682.72191603308147,167.73160368331602,461.63257979306627,-461.63257979306627,-167.73160368331602,1325.2782614625598,0.0
673204.59901257406,4197374.0504322443,-42500.0,442.61811979222176,407.39884711533841,198.47613487978043,-402.9209209677216,-352.94589614040041,295.7374009712135,612.51677457064579,227.21565605303317,364.96609318306776,-364.96609318306776,-227.21565605303317,1184.900497290907,0.0
678204.59901257406,4197374.0504322443,-42500.0,455.00059893647915,357.56942402643017,109.07151503726583,-370.29724899004941,-271.80482043292812,243.01854484575762,547.20693052845809,270.40737847749165,272.98461436150581,-272.98461436150581,-270.40737847749165,1052.536926965272,0.0
683204.59901257406,4197374.0504322443,-42500.0,453.56253515335203,303.73192953826026,36.116690475895339,-333.29698455107268,-202.34095417656854,196.85981576922472,487.5349700318061,298.18367348861238,189.28046217648031,-189.28046217648031,-298.18367348861238,930.50702085489115,0.0
553204.59901257406,4202374.0504322443,-42500.0,182.48078604879774,75.268570273107557,-399.4606906832185,-0.81063614391347971,199.92568170774902,-75.875925792151378,348.32684712979778,263.2128645337566,-193.84153111193197,193.84153111193197,-263.2128645337566,626.07065536297762,0.0
558204.59901257406,4202374.0504322443,-42500.0,230.60751442101929,25.482267319773925,-404.84261417473596,34.552462572911494,189.69486004114478,-65.131524641707955,364.24157631617044,304.42560983369816,-244.37180097269635,244.37180097269635,-304.42560983369816,645.61064921965715,0.0
563204.59901257406,4202374.0504322443,-42500.0,276.08911068751462,-34.640949571448814,-397.72568838197304,75.571799188820918,169.54012673787213,-48.538767705811544,382.13587361651639,340.29080365169091,-295.70111163923127,295.70111163923127,-340.29080365169091,669.05561398562054,0.0
568204.59901257406,4202374.0504322443,-42500.0,315.60711206028782,-104.20938134774497,-374.35359437818244,121.34001644902334,137.15769791548024,-24.929032424277782,403.28637426927963,367.02604172226228,-344.47130542018459,344.47130542018459,-367.02604172226228,700.17124324245992,0.0
573204.59901257406,4202374.0504322443,-42500.0,345.42321010640615,-181.08013188818734,-330.95726858307967,170.16606395149225,90.373092094242949,6.7535382382234639,429.22795059430899,380.43650646485537,-386.25085096731925,386.25085096731925,-380.43650646485537,743.54525188443745,0.0
578204.59901257406,4202374.0504322443,-42500.0,361.7484508780517,-261.60662710188927,-264.24148314771384,219.45752937243958,27.467251048333654,47.276202482009424,461.51093747068359,376.33119703595355,-415.66642297016836,415.66642297016836,-376.33119703595355,803.71760199250025,0.0
583204.59901257406,4202374.0504322443,-42500.0,361.29670028711263,-340.54176998351193,-172.03590557811577,265.70707151246393,-52.410576036637536,96.902138806068535,501.32592677401271,351.14268966318258,-426.78085366021361,426.78085366021361,-351.14268966318258,883.90347463715943,0.0
588204.59901257406,4202374.0504322443,-42500.0,341.98067506198913,-411.20754795567461,-54.048330258801407,304.64358606026735,-148.78894247331471,155.16125119990735,549.09565855259427,302.70742888485177,-413.76413199056321,413.76413199056321,-302.70742888485177,984.81830499739806,0.0
593204.59901257406,4202374.0504322443,-42500.0,303.63792854012877,-466.02557496357281,87.412433721273956,331.59496445102246,-259.46530862998065,220.6527998131829,604.17711912430696,231.08633062833346,-371.84018823258577,371.84018823258577,-231.08633062833346,1104.1143082731332,0.0
598204.59901257406,4202374.0504322443,-42500.0,248.60299627275717,-497.43808894833518,246.94202762840382,342.06859382199434,-380.2622246210563,290.94085408310434,664.77608843959922,139.22581169959975,-298.39206804673222,298.39206804673222,-139.22581169959975,1236.5396794863263,0.0
603204.59901257406,4202374.0504322443,-42500.0,181.90561940326327,-499.13402756912541,415.99713617402745,332.48906360049114,-505.07615582570406,362.60474670882661,728.08190718079652,33.215206155173817,-193.99664441597866,193.99664441597866,-33.215206155173817,1374.5937269854871,0.0
608204.59901257406,4202374.0504322443,-42500.0,110.91279017769216,-467.35665017701672,583.47608123489454,300.95652436621748,-626.3105395534451,431.48667620504261,790.54549456440964,-78.069663507962389,-63.083932401409605,63.083932401409605,78.069663507962389,1509.4297299928944,0.0
613204.59901257406,4202374.0504322443,-42500.0,44.362267393683695,-401.96150742899874,736.95250985099608,247.83392724590442,-735.69443980770461,493.13148631604048,848.18598252596462,-184.01127045274842,86.068062039347467,-86.068062039347467,184.01127045274842,1631.8654744789858,0.0
618204.59901257406,4202374.0504322443,-42500.0,-9.0679580131968507,-306.88544902326362,864.38809252174394,175.97405452423635,-825.3696095620902,543.35544722171642,896.88999077386711,-273.8451077392304,242.15253774314039,-242.15253774314039,273.8451077392304,1733.4131481956756,0.0
623204.59901257406,4202374.0504322443,-42500.0,-42.322870637915258,-189.81246320525366,955.95971790408998,90.47370281061437,-889.0209930062897,578.82798321914413,932.84048881907199,-338.45412829810624,392.37970446727576,-392.37970446727576,338.45412829810624,1807.2161441987428,0.0
628204.59901257406,4202374.0504322443,-42500.0,-51.24903008092874,-61.054838993971089,1005.5539927767093,-2.0240885829240804,-922.78413860542696,597.53287332095681,953.13244455713493,-371.90314112800547,524.41576435378272,-524.41576435378272,371.90314112800547,1848.7571449206523,0.0
633204.59901257406,4202374.0504322443,-42500.0,-35.243238047957391,68.085604777303132,1011.558254926614,-94.321122675184355,-925.71328099041159,599.00159658083078,956.28629233560434,-372.3127757437839,628.23970309094852,-628.23970309094852,372.3127757437839,1856.2227892239005,0.0
638204.59901257406,4202374.0504322443,-42500.0,2.8713643880715352,187.05731995523249,976.78867336667793,-179.70557242018231,-899.72052619864007,584.27592005173949,942.39339128260701,-341.88111108791577,697.47103153789499,-697.47103153789499,341.88111108791577,1830.478325112676,0.0
643204.59901257406,4202374.0504322443,-42500.0,57.640251179634326,287.48480982203006,907.65078119707277,-252.80566564741349,-849.04689996856564,555.63174143467484,912.93040346456337,-286.12720510392978,729.90729009958932,-729.90729009958932,286.12720510392978,1774.6920835331746,0.0
648204.59901257406,4202374.0504322443,-42500.0,122.16315870510837,364.00683725625089,812.82018874703783,-310.0983968164897,-779.43803222135773,516.15156899164424,870.39858192354427,-212.63859011907459,727.26002589145196,-727.26002589145196,212.63859011907459,1693.7178198621771,0.0
653204.59901257406,4202374.0504322443,-42500.0,189.33424808781976,414.45766153809336,701.80087365642021,-350.03198173981497,-697.23961170075165,469.25466963174915,817.91421885426792,-129.68551704408833,694.28899571194063,-694.28899571194063,129.68551704408833,1593.3767487890198,0.0
658204.59901257406,4202374.0504322443,-42500.0,252.8624472481151,439.50008749839401,583.6659001220155,-372.82263740684448,-608.59655524138486,418.27794952751117,758.8275400756803,-45.015487868694834,637.63700081071534,-637.63700081071534,45.015487868694834,1479.7681008496095,0.0
663204.59901257406,4202374.0504322443,-42500.0,307.92245977457821,441.91877857047513,466.16418203575552,-380.04434966488924,-518.87040571411831,366.16690983301055,696.40413481008761,34.983393489538003,564.65899483314547,-564.65899483314547,-34.983393489538003,1358.7028350641947,0.0
668204.59901257406,4202374.0504322443,-42500.0,351.4149327190965,425.79552083931583,355.24434854769322,-374.13971786005231,-432.31035797034957,315.295849002929,633.55143925701532,105.69970795843045,482.45450564194351,-482.45450564194351,-105.69970795843045,1235.3061833375596,0.0
673204.59901257406,4202374.0504322443,-42500.0,381.9056866363569,395.74182290256499,254.94602339973108,-357.95521548223451,-351.95260269796199,267.40587231002024,572.5621033518612,164.35108833999436,397.20409237916249,-397.20409237916249,-164.35108833999436,1113.7928844249002,0.0
678204.59901257406,4202374.0504322443,-42500.0,399.35525081351119,356.29313272540867,167.55648499461805,-334.36469595812474,-279.689855594547,223.63225932818636,514.95882935421264,209.77983003608819,313.81773775039284,-313.81773775039284,-209.77983003608819,997.39147278201233,0.0
558204.59901257406,4207374.0504322443,-42500.0,227.79022401888835,-13.8844130936999,-351.06810239671319,54.008220998814743,147.8519492846614,-42.453727243094626,325.38310119623361,287.32742567718719,-245.12004393661229,245.12004393661229,-287.32742567718719,571.47649576511105,0.0
563204.59901257406,4207374.0504322443,-42500.0,263.2914303567585,-69.811938411984087,-335.48132033221913,89.650912133085711,125.28995290511091,-26.370716744027277,342.35982366634477,312.65057084384932,-286.72989156403889,286.72989156403889,-312.65057084384932,595.66505782273498,0.0
568204.59901257406,4207374.0504322443,-42500.0,292.40808166966093,-132.50937839871705,-304.66414296442042,128.30104116750542,92.198726645912231,-4.6497921927075856,362.78596303416043,328.66794727817842,-324.15358977143933,324.15358977143933,-328.66794727817842,628.43862821382208,0.0
573204.59901257406,4207374.0504322443,-42500.0,312.22648264445917,-199.71859837590932,-255.8239364420678,168.36945154522434,47.107903246237001,23.364586240365639,387.85544134568124,332.11257544959403,-353.54950123343212,353.54950123343212,-332.11257544959403,673.34923212659578,0.0
578204.59901257406,4207374.0504322443,-42500.0,319.98015188006366,-268.02067283899794,-186.76104886878946,207.61778856026478,-10.989116288396902,58.064938000020327,418.61684477546521,319.93432768804115,-370.50670599074243,370.50670599074243,-319.93432768804115,733.37981799325826,0.0
583204.59901257406,4207374.0504322443,-42500.0,313.48618534450338,-332.84770279579146,-96.374396994251143,243.19650428470825,-82.337805491818273,99.435612850939719,455.69382074875705,289.79290972195355,-370.40899985823063,370.40899985823063,-289.79290972195355,810.06628972298802,0.0
588204.59901257406,4207374.0504322443,-42500.0,291.64907519916727,-388.70407208322024,14.79892289296798,271.80321981266422,-166.12042076192154,146.91013142377301,499.03562076134381,240.62854521083099,-348.99602308040966,348.99602308040966,-240.62854521083099,902.89306703202988,0.0
593204.59901257406,4207374.0504322443,-42500.0,254.94096745823455,-429.64354069223327,144.11497506965915,289.98153043295156,-260.21163320441246,199.26175592397266,547.77806725336791,173.21155212983101,-303.08485329176506,303.08485329176506,-173.21155212983101,1009.1534737736381,0.0
598204.59901257406,4207374.0504322443,-42500.0,205.73062341111523,-449.99705729275536,286.56285836530401,294.55056107559432,-361.06966621236433,254.5643078563717,600.25287469704563,90.529882363851215,-231.35003822453919,231.35003822453919,-90.529882363851215,1124.2140848040528,0.0
603204.59901257406,4207374.0504322443,-42500.0,148.32425187432941,-445.26883619357773,434.85227523226024,283.11376587195696,-463.83737238219578,310.25742100210556,654.13037434005309,-2.1396401997173626,-134.99597941097363,134.99597941097363,2.1396401997173626,1242.0188466188074,0.0
608204.59901257406,4207374.0504322443,-42500.0,88.619795929215528,-413.03591817909631,579.93993715569968,254.55270538239128,-562.69715887619986,363.33455762308358,706.63946283798418,-97.592637563219569,-18.123078036489751,18.123078036489751,97.592637563219569,1355.7146869262629,0.0
613204.59901257406,4207374.0504322443,-42500.0,33.367018065345661,-353.63252273928674,711.98580903630318,209.38611758426137,-651.46531411401452,410.64386805994735,754.78369829175779,-187.51090649269375,112.38303346847036,-112.38303346847036,187.51090649269375,1458.3383742482285,0.0
618204.59901257406,4207374.0504322443,-42500.0,-10.853552806711647,-270.41078398715996,821.60297831833702,149.88416963650812,-724.34115944725454,449.25911148142524,795.51555043799567,-263.61574232748433,247.51066068939693,-247.51066068939693,263.61574232748433,1543.5141277720065,0.0
623204.59901257406,4207374.0504322443,-42500.0,-38.712502977772346,-169.45694260923395,901.15399284068951,79.877915957635111,-776.66739519696841,476.85087907527395,825.97747931289098,-318.92470031189265,377.25164191983987,-377.25164191983987,318.92470031189265,1606.0881110537757,0.0
628204.59901257406,4207374.0504322443,-42500.0,-47.010939397395035,-58.786727083390289,945.80451468419551,4.2828297014964933,-805.53776271722961,491.97975736945176,843.91727519280346,-348.81838352900547,491.97742573828725,-491.97742573828725,348.81838352900547,1642.6110711099093,0.0
633204.59901257406,4207374.0504322443,-42500.0,-35.141046623247888,52.807176749635829,954.097141387948,-71.56517042528526,-810.12108435857817,494.25009093374695,848.0940507443961,-351.66420591503788,583.75547310206355,-583.75547310206355,351.66420591503788,1651.5968842448374,0.0
638204.59901257406,4207374.0504322443,-42500.0,-5.0337781664842671,156.9890083328811,927.93825266557565,-142.61406230291266,-791.64382871676651,484.297843635395,838.42931867198104,-328.87069946009132,647.31791044773718,-647.31791044773718,328.87069946009132,1633.5245154618824,0.0
643204.59901257406,4207374.0504322443,-42500.0,39.35299432060944,246.9251451144759,872.04798818806785,-204.69244593160076,-753.06153137260446,463.62751361662941,815.90047442819832,-284.40726572201385,680.50375521896308,-680.50375521896308,284.40726572201385,1590.6026016972405,0.0
648204.59901257406,4207374.0504322443,-42500.0,92.837170527432505,317.95052899822781,793.05012075072727,-254.89443113691152,-698.52019380639661,434.34713898558272,782.29591185086258,-223.95830896932972,684.14959787123621,-684.14959787123621,223.95830896932972,1526.361701852649,0.0
653204.59901257406,4207374.0504322443,-42500.0,149.89268516191046,367.78968108488306,698.43248075302461,-291.71542483851277,-632.73877115010168,398.86412426048759,739.92667558580365,-153.94143589990966,661.53963508428433,-661.53963508428433,153.94143589990966,1445.1603426181202,0.0
658204.59901257406,4207374.0504322443,-42500.0,205.41831834513818,396.38078801299957,595.59043850582714,-314.96371039069345,-560.43467898802726,359.60062723204703,691.35169940225546,-80.604501571009905,617.60367827417417,-617.60367827417417,80.604501571009905,1351.6913558644171,0.0
663204.59901257406,4207374.0504322443,-42500.0,255.27719604761143,405.42684832743703,491.0963396115888,-325.51479611133453,-485.8758310859111,318.76916917200481,639.14445086854607,-9.3463131130530428,558.06139400637812,-558.06139400637812,9.3463131130530428,1250.5549494499382,0.0
668204.59901257406,4207374.0504322443,-42500.0,296.57004433418803,397.82013309671885,390.25358111291183,-324.9886415917407,-412.59582744879759,278.22698085049655,585.69467466849869,55.680469541065122,488.66841055681505,-488.66841055681505,-55.680469541065122,1145.9375606770761,0.0
673204.59901257406,4207374.0504322443,-42500.0,327.66988271843235,377.06718747633312,296.92270838119822,-315.42062492563167,-343.26823631115849,239.40782433086065,533.01059231688976,111.69886352515567,414.65423707139138,-414.65423707139138,-111.69886352515567,1041.407951027749,0.0
563204.59901257406,4212374.0504322443,-42500.0,246.86844143549129,-95.732208469686654,-277.78129686079103,96.959710967593992,88.861978954898532,-10.332422375421956,308.38385508890229,283.14054339626097,-272.34399379986866,272.34399379986866,-283.14054339626097,534.65516375605625,0.0
568204.59901257406,4212374.0504322443,-42500.0,267.66404980677686,-151.36373054348974,-242.05652034050328,129.23953114786937,56.380773746132341,9.197660928116985,328.05262789631252,290.81333513641448,-300.02746286942272,300.02746286942272,-290.81333513641448,568.55270613974881,0.0
573204.59901257406,4212374.0504322443,-42500.0,279.87927772870682,-209.3821252218402,-190.44137054091394,161.82563075210697,14.027474164430794,33.594557338729786,352.00784537766231,286.99380041410529,-319.30176280345904,319.30176280345904,-286.99380041410529,613.75925558813788,0.0
578204.59901257406,4212374.0504322443,-42500.0,281.54763971469629,-266.7048452689636,-121.57348804333124,192.83716101175034,-38.716077719287455,63.018706642246578,380.89618868903642,269.53021738747708,-326.62406992836196,326.62406992836196,-269.53021738747708,672.02503508403663,0.0
583204.59901257406,4212374.0504322443,-42500.0,271.28707554283426,-319.44775082266619,-35.098168840349445,219.99646985836475,-101.72736821529774,97.309889458667158,414.95273638503676,236.97807054125371,-318.47251671891433,318.47251671891433,-236.97807054125371,743.78575253728286,0.0
588204.59901257406,4212374.0504322443,-42500.0,248.65573335039394,-363.15378893567339,67.955951636103904,240.77419967571993,-174.04704730517972,135.90037073321218,453.86129039640826,189.00695265238963,-291.79722115303275,291.79722115303275,-189.00695265238963,827.90525210853411,0.0
593204.59901257406,4212374.0504322443,-42500.0,214.46177261096872,-393.19840776102876,184.88461211338188,252.62559549779934,-253.73908263765006,177.75708706666498,496.70314691705579,126.759401340793,-244.55804827255591,244.55804827255591,-126.759401340793,921.71634804928715,0.0
598204.59901257406,4212374.0504322443,-42500.0,170.94084436996013,-405.35200575487499,311.19203883098311,253.30359508904903,-337.85652252273212,221.37500731694433,542.00358978641577,53.065127810202682,-176.26718085391786,176.26718085391786,-53.065127810202682,1021.2739689926601,0.0
603204.59901257406,4212374.0504322443,-42500.0,121.71757592327189,-396.42920979455249,440.73627795016944,241.20827931661839,-422.55525576747073,264.8399378606473,587.85900529607204,-27.58516119482741,-88.419305791615415,88.419305791615415,27.58516119482741,1121.7262243038467,0.0
608204.59901257406,4212374.0504322443,-42500.0,71.500458406470955,-364.90669597541051,566.18040895143963,215.70898553709387,-503.37496722982337,305.9678566703152,632.10651018471719,-109.3680266911081,15.318234110768202,-15.318234110768202,109.3680266911081,1217.7511058793989,0.0
613204.59901257406,4212374.0504322443,-42500.0,25.520614565817148,-311.36606158672043,679.72694269830072,177.36446873351727,-575.66949503642047,342.51110478595348,672.4778855423142,-185.75358805609221,129.25536974268471,-129.25536974268471,185.75358805609221,1304.031727289127,0.0
618204.59901257406,4212374.0504322443,-42500.0,-11.200365892658093,-238.63267727100643,774.03176394491254,127.9762053788177,-635.12653180726295,372.40269800677908,706.6979914767245,-250.34229530727117,246.20030716027384,-246.20030716027384,250.34229530727117,1375.7364875276605,0.0
623204.59901257406,4212374.0504322443,-42500.0,-34.606588856655165,-151.54248826627784,843.13013443950126,70.443070595031372,-678.28425801872675,393.99623050068971,732.60903408371166,-297.75279235331601,358.28804002629164,-358.28804002629164,297.75279235331601,1428.9549880202478,0.0
628204.59901257406,4212374.0504322443,-42500.0,-42.219499169730568,-56.359027926791903,883.18611966696972,8.4323694573163674,-702.94345451152174,406.25519871542713,748.44989816169698,-324.37132248470152,457.96539472914981,-457.96539472914981,324.37132248470152,1461.0321502489367,0.0
633204.59901257406,4212374.0504322443,-42500.0,-33.467467254031988,40.044837161479876,892.91115105675578,-54.070566932605175,-708.39349594807061,408.85530208818744,753.18086751654346,-328.80026477086028,538.93232436464359,-538.93232436464359,328.80026477086028,1470.7529030095516,0.0
638204.59901257406,4212374.0504322443,-42500.0,-9.6707444283585584,131.06879535322861,873.57963463882936,-113.24373133907125,-695.4150204940936,402.18331924709844,746.63072548035677,-311.92184628077871,596.85189207080737,-596.85189207080737,311.92184628077871,1458.3553790560914,0.0
643204.59901257406,4212374.0504322443,-42500.0,26.290091719389526,211.1530406591738,828.66780754735601,-165.84758733552135,-666.07482419890255,387.24020032202969,729.43892528702816,-276.59258723119285,629.70652780163368,-629.70652780163368,276.59258723119285,1425.3830210851399,0.0
648204.59901257406,4212374.0504322443,-42500.0,70.520377082446259,276.30067409430393,763.22421641492383,-209.51310700254476,-623.37144694664278,365.47505117575218,702.88597671149512,-227.06968292305606,637.77289044017948,-637.77289044017948,227.06968292305606,1374.4125762519363,0.0
653204.59901257406,4212374.0504322443,-42500.0,118.73542263435421,324.29748713142465,683.12219441098625,-242.86813582461053,-570.81332452706863,338.58754728593931,668.68805039227573,-168.3163880768318,623.27640487524911,-623.27640487524911,168.3163880768318,1308.713369313117,0.0
658204.59901257406,4212374.0504322443,-42500.0,166.83436290157087,354.64746659901283,594.33991704665118,-265.51074545673265,-512.00859452983093,308.33492307587045,628.79719074150262,-105.33129146206366,589.84258864106118,-589.84258864106118,105.33129146206366,1231.8936151863445,0.0
663204.59901257406,4212374.0504322443,-42500.0,211.33401209729973,368.29561862249915,502.37647541760919,-277.8662120796904,-450.32674294775831,276.37139331912937,585.22957130208908,-42.609851779844831,541.87772685856828,-541.87772685856828,42.609851779844831,1147.5815206559346,0.0
668204.59901257406,4212374.0504322443,-42500.0,249.62405305571733,367.23314091084188,411.8587251255517,-280.97701382618015,-388.66358418163287,244.13480511921196,539.9228213493044,16.207348249303237,483.9917318490493,-483.9917318490493,-16.207348249303237,1059.1712317920567,0.0
573204.59901257406,4217374.0504322443,-42500.0,249.41313644948011,-212.26351218461127,-134.60010385633257,152.46233806008877,-10.715081541793088,39.306879615779678,320.63857952775032,245.94280532771072,-285.30640727489566,285.30640727489566,-245.94280532771072,562.292941186382,0.0
578204.59901257406,4217374.0504322443,-42500.0,246.89585017593737,-259.96133205864226,-67.696044344992927,176.80995924200207,-58.008127974880466,64.091247724187824,347.44209924767983,225.29709223166023,-285.37532408845368,285.37532408845368,-225.29709223166023,617.65405596936353,0.0
583204.59901257406,4217374.0504322443,-42500.0,234.49319690833443,-302.52973609693424,13.600441710993753,197.39233301086995,-113.21058894300758,92.416284644988593,378.4006366456673,192.10941352516858,-271.6682944180406,271.6682944180406,-192.10941352516858,683.74668782138133,0.0
588204.59901257406,4217374.0504322443,-42500.0,212.17768309859704,-336.39176061930743,108.00482388973606,212.28443579264902,-175.34378815904492,123.75953119512528,413.06913367157233,146.5104265758379,-242.04840281321296,242.04840281321296,-146.5104265758379,759.18878383903996,0.0
593204.59901257406,4217374.0504322443,-42500.0,180.90442553649135,-357.97296962041554,212.91687595909963,219.61812878700093,-242.70482052497943,157.27175582878655,450.56385676962896,89.798725134465258,-195.27871744223341,195.27871744223341,-89.798725134465258,841.53849457848344,0.0
598204.59901257406,4217374.0504322443,-42500.0,142.69679812066667,-364.12978027541897,324.38967747287239,217.80817396933173,-312.87116739486481,191.78511870772996,489.61851879198042,24.548190756025008,-131.39530974604008,131.39530974604008,-24.548190756025008,927.50243237968959,0.0
603204.59901257406,4217374.0504322443,-42500.0,100.57303650684359,-352.61751873367365,437.29162050914448,205.79195442077176,-382.80852026382968,225.86718355568232,528.68983246464745,-45.463804767680784,-51.977838318525841,51.977838318525841,45.463804767680784,1013.2051021118768,0.0
608204.59901257406,4217374.0504322443,-42500.0,58.289499998466788,-322.51489034121641,545.68081716463905,183.24024481023687,-449.08872505107769,257.92282252229029,566.08735747181038,-115.53836471621887,39.763604699780409,-39.763604699780409,115.53836471621887,1094.4975038023181,0.0
613204.59901257406,4217374.0504322443,-42500.0,19.916831981568784,-274.51039484546391,643.36623383574852,150.69231474412086,-508.20150662613497,286.33604159251888,600.0844145932324,-180.53402478515562,139.14371258230085,-139.14371258230085,180.53402478515562,1167.2909495332899,0.0
618204.59901257406,4217374.0504322443,-42500.0,-10.68791912787702,-210.97093741617024,724.57841277607599,109.57708013735721,-556.91759495597194,309.63255968646132,628.97029752338301,-235.47650829496709,240.40934971594655,-240.40934971594655,235.47650829496709,1227.8925710254521,0.0
623204.59901257406,4217374.0504322443,-42500.0,-30.415112703351262,-135.75354786328668,784.6359685028475,62.102987465730173,-592.64352260872499,326.63679297034747,651.10167247842105,-276.19168765691313,337.35049464588724,-337.35049464588724,276.19168765691313,1273.3087770268767,0.0
628204.59901257406,4217374.0504322443,-42500.0,-37.332496493520196,-53.780036554333165,820.4831060170394,11.028645072216664,-613.70432870971922,336.59590886721884,665.08884303188711,-299.83723252326439,424.01109123839609,-424.01109123839609,299.83723252326439,1301.4796268742466,0.0
633204.59901257406,4217374.0504322443,-42500.0,-30.923064285154961,29.54987331830382,830.99704532630301,-40.646658211026498,-619.50255371907053,339.24853309649876,670.05928280682394,-305.22782839317301,495.36845821916415,-495.36845821916415,305.22782839317301,1311.4119195639391,0.0
638204.59901257406,4217374.0504322443,-42500.0,-12.088469565931574,108.99362222612433,817.01590242964824,-90.015156328537259,-610.52931911023438,334.82815866583115,665.79658796336548,-292.89716862567627,547.85622302048375,-547.85622302048375,292.89716862567627,1303.1961771218662,0.0
643204.59901257406,4217374.0504322443,-42500.0,17.067188765645035,180.03226983722044,781.10080940153284,-134.55695882387727,-588.23533967471815,324.00491682856023,652.71180063177189,-264.90307363825895,579.6477009368391,-579.6477009368391,264.90307363825895,1277.9129169342702,0.0
648204.59901257406,4217374.0504322443,-42500.0,53.611069484930873,239.27648448829245,727.09901644767069,-172.35425217460664,-554.7963387602307,307.78073515005519,631.72347039749184,-224.43679307119774,590.67397772274512,-590.67397772274512,224.43679307119774,1237.4500525919818,0.0
653204.59901257406,4217374.0504322443,-42500.0,94.22477288603983,284.66648984950348,659.60628731856605,-202.20016353739052,-512.82373059631573,287.36013975515476,604.10894046876251,-175.33090316458737,582.40978711046978,-582.40978711046978,175.33090316458737,1184.2662902862114,0.0
658204.59901257406,4217374.0504322443,-42500.0,135.63001622962352,315.46919917974509,583.42842492568411,-223.60327700285498,-465.0726464976139,264.01943903795416,571.35792860889933,-121.56382341380026,557.49990950657354,-557.49990950657354,121.56382341380026,1121.1378605712425,0.0
583204.59901257406,4222374.0504322443,-42500.0,202.67973087770363,-283.70399669425097,51.586440334105056,176.12100180498939,-118.88610556467295,86.029826625672001,345.50283406488256,154.37215816355143,-230.16488457179202,230.16488457179202,-154.37215816355143,629.07295131369517,0.0
588204.59901257406,4222374.0504322443,-42500.0,181.35701985974964,-309.66723497402785,137.328255871914,186.61823977578175,-172.11324743353507,111.4975755588036,376.23599560826625,111.80199263476703,-199.26916014054547,199.26916014054547,-111.80199263476703,696.25602357010177,0.0
593204.59901257406,4222374.0504322443,-42500.0,153.11218132857655,-324.73205907720182,230.95133059174651,190.76007293211677,-229.01126354398471,138.38950449010494,408.9702098375991,60.613801595611619,-154.13116475136187,154.13116475136187,-60.613801595611619,768.29754285308115,0.0
598204.59901257406,4222374.0504322443,-42500.0,119.72907793834399,-326.56871537454333,329.04105771644515,187.4292426448377,-287.60392216393296,165.80263236972775,442.63689009302874,3.0896754164213647,-95.098567868278479,95.098567868278479,-3.0896754164213647,842.47796357812626,0.0
603204.59901257406,4222374.0504322443,-42500.0,83.704342723584972,-313.60523738018253,427.33217188895884,175.92503573224562,-345.49760633070031,192.66242796106056,475.98978087385575,-57.616446232543638,-23.716774334821306,23.716774334821306,57.616446232543638,915.70207834486416,0.0
608204.59901257406,4222374.0504322443,-42500.0,48.037150374227487,-285.31939649825159,521.0134586300926,156.10172714750209,-400.04855373273244,217.79692885547502,507.70457953729482,-117.71341538285299,57.24329242986596,-57.24329242986596,117.71341538285299,984.72020136970264,0.0
613204.59901257406,4222374.0504322443,-42500.0,15.909803380888457,-242.42392519943326,605.15535387811417,128.45153674941884,-448.58896672556233,240.03471215514512,536.45992368237444,-173.13783254926128,143.92925184835011,-143.92925184835011,173.13783254926128,1046.3657782410057,0.0
618204.59901257406,4222374.0504322443,-42500.0,-9.6955650800071478,-186.89483581040875,675.20470523439508,94.109056749883337,-488.68275292585133,258.31413255496648,560.96098519181214,-220.00110077055155,231.72457749039268,-231.72457749039268,220.00110077055155,1097.7926696842533,0.0
623204.59901257406,4222374.0504322443,-42500.0,-26.377247913882726,-121.82148515457564,727.46808340864038,54.768352213150273,-518.37187013985397,271.78752786313748,579.94559620590519,-255.04443526783317,315.70121205375369,-315.70121205375369,255.04443526783317,1136.6895882745171,0.0
628204.59901257406,4222374.0504322443,-42500.0,-32.619627465926555,-51.093478214288602,759.50075814842876,12.521174960721051,-536.37228845830782,279.9034028102235,592.30641008224757,-276.01996047329226,391.13731279260958,-391.13731279260958,276.01996047329226,1161.4461468343723,0.0
633204.59901257406,4222374.0504322443,-42500.0,-27.966060393119356,21.023873602652245,770.33378588063124,-30.357974335374831,-542.18675532045472,282.45309220131941,597.30865436307658,-281.92815982866409,454.01150832600956,-454.01150832600956,281.92815982866409,1171.2495018557599,0.0
638204.59901257406,4222374.0504322443,-42500.0,-13.030771370260579,90.350966514306904,760.50576885709086,-71.643712653477039,-536.11865671926012,279.57564772864413,594.71949660344865,-273.073731514982,501.39081904497391,-501.39081904497391,273.073731514982,1166.1018552736396,0.0
643204.59901257406,4222374.0504322443,-42500.0,10.643155585482608,153.21354184246141,731.90551836624968,-109.3706160866362,-519.19032447228562,271.72255124936703,584.79625970459256,-250.9409741276971,531.65413544151829,-531.65413544151829,250.9409741276971,1146.7605884806833,0.0
648204.59901257406,4222374.0504322443,-42500.0,40.840968396902845,206.75670029903267,687.46746055296808,-141.9921616114743,-492.98646681722431,259.59072821123937,568.19911522615132,-217.92630956866932,544.53007539334192,-544.53007539334192,217.92630956866932,1114.6143631569989,0.0
598204.59901257406,4227374.0504322443,-42500.0,101.00453084580222,-292.66026352372774,327.43358629088698,161.51330346067033,-263.00358069477608,143.21755007860733,400.57904351379045,-12.843618621519646,-65.918162359313868,65.918162359313868,12.843618621519646,765.6475583234253,0.0
603204.59901257406,4227374.0504322443,-42500.0,70.186222157321879,-279.03973809351697,412.99334927958324,150.75568464692708,-311.06988555228071,164.4967638617901,429.1182181998945,-65.472670968588943,-2.0056060577364754,2.0056060577364754,65.472670968588943,828.33909456325262,0.0
608204.59901257406,4227374.0504322443,-42500.0,40.031183590280826,-252.75806451568019,494.04391167272672,133.39686207162754,-356.14059708616975,184.32367890787177,456.11119071236101,-117.09130028733014,69.368951453362115,-69.368951453362115,117.09130028733014,887.12440653403746,0.0
613204.59901257406,4227374.0504322443,-42500.0,13.039518368818573,-214.50534931525902,566.64665312440422,109.87179627835305,-396.17574693174191,201.84213402258331,480.54192606552408,-164.47473933539959,145.03814542821783,-145.03814542821783,164.47473933539959,939.53368706034303,0.0
618204.59901257406,4227374.0504322443,-42500.0,-8.4678144307392404,-165.92890010934164,627.19074852732899,81.083412876946213,-429.32416787620724,216.28053079880874,501.42478090780838,-204.56527454014082,221.28397287289022,-221.28397287289022,204.56527454014082,983.35593747285623,0.0
623204.59901257406,4227374.0504322443,-42500.0,-22.622531999466865,-109.51428557786188,672.74654207777621,48.340071305718261,-454.09621575247456,227.02180708957812,517.78189286094403,-234.80234974019515,294.17542810388773,-294.17542810388773,234.80234974019515,1016.7920315884863,0.0
628204.59901257406,4227374.0504322443,-42500.0,-28.228487707700761,-48.353179129353649,701.34922370406571,13.240358729097812,-469.50101498559502,233.65851472758908,528.72143455786625,-253.39824929273362,359.94857686506879,-359.94857686506879,253.39824929273362,1038.573608108366,0.0
633204.59901257406,4227374.0504322443,-42500.0,-24.888438746274844,14.166567343381871,712.16802171281165,-22.477854792153373,-475.12733433055098,236.02497544963774,533.6217959036112,-259.51300361261616,415.36938357911396,-415.36938357911396,259.51300361261616,1048.0343058800754,0.0
603204.59901257406,4017374.0504322448,-47500.0,-5.1903130349099085,98.457604049751595,597.45293215780737,79.571107977423878,460.41999136395066,260.07262545907372,499.75206803740633,-212.97356815047232,415.00053826594018,-415.00053826594018,212.97356815047232,978.63194196498671,0.0
608204.59901257406,4017374.0504322448,-47500.0,-20.742553744090063,46.031051937093366,612.3544745655937,46.093821172400389,469.99522006656628,264.88948255313323,504.83073563771069,-225.32554064388566,384.05566918169563,-384.05566918169563,225.32554064388566,988.42386099204475,0.0
613204.59901257406,4017374.0504322448,-47500.0,-28.959249292300715,-9.9464784463966236,612.71592245053171,10.504962188787641,470.54970917803951,265.25638164399476,504.22883148746234,-227.08963863982319,340.92368705451065,-340.92368705451065,227.08963863982319,987.11597313729658,0.0
618204.59901257406,4017374.0504322448,-47500.0,-29.023863476074009,-66.664618143097968,597.64012723057886,-25.593983048965988,461.55917424855153,260.92157118891328,497.91480421476706,-217.58322128788987,287.21095237803462,-287.21095237803462,217.58322128788987,974.41573930102459,0.0
623204.59901257406,4017374.0504322448,-47500.0,-20.811296764565054,-121.09364279803836,567.18380855646319,-60.479307294980856,443.04371490796387,251.88847240390575,486.19529890180451,-196.97210433898397,225.34647745212192,-225.34647745212192,196.97210433898397,950.57073869443104,0.0
628204.59901257406,4017374.0504322448,-47500.0,-4.9387044477657387,-170.26945546854245,522.40719521083076,-92.458096915988762,415.59618065973802,238.42935550024333,469.69182648419491,-166.30227736146472,158.39064467816635,-158.39064467816635,166.30227736146472,916.3862065514013,0.0
633204.59901257406,4017374.0504322448,-47500.0,17.282456019334752,-211.58459766439898,465.30671722845182,-120.02495064270565,380.34715366316101,221.07008179993846,449.24249841196377,-127.41892441842371,89.757448711817247,-89.757448711817247,127.41892441842371,873.1937349209104,0.0
638204.59901257406,4017374.0504322448,-47500.0,43.989202175616789,-243.03986757508818,398.63630802197025,-141.9989052192752,338.86900545134239,200.54696877035707,425.77980891831101,-82.781112227081707,22.890264116137445,-22.890264116137445,82.781112227081707,822.77272235754594,0.0
643204.59901257406,4017374.0504322448,-47500.0,72.981588743766864,-263.4173397181026,325.64334875672307,-157.62001796811717,293.03255508833274,177.7416199386594,400.26342423626443,-35.200993766669882,-39.059230732261213,39.059230732261213,35.200993766669882,767.23288841014335,0.0
648204.59901257406,4017374.0504322448,-47500.0,101.97210894446435,-272.35083051191094,249.76100739554718,-166.59269912924131,244.83819159506135,153.6035419685285,373.66221733161188,12.449278383158912,-93.500431380823812,93.500431380823812,-12.449278383158912,708.87117151928703,0.0
653204.59901257406,4017374.0504322448,-47500.0,128.82841531883753,-270.29023613688184,174.30342816713423,-169.07318123003938,196.24609449044729,129.07156803132531,346.928501155118,57.516385365134923,-138.58582539386884,138.58582539386884,-57.516385365134923,650.01709549738916,0.0
658204.59901257406,4017374.0504322448,-47500.0,151.77241027051764,-258.37523911560237,102.20640328266745,-165.60822027984597,149.02852142636385,105.0045707172041,320.94712089455965,97.790039387110113,-173.28809233841,173.28809233841,-97.790039387110113,592.87938557145878,0.0
593204.59901257406,4022374.0504322448,-47500.0,53.717850218461997,209.05720876339043,553.42200495966551,161.11826516277489,464.48014167935042,279.45072520626491,522.15951010286688,-163.43366375553202,468.98675213708168,-468.98675213708168,163.43366375553202,1021.8010370816879,0.0
598204.59901257406,4022374.0504322448,-47500.0,23.176585684072222,166.86441908748566,598.79325696972546,132.09084628541999,494.72569310470141,295.2756082894827,540.87987018320973,-197.91104626843983,465.74688434099858,-465.74688434099858,197.91104626843983,1057.7728532420267,0.0
603204.59901257406,4022374.0504322448,-47500.0,-2.7426626020482692,115.24947696491913,632.40194611398408,97.30493750671242,517.09966619923023,306.97132095606037,554.06046125780495,-224.27388171394222,447.63440190694763,-447.63440190694763,224.27388171394222,1083.0727267608852,0.0
608204.59901257406,4022374.0504322448,-47500.0,-21.801230089614837,56.204275912874898,651.35009842357317,57.976013910591469,529.84199450313145,313.66383268396737,560.93136207816258,-240.05235892436346,414.24871317441796,-414.24871317441796,240.05235892436346,1096.1791827168045,0.0
613204.59901257406,4022374.0504322448,-47500.0,-32.191958500205338,-7.457625415833534,653.42603630245117,15.787616207567332,531.61202398046203,314.6867971260038,561.01886788526883,-243.39083957327489,366.30011657920147,-366.30011657920147,243.39083957327489,1096.0470866522169,0.0
618204.59901257406,4022374.0504322448,-47500.0,-32.803918850132789,-72.298389282104395,637.40942075085275,-27.220745000603131,521.66429574321546,309.66637091236555,554.22969861036813,-233.33023428343483,305.66646945901425,-305.66646945901425,233.33023428343483,1082.2424191679941,0.0
623204.59901257406,4022374.0504322448,-47500.0,-23.416381193536036,-134.56447513180979,603.28551476464781,-68.826543243583899,499.97211192396873,298.58107121840709,540.90129271841079,-209.99886185293653,235.29870447747558,-235.29870447747558,209.99886185293653,1055.0315744134468,0.0
628204.59901257406,4022374.0504322448,-47500.0,-4.7777071475573303,-190.56699332471703,552.32266424354714,-106.83664885695313,467.27375682360304,281.78492368245367,521.78297019521881,-174.6667230208125,158.97363116876167,-158.97363116876167,174.6667230208125,1015.4105839657494,0.0
633204.59901257406,4022374.0504322448,-47500.0,21.45481701595433,-237.07428322004151,486.98816710866379,-139.30729612355046,425.02705055159936,259.98687915420118,497.92497249910082,-129.64183889949152,80.923713698805258,-80.923713698805258,129.64183889949152,965.06497780157486,0.0
638204.59901257406,4022374.0504322448,-47500.0,52.909707550263917,-271.65046998451345,410.7090693995799,-164.73590660022387,375.27571724726897,234.18811171381239,470.52485661306929,-78.019398010468905,5.4010820835315343,-5.4010820835315343,78.019398010468905,906.26278087211085,0.0
643204.59901257406,4022374.0504322448,-47500.0,86.79648653474861,-292.88253639968394,327.51599764003106,-182.19347700271845,320.44767705233983,205.58617941295412,440.82295281949132,-23.326211133717688,-63.75145443628989,63.75145443628989,23.326211133717688,841.69231202521689,0.0
648204.59901257406,4022374.0504322448,-47500.0,120.24679424934571,-300.46248911116925,241.63013671398392,-191.37864448292387,263.1181895084602,175.46148313256873,410.05726449710107,30.876409800673251,-123.45313650974506,123.45313650974506,-30.876409800673251,774.263816756408,0.0
653204.59901257406,4022374.0504322448,-47500.0,150.63970410692411,-295.12137257313839,157.06177959092861,-192.59047852359035,205.77585764085899,145.06386100278232,379.41928688535904,81.362546110782446,-171.61071975301701,171.61071975301701,-81.362546110782446,706.89631717164536,0.0
658204.59901257406,4022374.0504322448,-47500.0,175.85910162710093,-278.44148672175896,77.279321590637636,-186.63278301573544,150.62467566550654,115.51517560038934,349.98540305272036,125.52814422422591,-207.19620285377511,207.19620285377511,-125.52814422422591,642.30710872306861,0.0
663204.59901257406,4022374.0504322448,-47500.0,194.45061948857833,-252.59208349323416,4.9872249151293033,-174.67336954189966,99.444979927313682,87.739068844563704,322.63976635668962,161.56068850497041,-230.18604515081842,230.18604515081842,-161.56068850497041,582.81588208360176,0.0
668204.59901257406,4022374.0504322448,-47500.0,205.67026167019048,-220.0405698196702,-57.974202976193354,-158.08589901773058,53.522358942068713,62.422773930156474,298.0106169816134,188.48604987576806,-241.39489915207474,241.39489915207474,-188.48604987576806,530.17240543991682,0.0
583204.59901257406,4027374.0504322448,-47500.0,144.24657365194599,289.69880932068719,441.12153073786021,233.318234315018,421.77486848482636,275.6495555397097,514.94134799170331,-65.21315741263453,455.60748504218583,-455.60748504218583,65.21315741263453,1007.5523529812987,0.0
588204.59901257406,4027374.0504322448,-47500.0,106.85539538561213,269.72156253724881,508.65454281345978,216.91824750596484,470.02544879870118,302.4067988512225,546.93446583312482,-113.9612805820654,483.64970230055661,-483.64970230055661,113.9612805820654,1069.2483475934657,0.0
593204.59901257406,4027374.0504322448,-47500.0,68.664495778208675,237.00381925371883,571.18573676564426,192.24167704383754,514.24404007322653,326.78958636534912,575.16040541247514,-160.6082531614054,498.84611845625864,-498.84611845625864,160.6082531614054,1123.4618977229534,0.0
598204.59901257406,4027374.0504322448,-47500.0,32.45016772847989,191.57322101420792,624.74929854369088,159.39188265940902,551.85480632854876,347.44535177537409,598.23107189955408,-201.77316719044089,498.54211039459369,-498.54211039459369,201.77316719044089,1167.6550210663281,0.0
603204.59901257406,4027374.0504322448,-47500.0,1.2093282784537327,134.52924615714173,665.3166165606151,119.12030813458692,580.27082004172109,363.0229653367378,614.87669245473739,-233.97584986409359,480.86730677695016,-480.86730677695016,233.97584986409359,1199.445912228344,0.0
608204.59901257406,4027374.0504322448,-47500.0,-22.174575573778785,68.131787222638295,689.20894684267012,72.872578293890356,597.14724513370913,372.30137197648986,624.06614611976454,-254.02919695335507,445.09209702503392,-445.09209702503392,254.02919695335507,1216.8260584359725,0.0
613204.59901257406,4027374.0504322448,-47500.0,-35.316663683346931,-4.2636140684530792,693.5483259291093,22.746026309297189,600.6543530344785,374.32748275039694,625.13207002860804,-259.4698994183251,391.89152302394712,-391.89152302394712,259.4698994183251,1218.3763207917868,0.0
618204.59901257406,4027374.0504322448,-47500.0,-36.701706798302418,-78.445207422266591,676.67849086588171,-28.652457411984923,589.73155307978868,368.5445397816452,617.88674078469421,-248.95495807889188,323.45068525378758,-323.45068525378758,248.95495807889188,1203.4595693425506,0.0
623204.59901257406,4027374.0504322448,-47500.0,-25.965004125129067,-149.7468332848195,638.47011402812984,-78.441252526859813,564.2717231129152,354.88563521137041,602.69581234930979,-222.53991298419302,243.36103329384147,-243.36103329384147,222.53991298419302,1172.3522769274437,0.0
628204.59901257406,4027374.0504322448,-47500.0,-4.0148410745199463,-213.55796971180058,580.44078410337681,-123.76088726617594,525.19583888545344,333.81260037244652,580.46804220218644,-181.76932664168913,156.30060541724379,-156.30060541724379,181.76932664168913,1126.2921059762209,0.0
633204.59901257406,4027374.0504322448,-47500.0,27.042572276425641,-265.85725810933849,505.65036290093917,-162.08572041324766,474.39471478756985,306.28879686347847,552.52977814025053,-129.54411571708081,67.537414769449398,-67.537414769449398,129.54411571708081,1067.4273165943362,0.0
638204.59901257406,4027374.0504322448,-47500.0,64.170681389018455,-303.67098691143804,418.37895385942869,-191.49504301002855,414.54104302469943,273.68669391257765,520.42904913026894,-69.779624743454946,-17.660535855013059,17.660535855013059,69.779624743454946,998.66923621534534,0.0
643204.59901257406,4027374.0504322448,-47500.0,103.81251949837218,-325.37267638432172,323.64296416868848,-210.85596997845613,348.8028909994128,237.64543543555774,485.77745496609145,-6.9167319895682127,-94.602423685442403,94.602423685442403,6.9167319895682127,923.46594442784055,0.0
648204.59901257406,4027374.0504322448,-47500.0,142.36024272991514,-330.77544018054442,226.63831773128504,-219.88953930012963,280.50933048195236,199.90275618058982,450.16333914118326,54.619191315445114,-159.63699472298327,159.63699472298327,-54.619191315445114,845.52481923292021,0.0
653204.59901257406,4027374.0504322448,-47500.0,176.59328903923523,-321.01702949355621,132.21015715610608,-219.11794306889047,212.82585528725889,162.12988511506319,415.0791227828737,110.91091887987389,-210.42958252862005,210.42958252862005,-110.91091887987389,768.51510975391238,0.0
658204.59901257406,4027374.0504322448,-47500.0,204.00983982383329,-298.28067659020189,44.432151175768162,-209.71498489924394,148.48916691812911,125.79418531674295,381.82791276935802,158.91347107809682,-246.02928992470376,246.02928992470376,-158.91347107809682,695.77551178035196,0.0
663204.59901257406,4027374.0504322448,-47500.0,223.00962789754502,-265.42201447191201,-33.654850437482409,-193.29779123985392,89.63239107477375,92.065650610150115,351.42487597340948,196.6475306670487,-266.74768009119379,266.74768009119379,-196.6475306670487,630.04353356589297,0.0
668204.59901257406,4027374.0504322448,-47500.0,232.92373961529424,-225.57828968138645,-100.13421482709083,-171.70219307065901,37.710004582833044,61.772823358583103,324.52213368964158,223.22140174992117,-273.90313185216991,273.90313185216991,-223.22140174992117,573.22318521055081,0.0
673204.59901257406,4027374.0504322448,-47500.0,233.91800961448209,-181.82302946921948,-154.15793744756346,-146.7783009223572,-6.488113128089843,35.403825559189471,301.37875122415551,238.71383678427259,-269.49845382917658,269.49845382917658,-238.71383678427259,526.22141709900018,0.0
678204.59901257406,4027374.0504322448,-47500.0,226.81387223075069,-136.90570547887705,-195.78685623148334,-120.23016956411783,-42.756437656877452,13.141756701163063,281.88665058017375,243.96760366282697,-255.89443726620598,255.89443726620598,-243.96760366282697,488.90581246126095,0.0
573204.59901257406,4032374.0504322448,-47500.0,243.75795750696943,316.05348818582974,283.13539289963501,277.85724998949831,338.07626907872606,247.4302055919479,479.35067961919856,59.308248869145586,371.79791348402421,-371.79791348402421,-59.308248869145586,935.72941150389886,0.0
578204.59901257406,4032374.0504322448,-47500.0,212.36164772988226,323.19876402328106,356.94866219507747,279.22628735017332,395.96869145411665,281.89584303395668,520.49039328640322,10.723170154315653,424.0391435792011,-424.0391435792011,-10.723170154315653,1016.5306503212574,0.0
583204.59901257406,4032374.0504322448,-47500.0,174.51688561673893,318.74683141167242,433.83230994882314,272.34561145678765,455.15152902950342,316.78447153119328,560.95821616666308,-42.735332908913136,469.79465463694555,-469.79465463694555,42.735332908913136,1095.1694585160283,0.0
588204.59901257406,4032374.0504322448,-47500.0,132.0896868945978,300.65160964196525,510.43929032650306,255.98619711262393,513.22076946904053,350.73607976602261,599.16581869462721,-98.402340156777456,505.25001263293075,-505.25001263293075,98.402340156777456,1168.8359750703655,0.0
593204.59901257406,4032374.0504322448,-47500.0,87.763007477596801,267.5563883921858,582.5963908394242,229.38237396707086,567.25858645007168,382.12195819755311,633.3697095172007,-152.78667055695104,526.54462993918537,-526.54462993918537,152.78667055695104,1234.4244119116377,0.0
598204.59901257406,4032374.0504322448,-47500.0,44.900501894298571,219.14572158485535,645.53419524837159,192.44308619013719,613.99316440164125,409.13297468339073,661.79994920127103,-201.77656391139482,530.2037462520716,-530.2037462520716,201.77656391139482,1288.7188275125138,0.0
603204.59901257406,4032374.0504322448,-47500.0,7.2572125370057305,156.44124746801276,694.27333337101459,145.92567781501617,650.05377074154228,429.91717839065524,682.79902571393768,-241.00644365721246,513.63821357527706,-513.63821357527706,241.00644365721246,1328.6356172705368,0.0
608204.59901257406,4032374.0504322448,-47500.0,-21.451330715556288,81.966458238109638,724.15160912881061,91.528738147760748,672.31136911437875,442.76173108206359,694.98355807302357,-266.36519352458436,475.64175030284684,-475.64175030284684,266.36519352458436,1351.5156857129105,0.0
613204.59901257406,4032374.0504322448,-47500.0,-38.070677217823132,-0.29263611239826504,731.42656206404865,31.86152748859698,678.26250033736255,446.29672394181614,697.41641140927572,-274.58059374289388,416.78237711093021,-416.78237711093021,274.58059374289388,1355.4276772956803,0.0
618204.59901257406,4032374.0504322448,-47500.0,-40.529316895282328,-85.172919886786303,713.85553960161326,-29.733750769494534,666.39691035794408,439.69017769943292,689.76752262975913,-263.77698996405508,339.58492654131675,-339.58492654131675,263.77698996405508,1339.442814471088,0.0
623204.59901257406,4032374.0504322448,-47500.0,-28.247549461763107,-166.85630412430129,671.13158730244152,-89.500813738558435,636.47371854917594,422.79493508263425,672.42277960401782,-233.88241309716418,248.42541235643964,-248.42541235643964,233.88241309716418,1303.8295307245844,0.0
628204.59901257406,4032374.0504322448,-47500.0,-2.3277922548636862,-239.55767600849731,605.0698621330032,-143.68762544658898,589.64360487644331,396.21562229871694,646.49084000262155,-186.7774370592297,149.1176121327218,-149.1176121327218,186.7774370592297,1250.1340778118999,0.0
633204.59901257406,4032374.0504322448,-47500.0,34.537998480613076,-298.25436302706078,519.47673916977226,-188.99176731731907,528.37277616759172,361.27142557628844,613.65897189154941,-126.125300474781,48.242538166413929,-48.242538166413929,126.125300474781,1181.1133092326031,0.0
638204.59901257406,4032374.0504322448,-47500.0,78.439163332907839,-339.31186049147897,419.71442498822478,-222.94753068551245,456.17753403072425,319.85956540966225,575.9416181672932,-56.902477179373683,-47.655362659954655,47.655362659954655,56.902477179373683,1100.5317132454918,0.0
643204.59901257406,4032374.0504322448,-47500.0,124.82038260089621,-360.8800809222945,312.03914320914805,-244.18002684686405,377.21324508724149,274.24070546844683,535.44458308391916,15.278758572125504,-132.84896389215132,132.84896389215132,-15.278758572125504,1012.8412814022633,0.0
648204.59901257406,4032374.0504322448,-47500.0,169.13276581974424,-362.99143465057762,202.84719352004623,-252.48365439354174,295.79870248517267,226.78774120617578,494.21375200306647,84.912097309160032,-203.03551876419723,203.03551876419723,-84.912097309160032,922.78919781024842,0.0
653204.59901257406,4032374.0504322448,-47500.0,207.42560065046004,-347.3669487535085,97.97384370780415,-248.72513425350925,215.96414211455684,179.74381740735186,454.11837688179975,147.25439057537415,-255.67149228506491,255.67149228506491,-147.25439057537415,834.99799337193895,0.0
658204.59901257406,4032374.0504322448,-47500.0,236.77072985972558,-317.00175980507555,2.1623430147258569,-234.60966161132487,141.09637404608017,135.02826269704443,416.72276719037382,198.78474197471721,-290.00872929323384,290.00872929323384,-198.78474197471721,753.55356553946092,0.0
663204.59901257406,4032374.0504322448,-47500.0,255.46625697280498,-275.63911896931165,-81.234120865618394,-212.37214875997464,73.723440015168535,94.113778902684146,383.16153356837748,237.41363792663591,-306.87513042623516,306.87513042623516,-237.41363792663591,681.62770155918861,0.0
668204.59901257406,4032374.0504322448,-47500.0,263.02497814590862,-227.24441476848924,-150.31481198231975,-184.45891404154688,15.445393287462334,57.980067205291896,354.05692643799966,262.45397591204352,-308.28815596070598,308.28815596070598,-262.45397591204352,621.16906129557913,0.0
673204.59901257406,4032374.0504322448,-47500.0,259.99678273339185,-175.56493081865111,-204.50206473836869,-153.25212914003816,-33.011513431096411,27.133494714314608,329.50874530315838,274.41183563433196,-297.00216310394546,297.00216310394546,-274.41183563433196,572.72752808056634,0.0
678204.59901257406,4032374.0504322448,-47500.0,247.69507505610883,-123.82244597144928,-244.28870429135398,-120.86777756677573,-71.656198808516237,1.6734722731123628,309.16785890088113,274.6754554842139,-276.07701154651431,276.07701154651431,-274.6754554842139,535.50248931497731,0.0
683204.59901257406,4032374.0504322448,-47500.0,227.89587904191265,-74.547730300977861,-270.9326751087396,-89.036209223463615,-101.05210243810754,-18.61610173547955,292.37732982581701,265.17746870948883,-248.52581393026401,248.52581393026401,-265.17746870948883,507.66118850079926,0.0
568204.59901257406,4037374.0504322448,-47500.0,308.26482990848172,311.24173668208255,179.29289297433917,302.57060293246536,287.49014203011313,236.88546521322556,468.43369946600745,142.23615520200829,299.19574022182667,-299.19574022182667,-142.23615520200829,908.70003291946364,0.0
573204.59901257406,4037374.0504322448,-47500.0,284.87987644746022,334.08149316309039,251.6076934535337,315.66520072519211,350.00561092904201,276.88979788116399,514.71658593176505,98.823542508979472,361.82207708448465,-361.82207708448465,-98.823542508979472,1001.0902578063515,0.0
578204.59901257406,4037374.0504322448,-47500.0,252.13117048649346,347.28414828892778,331.42007681149602,321.17052483033973,417.19236967219121,319.31388751388948,562.3648679891611,46.741876825067749,422.48497446172303,-422.48497446172303,-46.741876825067749,1094.9393503441793,0.0
583204.59901257406,4037374.0504322448,-47500.0,210.92488069853943,347.78326835115109,416.22130159213145,317.07045754451946,487.01432066429152,362.90403851517135,609.90704459827236,-12.253507229029111,477.18199395895476,-477.18199395895476,12.253507229029111,1187.4565186422608,0.0
588204.59901257406,4037374.0504322448,-47500.0,163.21472761059849,332.80091895546173,502.34011712474899,301.58906684919702,556.64513825309746,405.96311530583671,655.45936732802704,-75.266055427295214,521.31846660683823,-521.31846660683823,75.266055427295214,1275.2683437358667,0.0
593204.59901257406,4037374.0504322448,-47500.0,112.05587736259454,300.28950467758227,584.98367661873579,273.47598564103248,622.51630597612007,446.38327862948893,696.87057239814123,-138.26690164189853,550.07429772736054,-550.07429772736054,138.26690164189853,1354.5446283083268,0.0
598204.59901257406,4037374.0504322448,-47500.0,61.485495504559886,249.41419804894338,658.46755038324488,232.31170130841721,680.49043896168769,481.74809264906412,731.88825616830036,-196.29848027722005,558.93741244357159,-558.93741244357159,196.29848027722005,1421.2139931721338,0.0
603204.59901257406,4037374.0504322448,-47500.0,16.188822031744131,180.99288078697151,716.6732275861217,178.78094114639876,726.18348088369805,509.51648639741086,758.34912118306659,-243.90955437111487,544.36577228905799,-544.36577228905799,243.90955437111487,1471.2826847006702,0.0
608204.59901257406,4037374.0504322448,-47500.0,-19.04996505571275,97.779528104480434,753.71200124145582,114.84350261526097,755.4181696475988,527.27821928800802,774.39590904075408,-275.8060906757085,504.47521157393606,-504.47521157393606,275.8060906757085,1501.2239444252709,0.0
613204.59901257406,4037374.0504322448,-47500.0,-40.052250899009586,4.4794855325276988,764.72556196651533,43.734671769805765,764.76254109401646,533.05508313750386,778.71543024768232,-287.64158897142306,439.61527224561439,-439.61527224561439,287.64158897142306,1508.4027553283099,0.0
618204.59901257406,4037374.0504322448,-47500.0,-43.980276915878989,-92.580310713138985,746.68584490264027,-30.250814419592775,752.06389571841783,525.59894794652985,770.7649872277932,-276.80264661487831,352.67428233124303,-352.67428233124303,276.80264661487831,1491.4708846101887,0.0
623204.59901257406,4037374.0504322448,-47500.0,-29.935491663968733,-186.12867509632312,699.02004038010398,-102.19210544759964,716.86664826387607,504.62588314849773,750.93621308227193,-243.00724813042459,248.98676258301597,-248.98676258301597,243.00724813042459,1450.6602856142608,0.0
628204.59901257406,4037374.0504322448,-47500.0,0.74566679952589643,-268.88110076807794,623.89450729396469,-167.13522564964603,660.60724364776343,470.92795633625718,720.58681710157634,-188.54506996365762,135.79796484374953,-135.79796484374953,188.54506996365762,1387.9091452062169,0.0
633204.59901257406,4037374.0504322448,-47500.0,44.603312314072497,-334.54407799064012,526.05672391979635,-220.73546608553181,586.52067828562508,426.32643973514604,681.87928351346397,-118.06279863707375,21.355719044070113,-21.355719044070113,118.06279863707375,1306.7820047961081,0.0
638204.59901257406,4037374.0504322448,-47500.0,96.572760677111361,-378.6747853528525,412.24079089142475,-259.81549573135726,499.25955555814807,373.46569287794159,637.45239137883118,-37.913671158303366,-86.193324825168332,86.193324825168332,37.913671158303366,1212.1823793534104,0.0
643204.59901257406,4037374.0504322448,-47500.0,150.79506726446834,-399.20628662082214,290.25817060125814,-282.72050525322084,404.30029055378037,315.48700133370932,590.07365644788786,44.787848192868282,-179.86458019237756,179.86458019237756,-44.787848192868282,1109.8967281014225,0.0
648204.59901257406,4037374.0504322448,-47500.0,201.5261407594692,-396.54062710308284,167.97268004838762,-289.40653058085491,307.26137590145095,255.64925443353081,542.38799252801175,123.18899088087252,-254.63259874225733,254.63259874225733,-123.18899088087252,1006.0326286700189,0.0
653204.59901257406,4037374.0504322448,-47500.0,243.93732966787067,-373.22846554211657,52.374464770702822,-281.26756979804247,213.27163836412407,196.97172208148515,496.73190295300532,191.57564803051636,-307.82509533912048,307.82509533912048,-191.57564803051636,906.41734774180941,0.0
658204.59901257406,4037374.0504322448,-47500.0,274.65289630049199,-333.35466106609397,-51.082493756241988,-260.76969761531194,126.49806572829385,141.96032160587089,454.95668024390835,245.94338562272128,-339.09177374726369,339.09177374726369,-245.94338562272128,816.00978779934337,0.0
663204.59901257406,4037374.0504322448,-47500.0,291.95988437573277,-281.79871659693697,-138.80357966643464,-230.99318982518517,49.888732002581598,92.449881860279064,418.27467710869098,284.2027571748726,-350.02973278601172,350.02973278601172,-284.2027571748726,738.37087650385149,0.0
668204.59901257406,4037374.0504322448,-47500.0,295.71701379805518,-223.53244800516376,-209.05231604769705,-195.18315785470415,-14.870907445943265,49.564572917230961,387.18155787289788,306.05635796555595,-343.60766160741349,343.60766160741349,-306.05635796555595,675.26734765569131,0.0
673204.59901257406,4037374.0504322448,-47500.0,287.05046270083295,-163.06903359058137,-261.70482716246056,-156.38283528168478,-67.233160477986061,13.774174225680387,361.49572576191588,312.64838660471469,-323.53911932136657,323.53911932136657,-312.64838660471469,626.54025039501209,0.0
678204.59901257406,4037374.0504322448,-47500.0,267.94627210881453,-104.11441621188197,-297.86619968527424,-117.18640134043662,-107.55971248057,-14.988017482546102,340.51664728266428,306.10741645748345,-293.72297657701478,293.72297657701478,-306.10741645748345,590.36639803499077,0.0
683204.59901257406,4037374.0504322448,-47500.0,240.83677334400855,-49.416635173315633,-319.44855633498321,-79.614284965067981,-136.8537480869042,-37.180601311168211,323.25635136718506,289.08746321264033,-257.81930939437103,257.81930939437103,-289.08746321264033,563.89042778880912,0.0
688204.59901257406,4037374.0504322448,-47500.0,208.24807563413722,-0.77341471758934499,-328.78424357733013,-45.090797948284298,-156.5023698241929,-53.510844516320347,308.6713222690334,264.37837320651494,-218.98116336437209,218.98116336437209,-264.37837320651494,543.99334018430022,0.0
693204.59901257406,4037374.0504322448,-47500.0,172.54109756735897,40.855716119219167,-328.31536617794399,-14.49336201756816,-168.05986465053948,-64.810888730062231,295.83373013048521,234.61913722202567,-179.72773618656501,179.72773618656501,-234.61913722202567,527.90527722363538,0.0
563204.59901257406,4042374.0504322448,-47500.0,363.64656088081858,280.73409730884833,69.43897786886312,311.55780415050322,222.81150098333421,215.61074369912811,448.85620841809674,222.49066877701102,204.19010114995024,-204.19010114995024,-222.49066877701102,861.10047971545873,0.0
568204.59901257406,4042374.0504322448,-47500.0,353.13183089813549,317.29313727185479,133.50990883110103,336.81077409516206,285.50879876461818,259.21990662135374,498.12053583509811,190.26128533891557,271.05072225661985,-271.05072225661985,-190.26128533891557,960.89710213651279,0.0
573204.59901257406,4042374.0504322448,-47500.0,331.5160258333928,347.68416638644607,208.57227967734298,356.32350549616132,356.14478876002346,307.46710525590532,550.72232232412387,146.6310895951483,340.95939599883644,-340.95939599883644,-146.6310895951483,1066.2112093626281,0.0
578204.59901257406,4042374.0504322448,-47500.0,298.38206073125934,368.30062994935224,293.44218884670954,367.50757124861343,433.47050899611907,359.47017385689384,605.65138319183961,91.976108960501932,410.44092054926239,-410.44092054926239,-91.976108960501932,1174.6784584295795,0.0
583204.59901257406,4042374.0504322448,-47500.0,254.34919891032794,375.28989955179833,385.66876594593947,367.66736620827669,515.2893744364145,413.77431758666353,661.29620299562077,27.882695921176122,474.94446822512725,-474.94446822512725,-27.882695921176122,1283.1057557558574,0.0
588204.59901257406,4042374.0504322448,-47500.0,201.34816910976349,364.96355983114927,481.34137071142425,354.28968280522906,598.34414323279259,468.29301684228579,715.45888733035417,-42.617055895973351,529.01815522665174,-529.01815522665174,42.617055895973351,1387.4865337616466,0.0
593204.59901257406,4042374.0504322448,-47500.0,142.77012155861865,334.35590151136211,575.05590880421209,325.4260110539895,678.32128118324556,520.31926750379375,765.50708400348378,-114.96820565644228,566.71164618210901,-566.71164618210901,114.96820565644228,1483.1225114048618,0.0
598204.59901257406,4042374.0504322448,-47500.0,83.397604899000498,281.87731421290931,660.12439605115787,280.13053310231015,750.02832613575561,566.63864099313787,808.58897261722063,-183.26600065342384,582.22636854603479,-582.22636854603479,183.26600065342384,1564.8798407700813,0.0
603204.59901257406,4042374.0504322448,-47500.0,29.038643824397774,207.95267076743295,729.0905190437835,218.88018367566394,807.78313891080313,603.76551818889936,841.88427003061463,-240.74970667365187,570.77365239844153,-570.77365239844153,240.74970667365187,1627.5884998237409,0.0
608204.59901257406,4042374.0504322448,-47500.0,-14.160824755793515,115.4868691445845,774.55609557101707,143.87392075288187,846.01411793805448,628.30075796493463,862.89935805309472,-280.6246772114921,529.52161752564291,-529.52161752564291,280.6246772114921,1666.5657424879573,0.0
613204.59901257406,4042374.0504322448,-47500.0,-40.662956136352797,9.9833203171091167,790.23545363687572,59.099473379450686,860.01176792004014,637.37602323424449,869.79729171901158,-297.12437017405699,458.43497276191391,-458.43497276191391,297.12437017405699,1678.2090100413645,0.0
618204.59901257406,4042374.0504322448,-47500.0,-46.57484887994007,-100.81903190045118,772.056566523583,-29.91796610299987,846.70681265529242,629.11237284261563,861.72103523516603,-286.61711970188958,360.77161331152649,-360.77161331152649,286.61711970188958,1660.5685154951664,0.0
623204.59901257406,4042374.0504322448,-47500.0,-30.527440914460907,-207.81959374635824,719.05545366342687,-116.70311385255224,805.30249149600922,602.99418008097109,839.03888312122695,-248.4865132888587,243.02990229378048,-243.02990229378048,248.4865132888587,1613.7872533520042,0.0
628204.59901257406,4042374.0504322448,-47500.0,5.8631387974664051,-301.81966166483659,633.81133402060289,-194.67589478483734,737.59090066124736,560.06048862380237,803.42160423991095,-185.51848393128463,114.25955290456599,-114.25955290456599,185.51848393128463,1540.3080404794705,0.0
633204.59901257406,4042374.0504322448,-47500.0,58.126218555305655,-374.91318708900855,522.25411887337145,-258.08653538330645,647.83549815721301,502.8442215642815,757.6585296198175,-103.63045766501941,-15.177311678921875,15.177311678921875,103.63045766501941,1444.7702059150274,0.0
638204.59901257406,4042374.0504322448,-47500.0,119.66742139957877,-421.676320411098,392.85458160876965,-302.82845828327731,542.22685700333579,435.06295789607645,705.23116818383596,-10.965904048742296,-135.12837523216797,135.12837523216797,10.965904048742296,1333.6121754014916,0.0
643204.59901257406,4042374.0504322448,-47500.0,182.92344415348097,-439.86299120939202,255.36403729115918,-326.93671306670842,428.01150161383453,361.11285110600198,649.79702392828699,83.436485012093627,-237.10082893845106,237.10082893845106,-83.436485012093627,1214.4026064919894,0.0
648204.59901257406,4042374.0504322448,-47500.0,240.63886096003901,-430.47098062084541,119.42001873061112,-330.67734006052888,312.51125057365044,285.49236257284684,594.78516684514159,171.05908700133239,-315.30380156211288,315.30380156211288,-171.05908700133239,1095.030175026091,0.0
653204.59901257406,4042374.0504322448,-47500.0,286.94964747621583,-397.22096154305598,-6.6732804831598118,-316.24549408584807,202.23825382461717,212.27199771127772,543.10191489619172,245.07398140288069,-367.09297498451429,367.09297498451429,-245.07398140288069,982.82864905700285,0.0
658204.59901257406,4042374.0504322448,-47500.0,318.05159106802989,-345.64708804597541,-116.75716625611291,-287.19196804761935,102.27201988445341,144.70905420970553,496.88636712607763,301.03766128811924,-392.80928181559852,392.80928181559852,-301.03766128811924,883.72368056897869,0.0
663204.59901257406,4042374.0504322448,-47500.0,332.38359442303539,-282.06265387261237,-207.1382764602435,-247.74520846999735,15.968929253931119,85.053155541474908,457.33242015293672,337.05238599386513,-395.16291749322914,395.16291749322914,-337.05238599386513,801.49368134754445,0.0
668204.59901257406,4042374.0504322448,-47500.0,330.39459554152683,-212.63366577968171,-276.468476504808,-202.18150884188145,-55.019342442223063,34.533287107073825,424.64785076285386,353.48084878734323,-378.38899511433385,378.38899511433385,-353.48084878734323,737.3073298534747,0.0
673204.59901257406,4042374.0504322448,-47500.0,314.04650118177523,-142.70727601040184,-325.32285021111187,-154.34604974994377,-110.50225918815788,-6.5181378599009649,398.19798312041115,352.38460078469069,-347.39427011304673,347.39427011304673,-352.38460078469069,689.77685298735128,0.0
678204.59901257406,4042374.0504322448,-47500.0,286.2213031202283,-76.441035138582407,-355.63742579929664,-107.36398330243456,-151.38768289352595,-38.463810276076352,376.80334994776752,336.86829226304587,-307.04960032586314,307.04960032586314,-336.86829226304587,655.64208105810155,0.0
683204.59901257406,4042374.0504322448,-47500.0,250.16656118147452,-16.700727493692678,-370.14283339544102,-63.529218680126704,-179.29428639605473,-62.137709666702293,359.08890921993793,310.47200033228069,-261.70062450413559,261.70062450413559,-310.47200033228069,630.85369190832409,0.0
688204.59901257406,4042374.0504322448,-47500.0,209.05935181663679,34.846923934459838,-371.88274969031357,-24.329013115823422,-196.20486311094359,-78.638740391519732,343.77224027349195,276.69481961431507,-214.90071045021642,214.90071045021642,-276.69481961431507,611.58454457448647,0.0
693204.59901257406,4042374.0504322448,-47500.0,165.71631926957375,77.529360026510034,-363.85691859743594,9.4467989410306448,-204.19455176696337,-89.163949414135899,329.8298725739142,238.67697870750143,-169.32702563745048,169.32702563745048,-238.67697870750143,594.82801919292092,0.0
698204.59901257406,4042374.0504322448,-47500.0,122.44038305309064,111.42117858579029,-348.79155028608619,37.557753058642945,-205.24227934957153,-94.888441263919844,316.54624917221554,199.0289381579301,-126.82385828688103,126.82385828688103,-199.0289381579301,578.55686157797959,0.0
558204.59901257406,4047374.0504322448,-47500.0,401.14629813315946,225.53712318533519,-36.093491539642379,301.79473821060691,148.86404152782896,184.31027750721606,422.67555234954636,290.05508488545036,94.804499790965778,-94.804499790965778,-290.05508488545036,797.31414127745825,0.0
563204.59901257406,4047374.0504322448,-47500.0,406.93167829429109,271.45962034796065,13.883233406761288,337.91047226639415,206.85586947561157,228.85965441683678,472.48435580142598,273.85245408493006,158.58298207059832,-158.58298207059832,-273.85245408493006,898.99682096385243,0.0
568204.59901257406,4047374.0504322448,-47500.0,401.64076528913239,315.59941928711595,76.668410637743705,371.15831401341654,275.32815671777405,280.14451632741645,527.27393139003152,245.30901699770888,229.92515814293935,-229.92515814293935,-245.30901699770888,1010.1419167051707,0.0
573204.59901257406,4047374.0504322448,-47500.0,383.4846016162341,354.48661564983473,152.59017296112046,398.78488359320926,354.11629210652006,337.90032032989228,586.61251930220078,203.26919454198102,306.53606519071127,-306.53606519071127,-203.26919454198102,1129.2167570838119,0.0
578204.59901257406,4047374.0504322448,-47500.0,351.41356368015721,383.8947148791782,240.89755393068032,417.54281953688883,442.14531060872906,401.26307474333038,649.52993570669821,147.54574254823632,384.79134378036844,-384.79134378036844,-147.54574254823632,1253.7291705434861,0.0
583204.59901257406,4047374.0504322448,-47500.0,305.55519795748864,399.0858727336668,339.37570852456753,423.89022053688842,537.1572184084514,468.60544701597757,714.3148640137241,79.35282817818387,459.645965113827,-459.645965113827,-79.35282817818387,1380.1035318025722,0.0
588204.59901257406,4047374.0504322448,-47500.0,247.63879472891588,395.27210072120141,444.0228422460392,414.34025905468479,635.49762161162266,537.41396741112987,778.45309973431654,1.691501254168486,524.75208212445295,-524.75208212445295,-1.691501254168486,1503.6470518074248,0.0
593204.59901257406,4047374.0504322448,-47500.0,181.29382968276792,368.30201222713498,548.89711424657582,385.96229665413773,732.03890680992799,604.25360988161333,838.76307192835338,-80.432880813482683,572.87271368195445,-572.87271368195445,80.432880813482683,1618.650187423515,0.0
598204.59901257406,4047374.0504322448,-47500.0,112.08374174560751,315.52522725834723,646.26099620233367,336.99757451246455,820.33073534263099,664.87492213449002,891.65653650999252,-160.10257694977759,596.64707045261503,-596.64707045261503,160.10257694977759,1718.6719006550168,0.0
603204.59901257406,4047374.0504322448,-47500.0,47.140127226141253,236.70133742889573,727.13355883655265,267.49458725041183,893.05233736574451,714.50730748936223,933.46733506518603,-229.01492240162608,589.68519892277845,-589.68519892277845,229.01492240162608,1797.034998308153,0.0
608204.59901257406,4047374.0504322448,-47500.0,-5.6756744759184352,134.73650166716934,782.29403106771372,179.81438401685244,942.79226035771103,748.35282119639544,960.85048170085031,-278.49665391897952,547.85501558811575,-547.85501558811575,278.49665391897952,1847.5217911428701,0.0
613204.59901257406,4047374.0504322448,-47500.0,-39.031464924231436,15.982764261137463,803.65545428421842,78.825297620862969,963.09088637922196,762.23946259845604,971.24135176811762,-300.91841865237512,470.49633262239553,-470.49633262239553,300.91841865237512,1865.2009567090051,0.0
618204.59901257406,4047374.0504322448,-47500.0,-47.584081037112661,-110.12870684837256,785.77207922874425,-28.366930940993946,949.5731305259103,753.32866551157952,963.32003621025183,-291.25000004167242,361.21106022097587,-361.21106022097587,291.25000004167242,1847.2586666314699,0.0
623204.59901257406,4047374.0504322448,-47500.0,-29.274287578407026,-232.20387863679431,727.1186514098888,-133.2095623772986,900.91000721446721,720.71776311289489,937.38266915125837,-248.35793525554703,227.9005738360957,-227.9005738360957,248.35793525554703,1793.6656523435258,0.0
628204.59901257406,4047374.0504322448,-47500.0,13.952290321748826,-338.60409706373468,630.75123061827173,-226.91426661626579,819.32884786910302,665.76664454857905,895.49053346203118,-175.62414748233238,81.882535145198801,-81.882535145198801,175.62414748233238,1707.5105334516822,0.0
633204.59901257406,4047374.0504322448,-47500.0,76.289690215817672,-419.38336461258257,504.08392458909975,-301.83095151316343,710.47763007434435,592.02785857612014,841.2699317234501,-80.611404312120129,-63.803626395262853,63.803626395262853,80.611404312120129,1594.8831707430468,0.0
638204.59901257406,4047374.0504322448,-47500.0,149.11009545860961,-467.93979182369594,357.77040197974941,-352.64061494648899,582.62813835232885,504.7670155391026,779.34097154662618,26.209350918737414,-196.51061422109441,196.51061422109441,-26.209350918737414,1464.2934423821971,0.0
643204.59901257406,4047374.0504322448,-47500.0,222.62256358366966,-481.94006999881532,203.96153634836591,-377.06101076715777,445.40176783664305,410.18035348166546,714.56634705567535,133.34179619055973,-305.96786632433577,305.96786632433577,-133.34179619055973,1325.7066397299363,0.0
648204.59901257406,4047374.0504322448,-47500.0,287.67583326213821,-463.31276822954374,54.40103883819927,-375.91292896714208,308.34200532144371,314.5034521524824,651.39872272223602,230.23440690690563,-385.63748853460709,385.63748853460709,-230.23440690690563,1189.3389714353382,0.0
653204.59901257406,4047374.0504322448,-47500.0,337.22088424042511,-417.41126349167178,-81.167981770674558,-352.59966198558612,179.6774463906153,223.22245521656146,593.41746059655588,308.82956366339266,-433.17796666428745,433.17796666428745,-308.82956366339266,1064.367051052488,0.0
658204.59901257406,4047374.0504322448,-47500.0,367.11839347378276,-351.67298465404286,-195.97116097113536,-312.20861865558732,65.51320488938299,140.53758349934481,542.99469239126472,364.37931441710043,-450.04880380630334,450.04880380630334,-364.37931441710043,957.6761934907571,0.0
663204.59901257406,4047374.0504322448,-47500.0,376.23082380858244,-274.18444687774229,-286.46333152426507,-260.51069013039773,-30.466137235848226,69.13917892041178,501.1172138335703,395.48788952371552,-440.52677262575281,440.52677262575281,-395.48788952371552,872.85412982544085,0.0
668204.59901257406,4047374.0504322448,-47500.0,365.94843392960144,-192.48076370781584,-352.00402975785573,-203.08769600292806,-106.85170328139807,10.261210722492249,467.45312280512559,403.55829709009657,-410.48912904087393,410.48912904087393,-403.55829709009657,809.77456871795584,0.0
673204.59901257406,4047374.0504322448,-47500.0,339.40676567418859,-112.75878366358381,-394.17847036420363,-144.72456523015268,-164.07472339643027,-36.074176045633784,440.69376818897842,391.92462853731303,-366.27780867725647,366.27780867725647,-391.92462853731303,765.13184136117547,0.0
678204.59901257406,4047374.0504322448,-47500.0,300.64606211755813,-39.524750230082496,-416.00136105525735,-89.096014522492453,-203.84878535137014,-70.723078459647581,419.05764689055775,364.93633539169332,-313.83512202149905,313.83512202149905,-364.93633539169332,733.84039749392809,0.0
683204.59901257406,4047374.0504322448,-47500.0,253.89029793057523,24.406184514286025,-421.18235799380255,-38.704094832902484,-228.62424499346852,-95.081252693787221,400.76698964066418,327.17919107761082,-258.17415869803921,258.17415869803921,-327.17919107761082,710.64141801232518,0.0
688204.59901257406,4047374.0504322448,-47500.0,203.03142830998871,77.684381239614467,-413.55127670207753,5.0123472759954062,-241.13626119670153,-110.79439990986452,384.35698696982638,282.91918842464315,-203.15249330801811,203.15249330801811,-282.91918842464315,691.21729871624791,0.0
693204.59901257406,4047374.0504322448,-47500.0,151.32927770571342,120.09436214281902,-396.67112389078869,41.476951939479434,-244.07807945227975,-119.5409720143532,368.79203917742961,235.77702864275031,-151.47066317083753,151.47066317083753,-235.77702864275031,672.59901382293106,0.0
698204.59901257406,4047374.0504322448,-47500.0,101.29234336550175,152.20802794804024,-373.62164327578563,70.747948155548798,-239.89651294631929,-122.88919756614729,353.44440149282724,188.59464962202952,-104.80799855118897,104.80799855118897,-188.59464962202952,653.07150240868611,0.0
703204.59901257406,4047374.0504322448,-47500.0,54.686860083895979,175.07720172149158,-346.91453946826471,93.304891199851923,-230.68781126617893,-122.2173914771984,338.00743929610115,143.43757571405462,-64.021783798294507,64.021783798294507,-143.43757571405462,631.8685701810582,0.0
553204.59901257406,4052374.0504322448,-47500.0,413.42181821720328,150.54388946946372,-127.27614431801376,272.47256254800885,71.941016886355897,144.95032873102298,393.06974480522251,335.75154990275814,-18.23636473235095,18.23636473235095,-335.75154990275814,724.92071960928092,0.0
558204.59901257406,4052374.0504322448,-47500.0,436.52864961649891,199.80242769015419,-95.155686212629078,316.43401586831362,120.73889936647214,187.39751508339435,440.91137803033729,338.07183848292578,35.372361644728016,-35.372361644728016,-338.07183848292578,822.3038175456719,0.0
563204.59901257406,4052374.0504322448,-47500.0,450.51486615490171,251.68291702405241,-50.442730407754951,360.96572635228227,181.32286897839265,238.1780677104318,494.90213704795207,329.2182649759477,99.621617663200155,-99.621617663200155,-329.2182649759477,932.32466701728788,0.0
568204.59901257406,4052374.0504322448,-47500.0,452.55312843054708,303.51878509192886,8.5047186787116349,403.65151124285762,254.67578912661051,297.79146406270536,555.15879934742316,306.76367792064508,173.76336675263536,-173.76336675263536,-306.76367792064508,1054.5910823663864,0.0
573204.59901257406,4052374.0504322448,-47500.0,440.04205381736119,351.56843974723125,82.677953663121073,441.27316674987662,341.11383639917142,366.24445455546424,621.43238128617304,268.75157446487276,255.78976909886364,-255.78976909886364,-268.75157446487276,1187.7818182605261,0.0
578204.59901257406,4052374.0504322448,-47500.0,411.07415974010502,391.01776569931616,171.95933610744757,469.84581828070321,439.91864611928372,442.80877290923348,692.8748160879652,214.19526654957471,342.1020994156911,-342.1020994156911,-214.19526654957471,1329.4007690460296,0.0
583204.59901257406,4052374.0504322448,-47500.0,365.01708490857266,416.18446783775647,274.60394352516181,484.80804456564249,548.93715945037218,525.76277602249286,767.74912612826256,143.6648910727296,427.2886227737938,-427.2886227737938,-143.6648910727296,1475.5637245999142,0.0
588204.59901257406,4052374.0504322448,-47500.0,303.13403141676173,421.00361445667522,386.74629248588633,481.4211067760624,664.22008590282724,612.16455656389155,843.25381109704051,59.872702589075715,504.13457957905518,-504.13457957905518,-59.872702589075715,1620.8787982395138,0.0
593204.59901257406,4052374.0504322448,-47500.0,229.10331062604237,399.84158893469868,502.07043229604244,455.40610522023286,779.80819053881726,697.72831303701923,915.60462795601461,-31.896965380577967,564.00229016238006,-564.00229016238006,31.896965380577967,1758.4958678319674,0.0
598204.59901257406,4052374.0504322448,-47500.0,149.23516960617684,348.60827963888664,611.82406522912345,403.78914598690079,887.80201062996764,776.88959318353488,980.32682861842272,-123.72034343462607,597.6914244863176,-597.6914244863176,123.72034343462607,1880.3962472146814,0.0
603204.59901257406,4052374.0504322448,-47500.0,72.169443600719205,266.02310622962921,705.36077726809503,325.84565996420514,978.85388752825156,843.14990884230144,1032.6776231488416,-205.53967900319967,596.80263016581739,-596.80263016581739,205.53967900319967,1977.9938965229405,0.0
608204.59901257406,4052374.0504322448,-47500.0,7.8920223457112693,154.74325655110445,771.31908559437829,223.92743857408445,1043.1542339618866,889.7424971912717,1068.1795282257367,-266.37455922394224,555.45909767198555,-555.45909767198555,266.37455922394224,2043.0447400218723,0.0
613204.59901257406,4052374.0504322448,-47500.0,-33.916485081462397,21.963814819678817,799.38247436541667,103.8912731090827,1071.8631007088386,910.58767271847489,1083.2599794414491,-296.17964229924439,472.0411066196325,-472.0411066196325,296.17964229924439,2068.7967192020483,0.0
618204.59901257406,4052374.0504322448,-47500.0,-45.928024371801229,-120.89129157486698,782.32709539459825,-25.145359840761301,1058.7551626608224,901.38582691763975,1075.9227840982026,-288.01949548632217,350.42076672754683,-350.42076672754683,288.01949548632217,2051.1998909885147,0.0
623204.59901257406,4052374.0504322448,-47500.0,-25.077588509377183,-259.57442196613482,717.84006249702418,-151.85557321305654,1001.6805867185398,860.59131404957975,1046.3091099688279,-239.9788595178108,200.17122802849229,-200.17122802849229,239.9788595178108,1989.9160688002619,0.0
628204.59901257406,4052374.0504322448,-47500.0,26.308493250308764,-379.35045066611468,609.52183537208839,-264.44499484886029,903.39399995649103,789.97756017382324,996.96966226673817,-156.14793292227679,35.448162512101824,-35.448162512101824,156.14793292227679,1888.86796098747,0.0
633204.59901257406,4052374.0504322448,-47500.0,100.65603096186275,-467.70460118724509,466.63164701672679,-352.68600537215502,771.40313440934256,694.56193254832112,932.64836360175059,-46.217288914582994,-127.33698887576286,127.33698887576286,46.217288914582994,1756.1038459257395,0.0
638204.59901257406,4052374.0504322448,-47500.0,186.62997549185081,-516.64860589564751,302.54632919276082,-409.6865670910002,616.80431256338727,581.86286551009505,859.51927340570057,76.31948511902803,-272.46327001279201,272.46327001279201,-76.31948511902803,1602.9600614520789,0.0
643204.59901257406,4052374.0504322448,-47500.0,271.5354231707621,-523.94035916323605,132.3390274927585,-432.88899157885589,452.39392706281484,460.66625828896929,784.07788714328694,196.84781862676834,-387.62174526586205,387.62174526586205,-196.84781862676834,1442.6269000067227,0.0
648204.59901257406,4052374.0504322448,-47500.0,343.87390742809629,-492.927348815882,-29.811813684581306,-424.06611019111983,290.58929829514682,339.64177174980887,712.10423544880518,302.37733766543812,-465.65941802588287,465.65941802588287,-302.37733766543812,1288.3447412800485,0.0
653204.59901257406,4052374.0504322448,-47500.0,395.30362589964147,-431.21051763556477,-172.68179521284671,-388.42768497088053,141.70116263303302,226.16268453552831,647.92629276497803,383.57547840262873,-504.98693472482944,504.98693472482944,-383.57547840262873,1151.451213565985,0.0
658204.59901257406,4052374.0504322448,-47500.0,421.57050345281937,-348.68351319946237,-289.10385880561557,-333.21824179723455,12.914470235515889,125.57456199229276,593.98414305013603,435.67102405762671,-508.78444469309761,508.78444469309761,-435.67102405762671,1039.5475156812522,0.0
663204.59901257406,4052374.0504322448,-47500.0,422.38893766817404,-255.56366554705133,-376.06930869370279,-266.24765285372177,-91.954383352491874,40.970025171623391,550.72093460970336,458.24499296917747,-483.46799936631328,483.46799936631328,-458.24499296917747,955.2159479610774,0.0
668204.59901257406,4052374.0504322448,-47500.0,400.57632356337086,-160.87775536616539,-434.07405949225068,-194.70498217480164,-172.07753965291406,-26.614784347246388,516.90217248939803,454.25295807837233,-436.97416917877661,436.97416917877661,-454.25295807837233,895.98290635607668,0.0
673204.59901257406,4052374.0504322448,-47500.0,360.86144873440429,-71.594528905066369,-466.08157723034799,-124.42009695338345,-228.88123721647901,-77.749375188942764,490.29719009313919,428.72878221691008,-377.2926376287021,377.2926376287021,-428.72878221691008,855.85415500113913,0.0
678204.59901257406,4052374.0504322448,-47500.0,308.72827497070784,7.6356644559798212,-476.43768463689139,-59.569535579825114,-265.21571473462279,-114.07232586218359,468.4465107213681,387.54608433635502,-311.46189554759832,311.46189554759832,-387.54608433635502,827.71729326188483,0.0
683204.59901257406,4052374.0504322448,-47500.0,249.5150584593178,74.302509795164596,-469.95727342480438,-2.7225870079077277,-284.61193059913057,-137.79276884627208,449.22902871276597,336.46044837970601,-245.05284713829531,245.05284713829531,-336.46044837970601,805.34911883862458,0.0
688204.59901257406,4052374.0504322448,-47500.0,187.84203704520331,127.61775551620829,-451.2755518398701,44.909188664101386,-290.71586844281325,-151.29674031799237,431.11784559846819,280.5018707108058,-182.04532939160006,182.04532939160006,-280.5018707108058,784.34263800308668,0.0
693204.59901257406,4052374.0504322448,-47500.0,127.34051108213531,168.02274266957033,-424.4638963169046,83.139749895462174,-286.91838923768574,-156.87730633908316,413.18778353748257,223.68442108495265,-124.96145022553316,124.96145022553316,-223.68442108495265,762.12419847372735,0.0
698204.59901257406,4052374.0504322448,-47500.0,70.607289868642098,196.72893375756394,-392.8594265910869,112.47767487685825,-276.15450616691533,-156.57660681724155,394.9954667140513,168.95145202056614,-75.129096795470886,75.129096795470886,-168.95145202056614,737.54063043873566,0.0
703204.59901257406,4052374.0504322448,-47500.0,19.299863124595856,215.34522618603742,-359.04291240731453,133.84331055769945,-260.82895547144921,-152.11478471201676,376.42791669060011,118.26768759476172,-32.982278996168446,32.982278996168446,-118.26768759476172,710.37368360903758,0.0
553204.59901257406,4057374.0504322448,-47500.0,434.81773822393819,109.93838666984537,-182.97691374445665,272.84925091046739,35.096393379838943,137.91826285639391,407.73591030974376,373.49888273977069,-85.383639003686199,85.383639003686199,-373.49888273977069,741.41174839809082,0.0
558204.59901257406,4057374.0504322448,-47500.0,467.82716665461197,162.16045308358727,-159.1583338693703,324.28188607680028,83.039404532454071,184.44227045894081,458.08354169166819,385.68273075603486,-35.675176666646479,35.675176666646479,-385.68273075603486,843.08391452908029,0.0
563204.59901257406,4057374.0504322448,-47500.0,492.01086050556188,219.07412052663574,-122.39240284682329,378.01121792053095,144.51929506720259,241.33983783999756,515.70728775473242,386.62725436900314,26.476806135240025,-26.476806135240025,-386.62725436900314,960.01540127420253,0.0
568204.59901257406,4057374.0504322448,-47500.0,503.79811986989222,278.14840370904977,-70.374619770224342,431.47620676412527,221.17684795869741,309.59698218746615,581.02024305308669,373.12338943909265,100.92481892624912,-100.92481892624912,-373.12338943909265,1092.3624701745414,0.0
573204.59901257406,4057374.0504322448,-47500.0,499.62662724036181,335.52549328763621,-1.320340931511504,481.03955175643245,314.00967067376797,389.67187800554183,654.06604443127333,342.24810392755757,186.16934196200367,-186.16934196200367,-342.24810392755757,1239.2303475804531,0.0
578204.59901257406,4057374.0504322448,-47500.0,476.48516792273932,385.91160223965278,85.496662920501706,521.94284012908577,422.89728825465016,481.15744614844243,734.24219841395279,291.95456082949732,278.88144362808799,-278.88144362808799,-291.95456082949732,1398.3215927894098,0.0
583204.59901257406,4057374.0504322448,-47500.0,432.6512453879842,422.69190631017506,189.08218375334889,548.44855929003052,546.04126965793307,582.39158445697376,819.90939718123684,221.82987864895142,373.50332760437209,-373.50332760437209,-221.82987864895142,1565.5977084989684,0.0
588204.59901257406,4057374.0504322448,-47500.0,368.55572306514046,438.39431489409401,306.02114813973139,554.26179106317477,679.39882248809681,690.07175216261021,908.06024525065106,133.93195821853112,462.08509171959622,-462.08509171959622,-133.93195821853112,1735.0286462550764,0.0
593204.59901257406,4057374.0504322448,-47500.0,287.60904790346012,425.60477131597509,429.90412441098312,533.30359435781202,816.25171578167408,798.97327194208583,994.28681119912778,33.5196016307967,534.5592725748171,-534.5592725748171,-33.5196016307967,1898.5346119987803,0.0
598204.59901257406,4057374.0504322448,-47500.0,196.71948139859401,378.35400221527379,551.12494279791883,480.84295043373953,947.11388363134313,901.91247588443673,1073.0797892492037,-70.606648219422311,579.64982614889368,-579.64982614889368,70.606648219422311,2046.2490927498063,0.0
603204.59901257406,4057374.0504322448,-47500.0,106.16014924395122,293.83032249200471,657.33054874635241,394.86434597735894,1060.2006171195198,990.10515949270211,1138.3464768666693,-166.48919484873076,586.51294958480992,-586.51294958480992,166.48919484873076,2167.2059528424661,0.0
608204.59901257406,4057374.0504322448,-47500.0,28.485407044336153,174.05782841227347,734.74396422723942,277.3885695183647,1142.6336064644761,1054.0394440966647,1184.1177438897626,-240.39036753919478,546.9944785020482,-546.9944785020482,240.39036753919478,2250.5137707301178,0.0
613204.59901257406,4057374.0504322448,-47500.0,-23.590818468772675,26.973222436876863,770.3680342479031,135.30745019817292,1182.373547310993,1084.8541035385238,1205.4326430226231,-279.18396606999994,458.07008866276675,-458.07008866276675,279.18396606999994,2286.938946478464,0.0
618204.59901257406,4057374.0504322448,-47500.0,-40.044334733403375,-133.71172368255696,754.72867093361947,-19.737873627163953,1170.5929176185373,1076.0242563365289,1199.3108415245115,-273.36922518926076,323.73729716382013,-323.73729716382013,273.36922518926076,2270.6652338702615,0.0
623204.59901257406,4057374.0504322448,-47500.0,-16.356803929507524,-290.241051097536,684.44375466810982,-172.72848814447221,1103.8990475837761,1024.9470959301332,1165.609396214048,-219.87591268852375,155.53285219235713,-155.53285219235713,219.87591268852375,2200.8392028832673,0.0
628204.59901257406,4057374.0504322448,-47500.0,44.717391091261575,-423.97928173299999,563.72019197230486,-307.77432873058791,985.66714743375167,933.91412204569076,1107.4857201957889,-123.62170543353932,-28.865645885274581,28.865645885274581,123.62170543353932,2082.4525739249261,0.0
633204.59901257406,4057374.0504322448,-47500.0,133.26011241241079,-519.20914892116753,404.0873840537601,-411.15110014329122,825.90455767679668,810.06170386116435,1031.1891646434919,2.9574306018450613,-208.83725014336918,208.83725014336918,-2.9574306018450613,1926.2234019939217,0.0
638204.59901257406,4057374.0504322448,-47500.0,234.33384894240379,-566.35719195960519,222.26554328552893,-473.94312678787543,639.53040559376416,664.20179073889574,945.02213923184081,142.46068132713722,-364.93554340932803,364.93554340932803,-142.46068132713722,1747.3594241248006,0.0
643204.59901257406,4057374.0504322448,-47500.0,331.4810604358704,-563.58997509344488,36.804955886240762,-493.45833562552315,443.56185338211992,508.85659249255093,857.69644941778256,276.36032585228043,-482.61596990463954,482.61596990463954,-276.36032585228043,1563.3969864348539,0.0
648204.59901257406,4057374.0504322448,-47500.0,410.35467446961769,-516.36480265889338,-135.41900791867442,-473.05232930106934,254.07775282660373,356.09113091463081,776.68116436334151,388.82367505983581,-554.43332270372321,554.43332270372321,-388.82367505983581,1391.437275284806,0.0
653204.59901257406,4057374.0504322448,-47500.0,461.31790040169801,-435.32549939969795,-281.8161331868983,-420.61151926612274,83.830470742763282,215.7555555268591,707.04445229869339,469.34323121657246,-580.24949057189031,580.24949057189031,-469.34323121657246,1245.1558080937064,0.0
658204.59901257406,4057374.0504322448,-47500.0,480.42405129620505,-333.45484423655972,-395.24890095358762,-346.36576561442234,-58.988979410092227,94.511591624169156,650.9207047054847,513.62789030675083,-565.77571062128516,565.77571062128516,-513.62789030675083,1132.1314730365948,0.0
663204.59901257406,4057374.0504322448,-47500.0,468.88204696460741,-223.42640411584281,-473.8082811045856,-260.75867030007441,-170.81076501835773,-4.3133397025705396,607.65815213854557,522.92458866781806,-520.24724369502485,520.24724369502485,-522.92458866781806,1052.5086665757481,0.0
668204.59901257406,4057374.0504322448,-47500.0,431.57839203165241,-115.76638425042439,-519.66118700999436,-172.87837769463431,-251.89951569187306,-80.250203651307999,574.65235377361466,502.3954610079781,-454.07029448574696,454.07029448574696,-502.3954610079781,1000.0900438474631,0.0
673204.59901257406,4057374.0504322448,-47500.0,375.32249062690067,-17.990875238461207,-537.54162232124747,-89.622056021362496,-305.17357966886516,-134.89636265317881,548.53811994755335,459.24789016045571,-377.00230085755703,377.00230085755703,-459.24789016045571,965.5795051562875,0.0
678204.59901257406,4057374.0504322448,-47500.0,307.31502999980432,65.443838114843089,-533.33679241842049,-15.508031395874031,-335.01322822788421,-171.07826211375826,526.21398337784831,401.12509716621275,-297.07037510446719,297.07037510446719,-401.12509716621275,940.03468544748466,0.0
683204.59901257406,4057374.0504322448,-47500.0,234.08174465718,132.68130897751149,-513.01233059772062,47.075520241418396,-346.28866647607396,-192.14136055934026,505.3845292568808,334.99424420161768,-220.16214751497344,220.16214751497344,-334.99424420161768,916.84009550230246,0.0
688204.59901257406,4057374.0504322448,-47500.0,160.89880345481671,183.78913956829288,-481.93619061818157,97.407073660237046,-343.690038764858,-201.43835357039529,484.65177575452509,266.54829587713954,-150.09225778857086,150.09225778857086,-266.54829587713954,892.05959805536395,0.0
693204.59901257406,4057374.0504322448,-47500.0,91.613881864715324,220.0773347260054,-444.5488839428773,135.92242112285996,-331.34279007856242,-202.01527689355615,463.35550439304723,200.01673342920898,-88.93206111370452,88.93206111370452,-200.01673342920898,863.91349075766345,0.0
698204.59901257406,4057374.0504322448,-47500.0,28.727237805134795,243.52547601350787,-404.28230166561912,163.76049460850922,-312.64429488805479,-196.45790926025623,441.34067413632971,138.24311993196011,-37.434191750302787,37.434191750302787,-138.24311993196011,832.04815453754316,0.0
703204.59901257406,4057374.0504322448,-47500.0,-26.390883367967021,256.35880566975572,-363.6292862975734,182.40802895960007,-290.2478487750019,-186.8500772973737,418.74788413400978,82.90222119189805,4.5549597171864633,-4.5549597171864633,-82.90222119189805,796.91461964658458,0.0
708204.59901257406,4057374.0504322448,-47500.0,-73.236862487214964,260.76795444014135,-324.28707286249704,193.44899895224682,-266.13085395525133,-174.80008373946987,395.85893168111448,34.764590591354256,37.748450651430723,-37.748450651430723,-34.764590591354256,759.33394895477875,0.0
548204.59901257406,4062374.0504322448,-47500.0,399.10233097698097,12.493015079118798,-242.53683872969708,210.72832679498788,-42.32080266671673,84.529458681163291,377.84125520443513,374.93393266391837,-190.81437824661151,190.81437824661151,-374.93393266391837,669.2348615605697,0.0
553204.59901257406,4062374.0504322448,-47500.0,447.52935873354704,57.881170114499497,-238.99394069803341,263.51141523804824,-9.9075178980631335,123.47298791496091,422.44965683376472,405.85487742444343,-160.44130690914764,160.44130690914764,-405.85487742444343,756.64687101103289,0.0
558204.59901257406,4062374.0504322448,-47500.0,491.76021037715759,111.21188187684022,-225.67900332296011,322.26402826118135,35.026366474011589,173.19828052649203,474.43294342047091,429.76276923921534,-117.56316422616229,117.56316422616229,-429.76276923921534,860.23194943469787,0.0
563204.59901257406,4062374.0504322448,-47500.0,528.1086670405133,171.50552532691935,-199.71145260478465,385.54796823731721,95.053002237232491,235.55306192843511,534.7573114505559,443.04689035540434,-60.747352322086897,60.747352322086897,-443.04689035540434,981.66818015004799,0.0
568204.59901257406,4062374.0504322448,-47500.0,552.2548668731398,236.57432769622406,-158.12581585313723,450.80966084548851,172.61191744363595,312.19740464539802,604.23853421265471,441.6961327960521,10.624923221834649,-10.624923221834649,-441.6961327960521,1121.9229145941067,0.0
573204.59901257406,4062374.0504322448,-47500.0,559.56768080304766,302.67128566639934,-98.262948922048025,514.11280458140197,269.60032411420707,404.27872579577161,683.35529052525931,421.69616783975368,95.80663156501393,-95.80663156501393,-421.69616783975368,1280.8280989976579,0.0
578204.59901257406,4062374.0504322448,-47500.0,545.69409380956836,364.22762707110127,-18.365827902540335,569.96499564968246,386.78906005310893,511.98181496919193,771.9262480934583,379.68538833680162,192.04545408883058,-192.04545408883058,-379.68538833680162,1456.594411755279,0.0
583204.59901257406,4062374.0504322448,-47500.0,507.44718002428641,413.81661402551049,81.622244022578059,611.35165385190305,523.07603112475419,633.96544279200123,868.60327727946935,313.88131646428081,293.96292652169399,-293.96292652169399,-313.88131646428081,1645.3021258192639,0.0
588204.59901257406,4062374.0504322448,-47500.0,443.95278394312635,442.52454188273759,199.12711568788001,630.12491770022359,674.65387610593189,766.74747248313224,970.33461903621219,225.21018674874875,393.14231555461237,-393.14231555461237,-225.21018674874875,1840.4603087209769,0.0
593204.59901257406,4062374.0504322448,-47500.0,357.8800118893551,440.91085053234684,328.06148003136315,617.88876328853678,834.26195413861171,904.16631228819085,1072.1376340594784,118.4355984203047,478.20006987618444,-478.20006987618444,-118.4355984203047,2032.7697981850652,0.0
598204.59901257406,4062374.0504322448,-47500.0,256.41146229607472,400.66078200651157,458.29903089768396,567.45483436454765,990.80262511341812,1037.1272416063675,1167.3423008567481,2.9205730038172533,535.65217064796457,-535.65217064796457,-2.9205730038172533,2210.2783959506773,0.0
603204.59901257406,4062374.0504322448,-47500.0,151.45316914042758,316.83188745436001,575.91278001924854,474.7750272710814,1129.6807510958758,1153.8983321211865,1248.2037198330459,-107.47517721558953,551.80650962218749,-551.80650962218749,107.47517721558953,2359.1273587322125,0.0
608204.59901257406,4062374.0504322448,-47500.0,58.558030773983006,190.26755909390101,664.55980972794009,340.98853372794031,1234.1913886394241,1241.1921853813553,1306.8127305796415,-195.8458346938919,515.64057243013281,-515.64057243013281,195.8458346938919,2465.013838115935,0.0
613204.59901257406,4062374.0504322448,-47500.0,-5.716971683540411,29.399346952605125,708.15532900467974,173.94028520520058,1288.0726708679554,1286.1233755000574,1336.3136631186194,-245.23086143276265,422.16896312062551,-422.16896312062551,245.23086143276265,2515.3545183734541,0.0
618204.59901257406,4062374.0504322448,-47500.0,-27.729250415367538,-149.52958502733046,694.47783274373194,-11.631851350712202,1278.8887820550394,1278.7906893417567,1332.3080801866472,-242.73601089623406,275.28050430760044,-275.28050430760044,242.73601089623406,2501.8297723982892,0.0
623204.59901257406,4062374.0504322448,-47500.0,-0.88512429462871489,-324.52494294204439,618.74700295341427,-195.82785465220056,1201.3936009902059,1214.8612276336205,1294.1623665121094,-183.62429018076401,88.772633887137061,-88.772633887137061,183.62429018076401,2422.7468671641577,0.0
628204.59901257406,4062374.0504322448,-47500.0,71.597731268767959,-472.10529944576427,485.83644734734838,-357.1902808977336,1059.6775060532882,1097.259813164804,1225.7903092769184,-73.761701782171613,-115.36109307061345,115.36109307061345,73.761701782171613,2284.4827988641819,0.0
633204.59901257406,4062374.0504322448,-47500.0,176.69708962397689,-572.62044522998167,310.01243010724824,-477.2599186265366,867.08672740903364,936.19399816431314,1135.4726505480087,70.895209520028999,-311.32231867393875,311.32231867393875,-70.895209520028999,2101.4013744041258,0.0
638204.59901257406,4062374.0504322448,-47500.0,294.69829910005893,-614.7697082938239,112.00040227631516,-544.55786424981011,643.68450968573325,747.3086226824754,1034.4398527523929,227.93828912499487,-475.26409688346598,475.26409688346598,-227.93828912499487,1894.0353771776472,0.0
643204.59901257406,4062374.0504322448,-47500.0,404.3203011379162,-597.65317955425746,-85.664281936261375,-556.579517876625,412.0345591225859,548.51493299897334,934.40273767007943,374.01489947058008,-590.36814598154695,590.36814598154695,-374.01489947058008,1685.7514087400891,0.0
648204.59901257406,4062374.0504322448,-47500.0,487.86901785923789,-529.79028872808306,-263.32147092907479,-519.25088553303442,192.77531295522161,356.57727889360035,844.91389240184913,490.12815958029603,-649.5269322340929,649.5269322340929,-490.12815958029603,1498.4272507954502,0.0
653204.59901257406,4062374.0504322448,-47500.0,534.61604069662553,-425.84198980461468,-407.39766229159164,-444.36751134731975,1.3651525854377671,184.50807020821637,771.55642055465364,564.95129840538175,-655.07869221584269,655.07869221584269,-564.95129840538175,1347.8041953791533,0.0
658204.59901257406,4062374.0504322448,-47500.0,541.64966506597318,-302.53822426216436,-511.47693684095492,-346.2100429011229,-153.30340162615366,40.340812509933819,715.43168541473324,595.49477519945231,-616.29720122843969,616.29720122843969,-595.49477519945231,1239.8074965829314,0.0
663204.59901257406,4062374.0504322448,-47500.0,512.58690233365985,-175.21034115021425,-575.49956476518344,-238.51024038031315,-268.54874003484855,-72.764242891134614,673.97319579954319,585.61338282380325,-545.96657202198116,545.96657202198116,-585.61338282380325,1169.9436465229307,0.0
668204.59901257406,4062374.0504322448,-47500.0,455.18044129140759,-55.688809638713785,-603.90334754075479,-132.46328929943019,-346.44910158960954,-155.52764329337083,642.70920624501525,543.45013485363779,-457.27280376995714,457.27280376995714,-543.45013485363779,1126.8788949224158,0.0
673204.59901257406,4062374.0504322448,-47500.0,378.83045628600178,48.392617920652832,-603.53891156823681,-35.896367065096932,-392.0286341775107,-211.21656922578438,617.08053410294474,478.84472709669376,-361.67515716936771,361.67515716936771,-478.84472709669376,1097.9578670038611,0.0
678204.59901257406,4062374.0504322448,-47500.0,292.65200375777181,133.26441942864497,-581.92851535990428,46.66022299208948,-411.61831668782821,-244.383549615943,593.56739561020231,401.34838283595172,-267.88082801401879,267.88082801401879,-401.34838283595172,1073.1803662656448,0.0
683204.59901257406,4062374.0504322448,-47500.0,204.30897982605921,198.15830742788231,-546.09323523705405,113.38650895048227,-411.65086464732764,-259.89734639230005,569.99918360069478,319.03712474949077,-181.68614953305581,181.68614953305581,-319.03712474949077,1046.4169775815305,0.0
688204.59901257406,4062374.0504322448,-47500.0,119.53447207452852,244.31516607521735,-501.93032917124839,164.40586490324966,-397.92658828122183,-262.31685337150788,545.35870961750061,238.02659492022926,-106.34082936325623,106.34082936325623,-238.02659492022926,1014.8477970655648,0.0
693204.59901257406,4062374.0504322448,-47500.0,42.132697303528964,274.10552332016965,-454.00807032496039,201.0553917905134,-375.26812409488878,-255.56249516432828,519.42061705589254,162.47368125400024,-43.134781618618426,43.134781618618426,-162.47368125400024,977.86971931041046,0.0
698204.59901257406,4062374.0504322448,-47500.0,-25.750574499439853,290.36268937257898,-405.62130995365249,225.29859985613916,-347.44233000122068,-242.80228939064543,492.41474600791935,94.847152255859527,7.9948471163636654,-7.9948471163636654,-94.847152255859527,936.11964912872588,0.0
703204.59901257406,4062374.0504322448,-47500.0,-83.253222015963559,295.93763851601437,-358.97857556865574,239.30692330316151,-317.23826929044424,-226.47138893220915,464.77962209980046,36.30207451896073,47.942812280701581,-47.942812280701581,-36.30207451896073,890.7906942820108,0.0
708204.59901257406,4062374.0504322448,-47500.0,-130.42112655931095,293.4393091251045,-315.43231808063979,245.19302635575838,-286.6180205788225,-208.361026955451,437.00635533218491,-12.945221427196508,78.038474043051423,-78.038474043051423,12.945221427196508,843.21552957951872,0.0
713204.59901257406,4062374.0504322448,-47500.0,-167.88456092937508,285.11029917904278,-275.70091935096661,244.86194789685769,-256.88673919719537,-189.73339573814962,409.55150472948048,-53.293982434012307,99.769574147992088,-99.769574147992088,53.293982434012307,794.64094780251594,0.0
543204.59901257406,4067374.0504322448,-47500.0,331.79762893496763,-81.084292543469815,-271.53974298692873,136.11018589622537,-105.3344501083314,31.652410065634882,355.3175110200026,342.4805177665047,-270.88554864440573,270.88554864440573,-342.4805177665047,617.7396571088899,0.0
548204.59901257406,4067374.0504322448,-47500.0,389.45233683651804,-47.959718854361078,-284.66030346091179,184.59312607032106,-89.049773026047376,60.66993733709095,393.50894071775383,386.78671977720688,-261.15002176487081,261.15002176487081,-386.78671977720688,688.33364244563086,0.0
553204.59901257406,4067374.0504322448,-47500.0,447.94361572282617,-5.6580510723725999,-292.12382768030784,241.53724606402957,-62.705727589982104,99.68603308256931,438.21998445231503,429.07906366715855,-241.04980099779829,241.04980099779829,-429.07906366715855,773.40924158786913,0.0
558204.59901257406,4067374.0504322448,-47500.0,504.29291844776759,46.267843279763945,-291.23990404372387,306.78519132458513,-23.380020231953722,151.09679149696271,490.73639457250226,466.22002957903476,-208.23515987587476,208.23515987587476,-466.22002957903476,875.8163853455244,0.0
563204.59901257406,4067374.0504322448,-47500.0,554.50118615239819,107.45472089778434,-278.81177569293953,379.29159573321266,32.180595590827707,217.48322915337567,552.42058235112995,494.21313436882247,-160.55349598596783,160.55349598596783,-494.21313436882247,998.23986640800308,0.0
568204.59901257406,4067374.0504322448,-47500.0,593.57907035299741,176.29357221412656,-251.30075293146126,456.73352929878951,107.32060219864458,301.38903816533991,624.59569544295562,508.31495821361921,-96.493965946644977,96.493965946644977,-508.31495821361921,1142.7770666586243,0.0
573204.59901257406,4067374.0504322448,-47500.0,615.80002252237728,249.4406692831954,-205.18151914836761,535.09310868320063,205.04277974423445,404.94270190212728,708.34413177539943,503.38000867850099,-15.818128597657051,15.818128597657051,-503.38000867850099,1310.391164958646,0.0
578204.59901257406,4067374.0504322448,-47500.0,615.28386875798139,321.36457081413448,-137.55239086862434,608.29757753934473,327.32994682242423,529.28616474845387,804.13894619705673,474.5322781990385,79.641441098855211,-79.641441098855211,-474.5322781990385,1500.2512862801213,0.0
583204.59901257406,4067374.0504322448,-47500.0,587.00203044714203,384.09148101873831,-47.037403282616815,668.06526185161056,474.20161596155975,673.80000268743913,911.21164312893779,418.23030978867763,185.10868764567425,-185.10868764567425,-418.23030978867763,1709.0017922960933,0.0
588204.59901257406,4067374.0504322448,-47500.0,528.21682596462324,427.38791134571358,65.057657254204315,704.16770904188013,642.55996409720888,835.17344332635309,1026.7494927310277,333.70332674405222,292.12768105907458,-292.12768105907458,-333.70332674405222,1930.050839298578,0.0
593204.59901257406,4067374.0504322448,-47500.0,440.20616970143772,439.6666809691414,193.5077585977368,705.35520783807817,825.01096910798412,1006.4726144697057,1145.3591317725879,224.5681412459665,388.3114523972759,-388.3114523972759,-224.5681412459665,2153.0542029588801,0.0
598204.59901257406,4067374.0504322448,-47500.0,329.86960747679746,409.84984674828854,328.21016966616241,661.13993667455838,1009.0202928598115,1176.4946208036013,1259.1555272860116,100.1890852952279,458.03028713157562,-458.03028713157562,-100.1890852952279,2363.8519794878443,0.0
603204.59901257406,4067374.0504322448,-47500.0,210.52698907868401,330.19671350392201,454.05378054614391,564.43087430686921,1176.9375812995916,1329.8348203006992,1358.4325501369212,-23.912260870319415,484.46559334437012,-484.46559334437012,23.912260870319415,2545.1829658514325,0.0
608204.59901257406,4067374.0504322448,-47500.0,101.05959214080342,199.65479232931958,552.22379004929462,414.61691467290245,1307.4657109492557,1448.1266440015791,1432.8113096759989,-127.39412923025318,453.1553663039158,-453.1553663039158,127.39412923025318,2678.4506289503488,0.0
613204.59901257406,4067374.0504322448,-47500.0,22.758340675569062,26.70506198057436,603.30765253848836,220.18023789075698,1378.916590327832,1512.7350083578494,1472.8832680135545,-188.68893578153683,356.51878659492905,-356.51878659492905,188.68893578153683,2746.6112623286176,0.0
618204.59901257406,4067374.0504322448,-47500.0,-5.9659223180512031,-169.75448799274233,591.90718706594032,-0.46257360872496833,1373.9569657165812,1508.6765001917759,1472.2314418985829,-190.5264664299807,198.00738557877941,-198.00738557877941,190.5264664299807,2737.8373910200507,0.0
623204.59901257406,4067374.0504322448,-47500.0,24.394407466683926,-362.74441391851337,511.5194627365359,-221.03441886828992,1284.6464208802497,1428.8183390076833,1429.4208568921724,-125.83441262337712,-6.0426825852624617,6.0426825852624617,125.83441262337712,2649.1198097074462,0.0
628204.59901257406,4067374.0504322448,-47500.0,110.1447896565021,-522.88578707532156,367.73860100232804,-412.55227031846061,1115.8648624013615,1276.8163153685255,1349.299565381715,-1.5381635730744563,-228.45046381177141,228.45046381177141,1.5381635730744563,2488.6220274061284,0.0
633204.59901257406,4067374.0504322448,-47500.0,234.17005429129341,-625.82368916907615,178.03621567572407,-550.18967168912832,885.38408571421337,1067.3419840347815,1242.909715169691,161.93753097227616,-437.20132558895398,437.20132558895398,-161.93753097227616,2275.720203139475,0.0
638204.59901257406,4067374.0504322448,-47500.0,370.46909258465257,-658.52174947353501,-32.258814383216482,-619.29961659848345,620.09974690509569,823.13135518915192,1125.5110775041644,335.86240044333704,-603.46091362243465,603.46091362243465,-335.86240044333704,2038.2621111869862,0.0
643204.59901257406,4067374.0504322448,-47500.0,491.68694322716499,-621.83377541820778,-236.31811870307115,-618.20247869535513,349.72178580490748,569.83472393815089,1012.8363352877137,491.09814253623114,-708.41644328684401,708.41644328684401,-491.09814253623114,1807.3353465557691,0.0
648204.59901257406,4067374.0504322448,-47500.0,576.39320700753137,-528.58936561508722,-411.95697974273742,-556.89908715240233,100.35948642550686,330.62128228049642,916.84229649734857,605.38285465128638,-746.37706162891823,746.37706162891823,-605.38285465128638,1610.3345039512055,0.0
653204.59901257406,4067374.0504322448,-47500.0,613.33310152527292,-398.57112569774301,-545.40240646207599,-452.78530644712185,-109.80357973379209,122.36986256898089,842.94452203891331,667.33840913977963,-723.57032957295621,723.57032957295621,-667.33840913977963,1463.7647514789471,0.0
658204.59901257406,4067374.0504322448,-47500.0,601.78177128913501,-252.81434324256935,-631.97000260572077,-325.4785287800666,-271.85058012775221,-45.73165749368237,789.93439437398808,676.51026718740877,-654.03150894426881,654.03150894426881,-676.51026718740877,1368.871267485242,0.0
663204.59901257406,4067374.0504322448,-47500.0,548.98753114530439,-109.24717500442702,-674.34622300495516,-192.61700893045929,-384.97207117158439,-171.48110375116633,752.28492220079943,640.56017840669301,-554.74653524068435,554.74653524068435,-640.56017840669301,1313.7603232367965,0.0
668204.59901257406,4067374.0504322448,-47500.0,466.47062323482419,19.500608545840127,-679.79906893264797,-67.500247270022882,-453.99210241960179,-257.76756756341757,723.3214895824359,571.42511835685002,-441.73824815380311,441.73824815380311,-571.42511835685002,1281.1787676564975,0.0
673204.59901257406,4067374.0504322448,-47500.0,366.66236876245472,126.35748389557271,-657.47626228720014,41.514419257957215,-486.71773133741993,-310.41577162963779,697.54738607520903,481.9089051856908,-327.79784874534886,327.79784874534886,-481.9089051856908,1256.0351492745904,0.0
678204.59901257406,4067374.0504322448,-47500.0,260.6204865959769,208.87844734828977,-616.41273731267302,130.44378691671847,-491.80249947683194,-336.36740448485176,671.49254465836589,383.40007935903247,-221.73959168944282,221.73959168944282,-383.40007935903247,1228.6374813581454,0.0
683204.59901257406,4067374.0504322448,-47500.0,156.90612006418846,267.86077133433577,-564.38553622700204,198.57996342658805,-477.35725399593463,-342.43259276810301,643.52951135310332,284.76736313020501,-128.68041617030269,128.68041617030269,-284.76736313020501,1194.4002613235621,0.0
688204.59901257406,4067374.0504322448,-47500.0,61.346758144953988,306.00662209528912,-507.45911422455566,247.32814140989004,-450.23643330631768,-334.58962546547775,613.30505135259693,192.13710926511817,-50.81327461467346,50.81327461467346,-192.13710926511817,1152.2443858633842,0.0
693204.59901257406,4067374.0504322448,-47500.0,-22.670865631717597,326.87095706296833,-449.98389756773003,279.22990603076806,-415.81303666772209,-317.70169549825971,581.18683967554432,109.19166438150472,11.706847970844514,-11.706847970844514,-109.19166438150472,1103.0468860285825,0.0
698204.59901257406,4067374.0504322448,-47500.0,-93.678076514685841,334.14803185977354,-394.83068218886854,297.25487777903453,-378.04663029540473,-295.49962811723611,547.86054952195991,37.689904108166687,59.977446948094723,-59.977446948094723,-37.689904108166687,1048.5464306171641,0.0
703204.59901257406,4067374.0504322448,-47500.0,-151.56741306099352,331.25179728663028,-343.70797361176966,304.34652493070104,-339.69161233890156,-270.70512834603477,514.07987914014222,-21.98227878370794,95.745389845636112,-95.745389845636112,21.98227878370794,990.68433853763747,0.0
708204.59901257406,4067374.0504322448,-47500.0,-197.10391831525925,321.11374234731147,-297.47509027128604,303.16889215621029,-302.54875647723509,-245.21066452774176,480.53300202385549,-70.330282239130199,120.99070495176953,-120.99070495176953,70.330282239130199,931.25914165658662,0.0
713204.59901257406,4067374.0504322448,-47500.0,-231.54298829518044,306.12252088744617,-256.40911161135426,295.99355148212982,-267.70512757377048,-220.26495585193072,447.78404821364461,-108.37438084158752,137.66665664608075,-137.66665664608075,108.37438084158752,871.77612147752575,0.0
543204.59901257406,4072374.0504322448,-47500.0,299.36592575217935,-142.68655413773874,-296.68304361327739,95.786160170561942,-148.57061075838206,1.3138747705979927,374.73249019373441,331.90868119099548,-328.91592051491614,328.91592051491614,-331.90868119099548,649.05992323532143,0.0
548204.59901257406,4072374.0504322448,-47500.0,364.03785890843335,-116.08932768432189,-319.36785226041638,144.65883850059868,-140.06885812949835,27.574259515985638,412.55607289112254,385.12561568009977,-330.89579213920882,330.89579213920882,-385.12561568009977,715.80483658454079,0.0
553204.59901257406,4072374.0504322448,-47500.0,432.11529109339529,-79.62108206473404,-338.45078995454764,203.88098302296621,-122.07297881993095,64.593216826712791,456.65368467192525,438.86019376133873,-323.52718227124313,323.52718227124313,-438.86019376133873,796.28566996097902,0.0
558204.59901257406,4072374.0504322448,-47500.0,500.78357304510865,-32.205781954513313,-351.3177629053996,273.90619429294026,-91.263662289593555,115.38665985553949,508.52349189846609,490.07183332789793,-304.02794540526315,304.02794540526315,-490.07183332789793,894.0821315618681,0.0
563204.59901257406,4072374.0504322448,-47500.0,565.95304583374866,26.546650650494389,-354.66403142253398,354.31085753041873,-43.744943915584436,183.38192378641455,569.90395671111946,534.60147257644849,-269.56910400470588,269.56910400470588,-534.60147257644849,1012.9948389637616,0.0
568204.59901257406,4072374.0504322448,-47500.0,622.15616445777823,95.837840613633063,-344.57272707225945,443.2939679349621,24.767059134238281,272.21269986452353,642.68559901055062,567.16183221212407,-217.7032516892925,217.7032516892925,-567.16183221212407,1156.5674399979905,0.0
573204.59901257406,4072374.0504322448,-47500.0,662.66937037581943,173.05919082868061,-316.78898022402296,537.08351974246341,118.52840577446067,385.31276572663819,728.71699972021793,581.56867336955702,-147.03434885566622,147.03434885566622,-581.56867336955702,1327.3950524386564,0.0
578204.59901257406,4072374.0504322448,-47500.0,680.01600542520737,253.12735903328831,-267.28653326210383,629.33306312440425,241.03301098279999,525.23454329068591,829.40862653231488,571.35487002756099,-58.147550462454262,58.147550462454262,-571.35487002756099,1526.2391551295621,0.0
583204.59901257406,4072374.0504322448,-47500.0,667.01395860392233,327.94875890302251,-193.20983164275728,710.67949630515193,393.88978475102192,692.63784412717882,944.97335460154534,530.90237712560156,45.264903023727953,-45.264903023727953,-530.90237712560156,1750.9935811243527,0.0
588204.59901257406,4072374.0504322448,-47500.0,618.47480829652841,386.30574874840613,-94.210235363944889,768.74559481501524,575.31696575702733,884.96093236670504,1073.2969392963214,457.15399234896904,155.287506400578,-155.287506400578,-457.15399234896904,1995.6026902170258,0.0
593204.59901257406,4072374.0504322448,-47500.0,533.47760766401211,414.56705076813478,25.958676586704676,788.96763406701155,778.42275176370026,1094.9239572888118,1208.9309927021334,351.77101017773771,259.08448347372268,-259.08448347372268,-351.77101017773771,2249.1276893679192,0.0
598204.59901257406,4072374.0504322448,-47500.0,417.8017110882941,398.63710574736098,157.96703936871572,756.63739311132258,989.69889386021271,1309.2360774956712,1342.8628372990854,223.26954038939905,339.23369482404257,-339.23369482404257,-223.26954038939905,2495.3039101315744,0.0
603204.59901257406,4072374.0504322448,-47500.0,285.63653905068037,327.34532597671108,286.2404444284748,660.34235806507274,1188.466166939445,1508.1472594733468,1463.169942524933,88.2387225624189,375.77900100941923,-375.77900100941923,-88.2387225624189,2713.0740889647686,0.0
608204.59901257406,4072374.0504322448,-47500.0,159.28320159068056,196.90377246785849,389.97711882138049,496.44350460035162,1348.2063884838767,1666.6627535717028,1556.4137819495552,-29.573564179166112,350.40662023288155,-350.40662023288155,29.573564179166112,2878.5990773360345,0.0
613204.59901257406,4072374.0504322448,-47500.0,65.635591829345699,15.169659988534496,446.55520034794301,273.3749198793239,1440.5315887479708,1758.1006353024923,1609.8173582309066,-103.33899402899674,252.32916471727663,-252.32916471727663,103.33899402899674,2969.0284977569963,0.0
618204.59901257406,4072374.0504322448,-47500.0,29.219579045678984,-196.39312438940945,437.2170597594764,13.715289714695549,1441.6762329927258,1759.9358691450323,1614.1415647354477,-110.35009943983334,84.169448810636396,-84.169448810636396,110.35009943983334,2967.7060371033485,0.0
623204.59901257406,4072374.0504322448,-47500.0,63.534970712913626,-405.16767568347126,353.52846531343562,-248.07947945240284,1339.9202256505209,1660.5764851791541,1566.7009107208271,-40.385581390472147,-134.96879224048993,134.96879224048993,40.385581390472147,2869.630225306295,0.0
628204.59901257406,4072374.0504322448,-47500.0,164.42699285636965,-574.83451898109672,201.86633875709464,-472.97218198866716,1140.9800520016449,1464.4560574646998,1473.4998363376669,98.478799919441627,-371.8526734870336,371.8526734870336,-98.478799919441627,2685.2790730678435,0.0
633204.59901257406,4072374.0504322448,-47500.0,309.42982330659288,-675.63579509446515,3.2738835476222037,-627.68135233228509,868.3895036000763,1192.7123527705328,1349.3391116380851,280.24456166808034,-587.28505084103062,587.28505084103062,-280.24456166808034,2440.9107915101768,0.0
638204.59901257406,4072374.0504322448,-47500.0,464.38750728506278,-693.05642788849445,-211.98122884994993,-693.80445702314466,557.92360018674299,878.44519538638872,1215.0172027251881,468.3894045887024,-747.1586707183809,747.1586707183809,-468.3894045887024,2174.3702198312503,0.0
643204.59901257406,4072374.0504322448,-47500.0,594.51113610634343,-630.90381795237113,-412.9362973154868,-671.64129829278647,248.199352744495,558.29776295199429,1091.5444383386837,627.13501470558447,-831.49280079210928,831.49280079210928,-627.13501470558447,1926.6583529546199,0.0
648204.59901257406,4072374.0504322448,-47500.0,674.54901022778631,-507.83638218226884,-575.73215022223462,-577.48031394690804,-28.491614682079138,263.94636030779373,993.25886935662788,731.29813134905214,-837.68876634035507,837.68876634035507,-731.29813134905214,1730.6091376119309,0.0
653204.59901257406,4072374.0504322448,-47500.0,693.8559486494247,-349.83849326057083,-687.70891081894263,-436.51794639415976,-251.70260672691026,16.664600931518244,923.84237255527432,770.8141765790316,-777.64629665048108,777.64629665048108,-770.8141765790316,1600.1853288201119,0.0
658204.59901257406,4072374.0504322448,-47500.0,655.58255913824087,-182.49487184964553,-747.21852006042616,-275.10886940533663,-413.69891354513788,-173.95116014772788,877.81018231385895,749.46730497594046,-671.36292566157715,671.36292566157715,-749.46730497594046,1527.3226380248877,0.0
663204.59901257406,4072374.0504322448,-47500.0,572.10377689115637,-25.818679718210209,-760.58667081579733,-115.18346173369825,-516.89667448856903,-308.03619892457942,845.66432974837267,680.0890431607304,-540.36152527135414,540.36152527135414,-680.0890431607304,1490.3369037079158,0.0
668204.59901257406,4072374.0504322448,-47500.0,459.58971605490069,107.66531962648494,-738.24542629950565,28.245401726171529,-569.93236250589166,-392.07386487503766,818.70027955340129,579.10188782793637,-403.11046729996951,403.11046729996951,-579.10188782793637,1466.8418051861656,0.0
673204.59901257406,4072374.0504322448,-47500.0,333.72169725509644,212.37500862077732,-691.48892197449061,147.0665675996155,-584.00783231936464,-435.57651931602942,791.20612191499572,462.31118766364676,-272.94386094572752,272.94386094572752,-462.31118766364676,1441.3793609682493,0.0
678204.59901257406,4072374.0504322448,-47500.0,207.2414615787003,287.90771823292283,-630.42192383955012,238.67109790548321,-570.29635301786095,-448.60666216289479,760.46927629534241,342.54629173533652,-157.91969865900529,157.91969865900529,-342.54629173533652,1406.3124764464867,0.0
683204.59901257406,4072374.0504322448,-47500.0,89.110134027749069,337.05977255553273,-563.02953784598481,304.14849005351215,-538.49821382144194,-440.29182173538521,725.88714232497955,228.88323731565447,-61.741459056680824,61.741459056680824,-228.88323731565447,1359.6309522714009,0.0
688204.59901257406,4072374.0504322448,-47500.0,-15.292278318645153,364.17397742034541,-495.02500551555005,346.66279378489548,-496.28556969522435,-418.15135101881691,688.03481516177703,126.8707968740941,14.976606079646317,-14.976606079646317,-126.8707968740941,1302.4844243659893,0.0
693204.59901257406,4072374.0504322448,-47500.0,-103.46968101654647,373.98894613870237,-430.11975969501543,370.24057644699229,-449.30061350523005,-387.95949028531419,647.98730710900213,39.226130808378031,73.526911279538766,-73.526911279538766,-39.226130808378031,1237.3991593787784,0.0
698204.59901257406,4072374.0504322448,-47500.0,-174.98886940464598,370.95439579900898,-370.45461673933738,378.98570607734666,-401.43011834447651,-353.90102284008049,606.91099279554533,-33.360726421258519,116.18723140462545,-116.18723140462545,33.360726421258519,1167.2170434466493,0.0
703204.59901257406,4072374.0504322448,-47500.0,-230.73788885643896,358.89707243471423,-317.03827065190922,376.63995708097031,-355.1732752899145,-318.84964373619198,565.85392362917389,-91.506078205949137,145.5878948878337,-145.5878948878337,91.506078205949137,1094.5527959930619,0.0
708204.59901257406,4072374.0504322448,-47500.0,-272.34282132441274,340.91476008370716,-270.1213458828305,366.38515280842483,-312.00094649781948,-284.66702633875781,525.66043241998216,-136.56825571099361,164.32278186033611,-164.32278186033611,136.56825571099361,1021.567830480144,0.0
713204.59901257406,4072374.0504322448,-47500.0,-301.75250964803564,319.40122236933144,-229.48460960904029,350.79645512262903,-272.66132113898516,-252.47252645373965,486.95585528631318,-170.24634875882236,174.74016980652397,-174.74016980652397,170.24634875882236,949.92014121657371,0.0
718204.59901257406,4072374.0504322448,-47500.0,-320.96660520983528,296.13426074635788,-194.64572438526537,331.87908927412627,-237.41940481255926,-222.86405561099511,450.16580568914316,-194.31701090261376,178.85287567960947,-178.85287567960947,194.31701090261376,880.8009348847911,0.0
538204.59901257406,4077374.0504322448,-47500.0,187.51310486533978,-216.64793923877093,-280.49575813327749,5.9841551502442911,-186.04081292410117,-50.309060830880462,366.11168560844112,249.84102998291749,-360.74696084266293,360.74696084266293,-249.84102998291749,639.56138741056623,0.0
543204.59901257406,4077374.0504322448,-47500.0,249.89532550929718,-207.02650475767709,-311.61320382502072,42.220130148798923,-192.36739748503658,-37.170569089532783,399.22654614284721,305.55128382545172,-380.6381318991489,380.6381318991489,-305.55128382545172,693.86734617660863,0.0
548204.59901257406,4077374.0504322448,-47500.0,319.84477167592962,-189.2587051527924,-343.17935221979252,88.930197959458354,-193.1750699397476,-15.905431983287553,436.78029593926919,366.34799721152154,-395.50524913396572,395.50524913396572,-366.34799721152154,756.86910307547373,0.0
553204.59901257406,4077374.0504322448,-47500.0,396.11918956914599,-161.5170923495975,-373.59613565568378,147.68121351258907,-185.69534231099874,16.404652888380763,479.93036390762171,430.63277718291374,-402.79164047305107,402.79164047305107,-430.63277718291374,831.5729249222087,0.0
558204.59901257406,4077374.0504322448,-47500.0,476.32708452283515,-122.10248816765518,-400.55418315594284,219.68400672500061,-166.36008505821729,63.386271602813807,530.21196296230414,495.73051300838904,-399.45756522027216,399.45756522027216,-495.73051300838904,921.88832515416652,0.0
563204.59901257406,4077374.0504322448,-47500.0,556.59376598266749,-69.799915940225148,-420.91739010466125,305.37282628657005,-130.76202348490929,129.36899949493898,589.58964399177557,557.63238576017352,-382.14535991512861,382.14535991512861,-557.63238576017352,1032.5221451539219,0.0
568204.59901257406,4077374.0504322448,-47500.0,631.29068319018813,-4.4140374099363449,-430.69524767529714,403.80697722918268,-73.754514966661844,219.23750435910821,660.4517343120616,610.82926356182702,-347.54734163627711,347.54734163627711,-610.82926356182702,1168.5739694360832,0.0
573204.59901257406,4077374.0504322448,-47500.0,692.96215281285561,72.503991644935894,-425.19448966872727,511.89342088294921,10.202888439463155,338.04278602692801,745.48672311507016,648.36612555105808,-293.05909161290202,293.05909161290202,-648.36612555105808,1334.7561547971916,0.0
578204.59901257406,4077374.0504322448,-47500.0,732.64984066200986,156.78631463897867,-399.47336126072861,623.49287272458162,126.3176383546579,490.24982948109465,847.31583554073745,662.3029678359469,-217.78143263111554,217.78143263111554,-662.3029678359469,1534.235445626199,0.0
583204.59901257406,4077374.0504322448,-47500.0,740.86827669147431,240.7940917518371,-349.2345371321864,728.58698427272111,278.2176085628036,678.49853234035095,967.64410658513418,644.80216777291025,-123.86138686319055,123.86138686319055,-644.80216777291025,1767.1734985190094,0.0
588204.59901257406,4077374.0504322448,-47500.0,709.46419562655853,312.90545205568333,-272.24522309607886,812.85049451307498,466.10964421654216,901.81189897186482,1105.7508236280655,590.01800270844774,-17.999134326865203,17.999134326865203,-590.01800270844774,2029.1038465782601,0.0
593204.59901257406,4077374.0504322448,-47500.0,634.42730534758766,357.86257740231639,-170.22646610224612,858.16802384442838,684.44827846529779,1153.3525629469843,1256.7924002613186,496.7778498526751,87.313087638890948,-87.313087638890948,-496.7778498526751,2309.3870534311782,0.0
598204.59901257406,4077374.0504322448,-47500.0,519.30563545618531,358.61309303312299,-50.856066450902006,844.75716636303446,919.56671610462865,1418.1496022164581,1410.9781973586421,371.62946550677793,173.58278809790428,-173.58278809790428,-371.62946550677793,2590.1648879350701,0.0
603204.59901257406,4077374.0504322448,-47500.0,378.1915946504912,300.13337532037377,70.894398067143385,755.41653365166508,1148.2131286993526,1671.683820432941,1554.0623232637672,231.19111320913902,218.13384633333936,-218.13384633333936,-231.19111320913902,2846.4755318836101,0.0
608204.59901257406,4077374.0504322448,-47500.0,236.48094856700706,175.07192545168596,173.2524748659431,581.75923769422707,1338.3944951499939,1880.6865876332188,1668.9683111761315,102.09984122856676,198.76342697112219,-198.76342697112219,-102.09984122856676,3048.3687571466389,0.0
613204.59901257406,4077374.0504322448,-47500.0,127.32555167888775,-10.207890818159322,231.11183180297448,330.96724932849139,1453.9233882008255,2007.5565184028633,1738.6055190528032,16.751777444246073,101.08457849880467,-101.08457849880467,-16.751777444246073,3165.6765662525527,0.0
618204.59901257406,4077374.0504322448,-47500.0,82.789099768578097,-232.07070558853809,222.70100943673529,29.992424694893771,1462.9995112786414,2018.8408530081042,1749.8940738571714,4.2549512185112022,-73.459260055397692,73.459260055397692,-4.2549512185112022,3175.2742904315619,0.0
623204.59901257406,4077374.0504322448,-47500.0,121.64809155434425,-451.8925355256348,137.76575802684582,-276.51079669293335,1348.87384892876,1896.0208838668309,1698.2908214183703,78.859755421161339,-302.84707996071131,302.84707996071131,-78.859755421161339,3069.2730524398207,0.0
628204.59901257406,4077374.0504322448,-47500.0,239.33011080542192,-625.60941500907097,-16.432276143093429,-536.34203275090385,1118.1200312725578,1644.2456671840507,1591.2460137347095,231.27370212721405,-547.10224192851581,547.10224192851581,-231.27370212721405,2861.1629867978004,0.0
633204.59901257406,4077374.0504322448,-47500.0,406.48429942649022,-717.67200558478464,-215.19395093029632,-705.24508194572672,801.56049878293572,1293.9423607680621,1448.6866388305014,428.73455605551106,-759.23955429209036,759.23955429209036,-428.73455605551106,2586.6093504238875,0.0
638204.59901257406,4077374.0504322448,-47500.0,578.6286387597986,-712.78531669405413,-423.59454073618474,-760.66589172679164,446.07558973271659,893.17089886972826,1298.9539279043543,625.47771502853368,-900.24354515265384,900.24354515265384,-625.47771502853368,2296.8688455780357,0.0
643204.59901257406,4077374.0504322448,-47500.0,712.27809610850852,-619.3243592717829,-607.55781110639043,-706.82592414669637,100.79449448409814,493.86648069097316,1169.6649662807772,778.62589166434077,-950.62262304903425,950.62262304903425,-778.62589166434077,2044.84185222154,0.0
648204.59901257406,4077374.0504322448,-47500.0,778.88465361877525,-463.39552075739988,-743.26198480257301,-569.38406988925294,-195.68422775239333,138.53980916365472,1076.5425353507305,861.16610715608306,-913.20868075400233,913.20868075400233,-861.16610715608306,1866.534486779718,0.0
653204.59901257406,4077374.0504322448,-47500.0,770.35268256517952,-277.92629983938417,-821.03801816988016,-383.96714557696311,-421.89282107961486,-147.16351553220687,1018.4893231124057,866.46859909266345,-807.53362963073937,807.53362963073937,-866.46859909266345,1766.9849006829354,0.0
658204.59901257406,4077374.0504322448,-47500.0,695.95872688137376,-92.666072266070415,-843.68495858444078,-184.90763312083075,-573.10800979101111,-354.87115887457441,983.28451370792095,804.66016297666715,-660.40667967754757,660.40667967754757,-804.66016297666715,1723.5238329527826,0.0
663204.59901257406,4077374.0504322448,-47500.0,574.81646969628127,71.428319070856361,-821.76949335819165,1.721768057644351,-656.58893282139798,-489.21560586085752,957.1583949338717,695.04319270244537,-497.57572774728823,497.57572774728823,-695.04319270244537,1704.4783181122104,0.0
668204.59901257406,4077374.0504322448,-47500.0,428.36960564598479,203.25948032744142,-768.7221563624023,160.18868762640122,-685.76793321983871,-562.16041144244264,930.44814249646765,558.82533466682446,-338.90743092630817,338.90743092630817,-558.82533466682446,1685.2835217256882,0.0
673204.59901257406,4077374.0504322448,-47500.0,275.34891592130037,299.80785794170231,-697.33085535819509,283.86001668872194,-675.5657225539461,-588.17929630972105,898.4463147752158,414.36104776071249,-197.02351061637162,197.02351061637162,-414.36104776071249,1652.9977028274486,0.0
678204.59901257406,4077374.0504322448,-47500.0,129.52225190859568,363.36588091017222,-617.94095127683556,372.57365230040256,-639.52803409377691,-581.12075877758423,860.03908308075756,275.10457710185437,-78.132663911684517,78.132663911684517,-275.10457710185437,1603.764701018926,0.0
683204.59901257406,4077374.0504322448,-47500.0,-0.5291318622318727,398.98736204401092,-537.9660717350946,429.97037754193593,-588.55605687708271,-552.64535531499564,816.09739209642453,149.4813284897217,16.24530157791321,-16.24530157791321,-149.4813284897217,1538.9392948119541,0.0
688204.59901257406,4077374.0504322448,-47500.0,-110.56722313808964,412.63366466068692,-462.14908078120027,461.40752201886892,-530.68459389850807,-511.75756832417562,768.30605531855554,41.743627518173469,87.517332643914301,-87.517332643914301,-41.743627518173469,1462.1494421671416,0.0
693204.59901257406,4077374.0504322448,-47500.0,-199.50826211780611,410.05003519311265,-393.13240829734792,472.58486192466802,-471.40927483920603,-464.95827632552039,718.48180137155907,-46.872063420681513,138.6079151103994,-138.6079151103994,46.872063420681513,1377.5590913395645,0.0
698204.59901257406,4077374.0504322448,-47500.0,-268.29581286410996,396.20476588635279,-332.06287288269868,468.766392575412,-414.20993326382268,-416.6622352154946,668.23330580220806,-117.06642606375858,172.98959521132917,-172.98959521132917,117.06642606375858,1288.9871958506321,0.0
703204.59901257406,4077374.0504322448,-47500.0,-319.00445692025465,375.1011770312515,-279.11236939245811,454.42731642507579,-361.08577035405699,-369.68091376754541,618.83655162507023,-170.62630994315407,194.09552709551974,-194.09552709551974,170.62630994315407,1199.5603815586771,0.0
708204.59901257406,4077374.0504322448,-47500.0,-354.20382594269415,349.7986781885142,-233.8725105307322,433.16194133177544,-313.01151025382154,-325.66250849421255,571.22104890351056,-209.82461753799106,205.01174774323243,-205.01174774323243,209.82461753799106,1111.6445397224197,0.0
713204.59901257406,4077374.0504322448,-47500.0,-376.54790142415413,322.53367310112202,-195.63102796712209,407.73408325215814,-270.29175122364171,-285.45126616027824,526.00872241976185,-237.03395581526223,208.35196523384252,-208.35196523384252,237.03395581526223,1026.9112156125464,0.0
718204.59901257406,4077374.0504322448,-47500.0,-388.53535220405382,294.87326848350102,-163.55243316613712,380.19173474006658,-232.81874728360651,-249.36082979127505,483.57111310145962,-254.50121280676015,206.23996106863868,-206.23996106863868,254.50121280676015,946.45479416190176,0.0
538204.59901257406,4082374.0504322448,-47500.0,119.18752731653346,-270.21304231864491,-277.66229566869958,-55.59881443144716,-219.10962770614907,-90.313732481226566,395.69288492658575,202.74892958882219,-390.84453106236333,390.84453106236333,-202.74892958882219,700.41848781336262,0.0
543204.59901257406,4082374.0504322448,-47500.0,181.89133860308306,-270.45849709432628,-313.95713906522315,-25.314175154622731,-234.05948328416289,-84.122740473593581,429.98357583110192,261.21940960910604,-421.56865304585335,421.56865304585335,-261.21940960910604,755.27734668337075,0.0
548204.59901257406,4082374.0504322448,-47500.0,254.53689724515971,-263.48755708502671,-352.81988623812811,16.048945224530826,-245.24489944533053,-70.484460799470753,467.97141202491906,327.31419415688299,-449.5851519453397,449.5851519453397,-327.31419415688299,816.45709336082075,0.0
553204.59901257406,4082374.0504322448,-47500.0,336.58294639570408,-247.15874639149226,-393.17183106891787,70.69952221530113,-250.01182992563164,-46.204071752654563,510.54149146027976,400.1018746171535,-472.4919008156005,472.4919008156005,-400.1018746171535,886.28586338511366,0.0
558204.59901257406,4082374.0504322448,-47500.0,426.34038298570948,-219.23978078912745,-433.23844050721823,140.7027421728589,-244.76055193550059,-7.1365679036076335,558.99308353220374,477.56329411011626,-487.23782302280125,487.23782302280125,-477.56329411011626,968.23738104384097,0.0
563204.59901257406,4082374.0504322448,-47500.0,520.51739043335499,-177.71811798907584,-470.36378335298355,227.55428570131519,-224.80719575967697,51.907902080247425,615.19213968425015,556.21821514834278,-490.19287481688383,490.19287481688383,-556.21821514834278,1067.1517728401357,0.0
568204.59901257406,4082374.0504322448,-47500.0,613.76150334134491,-121.32244724571353,-500.87236646174256,331.51707089149255,-184.36044587205672,137.12321300565077,681.71405662768507,630.78233894183768,-477.4124677012997,477.4124677012997,-630.78233894183768,1189.1803803351536,0.0
573204.59901257406,4082374.0504322448,-47500.0,698.33495653572368,-50.302723744695513,-520.07044119902253,450.67946073975469,-116.73870788392679,255.40338344719973,761.90322089394886,693.98996333934667,-445.20807951256432,445.20807951256432,-693.98996333934667,1341.2086604966805,0.0
578204.59901257406,4082374.0504322448,-47500.0,764.15784787550683,32.535604116377627,-522.52660342759975,579.75459791802086,-15.006184019019036,413.5958923789089,859.68298650038673,736.80193155378288,-391.13705256721545,391.13705256721545,-736.80193155378288,1529.5703250306087,0.0
583204.59901257406,4082374.0504322448,-47500.0,799.55756111603978,120.66367021509387,-502.81068831903502,708.77070798520981,126.75474759213107,617.09356798572708,978.76185859386374,749.29916537896815,-315.47072032640557,315.47072032640557,-749.29916537896815,1758.0580383314746,0.0
588204.59901257406,4082374.0504322448,-47500.0,793.11970031713554,202.85391838819731,-456.86119021667895,822.0317990372921,311.34614370404159,867.57235965445398,1120.7764081555147,722.58475732121644,-223.04001540932242,223.04001540932242,-722.58475732121644,2025.4695906636346,0.0
593204.59901257406,4082374.0504322448,-47500.0,736.91973279610067,263.00421054639952,-384.02237505382993,898.04074381279247,535.51743713538428,1159.8474232036922,1282.6185592899078,651.86644344840556,-125.04273455798813,125.04273455798813,-651.86644344840556,2323.0881280281187,0.0
598204.59901257406,4082374.0504322448,-47500.0,630.97871713054292,281.62687051382227,-289.4804962928539,911.38847539982771,786.59030963967666,1478.2386469175638,1454.5290944143724,540.44455440732918,-39.944518091307089,39.944518091307089,-540.44455440732918,2632.6723397061533,0.0
603204.59901257406,4082374.0504322448,-47500.0,487.87214001165745,239.86319701015287,-186.29071216343851,837.64621547705383,1039.7550036084231,1793.5748040370379,1620.1488476126751,403.4757135950515,7.8403653156804864,-7.8403653156804864,-403.4757135950515,2925.8228311883404,0.0
608204.59901257406,4082374.0504322448,-47500.0,335.1624323508002,126.22886826853188,-95.595744707623467,661.61184339782676,1257.9625102931836,2062.8885616144726,1758.3298064658438,269.30757957677832,-7.1851178764875385,7.1851178764875385,-269.30757957677832,3165.9474490547395,0.0
613204.59901257406,4082374.0504322448,-47500.0,212.41298146279269,-55.325941010215502,-43.416214970853936,387.39933861023121,1396.7187922038026,2234.4130981105782,1846.689678987578,175.56050590844839,-102.88384513127906,102.88384513127906,-175.56050590844839,3314.077170178899,0.0
618204.59901257406,4082374.0504322448,-47500.0,160.45830713982244,-279.74458139337486,-53.308264707292437,46.041211353590512,1414.9344270126599,2259.4433626019554,1867.1286322150208,158.29673622976571,-279.09929175109238,279.09929175109238,-158.29673622976571,3338.768638297604,0.0
623204.59901257406,4082374.0504322448,-47500.0,204.69187136361705,-502.57582594435996,-136.61602637643898,-305.61225674328205,1289.6911032245446,2109.1076669388708,1812.5130743906739,236.55170622598069,-510.84328255306019,510.84328255306019,-236.55170622598069,3228.1784518831619,0.0
628204.59901257406,4082374.0504322448,-47500.0,340.15948413970688,-671.84636192858284,-285.00440431670171,-598.68971911632764,1028.4571301113763,1789.0485259184516,1692.1683282520876,399.76602465331649,-751.16367654194505,751.16367654194505,-399.76602465331649,2999.7492223491458,0.0
633204.59901257406,4082374.0504322448,-47500.0,528.88638388752724,-746.52123224803108,-470.60340515296105,-775.22100583884367,670.82916616656189,1342.7887778334291,1533.0039669688567,607.31966170602959,-945.52254738630063,945.52254738630063,-607.31966170602959,2701.8001521399588,0.0
638204.59901257406,4082374.0504322448,-47500.0,713.82340463904268,-711.8630196074821,-655.24471314355753,-808.61394979781585,276.70410394871163,839.45720560070049,1373.392429054255,803.1357778251122,-1051.4949119400308,1051.4949119400308,-803.1357778251122,2402.8409255272004,0.0
643204.59901257406,4082374.0504322448,-47500.0,842.02816227226799,-582.71518411847717,-804.09337904581662,-710.01831811832699,-93.483050237343065,351.49957087595641,1248.3281125003898,937.62066286430536,-1052.7946249840479,1052.7946249840479,-937.62066286430536,2167.978547514077,0.0
648204.59901257406,4082374.0504322448,-47500.0,883.19198246636427,-393.92879710175316,-896.10835919493036,-518.40460112049163,-395.85838905571609,-65.681021719621768,1171.6821520935951,984.09046327555927,-960.50812746516056,960.50812746516056,-984.09046327555927,2029.7341941426187,0.0
653204.59901257406,4082374.0504322448,-47500.0,834.66366694595308,-185.26848949522494,-926.84950927157024,-282.53366362782879,-610.20332139290736,-383.23157002136395,1132.6842341817799,942.22999346815106,-803.44028220149801,803.44028220149801,-942.22999346815106,1974.9309618845818,0.0
658204.59901257406,4082374.0504322448,-47500.0,714.48785033869319,10.708162237103972,-904.64975004865028,-45.301363996905707,-737.13354864589257,-596.89745267419312,1110.5556562098013,830.71550270618673,-615.16743394131186,615.16743394131186,-830.71550270618673,1963.31937539873,0.0
663204.59901257406,4082374.0504322448,-47500.0,549.88915241491338,173.9406859961079,-844.1923311822361,164.14978208921011,-790.27308114964865,-718.80187454856184,1088.6696418992719,676.14461593903457,-424.34636558720757,424.34636558720757,-676.14461593903457,1956.9306588875104,0.0
668204.59901257406,4082374.0504322448,-47500.0,367.61914667725938,296.34649461016011,-760.96637099427437,331.12302526516629,-788.35779915060925,-768.56058110145329,1058.5403688914141,504.09342598387582,-250.45301266040383,250.45301266040383,-504.09342598387582,1933.7137391300782,0.0
673204.59901257406,4082374.0504322448,-47500.0,188.64366394388577,378.44660292278064,-668.00802688762633,452.11810779332927,-749.76642815156367,-766.77372398085299,1017.9654232049635,334.36827406667919,-103.78502276141842,103.78502276141842,-334.36827406667919,1886.1499192965994,0.0
678204.59901257406,4082374.0504322448,-47500.0,26.653803161945088,425.59540869459278,-574.73539893413931,530.60643949963958,-689.76424730694873,-731.45118221758071,968.19343166985084,179.81283326889991,12.4252936715625,-12.4252936715625,-179.81283326889991,1815.4404634144769,0.0
683204.59901257406,4082374.0504322448,-47500.0,-111.16171281018177,445.03643691080083,-487.0896763793229,573.45416526416295,-619.71179840597188,-676.68633566995663,911.85333160668222,47.157131149869841,99.457582079581144,-99.457582079581144,-47.157131149869841,1726.6710404115722,0.0
688204.59901257406,4082374.0504322448,-47500.0,-222.46352181097456,444.0518350591455,-408.247956981735,588.48543341252969,-547.35164784618701,-612.65146628053913,851.77582157262327,-61.37787039392196,160.95920971688878,-160.95920971688878,61.37787039392196,1625.8980697945287,0.0
693204.59901257406,4082374.0504322448,-47500.0,-308.06041993045312,429.01863207429835,-339.44576679131245,583.08765294588659,-477.52680902765593,-546.19806756899652,790.44122839435431,-146.47470262778685,201.45511394522154,-201.45511394522154,146.47470262778685,1518.7036246824362,0.0
698204.59901257406,4082374.0504322448,-47500.0,-370.52555616586579,405.06806783117577,-280.68850831723779,563.56462420568675,-412.96034761899676,-481.62466139442625,729.78915280037768,-210.43275504401169,225.45255554500523,-225.45255554500523,210.43275504401169,1409.6307827923049,0.0
703204.59901257406,4082374.0504322448,-47500.0,-413.21312338854824,376.08472765658536,-231.28412732270991,534.9501858728072,-354.92921461439437,-421.39416109201824,671.21090958951436,-256.26389163070729,236.98219358780327,-236.98219358780327,256.26389163070729,1302.0798632762931,0.0
708204.59901257406,4082374.0504322448,-47500.0,-439.63093988571779,344.86658434873095,-190.20674200627047,501.0710740626904,-303.78516652276568,-366.72108926535509,615.62399934347889,-287.1200496972836,239.42005450007974,-239.42005450007974,287.1200496972836,1198.421722426076,0.0
713204.59901257406,4082374.0504322448,-47500.0,-453.07947600166136,313.33546860961712,-156.32455074032663,464.71718280950597,-259.32675047563424,-318.0120723267666,563.56782662466287,-305.96695197805974,235.46906546496396,-235.46906546496396,305.96695197805974,1100.1815259846635,0.0
718204.59901257406,4082374.0504322448,-47500.0,-456.4757101558464,282.74485581590545,-128.53245148147622,427.8444210577689,-221.05247678426454,-275.18117274545949,515.29953513939608,-315.42595849617646,227.22186330975691,-227.22186330975691,315.42595849617646,1008.235720288566,0.0
723204.59901257406,4082374.0504322448,-47500.0,-452.29087025477469,253.85829748123064,-105.82047206771669,391.76589027971517,-188.3237454192145,-237.86394789171356,470.87455638142137,-317.7191816124195,216.25465547454971,-216.25465547454971,317.7191816124195,922.98385896351488,0.0
533204.59901257406,4087374.0504322448,-47500.0,-13.745213221328754,-302.99055020766377,-228.20906739186006,-140.77123741932002,-223.27479521890743,-129.74439964860994,396.93479114428311,90.683388570457964,-367.72007662596258,367.72007662596258,-90.683388570457964,720.40771118505688,0.0
538204.59901257406,4087374.0504322448,-47500.0,35.073278692621784,-317.60306396573469,-262.88278414671521,-127.97737058587174,-246.88230669901702,-136.38388839663008,430.92740541580974,139.5058569533509,-406.75131713415351,406.75131713415351,-139.5058569533509,775.68745898593829,0.0
543204.59901257406,4087374.0504322448,-47500.0,95.017503316148478,-328.39582682527362,-302.08098231344161,-106.64619429843971,-270.40242662671204,-139.3179686950952,467.68232274116235,197.75265486054002,-447.07561023003609,447.07561023003609,-197.75265486054002,834.59581004682525,0.0
548204.59901257406,4087374.0504322448,-47500.0,167.01583253649395,-333.48327603091047,-345.75205644708939,-74.297674622379418,-292.28722182735822,-136.19667200820126,507.47411875343164,265.94198053374794,-487.30963751538627,487.30963751538627,-265.94198053374794,897.70834611615862,0.0
553204.59901257406,4087374.0504322448,-47500.0,251.38439049928769,-330.58494789286794,-393.44251619196859,-28.129552907780571,-310.20066690138702,-123.73360632140704,550.75454760421042,343.97415882272037,-525.43023124289698,525.43023124289698,-343.97415882272037,966.19639483711433,0.0
558204.59901257406,4087374.0504322448,-47500.0,347.39815536664184,-317.11271600940921,-444.0994150120946,34.791900030006055,-320.77709711939963,-97.462065447355656,598.29854816461864,430.75579606721811,-558.66363780633355,558.66363780633355,-430.75579606721811,1042.2427390212069,0.0
563204.59901257406,4087374.0504322448,-47500.0,452.73684229742986,-290.40256112984417,-495.83792289968216,117.14581532199657,-319.38095857217581,-51.511213020085471,651.42542291766131,523.73128768443576,-583.45027125030856,583.45027125030856,-523.73128768443576,1129.5690171726874,0.0
568204.59901257406,4087374.0504322448,-47500.0,562.84497078520485,-248.16993368957719,-545.71011897466371,220.68400954853155,-299.93998197699301,21.513166507827837,712.30169286171508,618.36911577470164,-595.57467575624514,595.57467575624514,-618.36911577470164,1233.9366292532711,0.0
573204.59901257406,4087374.0504322448,-47500.0,670.3238246791949,-189.27192180188646,-589.55320927078253,345.17936531229003,-254.9834314204445,130.39338698566598,784.28674063419066,707.7226185469143,-590.5900574669098,590.5900574669098,-707.7226185469143,1363.281583018945,0.0
578204.59901257406,4087374.0504322448,-47500.0,764.6004033941025,-114.82739667038931,-622.05711126335075,486.94685755344949,-176.0987002614018,284.67164102954865,872.1607464211429,782.29709199147703,-564.69646156104739,564.69646156104739,-782.29709199147703,1526.9557397288238,0.0
583204.59901257406,4087374.0504322448,-47500.0,832.28420158335325,-29.638119628595433,-637.25726474373312,637.02044150280028,-55.100747058651727,493.19712849523262,981.76866683184062,830.59093360375755,-516.20918010129367,516.20918010129367,-830.59093360375755,1733.5969283122431,0.0
588204.59901257406,4087374.0504322448,-47500.0,858.7744001873549,56.374350800902981,-629.69050736435418,779.34528144194735,113.76304107586326,761.4739954291307,1118.1619240172504,840.7831743121576,-447.61444510039519,447.61444510039519,-840.7831743121576,1987.6278338140864,0.0
593204.59901257406,4087374.0504322448,-47500.0,831.6794716940409,127.36473744553325,-596.36964130972456,889.79471528844817,330.38209358700726,1087.5535160740149,1281.7544297477925,803.98293291518814,-367.873055646426,367.873055646426,-803.98293291518814,2285.0651448577946,0.0
598204.59901257406,4087374.0504322448,-47500.0,746.21498014157646,162.46428838439275,-539.4287290602,937.38519932640406,584.39039550366238,1456.6930689769854,1464.4555331862725,719.02864503864305,-294.06095363121551,294.06095363121551,-719.02864503864305,2609.7651083923993,0.0
603204.59901257406,4087374.0504322448,-47500.0,611.65747444292617,139.65654299659317,-468.68905124900857,889.42237745938633,850.98863524937587,1836.0447749470563,1648.6225741067867,597.80433517297752,-250.76189223889367,250.76189223889367,-597.80433517297752,2931.4345911113182,0.0
608204.59901257406,4087374.0504322448,-47500.0,456.08781302658952,43.342726360319922,-402.61227347021384,721.78527620287423,1089.4299082048408,2172.2563082777078,1808.9880295766534,468.4605119959981,-265.33361198483078,265.33361198483078,-468.4605119959981,3207.0866036397824,0.0
613204.59901257406,4087374.0504322448,-47500.0,324.79077525092038,-125.6128278263194,-365.63846252111745,433.17536383411834,1247.5527731596769,2396.3317672158505,1917.0794420135492,372.54517271392092,-358.1385943577435,358.1385943577435,-372.54517271392092,3387.8679552713752,0.0
618204.59901257406,4087374.0504322448,-47500.0,267.97115817849328,-341.78297841272069,-380.70911545713324,57.677908873131457,1274.777893725701,2439.4388692585585,1948.6198483635758,352.79072933287097,-529.89483096208619,529.89483096208619,-352.79072933287097,3432.2368010075847,0.0
623204.59901257406,4087374.0504322448,-47500.0,318.70000604707673,-555.92489930196018,-458.61018152342552,-334.14907732033453,1141.5468113155059,2258.1052387064137,1893.193150754686,433.32556069275745,-752.71907929450401,752.71907929450401,-433.32556069275745,3323.331896640555,0.0
628204.59901257406,4087374.0504322448,-47500.0,471.5967091654997,-709.19922299974996,-589.62987380094057,-653.41026965073286,856.37243365188738,1858.0819861858338,1762.7542847397544,602.27051816029984,-973.3385697609915,973.3385697609915,-602.27051816029984,3083.7907041782851,0.0
633204.59901257406,4087374.0504322448,-47500.0,678.36284245543186,-756.5977453573114,-744.15496193247873,-826.02492278800082,468.55080651855974,1300.7192638879565,1593.6576084143262,810.49539672338608,-1131.3963791956608,1131.3963791956608,-810.49539672338608,2778.3248636848534,0.0
638204.59901257406,4087374.0504322448,-47500.0,867.60712846752563,-686.0119752479419,-883.87698713097075,-822.44128579881362,51.589076570314397,683.52671551941899,1436.7498997959365,991.51226066197694,-1184.1669472264739,1184.1669472264739,-991.51226066197694,2495.6399742606441,0.0
643204.59901257406,4087374.0504322448,-47500.0,977.30241204934612,-520.4906451235471,-977.21234950106521,-664.89463004680704,-323.83722771741998,104.8637932033005,1332.7414915801041,1090.774227338949,-1122.2681657379885,1122.2681657379885,-1090.774227338949,2308.6101295015014,0.0
648204.59901257406,4087374.0504322448,-47500.0,978.29036025315293,-303.84854338304945,-1009.4832765011796,-410.0151753970589,-611.36549474396679,-366.13882516595191,1286.4522646365608,1085.2970232485061,-967.69895568276729,967.69895568276729,-1085.2970232485061,2233.5902540370457,0.0
653204.59901257406,4087374.0504322448,-47500.0,877.07485589561713,-81.118212979553832,-983.47184253008936,-121.69380767813888,-795.25083982867682,-700.40868891757782,1272.0708882189379,984.36320564545281,-759.0048578597989,759.0048578597989,-984.36320564545281,2230.8175377456082,0.0
658204.59901257406,4087374.0504322448,-47500.0,702.98996651111349,114.84733924644461,-913.14383159305692,149.3609716025268,-883.71042582920438,-902.09276827520455,1261.4914679611693,816.8921122390218,-534.98780389759008,534.98780389759008,-816.8921122390218,2245.7690812080195,0.0
663204.59901257406,4087374.0504322448,-47500.0,491.95636162084918,267.20460539304054,-816.02318433672701,373.23907595055584,-897.47967195917317,-994.31473480981288,1238.94879054426,616.59482255324201,-324.73982744757473,324.73982744757473,-616.59482255324201,2241.5009441149491,0.0
668204.59901257406,4087374.0504322448,-47500.0,275.14194505729103,372.3397588738132,-707.83362735886612,538.7449597815156,-860.11290969835045,-1006.318798330193,1199.8383135787171,412.02928169922615,-145.01729626056732,145.01729626056732,-412.02928169922615,2203.3542022388961,0.0
673204.59901257406,4087374.0504322448,-47500.0,74.241809455889936,434.82695365088733,-600.14358190505573,647.34837594077305,-792.33759952567141,-965.46653740388467,1145.7516326556315,222.72501283907033,-2.1773811738000859,2.1773811738000859,-222.72501283907033,2131.296505754744,0.0
678204.59901257406,4087374.0504322448,-47500.0,-98.58177561998049,462.92170273023464,-500.15785762408524,707.18735760096729,-709.92197627136602,-893.73951610554514,1080.7160484560047,59.424033117383047,104.35287687475842,-104.35287687475842,-59.424033117383047,2032.0978996838385,0.0
683204.59901257406,4087374.0504322448,-47500.0,-238.61628811147668,465.55635861004015,-411.54346644450425,728.73989688042298,-623.65212377069815,-807.11106012465962,1009.1207324542355,-73.868496135967433,178.8785351726537,-178.8785351726537,73.868496135967433,1914.4245907021045,0.0
688204.59901257406,4087374.0504322448,-47500.0,-346.08565634641519,450.74462897086642,-335.50714373147935,722.27812899379296,-540.22269136166608,-716.29511000327227,934.78380252737736,-177.54277937818711,227.15200460076983,-227.15200460076983,177.54277937818711,1786.3857722156295,0.0
693204.59901257406,4087374.0504322448,-47500.0,-424.01453759191253,424.96248050299619,-271.74748680847449,696.65863617709908,-463.33494960536962,-627.93773726653274,860.65546619983445,-254.44045152972808,254.99884700281774,-254.99884700281774,254.44045152972808,1654.5808026458587,0.0
698204.59901257406,4087374.0504322448,-47500.0,-476.69729293199475,393.0832284062638,-219.15901809442508,658.93866934798723,-394.67211283759877,-545.77955763037835,788.8250901996372,-308.48366550425692,267.62289385392296,-267.62289385392296,308.48366550425692,1523.9198347612339,0.0
703204.59901257406,4087374.0504322448,-47500.0,-508.72626753675559,358.57328524581652,-176.29776517233336,614.43361098763876,-334.65167802629253,-471.61124152148432,720.65343164040985,-343.81736736062339,269.34375590693912,-269.34375590693912,343.81736736062339,1397.7960395759444,0.0
708204.59901257406,4087374.0504322448,-47500.0,-524.43889121036727,323.7712032217284,-141.66019820533862,566.96220620429074,-282.95499967268478,-405.98423642788708,656.93077323246678,-364.32975169456284,263.5733659357108,-263.5733659357108,364.32975169456284,1278.3667378880868,0.0
713204.59901257406,4087374.0504322448,-47500.0,-527.65391930759176,290.16676384739645,-113.83518937636491,519.150868585534,-238.88137267010373,-348.71366811401634,598.03125522107382,-373.42863844786058,252.91064631712635,-252.91064631712635,373.42863844786058,1166.8559394660631,0.0
718204.59901257406,4087374.0504322448,-47500.0,-521.58110870645214,258.63825580833202,-91.573508749189315,472.7193886479206,-201.56942236553405,-299.21279297918562,544.03801075700392,-373.97018280380945,239.27718550562298,-239.27718550562298,373.97018280380945,1063.8124541102209,0.0
723204.59901257406,4087374.0504322448,-47500.0,-508.82970712766013,229.63985961070318,-73.809109057405038,428.72315747753157,-170.12849849115932,-256.70707677582476,494.84015984472785,-368.27273387071887,224.05616690438285,-224.05616690438285,368.27273387071887,969.31695263901292,0.0
528204.59901257406,4092374.0504322448,-47500.0,-136.60408036291975,-307.5928471580803,-173.35079293875145,-208.33787176221634,-209.98705874372229,-155.34261295881083,398.05743725980227,-18.000590442854701,-320.70797523268914,320.70797523268914,18.000590442854701,739.83150367957012,0.0
533204.59901257406,4092374.0504322448,-47500.0,-105.07467233321897,-331.44017644807548,-202.31673814997083,-211.67504465295028,-237.10879236849655,-171.69459387274361,433.37762083491498,16.882863311138664,-361.10534697782373,361.10534697782373,-16.882863311138664,800.03403555649334,0.0
538204.59901257406,4092374.0504322448,-47500.0,-63.287793455529325,-354.53034018266499,-236.1902099333403,-209.76208504767516,-266.56505243719977,-187.64381369681598,471.44138456364715,60.921284903477499,-405.31412121231119,405.31412121231119,-60.921284903477499,863.77350841185773,0.0
543204.59901257406,4092374.0504322448,-47500.0,-9.4779913324766092,-375.59380240371615,-275.53186968375758,-200.42875827774435,-297.78000296712355,-201.82753113223575,512.24501943141945,115.50481399298369,-452.92179963712488,452.92179963712488,-115.50481399298369,930.78119648602092,0.0
548204.59901257406,4092374.0504322448,-47500.0,58.010402758503517,-392.91662198273514,-320.78395452574648,-180.9613984408935,-329.66535021366275,-212.14498585484188,555.7502912126007,181.86771151497581,-503.07702192595195,503.07702192595195,-181.86771151497581,1000.782189276498,0.0
553204.59901257406,4092374.0504322448,-47500.0,140.44109127245062,-404.28819718865259,-372.14168927968996,-148.09797087141786,-360.39055123460946,-215.47553506813423,601.92740632563607,260.83290714942007,-554.33000551607302,554.33000551607302,-260.83290714942007,1073.6717059670686,0.0
558204.59901257406,4092374.0504322448,-47500.0,238.25392935799533,-407.00952538468363,-429.36928387919011,-98.130626634445605,-387.09524233268689,-207.33811795622717,650.85597841082154,352.43230154791115,-604.46593247471412,604.46593247471412,-352.43230154791115,1149.8577015806675,0.0
563204.59901257406,4092374.0504322448,-47500.0,350.45350029557062,-398.02341829399614,-491.55655266781349,-27.201688425299199,-405.56235477356188,-181.52087967747465,702.92588791797425,455.38433416075043,-650.37325301968065,650.37325301968065,-455.38433416075043,1230.8452726895218,0.0
568204.59901257406,4092374.0504322448,-47500.0,473.82104574562885,-374.25666877319048,-556.83201334247428,68.086436242279134,-409.9089444288764,-129.75705445989092,759.19548768304753,566.44339463678295,-688.02808883875434,688.02808883875434,-566.44339463678295,1320.098524661129,0.0
573204.59901257406,4092374.0504322448,-47500.0,602.02827645965965,-333.28766314892914,-622.08671632763833,189.59949619226487,-392.419279079901,-41.605613836350692,821.96465776576383,679.70619258372381,-712.72846512954266,712.72846512954266,-679.70619258372381,1424.0452181017754,0.0
578204.59901257406,4092374.0504322448,-47500.0,724.87522882922906,-274.4472261516795,-682.82753152933219,336.00020215747236,-343.74836928302665,95.178041707765303,895.54610625395662,786.08735622968754,-719.76699426187622,719.76699426187622,-786.08735622968754,1552.6945005440543,0.0
583204.59901257406,4092374.0504322448,-47500.0,828.09996759693536,-200.37775517819392,-733.36618689085401,500.44979520801581,-253.85267971654628,293.33226472967863,986.8829802603268,873.3658324623899,-705.75030334586233,705.75030334586233,-873.3658324623899,1718.7956990230714,0.0
588204.59901257406,4092374.0504322448,-47500.0,894.47387460222615,-118.84847318138486,-767.62235264516255,667.94894886200655,-114.10601106261521,563.23882823322617,1104.725338543436,927.40602838677478,-670.67564800479454,670.67564800479454,-927.40602838677478,1934.3316216572407,0.0
593204.59901257406,4092374.0504322448,-47500.0,907.06675783208777,-44.195348996879531,-780.79695560397056,813.16834403325447,78.999327578725882,907.9402989728768,1255.268517114981,935.24199828401868,-620.54778996172479,620.54778996172479,-935.24199828401868,2204.239036880509,0.0
598204.59901257406,4092374.0504322448,-47500.0,855.30266883637341,2.8306666860533642,-771.90783107486925,900.48220021866928,318.60809614224092,1315.8885966092546,1435.1408193368968,890.38374077727258,-569.66160341575733,569.66160341575733,-890.38374077727258,2519.243068701981,0.0
603204.59901257406,4092374.0504322448,-47500.0,743.25818728426054,-1.5307396644079203,-746.55923274256372,888.76391676979665,581.84464965931147,1752.6262952518045,1627.5293964914065,799.59860291288783,-540.78248848425073,540.78248848425073,-799.59860291288783,2850.8761163239205,0.0
608204.59901257406,4092374.0504322448,-47500.0,597.20968739664113,-76.110650799181116,-718.41237763434424,743.38214989687231,826.61470623666639,2155.0891354259775,1803.8596584209945,688.3438455994177,-560.85886017764722,560.85886017764722,-688.3438455994177,3151.5925407047116,0.0
613204.59901257406,4092374.0504322448,-47500.0,466.3405397776869,-223.18314961420856,-707.18334343385425,455.12079177686047,995.37108063509368,2435.1618169171375,1929.370431913615,599.6961598698955,-650.73422603127403,650.73422603127403,-599.6961598698955,3362.5885922775451,0.0
618204.59901257406,4092374.0504322448,-47500.0,409.62541310511932,-418.10347702159027,-731.70201255811116,59.238687768299727,1029.7610897197753,2499.5294079757832,1972.898246099478,581.52776447625888,-810.85953198471793,810.85953198471793,-581.52776447625888,3431.0019923161221,0.0
623204.59901257406,4092374.0504322448,-47500.0,468.06655722141153,-608.96416768056918,-799.58610457832424,-359.68948493716931,894.57817484165264,2285.7824373848712,1920.5558818760396,662.5348665569976,-1010.7284397230704,1010.7284397230704,-662.5348665569976,3334.1743577443663,0.0
628204.59901257406,4092374.0504322448,-47500.0,635.64810940863208,-732.90427706800972,-899.4166957514434,-690.64871269853552,599.74229829802937,1799.3327134064687,1788.4785913837115,829.47754844934002,-1192.7977359617726,1192.7977359617726,-829.47754844934002,3101.358176302771,0.0
633204.59901257406,4092374.0504322448,-47500.0,852.63054573337399,-744.10431170289473,-1002.5103443575885,-842.42236732817059,203.70073153588118,1124.3401352003036,1625.2586057714807,1025.0421320722558,-1294.7351758914283,1294.7351758914283,-1025.0421320722558,2816.7384280119772,0.0
638204.59901257406,4092374.0504322448,-47500.0,1032.9061006243153,-635.65010814727782,-1075.4294349057943,-784.96067166508146,-208.66804643058333,393.80623104190676,1493.8735056511159,1173.9449936889632,-1278.3157669767115,1278.3157669767115,-1173.9449936889632,2587.925890908612,0.0
643204.59901257406,4092374.0504322448,-47500.0,1107.6022054102937,-439.45877959651403,-1095.2084036628708,-556.37688517993854,-560.56487614656385,-264.13917387381042,1432.8729844367876,1220.1978885011499,-1144.9672704149566,1144.9672704149566,-1220.1978885011499,2482.5590105740607,0.0
648204.59901257406,4092374.0504322448,-47500.0,1052.9953659649436,-206.47915687458186,-1057.0934983078612,-234.50363885175813,-807.84842688237813,-768.31010862381504,1427.9416215681231,1148.7300528019805,-928.83426514289158,928.83426514289158,-1148.7300528019805,2485.4066640190508,0.0
653204.59901257406,4092374.0504322448,-47500.0,888.56742300002713,16.421702044082437,-971.85925575385068,101.53870747754449,-942.64551106665169,-1094.514995144064,1437.4117377119524,981.22841085939581,-676.51441086613636,676.51441086613636,-981.22841085939581,2530.1985870941853,0.0
658204.59901257406,4092374.0504322448,-47500.0,656.44522115520726,199.48301128235772,-857.59489406948171,395.90268113167269,-981.85905185119509,-1260.3859130742812,1431.8461910003602,757.18754717789488,-428.72750140258898,428.72750140258898,-757.18754717789488,2558.5422888013727,0.0
663204.59901257406,4092374.0504322448,-47500.0,400.45810569113405,331.24107423779719,-732.14712935684668,621.36132258313421,-952.44293402233905,-1303.1459834944694,1401.1391011894596,515.83238003911333,-211.73340287474196,211.73340287474196,-515.83238003911333,2542.5233246497278,0.0
668204.59901257406,4092374.0504322448,-47500.0,154.23861522655307,413.26363357267456,-609.0536674415016,772.94861443556681,-880.88498491817938,-1262.6507079298431,1346.66469497102,286.39203622613167,-37.324817071067571,37.324817071067571,-286.39203622613167,2478.1594019014829,0.0
673204.59901257406,4092374.0504322448,-47500.0,-61.806791967106285,453.84565211443612,-496.65142470225783,858.63224078851943,-788.2700732300998,-1172.6412464473481,1274.344705294563,86.063577256360034,93.133488254142279,-93.133488254142279,-86.063577256360034,2373.5600618344611,0.0
678204.59901257406,4092374.0504322448,-47500.0,-238.5554087824531,463.31335461359646,-398.91125429776952,891.73368591384326,-689.25359302082347,-1058.1125386923361,1190.872457812399,-77.904710523869312,184.17482340700894,-184.17482340700894,77.904710523869312,2240.697067836029,0.0
683204.59901257406,4092374.0504322448,-47500.0,-374.66089318145799,451.36815285671736,-316.79219197022513,886.23767105787351,-592.93697939898505,-935.88495873899683,1102.0796287139783,-204.9622042720288,242.78338942742639,-242.78338942742639,204.9622042720288,2091.1653659540157,0.0
688204.59901257406,4092374.0504322448,-47500.0,-473.29807250541882,425.96521728805419,-249.47580303297767,854.47581473289665,-504.30723583636581,-816.3387080063037,1012.4394412042518,-298.3521420155011,276.27970280514256,-276.27970280514256,298.3521420155011,1934.4913121372736,0.0
693204.59901257406,4092374.0504322448,-47500.0,-539.76837248395157,393.09116159890095,-195.2699772302667,806.31524557470414,-425.59328357854463,-705.25695734980809,925.09072326751027,-363.02447959212361,291.24827362702717,-291.24827362702717,363.02447959212361,1777.7682376434698,0.0
698204.59901257406,4092374.0504322448,-47500.0,-579.97331149069964,356.96904009196788,-152.18618863641538,749.147170815084,-357.32075439295431,-605.36540525925784,842.05817478905885,-404.33233419750644,293.13003985399888,-293.13003985399888,404.33233419750644,1625.8808362163325,0.0
703204.59901257406,4092374.0504322448,-47500.0,-599.55462327998237,320.41041430774163,-118.26776687256336,688.22536304993457,-299.05132168699942,-517.47966739753258,764.51457791488554,-427.31530447901946,286.17981814850702,-286.17981814850702,427.31530447901946,1481.930420047325,0.0
708204.59901257406,4092374.0504322448,-47500.0,-603.48178445039309,285.17294029576829,-91.751331401566134,627.10545278343977,-249.86393436687453,-441.30060834416713,693.01841842165629,-436.3692310447874,273.59423120681186,-273.59423120681186,436.3692310447874,1347.6751334022517,0.0
713204.59901257406,4092374.0504322448,-47500.0,-595.91065206294707,252.26631566612255,-71.128003026557025,568.06580330829854,-208.65021094379313,-375.93806452058158,627.70683081904679,-435.14549468382421,257.69857406081547,-257.69857406081547,435.14549468382421,1223.91292790734,0.0
718204.59901257406,4092374.0504322448,-47500.0,-580.1925706141792,222.19136872503964,-55.148779238633516,512.46298057047477,-174.28422251112991,-320.23963672140621,568.44237902943075,-426.57477000083941,240.13603396310387,-240.13603396310387,426.57477000083941,1110.7865410299951,0.0
723204.59901257406,4092374.0504322448,-47500.0,-558.95642835684464,195.11682991373229,-42.802711796133281,461.01143111468741,-145.71231232475589,-272.98729658307747,514.91998166601434,-412.94880153364613,222.03426286057342,-222.03426286057342,412.94880153364613,1008.0136695260031,0.0
528204.59901257406,4097374.0504322448,-47500.0,-226.86736475557748,-317.38830707854999,-142.43281440715441,-272.9669446582069,-211.6872457022321,-191.23625942003974,432.71672800917088,-94.180217698474095,-296.55869884629993,296.55869884629993,94.180217698474095,815.82082200702268,0.0
533204.59901257406,4097374.0504322448,-47500.0,-204.88144370374954,-346.66434709203645,-168.15124292939984,-287.49851858237378,-241.76957679299701,-216.10337403425325,472.85715633817546,-66.99756536793933,-337.9199743638265,337.9199743638265,66.99756536793933,886.41948935410846,0.0
538204.59901257406,4097374.0504322448,-47500.0,-172.81052017948471,-376.73547407083947,-198.87172587073798,-298.51763632783047,-275.44136937897883,-242.63386513417041,516.22723223919695,-30.632803472855386,-384.35638359665313,384.35638359665313,30.632803472855386,961.49146597894139,0.0
543204.59901257406,4097374.0504322448,-47500.0,-128.4338392101009,-406.64473358436152,-235.42234426381316,-303.93463213886463,-312.54572832950311,-269.90697376324397,562.72478285942509,16.754585713610169,-435.92868204534579,435.92868204534579,-16.754585713610169,1040.4750288352552,0.0
548204.59901257406,4097374.0504322448,-47500.0,-69.418847524485685,-434.99302086725015,-278.64560597496802,-300.99337284850503,-352.5181272659849,-296.30153763990796,612.09966472986969,77.057520987124974,-492.37102264028573,492.37102264028573,-77.057520987124974,1122.5135045884701,0.0
553204.59901257406,4097374.0504322448,-47500.0,6.4508461054779271,-459.84281447186783,-329.31083093326839,-286.18312618958669,-394.15950781287137,-319.17066282884787,663.93262845670108,152.01617583606901,-552.92806430727933,552.92806430727933,-152.01617583606901,1206.4774291041992,0.0
558204.59901257406,4097374.0504322448,-47500.0,100.88358064728698,-478.65393299044479,-387.9707064478585,-255.22917344439594,-435.33105889082447,-334.4172658275225,717.64766935685498,242.8757105400137,-616.1597592491737,616.1597592491737,-242.8757105400137,1291.108285201379,0.0
563204.59901257406,4097374.0504322448,-47500.0,214.46764089830907,-488.30628895387548,-454.74693146249319,-203.25148926970795,-472.57262578590598,-335.97863303736239,772.60208835429103,349.86472422133795,-679.74012485925198,679.74012485925198,-349.86472422133795,1375.3944291088264,0.0
568204.59901257406,4097374.0504322448,-47500.0,345.79745572105782,-485.29951842185699,-529.03934308954535,-125.23266081867533,-500.67937324484473,-315.27411466171407,828.33352261960181,471.46889709808573,-740.31182200985927,740.31182200985927,-471.46889709808573,1459.335924121089,0.0
573204.59901257406,4097374.0504322448,-47500.0,490.35765725456702,-466.26025189093804,-609.18126908988904,-16.994110479956412,-512.33851731847028,-260.76130519100826,885.09797694140059,603.53229193877792,-793.51683138098679,793.51683138098679,-603.53229193877792,1545.2558184990442,0.0
578204.59901257406,4097374.0504322448,-47500.0,639.32706561835084,-428.91193901823999,-692.12090704253865,123.08334604716609,-498.04456067461211,-157.90710912672381,944.88786420632778,738.34488174904584,-834.39786619356289,834.39786619356289,-738.34488174904584,1639.6189329708002,0.0
583204.59901257406,4097374.0504322448,-47500.0,778.73194424167627,-373.61970918536912,-773.30176502849076,291.41395394436188,-446.68130757526143,9.8771236038707677,1013.0330232137587,864.09995631432753,-858.42690199049457,858.42690199049457,-864.09995631432753,1754.6428928164671,0.0
588204.59901257406,4097374.0504322448,-47500.0,889.76773384988746,-305.42351682454432,-847.021598655557,475.72954677467726,-347.34032227691858,258.49067069311889,1099.6332113868857,965.41257110712138,-863.3810552781332,863.3810552781332,-965.41257110712138,1907.6936138113326,0.0
593204.59901257406,4097374.0504322448,-47500.0,951.49443428575535,-236.01126782339824,-907.58923389896825,651.54263399152978,-192.99321689097653,597.56232109655491,1217.4312204729431,1025.8517554445884,-852.0026373536316,852.0026373536316,-1025.8517554445884,2115.6174340896459,0.0
598204.59901257406,4097374.0504322448,-47500.0,947.09406481557687,-184.3493733986185,-951.40553889778926,780.51810655973043,13.750451261805775,1021.3373175666629,1372.2372838138187,1033.3038637614316,-834.68316941066985,834.68316941066985,-1033.3038637614316,2383.4660549198225,0.0
603204.59901257406,4097374.0504322448,-47500.0,873.74130935404207,-173.98932113112014,-979.495411301785,814.1792963816381,253.78361424143333,1496.8916613019101,1552.6647044169267,987.88901821816944,-830.33290915688463,830.33290915688463,-987.88901821816944,2692.6468054284678,0.0
608204.59901257406,4097374.0504322448,-47500.0,753.15270958786198,-225.24970174208087,-999.07642598717371,706.93013805497492,486.70706843527159,1954.0107469617585,1729.670743547696,909.64888696737432,-862.73016797255048,862.73016797255048,-909.64888696737432,2996.4411668394305,0.0
613204.59901257406,4097374.0504322448,-47500.0,635.38622098492942,-342.74995496988458,-1022.0878028199895,439.58249013232523,653.5705038881822,2285.9922388117943,1863.6881827037232,839.86837685993112,-950.36278927555929,950.36278927555929,-839.86837685993112,3228.1807672750897,0.0
618204.59901257406,4097374.0504322448,-47500.0,585.91336284899614,-503.61147057442946,-1059.398497620728,45.914939313170208,692.4096380118732,2372.9664116621179,1917.5126863674159,828.66421604514733,-1091.6697642341387,1091.6697642341387,-828.66421604514733,3323.6065800947977,0.0
623204.59901257406,4097374.0504322448,-47500.0,652.58173808764866,-656.46261625592297,-1112.4575136989311,-377.26206398307266,565.44131052346245,2130.6371675105211,1875.4681410858811,907.74108002823209,-1254.2142307864162,1254.2142307864162,-907.74108002823209,3253.8928045293505,0.0
628204.59901257406,4097374.0504322448,-47500.0,828.42730549946839,-739.28093864670689,-1168.0693331789951,-697.58626906289521,284.47773171762918,1563.6428724995906,1761.0978271961576,1062.6274552205637,-1379.9707028276634,1379.9707028276634,-1062.6274552205637,3055.5961174634158,0.0
633204.59901257406,4097374.0504322448,-47500.0,1042.6734160903784,-710.16172539047784,-1202.2651871724795,-808.33764135964145,-86.05281414092407,782.3576734613639,1634.158141223563,1229.7723909291051,-1410.5938799209864,1410.5938799209864,-1229.7723909291051,2831.7051885790347,0.0
638204.59901257406,4097374.0504322448,-47500.0,1196.7166094210345,-569.60990731138463,-1192.6026165565634,-682.67968519008991,-456.42543173932029,-40.861622174240189,1557.7712292503588,1328.9732188374064,-1317.9337727604161,1317.9337727604161,-1328.9732188374064,2698.1420092340545,0.0
643204.59901257406,4097374.0504322448,-47500.0,1219.3174775555087,-356.79634561506407,-1130.0258035073223,-378.39639976315738,-751.36958545613322,-748.41976112772591,1556.4538522506966,1307.757724065274,-1116.6364760618044,1116.6364760618044,-1307.757724065274,2696.9695209285783,0.0
648204.59901257406,4097374.0504322448,-47500.0,1096.9991237475972,-125.2765597615582,-1021.7433731507473,4.7480534100297156,-934.6596754167864,-1252.0767429838154,1593.4179150143366,1162.8453354158705,-851.30306477432248,851.30306477432248,-1162.8453354158705,2774.5372112123632,0.0
653204.59901257406,4097374.0504322448,-47500.0,864.73782419506836,81.202735808057639,-885.19140353310115,375.33468701413921,-1008.2271438573563,-1538.7523172349149,1618.2425107922465,929.34284404407254,-572.28925444572769,572.28925444572769,-929.34284404407254,2850.4482929062274,0.0
658204.59901257406,4097374.0504322448,-47500.0,576.90888427574669,239.26584258994342,-739.47800589726967,676.88099340958888,-996.24629501470554,-1643.7025097086741,1607.9735784358138,655.61277568266667,-317.773440223899,317.773440223899,-655.61277568266667,2874.8171749700464,0.0
663204.59901257406,4097374.0504322448,-47500.0,282.82760366266132,343.88619568898957,-599.62459300961791,888.62631342031943,-928.80245072131822,-1619.4407722838778,1561.4129668926098,383.46366882207337,-108.17953975236176,108.17953975236176,-383.46366882207337,2833.8050824618945,0.0
668204.59901257406,4097374.0504322448,-47500.0,15.893895217075096,401.22472382663227,-474.74111683019976,1013.9275232768457,-832.11985804078756,-1515.5850158539847,1486.4732538837579,140.09853101893785,50.889387892950673,-50.889387892950673,-140.09853101893785,2734.796971433203,0.0
673204.59901257406,4097374.0504322448,-47500.0,-206.79398226109521,421.96227743808237,-368.75469229952444,1067.8385442540939,-725.1569009490305,-1370.5913894110492,1393.0182656302802,-61.398507887385854,162.98434512021439,-162.98434512021439,61.398507887385854,2593.2060804322,0.0
678204.59901257406,4097374.0504322448,-47500.0,-380.2752642228445,417.08596594265111,-282.03995034814119,1068.5486614139177,-619.86606603164364,-1210.7993789354521,1289.812644555351,-218.11110598357487,235.85911566315866,-235.85911566315866,218.11110598357487,2425.0731809453782,0.0
683204.59901257406,4097374.0504322448,-47500.0,-506.97433983367216,395.9153693702786,-212.97104637313737,1032.8677112223811,-522.82001142187403,-1052.5515812827537,1183.5926303504059,-333.10911807244514,278.25504068677077,-278.25504068677077,333.10911807244514,2243.9274336692733,0.0
688204.59901257406,4097374.0504322448,-47500.0,-592.97896744970637,365.54074783782067,-159.04724760217394,974.46300201368024,-436.96084914614147,-904.96693510198384,1079.0708854942882,-412.28167298483123,298.21860697009396,-298.21860697009396,412.28167298483123,2059.9547562396401,0.0
693204.59901257406,4097374.0504322448,-47500.0,-645.61821626598339,330.96316191061328,-117.58554677217788,903.59758985777285,-363.00877275962216,-772.3728144589096,979.28344644122205,-462.32953282134798,302.4324884345296,-302.4324884345296,462.32953282134798,1880.2174239133917,0.0
698204.59901257406,4097374.0504322448,-47500.0,-672.08609713177373,295.49088688503718,-86.085774605888545,827.53067307839785,-300.44823692174072,-656.128042897142,885.9974376609008,-489.65880053859178,296.10415837609594,-296.10415837609594,489.65880053859178,1709.2316048822177,0.0
703204.59901257406,4097374.0504322448,-47500.0,-678.77389905337964,261.17153894766619,-62.387796945209971,751.12809447133145,-248.16304861502164,-555.88057200538572,800.07743363883435,-499.86989241668141,283.11440045400514,-283.11440045400514,499.86989241668141,1549.5972106150009,0.0
708204.59901257406,4097374.0504322448,-47500.0,-671.02866957898402,229.16676550653537,-44.709610773946963,677.46487161329401,-204.8177832430043,-470.3851298437815,721.77716290189824,-497.59622547454171,266.25581126521047,-266.25581126521047,497.59622547454171,1402.5497030564034,0.0
713204.59901257406,4097374.0504322448,-47500.0,-653.14585577809612,200.04408498661951,-31.625010572444001,608.33684305257179,-169.07094158418593,-398.00964364432474,650.95828898505215,-486.52933397478563,247.47701123479277,-247.47701123479277,486.52933397478563,1268.4002424643279,0.0
718204.59901257406,4097374.0504322448,-47500.0,-628.4713048541596,173.98925361119598,-22.015848721988419,544.65832870659926,-139.68229284003459,-337.03071671124559,587.24421774700318,-469.52688865828492,228.09540192798755,-228.09540192798755,469.52688865828492,1146.8602342378156,0.0
723204.59901257406,4097374.0504322448,-47500.0,-599.54916387787614,150.95594064498994,-15.018406587974056,486.76089243917255,-115.55919146433511,-285.79737087844632,530.12962200229117,-448.75158857304149,208.97063358820236,-208.97063358820236,448.75158857304149,1037.2811519224163,0.0
528204.59901257406,4102374.0504322448,-47500.0,-319.89037377045639,-313.36549492104029,-107.17326977830923,-338.63898306682051,-204.49578053306274,-227.4724254523241,468.34699000860144,-174.94699526814802,-258.49891139933209,258.49891139933209,174.94699526814802,893.42555410364537,0.0
533204.59901257406,4102374.0504322448,-47500.0,-309.05961348287968,-345.88974955572826,-128.07399450013773,-365.36171032446333,-235.62311790214321,-261.374516242769,514.01416180079377,-157.3542675247995,-297.9416430680044,297.9416430680044,157.3542675247995,975.879501610582,0.0
538204.59901257406,4102374.0504322448,-47500.0,-288.83439909132511,-380.52289891548247,-153.57863326007168,-390.76265555027425,-271.21179522004627,-299.31511698365932,563.70464434322309,-131.11901686732793,-343.17245896473173,343.17245896473173,131.11901686732793,1064.4099057589617,0.0
543204.59901257406,4102374.0504322448,-47500.0,-256.65144560091528,-416.66276533389606,-184.65109519174644,-412.99943608793279,-311.48166659291911,-340.96979179562896,617.33545456351624,-94.074497388689053,-394.6668796369309,394.6668796369309,94.074497388689053,1158.4283547032258,0.0
548204.59901257406,4102374.0504322448,-47500.0,-209.60968230770894,-453.31287335941414,-222.38286156117246,-429.48544638304168,-356.37101801882613,-385.41980558416611,674.59985053026548,-43.793081919282656,-452.71210768224432,452.71210768224432,43.793081919282656,1256.8526310635982,0.0
553204.59901257406,4102374.0504322448,-47500.0,-144.62008109003503,-488.96070480480222,-267.95459979073729,-436.71920107479707,-405.33378294271296,-430.80785417715725,734.88616594157338,22.280765018785416,-517.26409589273248,517.26409589273248,-22.280765018785416,1357.9849538164178,0.0
558204.59901257406,4102374.0504322448,-47500.0,-58.716129882624323,-521.46076987541255,-322.55261524425822,-430.15114144474506,-457.04863710733707,-473.85707786491793,797.19546050480153,106.56426418370577,-587.75710944742775,587.75710944742775,-106.56426418370577,1459.4371367466015,0.0
563204.59901257406,4102374.0504322448,-47500.0,50.395046005043696,-547.96411642186592,-387.21757794742672,-404.17066847933364,-509.0256939138124,-509.23481271624593,860.08608900690456,210.87355761562037,-662.87337960845025,662.87337960845025,-210.87355761562037,1558.1933686568564,0.0
568204.59901257406,4102374.0504322448,-47500.0,183.45534306611862,-564.97307748922572,-462.60347271675619,-352.35982847095136,-557.12054772278555,-528.77928788700683,921.70844856432313,335.70011199308067,-740.30949695947004,740.30949695947004,-335.70011199308067,1650.9787084800823,0.0
573204.59901257406,4102374.0504322448,-47500.0,338.39805111175161,-568.65116154469797,-548.63654672503765,-268.24916557344983,-595.02243400516011,-520.6964145535494,980.06164238089809,479.19323379724233,-816.62870521842046,816.62870521842046,-479.19323379724233,1735.2082096452357,0.0
578204.59901257406,4102374.0504322448,-47500.0,508.77560253848998,-555.569594493659,-644.10327448292935,-146.90386574473962,-613.89934263113298,-469.01361878709957,1033.7310363550805,635.92119080736018,-887.3708404822172,887.3708404822172,-635.92119080736018,1810.8730203732625,0.0
583204.59901257406,4102374.0504322448,-47500.0,682.21693729272044,-524.07852508655276,-746.27644793471825,12.299085066392372,-602.57776775473997,-353.89770812748088,1083.5664522839745,795.71627026753868,-947.68688765206616,947.68688765206616,-795.71627026753868,1883.5531835339032,0.0
588204.59901257406,4102374.0504322448,-47500.0,839.75692764764699,-476.34782460863318,-850.80951121607086,201.54058539053995,-548.89006876985502,-153.90508403763423,1135.7657677256366,943.30582470767433,-993.79950970455741,993.79950970455741,-943.30582470767433,1967.7260796765374,0.0
593204.59901257406,4102374.0504322448,-47500.0,957.52133254138164,-420.67398742223742,-952.22767020996764,399.62254208182082,-442.99489582952583,148.30987437014383,1204.7944195972295,1059.9016495081112,-1025.3920606718132,1025.3920606718132,-1059.9016495081112,2086.9358962320639,0.0
598204.59901257406,4102374.0504322448,-47500.0,1012.5955743874719,-372.80258527594725,-1045.2502765629906,568.29165896986592,-283.1975788365844,555.37462027742345,1307.5794819924733,1128.0757073989816,-1048.3556853034365,1048.3556853034365,-1128.0757073989816,2264.7967770805685,0.0
603204.59901257406,4102374.0504322448,-47500.0,993.95947495971802,-354.06264138997818,-1126.6613479248658,654.08394086532383,-83.504076859883526,1039.8711062060092,1444.6383127083959,1140.3031953488517,-1076.1198670004414,1076.1198670004414,-1140.3031953488517,2505.3899842745877,0.0
608204.59901257406,4102374.0504322448,-47500.0,915.90724269697671,-384.09337444827941,-1196.5321446413398,601.41225161985437,120.44700915115278,1529.0367450904087,1591.7820487629137,1108.6926049750305,-1126.7062455944661,1126.7062455944661,-1108.6926049750305,2775.738200623302,0.0
613204.59901257406,4102374.0504322448,-47500.0,825.41945553451649,-468.42497035700291,-1257.0479428222925,379.97737510841296,273.25227968626581,1901.4790835695894,1710.6313634816031,1069.0446381259046,-1213.352644009389,1213.352644009389,-1069.0446381259046,3008.462827223047,0.0
618204.59901257406,4102374.0504322448,-47500.0,790.54034897263887,-586.59499089571284,-1308.2966848130675,18.800213060159646,315.39546360464306,2012.7383132333248,1766.0658726432018,1069.9288520734074,-1330.7860157647531,1330.7860157647531,-1069.9288520734074,3129.8312091378793,0.0
623204.59901257406,4102374.0504322448,-47500.0,863.48888557395037,-691.55805333626563,-1343.4190066936756,-377.72048851672753,211.31244247121035,1756.6132194131837,1751.4736650229279,1143.8125541533825,-1446.0613139718846,1446.0613139718846,-1143.8125541533825,3104.1732285011249,0.0
628204.59901257406,4102374.0504322448,-47500.0,1036.4389350572899,-728.24912635529188,-1348.0098178236735,-660.97960402980902,-25.161173076935125,1136.1131511151666,1697.46220203138,1275.729714768438,-1505.8854373634708,1505.8854373634708,-1275.729714768438,2972.6790273202546,0.0
633204.59901257406,4102374.0504322448,-47500.0,1230.68694461681,-663.82307414529976,-1306.6700931194648,-713.69016782296637,-330.01771412860131,286.45918079767574,1643.2505647684761,1399.8896841579572,-1462.6734792509487,1462.6734792509487,-1399.8896841579572,2847.9261065422484,0.0
638204.59901257406,4102374.0504322448,-47500.0,1340.7486318234742,-506.75617257236019,-1212.9342051216615,-515.73501971927965,-619.42499466686559,-584.15646296810053,1635.0412526106456,1437.0320372647675,-1302.4974617438652,1302.4974617438652,-1437.0320372647675,2833.791419885109,0.0
643204.59901257406,4102374.0504322448,-47500.0,1298.9843465610104,-298.88242040166136,-1074.4642938824336,-144.56698528594885,-829.3788846025368,-1295.2219894597877,1693.1475517358485,1343.1829780070311,-1052.1013879935313,1052.1013879935313,-1343.1829780070311,2932.6180125389792,0.0
648204.59901257406,4102374.0504322448,-47500.0,1105.5269365174604,-89.692897836325614,-909.60396769550448,282.21708778670779,-935.99168175758632,-1758.6484507057623,1761.7988442083783,1128.5260739115176,-761.29914227524318,761.29914227524318,-1128.5260739115176,3063.3119427592192,0.0
653204.59901257406,4102374.0504322448,-47500.0,810.32541196502086,85.228040971326223,-739.18016976748606,666.91477657303994,-949.7167314089038,-1976.9234001708846,1790.2402970145131,839.70342024971148,-478.25994320041957,478.25994320041957,-839.70342024971148,3148.4708861260256,0.0
658204.59901257406,4102374.0504322448,-47500.0,476.85544941915077,210.7107134661328,-579.75418379608914,957.40364520209539,-897.54974935456733,-2003.4880365859578,1766.9509086184269,530.27962904593528,-234.65582434448223,234.65582434448223,-530.27962904593528,3153.9850659319704,0.0
663204.59901257406,4102374.0504322448,-47500.0,156.32757954307968,287.38225305984298,-441.05049217271238,1141.9454721353575,-807.87510690194188,-1904.0370927549204,1700.1017162973505,241.22890205514733,-43.730776511338661,43.730776511338661,-241.22890205514733,3080.4248238870991,0.0
668204.59901257406,4102374.0504322448,-47500.0,-120.69819773202222,324.01684262548633,-326.65019566621925,1232.6120478564194,-702.97480397270272,-1734.9805162643329,1603.2244896202751,-4.4086524524619435,94.562187742284664,-94.562187742284664,4.4086524524619435,2944.7135361841729,0.0
673204.59901257406,4102374.0504322448,-47500.0,-341.7310706213035,331.61254617739451,-235.98641387767915,1250.718127401112,-597.47502326607128,-1536.8343454858821,1489.0825344703105,-198.48473142755032,187.29668079642906,-187.29668079642906,198.48473142755032,2767.5886455273621,0.0
678204.59901257406,4102374.0504322448,-47500.0,-506.26525669244893,320.19042842959942,-166.2939858294813,1218.1096597218091,-499.60172949453801,-1335.372050594556,1367.6862552473585,-342.34878976306044,243.93985500447553,-243.93985500447553,342.34878976306044,2567.6089764894432,0.0
683204.59901257406,4102374.0504322448,-47500.0,-620.22148559552022,297.61355266464847,-114.00142373908965,1153.2871239530757,-413.12815593717039,-1145.2603637515035,1246.1028161406141,-442.18870322092982,273.72926325597302,-273.72926325597302,442.18870322092982,2359.1671112236631,0.0
688204.59901257406,4102374.0504322448,-47500.0,-692.10376316990789,269.50028197687197,-75.547429891413614,1070.377131259984,-339.08472679143824,-973.69613638045223,1128.924128961329,-505.91596887099195,284.52348802812594,-284.52348802812594,505.91596887099195,2152.4408723636584,0.0
693204.59901257406,4102374.0504322448,-47500.0,-730.74849778520229,239.58610489605977,-47.775249074968052,979.43136401195147,-276.98730826010296,-823.23504637341216,1018.8714992176847,-541.40225718126635,282.50530365712041,-282.50530365712041,541.40225718126635,1954.0726344982986,0.0
698204.59901257406,4102374.0504322448,-47500.0,-744.19393760438084,210.18961615913625,-28.068189290582641,887.19332857725783,-225.62692902492952,-693.75689274356455,917.34297286168635,-555.63717081842367,272.29451432522706,-272.29451432522706,555.63717081842367,1768.0096947532895,0.0
703204.59901257406,4102374.0504322448,-47500.0,-739.23251821184749,182.63407211445929,-14.347449288390704,797.91959028492795,-183.53708867028757,-583.73925100335589,824.84642587682379,-554.43226635911583,257.21313311159759,-257.21313311159759,554.43226635911583,1596.2681450505736,0.0
708204.59901257406,4102374.0504322448,-47500.0,-721.3370178349694,157.57940834392417,-5.008415076193538,714.09198899091155,-149.24926250128951,-491.03971843408669,741.31948402834007,-542.41427880328808,239.5741364422415,-239.5741364422415,542.41427880328808,1439.5474683522298,0.0
713204.59901257406,4102374.0504322448,-47500.0,-694.76873035510471,135.26394807748019,1.1626247364327786,636.97747606178928,-121.41790134373363,-413.35116728239785,666.35546061599575,-523.15198521547757,220.93859744959423,-220.93859744959423,523.15198521547757,1297.6925028944222,0.0
718204.59901257406,4102374.0504322448,-47500.0,-662.75745305388023,115.6719640452267,5.070022645448395,567.04391431071144,-98.870342055776703,-348.44973599139911,599.3581890398998,-499.32956740119789,202.3242947720623,-202.3242947720623,499.32956740119789,1170.0264931652914,0.0
723204.59901257406,4102374.0504322448,-47500.0,-627.69393819479467,98.64502330156796,7.3799105118099835,504.25554953254442,-80.615459569586363,-294.31501684626159,539.64362698717423,-472.92122102969438,184.36563712758706,-184.36563712758706,472.92122102969438,1055.5804660879785,0.0
523204.59901257406,4107374.0504322448,-47500.0,-404.19784508388307,-264.28619706577808,-58.259597422635878,-365.40405278813523,-162.10706468529085,-225.58062682620596,456.87331905625859,-257.44507735140314,-178.22872654280621,178.22872654280621,257.44507735140314,882.45390978223816,0.0
528204.59901257406,4107374.0504322448,-47500.0,-411.36867613606279,-294.29075169331918,-70.304676722635435,-402.56190392700432,-187.7678739705045,-262.5952675772603,503.60565574261659,-256.30447581381657,-207.77533235248555,207.77533235248555,256.30447581381657,969.26603552560562,0.0
533204.59901257406,4107374.0504322448,-47500.0,-412.49557157455661,-327.33072006855969,-85.368443456099655,-441.7652936677004,-217.67163867218727,-305.58895744935654,555.18538503805803,-249.45219724548647,-242.41696838117073,242.41696838117073,249.45219724548647,1064.1982335333669,0.0
538204.59901257406,4107374.0504322448,-47500.0,-405.32415064005886,-363.34966050407206,-104.23101473009628,-482.12138170421417,-252.36111392380676,-355.15664522430416,611.82013462198802,-234.96809797233652,-282.91139475610032,282.91139475610032,234.96809797233652,1167.2699629829997,0.0
543204.59901257406,4107374.0504322448,-47500.0,-387.07331099114941,-402.07742985872176,-127.85430842964995,-522.17404229802639,-292.32024389801347,-411.68161389159695,673.55826366988754,-210.49937428172626,-330.03316614218767,330.03316614218767,210.49937428172626,1278.0955929530289,0.0
548204.59901257406,4107374.0504322448,-47500.0,-354.41437227409511,-442.92963336473298,-157.40492035088138,-559.69657588494294,-337.87220401310776,-475.12049573296412,740.19683400119379,-173.24540725930612,-384.50962745598702,384.50962745598702,173.24540725930612,1395.6993121220005,0.0
553204.59901257406,4107374.0504322448,-47500.0,-303.52779666393246,-484.88255423373846,-194.2641495086811,-591.447846791953,-389.01574315669154,-544.66852403615121,811.15869346953514,-120.00605286810568,-446.91758004295525,446.91758004295525,120.00605286810568,1518.2885088922012,0.0
558204.59901257406,4107374.0504322448,-47500.0,-230.30189839864116,-526.33200187589057,-240.01039735683159,-612.91775033061231,-445.17533485054349,-618.25879069002224,885.33697799623451,-47.345168066636347,-517.52863563700964,517.52863563700964,47.345168066636347,1643.0040161328632,0.0
563204.59901257406,4107374.0504322448,-47500.0,-130.76817339629767,-564.96239818446145,-296.35137708682333,-618.12711692634548,-504.84027758685102,-691.84812674064233,960.91569390701989,48.055346940026709,-596.09627947381955,596.09627947381955,-48.055346940026709,1765.7024508495115,0.0
568204.59901257406,4107374.0504322448,-47500.0,-1.8978323650526523,-597.68452673487798,-364.97443899936866,-599.61635394923769,-565.07955057431036,-758.46116976492794,1035.1981440264935,168.75308733342212,-681.59330786571672,681.59330786571672,-168.75308733342212,1880.8951720477298,0.0
573204.59901257406,4107374.0504322448,-47500.0,157.11036437714128,-620.75349359932136,-447.28002518295727,-548.8690118137572,-620.96120825593562,-807.03614668657679,1104.5287554485542,315.5153745191833,-771.94795098278905,771.94795098278905,-315.5153745191833,1982.0948752987767,0.0
578204.59901257406,4107374.0504322448,-47500.0,342.9910349215408,-630.24640684019755,-543.97459837767644,-457.5687957612364,-665.00314599472131,-821.29274063893126,1164.5069182308371,485.86418377426992,-863.89892695950255,863.89892695950255,-485.86418377426992,2063.0103755129221,0.0
583204.59901257406,4107374.0504322448,-47500.0,546.2119024427268,-623.13209285926007,-654.54882983690698,-320.23141407630692,-686.97804006515264,-779.21441704062158,1210.9414079179626,672.36284906814319,-953.20000843020318,953.20000843020318,-672.36284906814319,2120.2365812170742,0.0
588204.59901257406,4107374.0504322448,-47500.0,749.16483725099454,-599.0994545025145,-776.76981933212755,-138.70143096809258,-674.69715906602244,-654.36905098912018,1242.5004984714367,861.25574661112114,-1035.5010675893091,1035.5010675893091,-861.25574661112114,2157.9634958020306,0.0
593204.59901257406,4107374.0504322448,-47500.0,926.41013852574417,-562.93261032508633,-906.45250822435139,71.632141011247711,-616.69682159628621,-421.10354869916443,1266.4816030061984,1032.7585859264211,-1108.1542765630518,1108.1542765630518,-1032.7585859264211,2193.7157717653176,0.0
598204.59901257406,4107374.0504322448,-47500.0,1049.4769572305988,-526.33209592421372,-1037.8028726253017,275.83209694272176,-507.63678404743456,-66.013166290051601,1304.472515271339,1164.8559522802566,-1172.6363407189574,1172.6363407189574,-1164.8559522802566,2259.4528197846316,0.0
603204.59901257406,4107374.0504322448,-47500.0,1098.1921769030193,-506.89168995682149,-1164.28805527961,418.59893936372356,-355.93305754105984,393.50228124866527,1375.5811790846501,1241.8641145997769,-1236.0530308039777,1236.0530308039777,-1241.8641145997769,2386.9678439016375,0.0
608204.59901257406,4107374.0504322448,-47500.0,1076.6682925958744,-521.69244121904399,-1279.2124927837535,436.27064146233874,-190.20087726503789,888.42058777391401,1461.0366847236528,1265.9042937859792,-1308.937157360607,1308.937157360607,-1265.9042937859792,2576.4581640748811,0.0
613204.59901257406,4107374.0504322448,-47500.0,1024.5409877402312,-575.70875520301729,-1374.762950778548,286.90240092083911,-57.854569849367287,1289.6976905489107,1514.2876377530492,1263.9494454019011,-1397.278864270638,1397.278864270638,-1263.9494454019011,2777.4918752323342,0.0
618204.59901257406,4107374.0504322448,-47500.0,1007.7777340056764,-651.20812822460368,-1439.6933701560829,-9.2406634234607132,-9.940030010730295,1434.4023850168819,1518.4170388272328,1279.4333027059704,-1491.2808621402435,1491.2808621402435,-1279.4333027059704,2913.5963284571462,0.0
623204.59901257406,4107374.0504322448,-47500.0,1080.158234259967,-708.79289854621925,-1458.7664205563105,-347.78107450702885,-74.985393593875386,1197.2748321719757,1603.1890680300849,1343.7526279874967,-1559.6464473068611,1559.6464473068611,-1343.7526279874967,2940.0834159032238,0.0
628204.59901257406,4107374.0504322448,-47500.0,1234.5864481156411,-705.7317105107569,-1417.5640859857872,-573.16806117062652,-237.91118500990632,576.83491606871826,1654.253732926109,1443.4477169993716,-1559.0342314641834,1559.0342314641834,-1443.4477169993716,2893.3761029251518,0.0
633204.59901257406,4107374.0504322448,-47500.0,1390.9553972247161,-621.72927047751216,-1311.289345929818,-564.37734754369319,-443.4545785870298,-276.22740130802498,1659.4279829872594,1516.2567256520381,-1457.6011077216051,1457.6011077216051,-1516.2567256520381,2877.7860067755687,0.0
638204.59901257406,4107374.0504322448,-47500.0,1445.1890529600666,-471.24502496137376,-1150.4304585510224,-308.38726033291522,-625.52523515671737,-1131.190182786348,1701.108290237579,1490.1436738593231,-1255.944133566725,1255.944133566725,-1490.1436738593231,2968.6764034970179,0.0
643204.59901257406,4107374.0504322448,-47500.0,1338.365021810172,-292.22955654707374,-957.78838777889689,104.0829501283099,-739.62345172663174,-1796.3792493508602,1808.0213220277701,1332.3566460417328,-987.62237954486318,987.62237954486318,-1332.3566460417328,3135.4283683799235,0.0
648204.59901257406,4107374.0504322448,-47500.0,1083.6883127515225,-123.50905570192339,-759.30578039622367,546.81511563834022,-775.09825407141329,-2189.3972931339813,1895.7111556204802,1064.4347772569777,-700.32295380252538,700.32295380252538,-1064.4347772569777,3289.7651672733386,0.0
653204.59901257406,4107374.0504322448,-47500.0,741.52423165291361,10.662665198144573,-575.64307441736162,923.05150354345199,-746.28055664448698,-2327.1184682090975,1919.6730699768914,739.74813750844044,-434.76558562595812,434.76558562595812,-739.74813750844044,3367.0163665882383,0.0
658204.59901257406,4107374.0504322448,-47500.0,379.26234318045641,102.83222198202586,-418.66628105347905,1188.1470239465395,-676.80835093467692,-2276.1646190452316,1880.9635517001416,412.55505453115478,-214.46108414773204,214.46108414773204,-412.55505453115478,3348.1567076858341,0.0
663204.59901257406,4107374.0504322448,-47500.0,46.459994359714656,156.83563091966309,-292.27682578940755,1339.1048329360237,-588.43526184538598,-2109.8405783417957,1795.3714940577458,120.39539912554943,-46.554807319510736,46.554807319510736,-120.39539912554943,3244.3985686379315,0.0
668204.59901257406,4107374.0504322448,-47500.0,-230.63495845740883,181.33582795259537,-195.09015505645795,1394.7728036236767,-496.62079248980285,-1887.0115780863293,1680.2697242072331,-118.53408462116838,72.398162759533051,-72.398162759533051,118.53408462116838,3078.7076385533746,0.0
673204.59901257406,4107374.0504322448,-47500.0,-444.12410759222695,185.5103832323617,-123.06492048951755,1380.5119952188629,-410.47409544064232,-1647.5440004897484,1550.0689604788342,-300.49761361109069,150.71327114417824,-150.71327114417824,300.49761361109069,2874.6855159435145,0.0
678204.59901257406,4107374.0504322448,-47500.0,-597.21004715294112,177.05256657499896,-71.34209412393237,1319.9976419959658,-334.35102218150814,-1415.2353749908327,1415.2537217576501,-430.1002080057599,197.77625061910678,-197.77625061910678,430.1002080057599,2651.8808084832517,0.0
683204.59901257406,4107374.0504322448,-47500.0,-698.36935557114305,161.65181097018169,-35.276683639531598,1232.1583969173093,-269.59258567292147,-1202.519481609618,1282.8060136572276,-515.60403533106194,222.10668985673666,-222.10668985673666,515.60403533106194,2424.7133544574453,0.0
688204.59901257406,4107374.0504322448,-47500.0,-757.66479504941458,143.17157657023225,-10.892943736625874,1130.8080641667786,-215.86127381967322,-1014.5827863187836,1157.0024426399875,-566.07082523949362,230.6478450816337,-230.6478450816337,566.07082523949362,2202.9519694488645,0.0
693204.59901257406,4107374.0504322448,-47500.0,-784.76796461296078,124.05406784499624,4.9977174511316296,1025.3743992894372,-172.0188328885568,-852.34836133930514,1040.1888247973957,-589.89659443163907,228.70354654909019,-228.70354654909019,589.89659443163907,1992.6834341432188,0.0
698204.59901257406,4107374.0504322448,-47500.0,-788.08083664961691,105.72929332430782,14.846638888877157,921.90479479804094,-136.64462579041177,-714.44074140520502,933.40450522767492,-594.21323233226417,220.15054541930567,-220.15054541930567,594.21323233226417,1797.2936328037347,0.0
703204.59901257406,4107374.0504322448,-47500.0,-774.47734237319582,88.94977217674446,20.483438901480003,824.00393598006485,-108.31483795947767,-598.40262104857163,836.84543589123757,-584.76336656269029,207.72867795981594,-207.72867795981594,584.76336656269029,1618.2930547452795,0.0
708204.59901257406,4107374.0504322448,-47500.0,-749.35780970616304,74.037151572200528,23.244207619068902,733.5921555733122,-85.735159010799606,-501.4083942470503,750.19085091594275,-566.00314417650952,193.31845123353949,-193.31845123353949,566.00314417650952,1455.9515703792845,0.0
713204.59901257406,4107374.0504322448,-47500.0,-716.83764244873271,61.053100350163689,24.087943235812755,651.47555564075242,-67.790743520261316,-420.65796242407282,672.82643239706385,-541.29402453535772,178.1733158596947,-178.1733158596947,541.29402453535772,1309.7619708144819,0.0
718204.59901257406,4107374.0504322448,-47500.0,-679.97491899619297,49.912542998134718,23.692919401806623,577.75445222829524,-53.552325642274901,-353.57400013591649,603.99183332407665,-513.11194735676668,163.10095379406283,-163.10095379406283,513.11194735676668,1178.7646581920321,0.0
723204.59901257406,4107374.0504322448,-47500.0,-640.98920715903682,40.455766241025643,22.53231453539431,512.10561043220309,-42.261412762649599,-297.88386526739453,542.87476327648494,-483.2397931537194,148.59868141921748,-148.59868141921748,483.2397931537194,1061.7668593593376,0.0
523204.59901257406,4112374.0504322448,-47500.0,-478.96855057078039,-232.62832003783404,-28.136517018465327,-414.72747880449191,-139.13525176828514,-251.33429143643255,485.35369547424125,-325.20637463787978,-123.95631386131652,123.95631386131652,325.20637463787978,942.79497675167136,0.0
528204.59901257406,4112374.0504322448,-47500.0,-496.58135691092372,-260.02824324569366,-34.994072110469695,-461.71249471793351,-161.5168028177776,-295.03627113261865,537.00689150269864,-333.71620256392839,-146.82205751621041,146.82205751621041,333.71620256392839,1039.853341655104,0.0
533204.59901257406,4112374.0504322448,-47500.0,-509.45326529642335,-290.56743954590962,-43.956485125028628,-512.84185315575246,-187.77492568696147,-346.63781473464815,594.46948524509298,-337.774621040699,-174.14164983783013,174.14164983783013,337.774621040699,1146.949403095279,0.0
538204.59901257406,4112374.0504322448,-47500.0,-515.33065095408699,-324.36378398080637,-55.680244325375128,-567.64225810311416,-218.48958530745355,-407.31330836797639,658.13469285035842,-335.48996984980624,-206.74236891395049,206.74236891395049,335.48996984980624,1264.4358095460464,0.0
543204.59901257406,4112374.0504322448,-47500.0,-511.32169120458809,-361.39566499005468,-71.016732820600055,-625.12171032942501,-254.23865007479299,-478.1943675248329,728.25893646945701,-324.44549700380838,-245.55288606486076,245.55288606486076,324.44549700380838,1392.2799872329733,0.0
548204.59901257406,4112374.0504322448,-47500.0,-493.80710611985484,-401.42061620522941,-91.059424080257983,-683.53431147836659,-295.52758067084375,-560.19258691281539,804.86043531428902,-301.62407616961707,-291.57928913296678,291.57928913296678,301.62407616961707,1529.847043667663,0.0
553204.59901257406,4112374.0504322448,-47500.0,-458.40113739787057,-443.86739837995299,-117.19310694645419,-740.07824852954923,-342.66942341573315,-653.69888661631285,887.57458767866626,-263.37136270296617,-345.85293728397733,345.85293728397733,263.37136270296617,1675.6104966138203,0.0
558204.59901257406,4112374.0504322448,-47500.0,-400.02424023390955,-487.70210156155798,-151.1361383919452,-790.53373722243771,-395.59121350940609,-758.09911285378348,975.45423507574196,-205.44568886308838,-409.335603838797,409.335603838797,205.44568886308838,1826.7872044342598,0.0
563204.59901257406,4112374.0504322448,-47500.0,-313.18829445774179,-531.28090246044712,-194.95795193808664,-828.88072605187278,-453.53876126674544,-871.03051016031486,1066.7070398866563,-123.23399375941261,-482.76570276828005,482.76570276828005,123.23399375941261,1978.9190023038411,0.0
568204.59901257406,4112374.0504322448,-47500.0,-192.64559453704712,-572.22546280174106,-251.04085027381331,-847.00189525545773,-514.65358330063714,-987.30036215207065,1158.3737366866148,-12.252879115623443,-566.4324520045659,566.4324520045659,12.252879115623443,2125.4763330030514,0.0
573204.59901257406,4112374.0504322448,-47500.0,-34.601991119766005,-607.40114488390907,-321.937866101628,-834.7000338429342,-575.41880382270745,-1097.4268686858322,1245.9843755528586,130.90759017151515,-659.88245643786013,659.88245643786013,-130.90759017151515,2257.6696393773564,0.0
578204.59901257406,4112374.0504322448,-47500.0,161.30974592154487,-633.14835938079909,-410.06421405231202,-780.46157735737506,-630.0425039856251,-1185.9110998714475,1323.3106769546134,307.04361676228331,-761.61184145136576,761.61184145136576,-307.04361676228331,2364.8588385977773,0.0
583204.59901257406,4112374.0504322448,-47500.0,389.27399495003993,-645.99652924430279,-517.16309798976079,-673.66179518822821,-670.01269210071575,-1229.7256897805357,1382.513664603397,512.18258979710708,-868.89015137508818,868.89015137508818,-512.18258979710708,2436.2703109304393,0.0
588204.59901257406,4112374.0504322448,-47500.0,634.2906841945744,-644.10147583110597,-643.54001040277217,-509.07352043717037,-684.36149942150723,-1198.2870125686688,1415.4125099177302,735.22594033097425,-977.9916853686882,977.9916853686882,-735.22594033097425,2465.0736164212813,0.0
593204.59901257406,4112374.0504322448,-47500.0,870.61067023802764,-629.38804479686212,-787.1830279024432,-294.11797384312342,-661.56402299793808,-1057.3908186168694,1417.6918227306019,956.66833430911095,-1085.157889517694,1085.157889517694,-956.66833430911095,2455.6355426609866,0.0
598204.59901257406,4112374.0504322448,-47500.0,1064.7580539527728,-609.55927262892885,-943.02501286028473,-57.398913907014283,-594.07982372304332,-780.63364651089478,1400.2174340317572,1150.7350740110596,-1188.2747874573174,1188.2747874573174,-1150.7350740110596,2432.052857372631,0.0
603204.59901257406,4112374.0504322448,-47500.0,1186.5124473352739,-597.80050074591202,-1102.5515051073044,146.93335994280991,-485.41750774991738,-370.63559466001624,1402.9648535726499,1293.3213111385019,-1288.1927230410668,1288.1927230410668,-1293.3213111385019,2438.004793857614,0.0
608204.59901257406,4112374.0504322448,-47500.0,1227.2423211744547,-607.46183292285536,-1253.5368049913191,248.72453101334682,-356.45361217375955,114.35557522730851,1448.8497039303179,1374.9967645356603,-1387.3002249033614,1387.3002249033614,-1374.9967645356603,2511.126165337972,0.0
613204.59901257406,4112374.0504322448,-47500.0,1215.5625027276203,-641.8453224908418,-1379.4531399284022,193.22473819757349,-244.14791287857918,545.84502114633403,1490.581230205891,1411.5419423190269,-1483.5756075164436,1483.5756075164436,-1411.5419423190269,2640.346305384006,0.0
618204.59901257406,4112374.0504322448,-47500.0,1211.8667379346252,-685.75176712633015,-1459.4053977194651,-13.077654229274742,-187.2869924747946,749.8174085617112,1509.3567293250667,1439.229686081783,-1562.9213826245848,1562.9213826245848,-1439.229686081783,2762.5049670120475,0.0
623204.59901257406,4112374.0504322448,-47500.0,1270.5058849364943,-708.89137246440418,-1471.7617864996926,-274.97909642698733,-204.37119732682402,584.72698216471338,1585.9417472876016,1488.440538574705,-1597.8083656630279,1597.8083656630279,-1488.440538574705,2823.023126656261,0.0
628204.59901257406,4112374.0504322448,-47500.0,1389.3080226850393,-683.17220737399248,-1403.2771139303072,-440.35827057894068,-280.27538904970521,37.792169432676019,1639.7871859886186,1550.8939177735372,-1558.0309448018068,1558.0309448018068,-1550.8939177735372,2840.5079930273628,0.0
633204.59901257406,4112374.0504322448,-47500.0,1495.6902623716571,-601.17803817038305,-1258.5522320147463,-389.37769713907682,-374.93028714223288,-742.03871143050537,1639.9952256286397,1574.0570816684076,-1428.5178863845754,1428.5178863845754,-1574.0570816684076,2896.6951310044265,0.0
638204.59901257406,4112374.0504322448,-47500.0,1495.0637496324111,-479.81982865824352,-1060.9118528489535,-110.76626628352484,-447.66002549836747,-1521.4388909384454,1707.01085294002,1497.4068839830381,-1220.5671070952442,1220.5671070952442,-1497.4068839830381,3041.5258511771431,0.0
643204.59901257406,4112374.0504322448,-47500.0,1338.5283615118951,-347.68743699633302,-842.82265359174653,304.03791117001822,-476.80447792381614,-2109.3537190547268,1855.3754369153617,1298.0984445661381,-967.31914165813475,967.31914165813475,-1298.0984445661381,3232.2045669341805,0.0
648204.59901257406,4112374.0504322448,-47500.0,1046.7527712352605,-229.23119530064648,-633.48180233701009,731.80869262257499,-462.48003703979043,-2428.5385480875921,1954.2554321418277,1003.1355692532152,-708.02594578711205,708.02594578711205,-1003.1355692532152,3386.3652214281692,0.0
653204.59901257406,4112374.0504322448,-47500.0,682.7493789443696,-137.10442629918896,-451.57142350356247,1082.0617079401823,-417.46988762892573,-2501.702800674504,1973.4896437627162,666.25785295911453,-473.46818004764816,473.46818004764816,-666.25785295911453,3450.6575934360194,0.0
658204.59901257406,4112374.0504322448,-47500.0,312.21437481919457,-73.220644209415568,-304.72245741372876,1316.9617489453067,-357.04933141132784,-2398.7097711358806,1924.79784194951,338.61112682444787,-280.0836604706044,280.0836604706044,-338.61112682444787,3414.5209082700007,0.0
663204.59901257406,4112374.0504322448,-47500.0,-19.157862200906948,-33.365656563422419,-192.67544837606323,1438.6371217363358,-293.29588751844233,-2193.051307687479,1828.6200280857684,53.455644966808848,-131.75401067778,131.75401067778,-53.455644966808848,3293.8047695501873,0.0
668204.59901257406,4112374.0504322448,-47500.0,-289.14929677780674,-11.31388443826374,-110.9803713051687,1468.769601137205,-233.67184503840662,-1941.8749809679966,1704.1645319791883,-174.82320187169285,-24.605393413047111,24.605393413047111,174.82320187169285,3113.4795232260058,0.0
673204.59901257406,4112374.0504322448,-47500.0,-493.02356747646354,-1.1889146597041931,-53.734973148438733,1433.7175207277721,-181.77871474432564,-1682.6721802301047,1566.3771400428509,-345.18723357721865,48.600367846322598,-48.600367846322598,345.18723357721865,2897.6904405847172,0.0
678204.59901257406,4112374.0504322448,-47500.0,-636.05585264161982,1.6258694951547419,-15.154251217032561,1357.0501476304091,-138.66652647291633,-1436.9746092050088,1425.7100145461795,-463.83862707888215,95.649504169396323,-95.649504169396323,463.83862707888215,2665.8450533416303,0.0
683204.59901257406,4112374.0504322448,-47500.0,-727.88367514774711,0.38583006949648657,9.7270578898791644,1257.0745078620362,-103.96314674603538,-1215.3602742069572,1288.8968352842198,-539.81126776928454,123.48714111136013,-123.48714111136013,539.81126776928454,2431.9550589765568,0.0
688204.59901257406,4112374.0504322448,-47500.0,-779.10076784806733,-2.786294023652661,24.862025466768131,1146.835897793612,-76.643625509429199,-1021.6204296483388,1159.9205487747681,-582.41334373664495,137.74076652789694,-137.74076652789694,582.41334373664495,2205.3327412955418,0.0
693204.59901257406,4112374.0504322448,-47500.0,-799.52566225826752,-6.5987849879801059,33.249613749618369,1035.0283407367149,-55.483723495468766,-855.67598933403235,1040.8539578156833,-599.99453276588656,142.71349332995612,-142.71349332995612,599.99453276588656,1991.6438147124825,0.0
698204.59901257406,4112374.0504322448,-47500.0,-797.49964221593973,-10.323597078471918,37.089765225966367,927.07558798918092,-39.296606780911084,-715.45388109158819,932.50873364241215,-599.50190172815792,141.57095460442093,-141.57095460442093,599.50190172815792,1793.922044067876,0.0
703204.59901257406,4112374.0504322448,-47500.0,-779.74005583735311,-13.593487521930015,37.955897055541683,826.08411396315228,-27.03687715743736,-598.02009848270245,834.90044371993588,-586.44592689419005,136.57634182116502,-136.57634182116502,586.44592689419005,1613.3968381972213,0.0
708204.59901257406,4112374.0504322448,-47500.0,-751.45941595958368,-16.260030556733053,36.9502706511296,733.59129878100998,-17.832250654660537,-500.22778471560804,747.56990740371634,-565.05184615950566,129.31022972683451,-129.31022972683451,565.05184615950566,1450.1204877651815,0.0
713204.59901257406,4112374.0504322448,-47500.0,-716.58824282497926,-18.299968864170523,34.830879925707336,650.11583086465862,-10.978783367555804,-419.06210678039542,669.79831959655712,-538.47406488141644,120.852612247862,-120.852612247862,538.47406488141644,1303.420008968533,0.0
718204.59901257406,4112374.0504322448,-47500.0,-678.01932953481412,-19.756010973690692,32.109274945762827,575.54659721960161,-5.9206781345945814,-351.80386259513864,600.74808692607428,-509.01383879772038,111.92459264312944,-111.92459264312944,509.01383879772038,1172.2124173480822,0.0
723204.59901257406,4112374.0504322448,-47500.0,-637.8312005362933,-20.701203361004833,29.123534868171479,509.40617700562234,-2.225314766967986,-296.08703911090254,539.54973546917165,-478.31138531860341,102.99393949941071,-102.99393949941071,478.31138531860341,1055.2128881135593,0.0
523204.59901257406,4117374.0504322448,-47500.0,-543.99170126428044,-189.31504076611625,-2.2745310542776025,-457.51131117112152,-109.20219115882659,-273.69100998522322,510.83308790206945,-385.26580665428605,-64.354142341629796,64.354142341629796,385.26580665428605,995.6601527689171,0.0
528204.59901257406,4117374.0504322448,-47500.0,-570.81557911029245,-211.69480834695702,-4.507375698599752,-513.0938251559345,-126.49806021485178,-323.24304536258001,566.94645684805164,-402.51956451883683,-79.12691473072897,79.12691473072897,402.51956451883683,1101.8348140778021,0.0
533204.59901257406,4117374.0504322448,-47500.0,-594.11880336884622,-236.78536211787994,-7.9618600263255406,-574.70305015141366,-146.78760321798333,-382.40484478361674,629.78046927389732,-416.55281516036547,-97.318185756153923,97.318185756153923,416.55281516036547,1219.8350985836382,0.0
538204.59901257406,4117374.0504322448,-47500.0,-611.68616897145716,-264.76995512133891,-13.143086473520855,-642.26542452452975,-170.53419943578803,-452.88410854420238,699.92332175314777,-425.54808894475048,-119.71614766572225,119.71614766572225,425.54808894475048,1350.3672814469503,0.0
543204.59901257406,4117374.0504322448,-47500.0,-620.57884158982881,-295.75498334565947,-20.743852462215614,-715.24474411746473,-198.21272381519341,-536.5116386102593,777.8619114171911,-427.09734377887207,-147.27012922469032,147.27012922469032,427.09734377887207,1493.8024879964403,0.0
548204.59901257406,4117374.0504322448,-47500.0,-616.98569522449145,-329.71548512533764,-31.706603383066533,-792.38922145465915,-230.26281737306348,-635.10796181084731,863.87993887419998,-418.07580531598535,-181.105952802552,181.105952802552,418.07580531598535,1649.9480140426651,0.0
553204.59901257406,4117374.0504322448,-47500.0,-596.09761887507671,-366.41992415522725,-47.299652425239415,-871.38596429928293,-267.00673492748223,-750.22919559684613,957.9055730230084,-394.52956162694119,-222.52906147732523,222.52906147732523,394.52956162694119,1817.7271013740967,0.0
558204.59901257406,4117374.0504322448,-47500.0,-552.059561525974,-405.33228587668964,-69.204979119620177,-948.41088127442436,-308.51381697852975,-882.72148906468226,1059.2901340966353,-351.61834261815392,-273.0034767038581,273.0034767038581,351.61834261815392,1994.7486548172067,0.0
563204.59901257406,4117374.0504322448,-47500.0,-478.10002013224835,-445.49506992038528,-99.60769298706532,-1017.5851749628029,-354.38792634481086,-1031.9849049546551,1166.4971649452409,-283.69003273831601,-334.08775191006833,334.08775191006833,283.69003273831601,2176.7624652838795,0.0
568204.59901257406,4117374.0504322448,-47500.0,-367.00537354564977,-485.41169769740151,-141.26325670453136,-1070.4056222897395,-403.45241653725452,-1194.8192126133704,1276.6839377664669,-184.61690245888244,-407.30219701200031,407.30219701200031,184.61690245888244,2357.0336014897189,0.0
573204.59901257406,4117374.0504322448,-47500.0,-212.19380296292633,-522.97581001649644,-197.49516240039259,-1095.3396236104893,-453.31643474253815,-1363.7239928114425,1385.176382665717,-48.593522550385927,-493.89748308384583,493.89748308384583,48.593522550385927,2525.7610522945815,0.0
578204.59901257406,4117374.0504322448,-47500.0,-9.7156601788939163,-555.54926964974106,-272.04040495064254,-1078.0110627444365,-499.84948324404036,-1524.6156580796192,1484.8927323115395,128.34288625171595,-594.50657341446333,594.50657341446333,-128.34288625171595,2669.8534725666887,0.0
583204.59901257406,4117374.0504322448,-47500.0,238.55975393256639,-580.36712462045841,-368.62103413907232,-1002.7833867608829,-536.70808023563757,-1654.2663406686775,1565.9040973650649,345.85108577465951,-708.71179552846559,708.71179552846559,-345.85108577465951,2773.7230835983537,0.0
588204.59901257406,4117374.0504322448,-47500.0,520.79376396472253,-595.5002933223185,-490.10106063018526,-856.96806845783874,-555.30898931361799,-1718.6314585644388,1615.6032875197848,596.01838947927592,-834.66815329514168,834.66815329514168,-596.01838947927592,2822.2790677248836,0.0
593204.59901257406,4117374.0504322448,-47500.0,811.59328633712801,-601.46865795976771,-637.14204594851071,-638.82792341013351,-546.02533272750725,-1674.8623088307156,1620.5461950267375,860.39227336368958,-969.05542865290977,969.05542865290977,-860.39227336368958,2807.687196880222,0.0
598204.59901257406,4117374.0504322448,-47500.0,1072.6853157258956,-602.95667129316882,-806.44892405572693,-368.75772203979767,-501.60517243847653,-1481.7413488029181,1572.7627763514092,1110.0215190481345,-1107.5707627823217,1107.5707627823217,-1110.0215190481345,2740.3595985494408,0.0
603204.59901257406,4117374.0504322448,-47500.0,1262.9152284514093,-608.82140745690833,-988.95927416555617,-98.105516271242266,-422.96795917486992,-1122.9574656119426,1492.1177136915546,1312.215966531066,-1245.5349065872106,1245.5349065872106,-1312.215966531066,2658.6108554148823,0.0
608204.59901257406,4117374.0504322448,-47500.0,1358.9764454538129,-627.83774423728232,-1168.5234237995958,96.43902638697655,-324.55316754180637,-640.03537238838874,1473.3152641151391,1445.0453461368761,-1377.10839224754,1377.10839224754,-1445.0453461368761,2618.8257217881337,0.0
613204.59901257406,4117374.0504322448,-47500.0,1376.6226830013049,-660.27884198555546,-1321.8078547714758,144.5636000770873,-232.70892470640567,-154.88898669912709,1527.2501776457534,1512.2777507040089,-1491.9499373215692,1491.9499373215692,-1512.2777507040089,2650.9315692743589,0.0
618204.59901257406,4117374.0504322448,-47500.0,1370.4511296695064,-692.09294299327314,-1420.8693066596418,33.517423181674374,-172.64965215378902,151.38281472283896,1567.0880928112658,1543.6282979361476,-1571.981045758861,1571.981045758861,-1543.6282979361476,2721.1319187690328,0.0
623204.59901257406,4117374.0504322448,-47500.0,1398.0621555553512,-700.87262107476386,-1440.4484348188209,-157.99608575342893,-151.38665194984424,119.94754613910291,1597.4951881988507,1571.271461214254,-1594.449627078407,1594.449627078407,-1571.271461214254,2771.2969543793401,0.0
628204.59901257406,4117374.0504322448,-47500.0,1468.5274763073794,-671.82043190649438,-1369.1493927167255,-287.51639411602207,-153.32591421014789,-283.25754990101296,1603.7597834313724,1596.8856983954875,-1542.6147631466051,1542.6147631466051,-1596.8856983954875,2796.9112534027067,0.0
633204.59901257406,4117374.0504322448,-47500.0,1524.7989984242836,-608.44768273156797,-1217.3855029054703,-235.86172627633465,-154.2516478288031,-929.63813578790837,1548.7426155416006,1582.2094103900417,-1415.9015101393793,1415.9015101393793,-1582.2094103900417,2856.9593519005643,0.0
638204.59901257406,4117374.0504322448,-47500.0,1485.9072008901592,-527.84551089593265,-1014.3384035847442,16.551997961864654,-139.06769561034119,-1601.1460104596367,1614.7415867052284,1478.7462787478519,-1231.2440687176856,1231.2440687176856,-1478.7462787478519,2992.8979965677704,0.0
643204.59901257406,4117374.0504322448,-47500.0,1309.2749096465204,-447.91577597810999,-795.44687683238419,391.71965764634734,-107.33983935988353,-2113.5330122463579,1803.4968614464196,1268.4709119100678,-1015.9472036542054,1015.9472036542054,-1268.4709119100678,3168.310825269898,0.0
648204.59901257406,4117374.0504322448,-47500.0,1014.0200362659384,-379.19611800672863,-589.82822497972859,778.97356219422886,-67.158169028308308,-2387.7140549932633,1910.7630206786332,976.12010856716063,-797.86643402486754,797.86643402486754,-976.12010856716063,3309.6159813153781,0.0
653204.59901257406,4117374.0504322448,-47500.0,657.34749716379815,-324.54072497366644,-414.51510601222498,1095.5644241268037,-27.287365915264314,-2439.3335537102262,1931.7657838420851,649.82425026518831,-598.0980554930768,598.0980554930768,-649.82425026518831,3367.2101847502508,0.0
658204.59901257406,4117374.0504322448,-47500.0,298.89263567130007,-282.4034236200784,-275.32633025252755,1306.3171098764519,6.6492154777626116,-2330.1336791057088,1884.3701836809514,335.37826667377215,-428.32134650961893,428.32134650961893,-335.37826667377215,3330.2628882181593,0.0
663204.59901257406,4117374.0504322448,-47500.0,-19.929244610749365,-249.80932616681025,-170.69401751232468,1412.7756463189266,32.419901684993853,-2126.9491194079305,1790.2156667930631,62.545119754484688,-291.97976210179957,291.97976210179957,-62.545119754484688,3212.9068964890066,0.0
668204.59901257406,4117374.0504322448,-47500.0,-279.17047097918362,-223.92372585457127,-95.458647032577872,1434.6994369814215,50.068648083327332,-1882.40019100822,1668.471697679724,-155.93498714290953,-187.13929453724214,187.13929453724214,155.93498714290953,3038.3649159544675,0.0
673204.59901257406,4117374.0504322448,-47500.0,-474.91109629057485,-202.58174386756707,-43.462262141727869,1396.3607766071029,60.772472718639534,-1631.2665722778818,1533.7872860460086,-319.41915216871132,-109.24749150852367,109.24749150852367,319.41915216871132,2829.4668278347526,0.0
678204.59901257406,4117374.0504322448,-47500.0,-612.41885281552663,-184.31396704107971,-8.9360326612934777,1319.581463748659,66.071570273104669,-1393.6204475983325,1396.338397304188,-433.85044457177446,-53.039528975403272,53.039528975403272,433.85044457177446,2604.7660506046409,0.0
683204.59901257406,4117374.0504322448,-47500.0,-700.95244443439185,-168.19769649551768,12.937246541110293,1221.3761506586679,67.452429302169705,-1179.3487108326938,1262.6655436883652,-507.74968824753023,-13.575918484439143,13.575918484439143,507.74968824753023,2377.7770357072359,0.0
688204.59901257406,4117374.0504322448,-47500.0,-750.61783682661974,-153.68511483134941,25.918797077233283,1113.9027788953201,66.168210615618008,-991.98279563924098,1136.6344105638402,-549.87669699155776,13.327566228361945,-13.327566228361945,549.87669699155776,2157.5507322282324,0.0
693204.59901257406,4117374.0504322448,-47500.0,-770.7675293809632,-140.46239021269551,32.81912397098116,1005.2818809052253,63.193434279736508,-831.41237772188742,1020.2594226568976,-568.0970164385285,31.012565123123352,-31.012565123123352,568.0970164385285,1949.6427769278725,0.0
698204.59901257406,4117374.0504322448,-47500.0,-769.34983869955545,-128.35039113512639,35.673921346277609,900.5853204947847,59.244038184409177,-695.64032649554076,914.33163593278516,-568.96942138092345,42.050924972176745,-42.050924972176745,568.96942138092345,1757.0632410727155,0.0
703204.59901257406,4117374.0504322448,-47500.0,-752.77366412763138,-117.24121900751925,35.922934799395946,802.71683483728714,54.822251226689083,-581.85042006624917,818.86891951455732,-557.7115323223619,48.373939875101229,-48.373939875101229,557.7115323223619,1581.0649569312802,0.0
708204.59901257406,4117374.0504322448,-47500.0,-726.02136024650724,-107.06135244768295,34.564193920948526,713.10836237152591,50.265844131811157,-487.02211910062937,733.42800444086606,-538.33790409906669,51.406647989234443,-51.406647989234443,538.33790409906669,1421.748439942598,0.0
713204.59901257406,4117374.0504322448,-47500.0,-692.85789609566268,-97.751231131922353,32.276765727405966,632.233334304452,45.79156682957548,-408.25877853233487,657.31225111477852,-513.85717766806533,52.1869005609787,-52.1869005609787,513.85717766806533,1278.4982322961471,0.0
718204.59901257406,4117374.0504322448,-47500.0,-656.0605109333975,-89.255733155224419,29.513808430640371,559.97098995440706,41.53048473980828,-342.94446906161147,589.7080924201864,-486.47346941074034,51.462370927749475,-51.462370927749475,486.47346941074034,1150.2895790728794,0.0
723204.59901257406,4117374.0504322448,-47500.0,-617.63098841359988,-81.52030172460033,26.570885418555275,495.8553639585337,37.554834134712273,-288.80077121307272,529.77075471407954,-457.76616442908625,49.766348078812598,-49.766348078812598,457.76616442908625,1035.8946497012178,0.0
523204.59901257406,4122374.0504322448,-47500.0,-595.86546515890439,-136.33233472196218,16.989790387108048,-491.69518112931212,-73.506709021005392,-291.63080162246177,532.03112607210358,-434.17178904616515,-2.8694579512526559,2.8694579512526559,434.17178904616515,1038.7300712903229,0.0
528204.59901257406,4122374.0504322448,-47500.0,-629.84628771300481,-151.6595318336731,18.184047629150427,-554.02363174061281,-84.205270466766976,-345.82343480056409,591.77708864476301,-458.41202270099973,-8.9325412570618994,8.9325412570618994,458.41202270099973,1152.2399268272418,0.0
533204.59901257406,4122374.0504322448,-47500.0,-661.23510338825861,-168.80450162582835,18.820595518107446,-623.84002172609166,-96.571436770051534,-410.97628297773366,658.98597205102715,-480.4104370195106,-17.178469612396356,17.178469612396356,480.4104370195106,1279.0259647149821,0.0
538204.59901257406,4122374.0504322448,-47500.0,-687.84389657212967,-187.91225644007875,18.515544952205314,-701.38057833855567,-110.81362474614109,-489.21982948413461,734.40910840660706,-498.41347587851976,-28.292437991964135,28.292437991964135,498.41347587851976,1420.0955493263475,0.0
543204.59901257406,4122374.0504322448,-47500.0,-706.6955126230439,-209.09752642540644,16.708222903983284,-786.46334252410884,-127.12265159866261,-582.94163191735277,818.72974534276875,-510.02873054079407,-43.162404878254762,43.162404878254762,510.02873054079407,1576.1737111430298,0.0
548204.59901257406,4122374.0504322448,-47500.0,-713.82898862386764,-232.42115017064316,12.591043709940609,-878.22207732392576,-145.63784863250086,-694.69028867343786,912.46387476635982,-512.05967785937924,-62.931129961986755,62.931129961986755,512.05967785937924,1747.472915805886,0.0
553204.59901257406,4122374.0504322448,-47500.0,-704.10581614660202,-257.85818923296222,5.0168813889541006,-974.72735208745678,-166.39222886181344,-826.96287903459211,1015.8067633913496,-500.33417428419557,-89.054095889650142,89.054095889650142,500.33417428419557,1933.3601530419987,0.0
558204.59901257406,4122374.0504322448,-47500.0,-671.06537877238713,-285.25787876341712,-7.6182729574548533,-1072.4670771187577,-189.22777533389902,-981.79766248991632,1128.4022315595273,-469.5615082312595,-123.35684637866288,123.35684637866288,469.5615082312595,2131.8924851521938,0.0
563204.59901257406,4122374.0504322448,-47500.0,-606.9259502454662,-314.29826757596231,-27.514572120299352,-1165.6719295822531,-213.66989016391636,-1160.0544125191354,1249.0053362971839,-413.28977171254661,-168.07685867784124,168.07685867784124,413.28977171254661,2339.1975924714343,0.0
568204.59901257406,4122374.0504322448,-47500.0,-502.90772900599336,-344.44418685651215,-57.613798118682894,-1245.516757763867,-238.74935361283971,-1360.2149801887854,1375.0056255789852,-324.09823519500196,-225.85948765457593,225.85948765457593,324.09823519500196,2548.7018775082879,0.0
573204.59901257406,4122374.0504322448,-47500.0,-350.17354844240879,-374.93181000375534,-101.71042558597992,-1299.3451683382114,-262.76759980974634,-1576.4955819398449,1501.7865146606496,-194.25449932084703,-299.65589881069229,299.65589881069229,194.25449932084703,2750.2819993175694,0.0
578204.59901257406,4122374.0504322448,-47500.0,-141.82204639089531,-404.82872153176146,-164.44221915729022,-1310.3177898123579,-283.02498165970667,-1796.089057406748,1621.9354577674471,-17.182035552481324,-392.44337398324467,392.44337398324467,17.182035552481324,2929.58318593587,0.0
583204.59901257406,4122374.0504322448,-47500.0,123.5856518295594,-433.25815677667356,-251.00384107141483,-1258.3617915662362,-295.59944102765132,-1995.6323080605896,1724.4373734928956,209.86154459340892,-506.67301151603567,506.67301151603567,-209.86154459340892,3068.1042101011485,0.0
588204.59901257406,4122374.0504322448,-47500.0,436.85529627130211,-459.90801319650211,-366.34333717745875,-1123.9684263462896,-295.41678989933189,-2137.8745216355369,1794.2322257989767,481.74265741724486,-643.3882986470021,643.3882986470021,-481.74265741724486,3145.2530359400967,0.0
593204.59901257406,4122374.0504322448,-47500.0,772.62703772671966,-485.8617401734366,-513.56172095621446,-896.76235782051822,-277.10349644372019,-2171.5161135931912,1812.9426637722991,780.89998340467253,-801.09435175799729,801.09435175799729,-780.89998340467253,3144.3009886736036,0.0
598204.59901257406,4122374.0504322448,-47500.0,1087.5941507436062,-514.36650986080008,-691.37286011612673,-589.28292660180364,-237.27774592896216,-2040.1171985600213,1762.0408763342921,1075.235912943423,-974.655918575079,974.655918575079,-1075.235912943423,3063.9175264159571,0.0
603204.59901257406,4122374.0504322448,-47500.0,1329.3475723266292,-550.26169161682662,-890.98050866877406,-250.7176389107851,-178.30858277268158,-1706.9801772155156,1630.1633753375418,1323.5378720246028,-1154.5174855812518,1154.5174855812518,-1323.5378720246028,2932.5454587643871,0.0
608204.59901257406,4122374.0504322448,-47500.0,1459.8513291330562,-596.29657071598797,-1093.6377052212129,33.901061395085819,-111.22919708294074,-1194.9046316288795,1453.3903072614212,1491.6683672228303,-1326.1907972073188,1326.1907972073188,-1491.6683672228303,2810.0565251541689,0.0
613204.59901257406,4122374.0504322448,-47500.0,1483.4470423022144,-646.96219496416279,-1271.0679493996602,175.52637382360876,-52.613894552975616,-618.30531666076081,1529.1405266856621,1572.8618869540906,-1470.0989067005903,1470.0989067005903,-1572.8618869540906,2751.6941819304966,0.0
618204.59901257406,4122374.0504322448,-47500.0,1452.8788193986891,-686.25605237543243,-1390.8851006415757,138.97565683245642,-12.87350745926584,-166.84412129950934,1584.3054395367308,1593.8163051488389,-1563.8114806052583,1563.8114806052583,-1593.8163051488389,2752.3931346652525,0.0
623204.59901257406,4122374.0504322448,-47500.0,1434.6622141730604,-696.66184209592666,-1426.9911535292656,-15.070820244584999,14.907557865967464,-20.794706398611932,1591.5555504494387,1593.3802148225943,-1589.4496959277819,1589.4496959277819,-1593.3802148225943,2756.7667488623406,0.0
628204.59901257406,4122374.0504322448,-47500.0,1454.5662508584694,-673.96420466588052,-1370.6162947815549,-152.61241048180779,50.347782035955952,-243.01668630110819,1572.0910763594827,1587.2587750295045,-1542.8913992884147,1542.8913992884147,-1587.2587750295045,2740.0040418518706,0.0
633204.59901257406,4122374.0504322448,-47500.0,1474.2000727840477,-631.148557174134,-1234.7355529821148,-149.85372203823576,106.8380676728994,-735.73029446766611,1504.4348412435656,1552.5526440478625,-1435.577201803866,1435.577201803866,-1552.5526440478625,2744.489458194927,0.0
638204.59901257406,4122374.0504322448,-47500.0,1424.7233419456256,-586.52140372220515,-1048.1990630391922,30.469056936693516,179.3275188635223,-1304.4510014324617,1495.5750422415517,1449.6896712691155,-1287.1863840231413,1287.1863840231413,-1449.6896712691155,2818.8621241929463,0.0
643204.59901257406,4122374.0504322448,-47500.0,1263.3227526725993,-550.48666920527523,-843.86435749012685,333.27223924239621,250.51022195113131,-1771.7526391448753,1662.9400214284262,1259.0091156911481,-1117.5530583046889,1117.5530583046889,-1259.0091156911481,2947.3772063336532,0.0
648204.59901257406,4122374.0504322448,-47500.0,999.01890074643018,-523.12022021290159,-648.43302899131322,665.03084082531052,304.60380476728216,-2048.5012437208234,1769.1224968873771,996.16612077386287,-943.19548692506294,943.19548692506294,-996.16612077386287,3067.0746216195089,0.0
653204.59901257406,4122374.0504322448,-47500.0,676.79748553261857,-499.60805044132593,-478.1147713599205,949.21215281923435,334.79898804936323,-2132.3444784034737,1797.9844775313895,699.40257270906272,-776.65319581792392,776.65319581792392,-699.40257270906272,3125.5231948810651,0.0
658204.59901257406,4122374.0504322448,-47500.0,347.7615098616227,-475.52290507947396,-339.35293758565837,1148.2539226452825,342.39685701471564,-2068.3004352988532,1763.2631612779835,408.20779020006995,-626.27762674001315,626.27762674001315,-408.20779020006995,3104.0142805330715,0.0
663204.59901257406,4122374.0504322448,-47500.0,49.745139996230975,-448.75702208294643,-231.86741600674785,1257.6645007338011,332.74302790328824,-1911.9342657812163,1683.6376744545628,150.20762749914047,-496.34832199973243,496.34832199973243,-150.20762749914047,3009.405343736451,0.0
668204.59901257406,4122374.0504322448,-47500.0,-197.37604621669149,-419.18260776931373,-151.8113335163689,1291.139447717333,311.89822570658674,-1709.9657620870894,1576.3830700485423,-61.254945654931419,-387.81677412228925,387.81677412228925,61.254945654931419,2859.9005950134888,0.0
673204.59901257406,4122374.0504322448,-47500.0,-388.09595488970314,-387.70819669072944,-94.068159558890088,1268.3573248449331,284.98818012060116,-1494.9351039185558,1455.115896906135,-223.77453995199303,-299.42428166786846,299.42428166786846,223.77453995199303,2675.4037746211457,0.0
678204.59901257406,4122374.0504322448,-47500.0,-525.69450873918447,-355.53882502006462,-53.583177392400451,1208.1784180732736,255.74773319806221,-1286.6866097712907,1329.5654038801067,-341.37747048607741,-228.76254158538805,228.76254158538805,341.37747048607741,2473.0144819781881,0.0
683204.59901257406,4122374.0504322448,-47500.0,-617.64770142123189,-323.77653232040501,-25.975805205129678,1125.9331320875092,226.63058478481221,-1095.7854198047175,1206.1704945798901,-420.96374575518348,-173.04114762698532,173.04114762698532,420.96374575518348,2265.6889039147641,0.0
688204.59901257406,4122374.0504322448,-47500.0,-672.67918652008348,-293.26660252124128,-7.720085904799789,1032.9500914655453,199.09826104020053,-926.73791811609499,1088.8760143296402,-470.08516518623799,-129.54311824511828,129.54311824511828,470.08516518623799,2062.4134012713339,0.0
693204.59901257406,4122374.0504322448,-47500.0,-699.15831647999937,-264.57644695662503,3.8922474006946044,937.03912856495299,173.91391449808091,-780.41218987134869,979.85614556412077,-495.77867439578392,-95.846374264054333,95.846374264054333,495.77867439578392,1868.9235115502588,0.0
698204.59901257406,4122374.0504322448,-47500.0,-704.37717923378455,-238.03252759741386,10.876198067549966,843.2509501552845,151.38203419245491,-655.67371273925539,880.08640505161009,-504.07251879667996,-69.90022587483071,69.90022587483071,504.07251879667996,1688.5107671313212,0.0
703204.59901257406,4122374.0504322448,-47500.0,-694.33224020367436,-213.77478725730322,14.696879902453535,754.61547081163769,131.52446291164264,-550.42049975642021,789.76598358758827,-499.86933342958037,-50.023578914605679,50.023578914605679,499.86933342958037,1522.7356388726446,0.0
708204.59901257406,4122374.0504322448,-47500.0,-673.76409003731692,-191.80996486058774,16.400976032696011,672.75296764957773,114.20182767117181,-462.20184328553086,708.61566696507919,-487.01554678550872,-34.867202961126935,34.867202961126935,487.01554678550872,1371.9921855828591,0.0
713204.59901257406,4122374.0504322448,-47500.0,-646.31123169134548,-172.05644476649172,16.725377583243279,598.34155711434732,99.193158207232713,-388.56690530447582,636.08202316101585,-468.44781529165397,-23.363620406743451,23.363620406743451,468.44781529165397,1235.9294980572902,0.0
718204.59901257406,4122374.0504322448,-47500.0,-614.69884705068955,-154.37895017285803,16.182096999645612,531.45701023209233,86.24580656793286,-327.2440394485871,571.47321663018806,-446.35804390271517,-14.676562321415219,14.676562321415219,446.35804390271517,1113.7524549841253,0.0
723204.59901257406,4122374.0504322448,-47500.0,-580.92261628639085,-138.61352257352129,15.122235006360899,471.81017664282717,75.104830696023214,-276.21847162079439,514.04597088623279,-422.34846576961684,-8.1552398024755632,8.1552398024755632,422.34846576961684,1004.4275011104903,0.0
523204.59901257406,4127374.0504322448,-47500.0,-631.95246474383691,-76.486519708662854,27.858858702844717,-515.67385423288158,-33.711587036564275,-304.35357645050323,547.76547047588303,-469.1531831661963,56.822339311271122,-56.822339311271122,469.1531831661963,1070.157514726777,0.0
528204.59901257406,4127374.0504322448,-47500.0,-670.39777903380332,-83.36735563624417,30.789614464908588,-582.41135214209976,-36.766592486093572,-361.68430987630046,610.00703955673941,-497.93541444812183,59.195953578484932,-59.195953578484932,497.93541444812183,1188.7036713591433,0.0
533204.59901257406,4127374.0504322448,-47500.0,-706.72375794281515,-90.862759922694579,33.45696300497643,-657.51498168047783,-39.862368203223213,-430.84667454477238,680.18881956459063,-525.01829666062679,60.588503977208688,-60.588503977208688,525.01829666062679,1321.4725757070851,0.0
538204.59901257406,4127374.0504322448,-47500.0,-738.71814290633984,-99.011641143525893,35.519361454717426,-741.38388068280847,-42.85947585609928,-514.2309201798372,759.16078348729729,-548.65304525180841,60.419320742322896,-60.419320742322896,548.65304525180841,1469.6607411605817,0.0
543204.59901257406,4127374.0504322448,-47500.0,-763.32770517852487,-107.85900625955165,36.457687549249286,-834.01184536798849,-45.543113638229961,-614.5616406242716,847.72344990325917,-566.41068293608464,57.86711383361984,-57.86711383361984,566.41068293608464,1634.2146697895698,0.0
548204.59901257406,4127374.0504322448,-47500.0,-776.43407215765819,-117.46571584139808,35.49952278699179,-934.70728522181878,-47.594471998396479,-734.82128614617034,946.53005774688086,-574.99051651910509,51.783403483838185,-51.783403483838185,574.99051651910509,1815.6002806913341,0.0
553204.59901257406,4127374.0504322448,-47500.0,-772.6176770205708,-127.92741494713063,31.517038037544463,-1041.6853868744186,-48.555744597833609,-878.05709020922222,1055.931924568288,-570.01023836658123,40.581880757857846,-40.581880757857846,570.01023836658123,2013.4627360505467,0.0
558204.59901257406,4127374.0504322448,-47500.0,-744.95591032717459,-139.40817023088465,22.894063431205232,-1151.4949998380923,-47.791011639501932,-1046.9883415629856,1175.7420661472504,-545.80969043109235,22.104255522151107,-22.104255522151107,545.80969043109235,2226.1425889272882,0.0
563204.59901257406,4127374.0504322448,-47500.0,-684.95186217186608,-152.19595744421525,7.3624837929396838,-1258.2487151451535,-44.449321073488555,-1243.2819687400245,1304.8823032376599,-495.33882035912666,-6.5274408414223331,6.5274408414223331,495.33882035912666,2450.0120706646198,0.0
568204.59901257406,4127374.0504322448,-47500.0,-582.77893520122871,-166.78895105408333,-18.179734634683996,-1352.6647019605366,-37.444884646592101,-1466.3018930307999,1440.8740887349672,-410.26983651316414,-49.042363989336508,49.042363989336508,410.26983651316414,2678.616963751027,0.0
573204.59901257406,4127374.0504322448,-47500.0,-428.16883020780682,-184.01935544340228,-57.8307779911895,-1421.0382882749059,-25.481999873004991,-1711.0638451192658,1579.1335548708989,-281.58726774835327,-110.06718305225014,110.06718305225014,281.58726774835327,2901.6653063268359,0.0
578204.59901257406,4127374.0504322448,-47500.0,-212.45603863238782,-205.21312492250544,-116.73923757849322,-1444.5321125359671,-7.1719613136062241,-1965.1118810553521,1712.0697355887805,-101.06401852286186,-194.95335342171771,194.95335342171771,101.06401852286186,3104.0672483082571,0.0
583204.59901257406,4127374.0504322448,-47500.0,67.581232031436926,-232.36281497353085,-200.87656649479041,-1399.7152919744194,18.679015267220631,-2204.245503780629,1828.0997968515512,135.84452700646446,-309.16605133365999,309.16605133365999,-135.84452700646446,3265.5795119631316,0.0
588204.59901257406,4127374.0504322448,-47500.0,403.73300217667855,-268.23339118155087,-316.23639502960344,-1262.148193266738,52.502520352517521,-2387.9193222580393,1910.9798092851513,425.32533664832442,-456.9504296770416,456.9504296770416,-425.32533664832442,3362.282792667268,0.0
593204.59901257406,4127374.0504322448,-47500.0,769.33077292364737,-316.19770173890771,-467.07114921332862,-1015.5350848871315,93.006346618336167,-2457.3849987112767,1940.3689633818942,749.42115807951677,-639.07342661675489,639.07342661675489,-749.42115807951677,3372.0460893856975,0.0
598204.59901257406,4127374.0504322448,-47500.0,1115.6767003687144,-379.35878414922979,-652.88013117647813,-667.77566251798521,135.87400262985693,-2343.4084100559116,1895.2625769259309,1072.3141250971014,-849.85411614145244,849.85411614145244,-1072.3141250971014,3286.391937381833,0.0
603204.59901257406,4127374.0504322448,-47500.0,1380.4011001796835,-458.27972480312263,-864.51337830886666,-268.92442383907121,172.8386015004354,-1992.6443223309811,1763.236435842523,1344.993548343064,-1074.5154363974993,1074.5154363974993,-1344.993548343064,3127.5420756031767,0.0
608204.59901257406,4127374.0504322448,-47500.0,1514.1215160050324,-547.116692842931,-1081.2035588379129,85.642005712112066,193.19182392524456,-1413.6223966901036,1581.4446005685618,1523.6001616489398,-1288.742907968845,1288.742907968845,-1523.6001616489398,2956.5067904166062,0.0
613204.59901257406,4127374.0504322448,-47500.0,1515.2370458466173,-630.44035102976363,-1271.8492226941944,288.07534308237791,190.39025616530188,-717.64761150477375,1582.2797638198485,1595.2539237639739,-1462.496340248721,1462.496340248721,-1595.2539237639739,2842.6139838198587,0.0
618204.59901257406,4127374.0504322448,-47500.0,1441.1372750555229,-686.56722766027451,-1403.04975817327,283.56978554463393,172.25868527766235,-106.21357365845202,1613.7602706390853,1589.2868439731021,-1568.9940539286924,1568.9940539286924,-1589.2868439731021,2797.6986287497816,0.0
623204.59901257406,4127374.0504322448,-47500.0,1372.1666310157495,-700.6944913308472,-1451.4617302102313,120.38326430490717,164.21676117791634,218.16748927935316,1588.03663664634,1555.8828336205327,-1596.306021837838,1596.306021837838,-1555.8828336205327,2764.6740443466974,0.0
628204.59901257406,4127374.0504322448,-47500.0,1351.6296330511848,-678.29143716389933,-1412.7727634341493,-69.645422436447859,194.85384036331928,165.52106301467171,1552.9847437528797,1525.9381044535432,-1553.3771014161237,1553.3771014161237,-1525.9381044535432,2697.8854885277942,0.0
633204.59901257406,4127374.0504322448,-47500.0,1356.6510388349288,-642.53699958026266,-1301.2582477647525,-153.33932559635053,272.81625488172682,-195.11055058380427,1510.0619709925454,1489.2315372797177,-1463.0208678401671,1463.0208678401671,-1489.2315372797177,2623.0498713669872,0.0
638204.59901257406,4127374.0504322448,-47500.0,1325.371565478431,-616.25986381430187,-1141.7944554286241,-72.791003141490492,378.94986742390392,-691.59228016624706,1467.245396432889,1410.3536315947933,-1347.4215856687863,1347.4215856687863,-1410.3536315947933,2600.9421215601142,0.0
643204.59901257406,4127374.0504322448,-47500.0,1209.2804157743328,-607.3861274987255,-960.79176571424603,141.43406223902039,481.00429478481971,-1151.7663761953772,1502.3725133510202,1263.0756537307204,-1219.8934095414454,1219.8934095414454,-1263.0756537307204,2649.7119021918306,0.0
648204.59901257406,4127374.0504322448,-47500.0,1002.6442235367256,-609.64479474234292,-780.17897794638247,412.9268289017129,553.6657411375827,-1473.3382047870291,1571.7053346689966,1050.0687819943666,-1086.8234727130559,1086.8234727130559,-1050.0687819943666,2727.7961649493636,0.0
653204.59901257406,4127374.0504322448,-47500.0,735.25446133248192,-612.0524135329357,-614.87266620610478,669.52487232750775,587.38575610367377,-1631.8953951660103,1602.8013569668972,797.45331874952126,-952.64514206006766,952.64514206006766,-797.45331874952126,2781.0015608731992,0.0
658204.59901257406,4127374.0504322448,-47500.0,448.72236300655197,-606.49153382688201,-472.7736851865497,868.25600800945324,585.52456093380317,-1652.2025136184791,1584.6000669274054,537.92276965546421,-822.04917055181932,822.04917055181932,-537.92276965546421,2778.608427830668,0.0
663204.59901257406,4127374.0504322448,-47500.0,177.9550602376579,-589.87651213522372,-356.22464194160682,995.44841046809961,557.51404309097961,-1576.461046337216,1526.4305898987213,297.75248959777343,-699.53473255213009,699.53473255213009,-297.75248959777343,2715.7377622054728,0.0
668204.59901257406,4127374.0504322448,-47500.0,-55.748268497553219,-562.95012827286394,-263.96169118553894,1056.2250808560059,513.53572400352346,-1444.8303956256293,1441.2008667892439,92.274055629303064,-588.42911567429746,588.42911567429746,-92.274055629303064,2602.3846882712519,0.0
673204.59901257406,4127374.0504322448,-47500.0,-243.6392581341168,-528.33018226981858,-192.86431326609983,1064.042420340691,461.94444445909079,-1287.9253062376545,1340.4531701124288,-72.909778553107429,-490.48297617437038,490.48297617437038,72.909778553107429,2453.623887733002,0.0
678204.59901257406,4127374.0504322448,-47500.0,-385.58324024608845,-489.05509455595626,-139.19684911161602,1033.9379737045315,408.62638697489183,-1126.147247261207,1233.0650623156027,-198.71934583504253,-406.04400968131131,406.04400968131131,198.71934583504253,2284.1060887466811,0.0
683204.59901257406,4127374.0504322448,-47500.0,-486.21014254622003,-447.81660597479544,-99.335959358791555,979.23632134991442,357.27094049747132,-971.65552065880604,1125.2755624103727,-289.57630310950657,-334.4758488185193,334.4758488185193,289.57630310950657,2105.7998871146729,0.0
688204.59901257406,4127374.0504322448,-47500.0,-552.14704565602767,-406.68276202924642,-70.115542591161201,910.43766940933278,309.91726457336392,-830.79396500664552,1021.1530386938088,-351.2694100761546,-274.57834253303429,274.57834253303429,351.2694100761546,1927.5175895553189,0.0
693204.59901257406,4127374.0504322448,-47500.0,-590.34174993205227,-367.08412735149602,-48.934427986350912,835.20561049357093,267.48290313369205,-706.1421095544332,923.13298532299916,-389.683665484372,-224.90816764708529,224.90816764708529,389.683665484372,1755.2280733839455,0.0
698204.59901257406,4127374.0504322448,-47500.0,-607.1892645391323,-329.9120531971044,-33.738425515953324,758.80093580987034,230.18046670292293,-598.01871613875653,832.49370972443398,-410.15476896341755,-183.98841920322963,183.98841920322963,410.15476896341755,1592.633892615178,0.0
703204.59901257406,4127374.0504322448,-47500.0,-608.16214110332237,-295.64577202137787,-22.948167454173792,684.6203532911187,197.81348686432776,-505.49468158988992,749.72886816796586,-417.21095128226,-150.42926820403477,150.42926820403477,417.21095128226,1441.7553360299516,0.0
708204.59901257406,4127374.0504322448,-47500.0,-597.72909209562567,-264.47163595999177,-15.37174496313196,614.69709927236829,169.97321938078628,-427.03972414715014,674.82525028873113,-414.53303562045755,-122.98718789712495,122.98718789712495,414.53303562045755,1303.4334385580687,0.0
713204.59901257406,4127374.0504322448,-47500.0,-579.41792808727678,-236.37992638014273,-10.121576512847303,550.10919464333745,146.16193874919753,-360.91208891917898,607.45874807594396,-405.02121430085845,-100.58532173628552,100.58532173628552,405.02121430085845,1177.7203762044053,0.0
718204.59901257406,4127374.0504322448,-47500.0,-555.94217430932054,-211.23846266898718,-6.5431332994077067,491.29299897261876,125.86636777220306,-305.38096334564563,547.13073504151782,-390.90659451564755,-82.311701665797216,82.311701665797216,390.90659451564755,1064.1713499919888,0.0
723204.59901257406,4127374.0504322448,-47500.0,-529.34270434309963,-188.84512088632056,-4.1573138203200424,438.27119913519613,108.59808576054162,-258.84160392700761,493.25818159806209,-373.87087504099088,-67.405877252730193,67.405877252730193,373.87087504099088,962.0500597164845,0.0
523204.59901257406,4132374.0504322448,-47500.0,-650.64962358122318,-13.147948536897271,29.296514243657104,-528.45293868940826,8.1985189594130556,-311.35421146009071,557.14315107834079,-488.41338361505126,111.19079430997709,-111.19079430997709,488.41338361505126,1088.6933911785909,0.0
528204.59901257406,4132374.0504322448,-47500.0,-690.50811806712738,-11.001074152579049,32.006569658793595,-596.97810367578609,13.250419990480845,-370.14262761829144,620.5368141963155,-518.87470446193504,120.87208824546886,-120.87208824546886,518.87470446193504,1209.6409011573323,0.0
533204.59901257406,4132374.0504322448,-47500.0,-728.17971421647758,-8.1687534689529357,34.301214735781542,-674.07488579155995,19.998873446884225,-441.085282604903,692.02435994674124,-547.63815238894404,130.51327531795999,-130.51327531795999,547.63815238894404,1345.149529289557,0.0
538204.59901257406,4132374.0504322448,-47500.0,-761.35863671957725,-4.5729363126882729,35.778945698882978,-760.128428326527,28.9573582897054,-526.6390587407551,772.47091504718639,-572.87502585153436,139.57820063631587,-139.57820063631587,572.87502585153436,1496.4564184571389,0.0
543204.59901257406,4132374.0504322448,-47500.0,-786.85899259475764,-0.18078712200466512,35.841061643569475,-855.09045172149069,40.777383403302409,-629.60243377899883,862.68970771700458,-592.03787905548518,147.24152786792897,-147.24152786792897,592.03787905548518,1664.5472507521861,0.0
548204.59901257406,4132374.0504322448,-47500.0,-800.37978626769916,4.9483615297334422,33.611487262094236,-958.18168877848768,56.271153310249673,-753.03376443516083,963.34132495325377,-601.65659342177992,152.26823572929055,-152.26823572929055,601.65659342177992,1849.9205804909011,0.0
553204.59901257406,4132374.0504322448,-47500.0,-796.2581119144179,10.587682682422072,27.830693879046382,-1067.4584322842336,76.424850661137498,-900.04712973400103,1074.7748907842554,-597.1147668476026,152.85401462001772,-152.85401462001772,597.1147668476026,2052.2395016754485,0.0
558204.59901257406,4132374.0504322448,-47500.0,-767.25972456863371,16.225993054696787,16.721063411336438,-1179.2016149398974,102.38695570523284,-1073.3969264510158,1196.7846674497614,-572.44075277563729,146.42252624004718,-146.42252624004718,572.44075277563729,2269.8325946505342,0.0
563204.59901257406,4132374.0504322448,-47500.0,-704.51074926259332,20.896160396990336,-2.1725763418840534,-1287.0953870077612,135.40494450740005,-1274.7128037548209,1328.2484158760028,-520.19004330976509,129.38787259343727,-129.38787259343727,520.19004330976509,2499.0080057005825,0.0
568204.59901257406,4132374.0504322448,-47500.0,-597.76912057164009,22.938067005653448,-32.149360229171606,-1381.1995165329629,176.66434489137268,-1503.173696163391,1466.604916196311,-431.57055680530254,96.915889736455597,-96.915889736455597,431.57055680530254,2733.1563307439537,0.0
573204.59901257406,4132374.0504322448,-47500.0,-436.38809809745527,19.703967385413442,-77.478483530886422,-1446.8398556909422,226.96077667046723,-1753.3329668962247,1607.1347861183797,-297.08707990712833,42.774046382908736,-42.774046382908736,297.08707990712833,2961.6818025624971,0.0
578204.59901257406,4132374.0504322448,-47500.0,-211.5272846880714,7.2602638404911977,-143.38377928721133,-1463.8253823773032,286.11258542369808,-2011.773218462462,1742.0483120522765,-108.15262801093058,-40.540270691187906,40.540270691187906,108.15262801093058,3168.958448306535,0.0
583204.59901257406,4132374.0504322448,-47500.0,79.69019931069883,-19.758486250174069,-235.700123946617,-1406.9872076029117,352.02822084569698,-2252.4804320887215,1859.5183616430954,139.74311736742541,-161.05092798923002,161.05092798923002,-139.74311736742541,3333.875922385957,0.0
588204.59901257406,4132374.0504322448,-47500.0,427.67410727772818,-67.811773318568683,-359.9041683279487,-1249.9864516562197,419.44318528231094,-2431.7475480351764,1943.1290007743228,441.88683630148893,-325.43727847838187,325.43727847838187,-441.88683630148893,3431.2599466334505,0.0
593204.59901257406,4132374.0504322448,-47500.0,802.69336390044339,-143.07736804246716,-519.15624213084482,-975.18552906581851,478.66029074193517,-2485.8165958611216,1972.8809682263313,777.91700317720529,-535.59553264329475,535.59553264329475,-777.91700317720529,3437.4975507643317,0.0
598204.59901257406,4132374.0504322448,-47500.0,1150.947637792289,-248.41989998917145,-711.17325105881241,-591.19736303435729,515.29840345112018,-2338.5992144012866,1930.1444258445406,1107.6352610486279,-783.82814022701712,783.82814022701712,-1107.6352610486279,3343.1648168107863,0.0
603204.59901257406,4132374.0504322448,-47500.0,1403.8365510462679,-378.72013610949375,-924.54798638294005,-152.90038643320494,512.93553320680712,-1929.5226865904222,1812.5639790844998,1376.2295317275359,-1048.5485887657444,1048.5485887657444,-1376.2295317275359,3171.9153909498136,0.0
608204.59901257406,4132374.0504322448,-47500.0,1507.7720643498481,-516.58439181944618,-1136.7134867098355,234.34579715932387,460.5963520663804,-1263.0540184642271,1680.3304018842728,1535.2233846172169,-1294.5358687098558,1294.5358687098558,-1535.2233846172169,2990.8444674754965,0.0
613204.59901257406,4132374.0504322448,-47500.0,1463.321551736417,-633.30174258843704,-1317.0302727994981,449.97718966912555,364.14951620174179,-453.43228871916131,1649.0313166598307,1572.4433694643837,-1481.762719369551,1481.762719369551,-1572.4433694643837,2878.1101145054581,0.0
618204.59901257406,4132374.0504322448,-47500.0,1337.8599980586364,-699.84865340730983,-1436.5521818376108,429.37941573175016,254.12393425362677,287.83233445970569,1635.469200787571,1525.5041232486278,-1581.7079395679202,1581.7079395679202,-1525.5041232486278,2846.5615893626668,0.0
623204.59901257406,4132374.0504322448,-47500.0,1225.6207892687758,-704.88319116021432,-1479.7520035092452,217.65313708983072,178.2866782410218,744.92192637740777,1556.8574556856665,1457.734238109422,-1591.8396267817081,1591.8396267817081,-1457.734238109422,2824.4825618532982,0.0
628204.59901257406,4132374.0504322448,-47500.0,1182.5522975096178,-665.22759056485381,-1449.2497944967208,-50.579151946857465,176.52450885232312,812.5702001258768,1487.3524939257668,1412.581289126214,-1536.0999257100748,1536.0999257100748,-1412.581289126214,2741.9500444449759,0.0
633204.59901257406,4132374.0504322448,-47500.0,1194.5326341936452,-615.93584959025259,-1360.3537670397664,-233.48024340786066,255.41213116354783,540.86105287955536,1474.0439631741474,1387.5605278831335,-1448.7731679829285,1448.7731679829285,-1387.5605278831335,2604.2370246016912,0.0
638204.59901257406,4132374.0504322448,-47500.0,1201.7625205910524,-586.95032448107725,-1232.050977815127,-256.98582750321083,385.26439658291991,83.827841315577786,1428.7765954057588,1347.3566765178145,-1354.7445793541881,1354.7445793541881,-1347.3566765178145,2475.7473098147379,0.0
643204.59901257406,4132374.0504322448,-47500.0,1148.2829914568979,-587.4094935132897,-1081.729752456326,-131.65636224955597,520.99196877821794,-393.00068647627432,1389.0259229224844,1257.3056963835215,-1262.0232276293768,1262.0232276293768,-1257.3056963835215,2410.9910404369743,0.0
648204.59901257406,4132374.0504322448,-47500.0,1013.6600860006236,-607.85729036385271,-924.00045981720461,81.004383038372524,626.4479151415203,-778.03798648496843,1389.0084323788094,1106.5253935427083,-1167.9665637089563,1167.9665637089563,-1106.5253935427083,2408.0023393696383,0.0
653204.59901257406,4132374.0504322448,-47500.0,812.67977409332434,-632.24032392526703,-770.55558303906321,312.93977214319023,685.3712216020416,-1027.9440474594442,1399.0907171035476,908.58941473564494,-1068.7249298361141,1068.7249298361141,-908.58941473564494,2425.4005965692459,0.0
658204.59901257406,4132374.0504322448,-47500.0,577.33654534686127,-647.77113722496847,-629.75527376459661,516.00175272604429,698.65863262563425,-1148.472549823395,1387.4799818483389,688.88960917935549,-963.96568373880211,963.96568373880211,-688.88960917935549,2423.6841940630829,0.0
663204.59901257406,4132374.0504322448,-47500.0,339.50490051926664,-648.33559625723035,-506.41843688573204,667.20521882279536,676.33103116053076,-1168.3644615929445,1347.5844413469779,472.06194833958324,-856.6721486164754,856.6721486164754,-472.06194833958324,2383.7975925237802,0.0
668204.59901257406,4132374.0504322448,-47500.0,122.10473325559173,-633.43402333848269,-402.24487115748894,762.55715098088467,630.6739054346707,-1120.6950778234395,1284.4498413343922,275.53357887964046,-751.10712219837944,751.10712219837944,-275.53357887964046,2304.1868902186575,0.0
673204.59901257406,4132374.0504322448,-47500.0,-62.385477915280958,-605.75207967643064,-316.68545828781544,808.6180620368973,572.47723104598754,-1033.7465313218968,1205.8079788595699,108.52871046968437,-651.12306553839539,651.12306553839539,-108.52871046968437,2192.4371088651237,0.0
678204.59901257406,4132374.0504322448,-47500.0,-209.7999337651693,-569.10713399379881,-247.8776908489516,816.03262504394309,509.75229159460167,-928.34189257748335,1118.7807596454888,-26.208950754461625,-559.39330606720421,559.39330606720421,26.208950754461625,2058.9586488441882,0.0
683204.59901257406,4132374.0504322448,-47500.0,-321.32652965676766,-527.21588444778286,-193.39358378223338,795.73998854002627,447.78152302426884,-818.3205632322946,1028.9307888869218,-130.0802975172121,-477.32739118125153,477.32739118125153,130.0802975172121,1913.6229645518501,0.0
688204.59901257406,4132374.0504322448,-47500.0,-401.00531749679453,-483.14141706101395,-150.73125673070837,757.21620762170619,389.67483256765485,-712.07582365393102,940.20872456917323,-206.66491274291167,-405.3105910999106,405.3105910999106,206.66491274291167,1764.4263405871527,0.0
693204.59901257406,4132374.0504322448,-47500.0,-454.00039993239255,-439.15260872804612,-117.58646993410467,707.91956660468259,337.00025194858023,-614.15785059470136,855.2022317392757,-260.36689207149402,-343.02372010398517,343.02372010398517,260.36689207149402,1617.2281310126928,0.0
698204.59901257406,4132374.0504322448,-47500.0,-485.56444726266687,-396.78809340543421,-91.970784901347216,653.34692788651921,290.31833565022305,-526.59383628379112,775.45464634702455,-295.60674651586021,-289.72800920120483,289.72800920120483,295.60674651586021,1475.9781485811632,0.0
703204.59901257406,4132374.0504322448,-47500.0,-500.49526988577242,-356.99592468859339,-72.237980025653314,597.33540952146564,249.57959941665422,-449.85654461141092,701.7558987413222,-316.40094080338719,-244.479264202427,244.479264202427,316.40094080338719,1343.1005762935383,0.0
708204.59901257406,4132374.0504322448,-47500.0,-502.90556570238056,-320.28286977985982,-57.062331238402855,542.42260233440516,214.39732887242573,-383.52765215478411,634.37739872683971,-326.1877294172811,-206.27202254288198,206.27202254288198,326.1877294172811,1219.8820735368247,0.0
713204.59901257406,4132374.0504322448,-47500.0,-496.17568170115283,-286.84599269530895,-45.396259156321719,490.18214304512821,184.22462535582724,-326.73075286981941,573.25183070797777,-327.79623864824271,-174.12839101015979,174.12839101015979,327.79623864824271,1106.8084716626761,0.0
718204.59901257406,4132374.0504322448,-47500.0,-482.99963114992192,-256.67634717207375,-36.422730201415277,441.50018443827162,158.46255290141468,-278.39926117282886,518.10208975037926,-323.48825220573235,-147.14660174538841,147.14660174538841,323.48825220573235,1003.8272076827907,0.0
723204.59901257406,4132374.0504322448,-47500.0,-465.47366156119602,-229.63652405446129,-29.510179032296399,396.79070713986209,136.5225308739777,-237.43478271958392,468.5324113830888,-315.03257158676445,-124.52324187476214,124.52324187476214,315.03257158676445,910.54481726936422,0.0
523204.59901257406,4137374.0504322448,-47500.0,-651.53895076726712,50.083962336645151,21.150186542842157,-529.73801470027968,50.102371287900787,-312.46656786169041,559.68157375191208,-491.30904750810373,157.21067212685736,-157.21067212685736,491.30904750810373,1093.76116812294,0.0
528204.59901257406,4137374.0504322448,-47500.0,-689.73044828971206,60.968408053915965,21.687083465609465,-597.38172894193019,63.097945608710219,-370.99033731939198,622.79990480539163,-520.49815188839375,172.37327199913685,-172.37327199913685,520.49815188839375,1214.3488553933907,0.0
533204.59901257406,4137374.0504322448,-47500.0,-725.14136849770375,73.705552639411181,21.225724755523924,-673.12785341482754,79.432157317155003,-441.43236114380682,693.82621668778677,-547.44738123091793,188.00369380922092,-188.00369380922092,547.44738123091793,1349.1971023697365,0.0
538204.59901257406,4137374.0504322448,-47500.0,-755.3147292045137,88.440042950277331,19.212282369331447,-757.17567933257067,99.946163506705432,-526.12207684157045,773.55468016049224,-570.17049100074166,203.50890180009284,-203.50890180009284,570.17049100074166,1499.4275981032913,0.0
543204.59901257406,4137374.0504322448,-47500.0,-776.89315996754283,105.21537088230809,14.86267638268475,-849.22632991341914,125.66041867902737,-627.66871142265416,862.70387551547685,-585.93199864787607,217.94019877335683,-217.94019877335683,585.93199864787607,1665.873475360218,0.0
548204.59901257406,4137374.0504322448,-47500.0,-785.3945375597425,123.88574716476082,7.0814867061122753,-948.16749884025648,157.78211032242544,-748.85141229984799,961.80948559671299,-591.04752937150602,229.84107718435396,-229.84107718435396,591.04752937150602,1848.8341012800031,0.0
553204.59901257406,4137374.0504322448,-47500.0,-774.98946092467554,143.9803592701509,-5.6388059345191808,-1051.6219156311843,197.6836076263738,-892.37561885377363,1071.0584021062969,-580.67513259473867,237.04632604349698,-237.04632604349698,580.67513259473867,2047.7168935043962,0.0
558204.59901257406,4137374.0504322448,-47500.0,-738.33870410913073,164.50234258562813,-25.335113219753634,-1155.3234975693688,246.82338041521453,-1060.4043249232905,1190.0395708592957,-548.64008518846776,236.42945843033414,-236.42945843033414,548.64008518846776,2260.5308859843267,0.0
563204.59901257406,4137374.0504322448,-47500.0,-666.60753029941088,183.64503137769569,-54.6938760034135,-1252.2986077753017,306.56130933283367,-1253.7240267608915,1317.3807654302377,-487.38257267297354,223.61114267174847,-223.61114267174847,487.38257267297354,2483.1995716162032,0.0
568204.59901257406,4137374.0504322448,-47500.0,-549.8720229418941,198.42049466073655,-97.141157517429733,-1331.8799080816432,377.79433559526109,-1470.3401764335417,1450.2382512122488,-388.19752511910127,192.67792088204266,-192.67792088204266,388.19752511910127,2708.6825632784594,0.0
573204.59901257406,4137374.0504322448,-47500.0,-378.28230316633937,204.23243479588643,-156.83519944098961,-1378.7135261177964,460.30777256044649,-1703.2321269729518,1583.6188926076404,-242.06082195408317,136.03372975045147,-136.03372975045147,242.06082195408317,2925.9652281638732,0.0
578204.59901257406,4137374.0504322448,-47500.0,-144.53135126210111,194.51512354477902,-238.4390843460161,-1372.2246022597581,551.72119947988733,-1936.9962369830616,1709.5707223295783,-41.497147087380753,44.63877706763266,-44.63877706763266,41.497147087380753,3119.153897725374,0.0
583204.59901257406,4137374.0504322448,-47500.0,151.73796383338953,160.74036500210508,-346.48134984208303,-1287.5983791454496,645.96569069283294,-2143.3709348083657,1816.4411079911456,215.95564870159524,-90.913027898641374,90.913027898641374,-215.95564870159524,3267.3132592798434,0.0
588204.59901257406,4137374.0504322448,-47500.0,497.37081007228863,93.37742601628301,-484.05978817168352,-1100.2305832543148,731.47919950784001,-2276.6134129037546,1888.7801795901628,522.39722552599721,-277.83881437757412,277.83881437757412,-522.39722552599721,3346.4289908804813,0.0
593204.59901257406,4137374.0504322448,-47500.0,858.49986571228237,-15.337269099353284,-650.71214259409635,-796.26562392527148,789.95227008791096,-2272.0904852813183,1909.2495624810226,853.32132600645241,-516.59627414992201,516.59627414992201,-853.32132600645241,3335.9389345429422,0.0
598204.59901257406,4137374.0504322448,-47500.0,1177.9989426141706,-166.17201425856513,-839.67087332823121,-390.31112101671079,797.57223548154695,-2055.2970581115824,1865.4305478593992,1164.4013186756695,-794.75833220045354,794.75833220045354,-1164.4013186756695,3232.6000230111781,0.0
603204.59901257406,4137374.0504322448,-47500.0,1386.9898761920551,-346.17100268445785,-1035.6439042924915,55.675160109850388,731.63818911990541,-1570.5154116682061,1767.7958638035525,1398.6929581777124,-1082.2586189488622,1082.2586189488622,-1398.6929581777124,3070.134414765701,0.0
608204.59901257406,4137374.0504322448,-47500.0,1436.6178425567907,-524.84535743664048,-1215.437498408691,430.85003403667724,583.93105067030251,-829.14181799918595,1680.2229118523101,1509.9646607505874,-1333.8410126179415,1333.8410126179415,-1509.9646607505874,2926.4917530709067,0.0
613204.59901257406,4137374.0504322448,-47500.0,1336.8887580432179,-660.41654545485858,-1353.6838334035151,613.49673831000166,375.81694000317947,49.429454927152449,1662.6076991251139,1493.7463513149269,-1503.539391792172,1503.539391792172,-1493.7463513149269,2879.9356789553431,0.0
618204.59901257406,4137374.0504322448,-47500.0,1165.9491853118509,-718.842114484798,-1432.6265638542832,542.11463799973637,161.87207816097998,854.06481978024215,1653.9824964985446,1398.9680936272916,-1566.8556027545992,1566.8556027545992,-1398.9680936272916,2924.0190048525728,0.0
623204.59901257406,4137374.0504322448,-47500.0,1026.1739338806981,-695.33942624699432,-1449.6312846536669,265.59382403810747,10.883250146796016,1373.3210646774912,1596.4034062269352,1299.8223066324151,-1535.0501669657876,1535.0501669657876,-1299.8223066324151,2961.7659622515257,0.0
628204.59901257406,4137374.0504322448,-47500.0,978.16236169371621,-619.91989844733394,-1415.6380112866134,-79.893704071297734,-28.45505626392729,1502.3512403832544,1541.7008538171744,1247.0291058876319,-1448.0144109752655,1448.0144109752655,-1247.0291058876319,2904.1931519005802,0.0
633204.59901257406,4137374.0504322448,-47500.0,1010.5309277835809,-539.65786928025864,-1345.9036491565148,-350.53363940969575,47.5608492096475,1281.0618217478382,1514.7602245828707,1241.0526524654738,-1350.0375938420543,1350.0375938420543,-1241.0526524654738,2740.9047193381621,0.0
638204.59901257406,4137374.0504322448,-47500.0,1063.6069312597831,-491.6461463404969,-1251.98934095086,-464.39045733110152,200.61425637007335,846.65707274971066,1441.7401151241379,1244.731741578426,-1267.5593714884735,1267.5593714884735,-1244.731741578426,2529.7325121744634,0.0
643204.59901257406,4137374.0504322448,-47500.0,1075.8228947777025,-487.47201333634678,-1140.7528289802494,-418.31080296435113,375.4867440376205,353.09506045873064,1351.6560276703324,1215.9120015798321,-1203.7203931327513,1203.7203931327513,-1215.9120015798321,2344.0076896310347,0.0
648204.59901257406,4137374.0504322448,-47500.0,1015.257411525679,-516.42636063997952,-1017.6151063804579,-261.04950181451005,526.27314316642946,-86.698015796556263,1283.5016869076871,1132.0478910365566,-1147.858656834391,1147.858656834391,-1132.0478910365566,2223.0971374281585,0.0
653204.59901257406,4137374.0504322448,-47500.0,883.81315527936795,-558.65858448916902,-888.88583928225853,-55.160923153460693,628.73449376470501,-417.52471333377184,1245.8441780327107,995.10333301220703,-1087.9875778724615,1087.9875778724615,-995.10333301220703,2158.7981048906208,0.0
658204.59901257406,4137374.0504322448,-47500.0,704.16817747031439,-596.62381089018163,-761.4982270792982,148.74696495872553,678.66757240142908,-630.18464818598193,1217.8145682190641,822.74717426591201,-1017.6703923671826,1017.6703923671826,-822.74717426591201,2118.7225584739658,0.0
663204.59901257406,4137374.0504322448,-47500.0,504.35916799152892,-619.99974211761412,-641.5660809842251,320.59531747523209,683.99655110699143,-741.16728777441108,1181.4995782309375,636.89129334082054,-936.63949386453919,936.63949386453919,-636.89129334082054,2074.1980555243931,0.0
668204.59901257406,4137374.0504322448,-47500.0,307.95913376541392,-625.44250348114008,-533.31636711667716,448.39402942536157,657.15735773258984,-776.02782179320309,1131.7015650554747,456.0717884214223,-848.4135180720682,848.4135180720682,-456.0717884214223,2010.7497333183621,0.0
673204.59901257406,4137374.0504322448,-47500.0,130.55015429667628,-614.22928043442107,-438.8670170349784,532.03382757414079,610.31591769294425,-759.72684929988213,1070.164816358086,292.58836678728687,-757.72118477705101,757.72118477705101,-292.58836678728687,1925.7101056746078,0.0
678204.59901257406,4137374.0504322448,-47500.0,-19.883401568630774,-589.85806834566347,-358.59495957318006,577.51960121790489,553.25953320675183,-712.56630275820271,1000.8222598642412,152.72895833510819,-668.8564891390522,668.8564891390522,-152.72895833510819,1822.7967636200681,0.0
683204.59901257406,4137374.0504322448,-47500.0,-141.01162253546386,-556.38088542724881,-291.71026027617279,593.0123537519429,492.95896164731687,-649.3777073295247,927.65063269579127,38.264125437831296,-584.9855665414434,584.9855665414434,-38.264125437831296,1707.9905494037707,0.0
688204.59901257406,4137374.0504322448,-47500.0,-234.06859591939534,-517.49669702389315,-236.78640574558639,586.5937467165096,433.91254398826868,-580.17357501387062,853.90676099951111,-51.904902377466811,-508.0588947360684,508.0588947360684,51.904902377466811,1587.2557602273589,0.0
693204.59901257406,4137374.0504322448,-47500.0,-302.18259865911352,-476.18225053184187,-192.15142544632545,565.23645051728693,378.73282188068089,-511.2429669873722,781.9704608666168,-120.41273427963435,-439.0064893811624,439.0064893811624,120.41273427963435,1465.5569751932367,0.0
698204.59901257406,4137374.0504322448,-47500.0,-349.23415684710409,-434.63274324756145,-156.13566986211978,534.48675004455572,328.71759388005222,-446.21922742731078,713.428270916727,-170.50928629767094,-378.01442402522213,378.01442402522213,170.50928629767094,1346.6000490077431,0.0
703204.59901257406,4137374.0504322448,-47500.0,-379.16039480727034,-394.34842320224521,-127.20665361145933,498.51035444605407,284.31008590117398,-386.94936087843678,649.23049111173634,-205.49475650472954,-324.78217500239856,324.78217500239856,205.49475650472954,1232.9112890991721,0.0
708204.59901257406,4137374.0504322448,-47500.0,-395.58136384316356,-356.2730618356033,-104.02826298387956,460.29384112322367,245.43597128289173,-334.14091320021708,589.85421236267609,-228.41332646323713,-278.72679660471067,278.72679660471067,228.41332646323713,1126.0480353823809,0.0
713204.59901257406,4137374.0504322448,-47500.0,-401.63414566120986,-320.93415151257307,-85.474081309114467,421.8857529985807,211.73392667602764,-287.81410663938055,535.4430673389661,-241.91533695954865,-239.12909752701603,239.12909752701603,241.91533695954865,1026.8298585452821,0.0
718204.59901257406,4137374.0504322448,-47500.0,-399.93121136376521,-288.56375270060499,-70.615668822039069,384.62371370571083,182.70514321431347,-247.60422860555792,485.91743136575508,-248.22101690909508,-205.23021430505932,205.23021430505932,248.22101690909508,935.54552154781948,0.0
723204.59901257406,4137374.0504322448,-47500.0,-392.5865848532315,-259.19479590264291,-58.699820135414825,349.32653362171976,157.80589011168649,-212.95617013539615,441.05752949236768,-249.13983975437719,-176.29144333111759,176.29144333111759,249.13983975437719,852.12220035493579,0.0
523204.59901257406,4142374.0504322448,-47500.0,-635.39491196440497,109.74226542485206,4.1508075004260698,-519.94353198127374,89.943033738930453,-307.86989012821442,555.33111259120756,-478.38400631054583,192.65156417160881,-192.65156417160881,478.38400631054583,1085.4710098594685,0.0
528204.59901257406,4142374.0504322448,-47500.0,-669.13562120724873,128.26810115756928,0.8326498381040347,-584.225275749876,110.12941872519012,-364.50196625454811,616.78530606616448,-503.59568508506504,211.02587734164649,-211.02587734164649,503.59568508506504,1203.0234275488808,0.0
533204.59901257406,4142374.0504322448,-47500.0,-699.08391410438139,149.48221031062732,-4.3942395042110212,-655.54971713503016,135.01582979511596,-432.30803407436713,685.64753403233703,-525.58068405969243,229.85963541331779,-229.85963541331779,525.58068405969243,1333.9398698082125,0.0
538204.59901257406,4142374.0504322448,-47500.0,-722.61184320037739,173.49868677966091,-12.287840306214402,-733.79652337127322,165.66354424601849,-513.3233684268198,762.56766172435664,-542.15552222444137,248.39309910022226,-248.39309910022226,542.15552222444137,1479.0908874556767,0.0
543204.59901257406,4142374.0504322448,-47500.0,-736.20123419290576,200.25023662463602,-23.867043843354047,-818.26297790317119,203.31311922256086,-609.74754469004301,848.08108503745723,-550.37830911676645,265.43127189259963,-265.43127189259963,550.37830911676645,1638.9952092580045,0.0
548204.59901257406,4142374.0504322448,-47500.0,-735.25355323593101,229.35719679202046,-40.484286627608576,-907.33818047347006,249.36218568610619,-723.7922875217622,942.49415993313733,-546.37379239471886,279.16784274857196,-279.16784274857196,546.37379239471886,1813.565314678978,0.0
553204.59901257406,4142374.0504322448,-47500.0,-713.92667662033534,259.93401806557046,-63.904924358617222,-998.05100647810139,305.29138691631488,-857.38402824250352,1045.7127820114576,-525.17103128176052,286.95979679381742,-286.95979679381742,525.17103128176052,2001.7446634970604,0.0
558204.59901257406,4142374.0504322448,-47500.0,-665.06966117057425,290.31495200126307,-96.380286401751377,-1085.4695557769717,372.4976007365878,-1011.6319944693015,1156.9939335071126,-480.60906258387053,285.05695852956234,-285.05695852956234,480.60906258387053,2201.0096646231455,0.0
563204.59901257406,4142374.0504322448,-47500.0,-580.38652722242432,317.68702995006851,-140.68671923830669,-1161.9531613075078,451.97079086375885,-1185.9304177284946,1274.5975189990741,-405.41551909043187,268.31370576303482,-268.31370576303482,405.41551909043187,2406.7177313609159,0.0
568204.59901257406,4142374.0504322448,-47500.0,-451.0543012670596,337.6425151548728,-200.0779836069176,-1216.3244724629535,543.72245326046095,-1376.5172500869278,1395.3222045824132,-291.64292586394231,229.95856735746167,-229.95856735746167,291.64292586394231,2611.3187193994945,0.0
573204.59901257406,4142374.0504322448,-47500.0,-269.14982514296975,343.72441667091778,-278.06108217299516,-1233.1802047164824,645.84873279498743,-1574.2798238843975,1513.9349297561985,-131.76008449550875,161.58826417173663,-161.58826417173663,131.76008449550875,2803.5361256741448,0.0
578204.59901257406,4142374.0504322448,-47500.0,-30.362258266044151,327.17137406177284,-377.86135071286384,-1192.8679933301132,753.12430239774301,-1761.6603745500447,1622.5828828928147,79.188433836294436,53.703299338764012,-53.703299338764012,-79.188433836294436,2967.8339541950822,0.0
583204.59901257406,4142374.0504322448,-47500.0,261.56635631499336,277.30284858102749,-501.41209079914279,-1073.1962972833142,855.15056386154311,-1908.8571136835315,1710.4678056740122,339.9383353211374,-102.69901491894629,102.69901491894629,-339.9383353211374,3084.9111443899046,0.0
588204.59901257406,4142374.0504322448,-47500.0,588.82695609696816,183.30811339733285,-647.75822027541574,-854.6429584325623,934.48705500843607,-1970.529844703929,1764.4766043037828,637.89360516892066,-312.82781332492118,312.82781332492118,-637.89360516892066,3134.7144960511896,0.0
593204.59901257406,4142374.0504322448,-47500.0,913.93582902652292,38.385488431183354,-811.02970863268672,-531.05558177479304,966.06826197422981,-1886.3623908873135,1772.2578808904245,943.98379472435442,-572.75077942771134,572.75077942771134,-943.98379472435442,3104.3682758969262,0.0
598204.59901257406,4142374.0504322448,-47500.0,1179.8903408604624,-153.44571019437777,-978.76273361579251,-125.79947501055632,920.46786496193567,-1591.7963769117953,1730.6039061103766,1211.6757675334757,-863.04110772672163,863.04110772672163,-1211.6757675334757,3003.1345050745845,0.0
603204.59901257406,4142374.0504322448,-47500.0,1324.2041235133727,-369.98255448928489,-1132.210210466809,293.48422800300045,774.06507735390619,-1045.7182114469947,1662.6835181587062,1386.8427354567866,-1145.3471965753743,1145.3471965753743,-1386.8427354567866,2880.2052947639695,0.0
608204.59901257406,4142374.0504322448,-47500.0,1310.1617378258379,-569.15292075436753,-1250.5165214268861,618.41209605036204,526.0910174695091,-272.35592109326416,1628.4787947450791,1432.0754391714393,-1368.4473718715142,1368.4473718715142,-1432.0754391714393,2821.0880353762259,0.0
613204.59901257406,4142374.0504322448,-47500.0,1160.3371745879176,-700.71515182887993,-1318.6958293303178,738.6811730393041,214.07893753707356,608.06952872859119,1662.1428619683952,1354.9994915066093,-1487.4872223536574,1487.4872223536574,-1354.9994915066093,2885.9935271591062,0.0
618204.59901257406,4142374.0504322448,-47500.0,959.35419691595212,-730.86900743751085,-1335.1976649309172,605.90476171558839,-88.220710495337073,1400.2094102964363,1727.6495986022819,1214.8007487214993,-1488.3125735170881,1488.3125735170881,-1214.8007487214993,3032.8378883027417,0.0
623204.59901257406,4142374.0504322448,-47500.0,808.94934507575033,-664.04932694018464,-1312.5684364535273,273.86209225062805,-298.68346570416077,1915.4464041834863,1779.5580505883031,1091.0450262412533,-1397.9626548656461,1397.9626548656461,-1091.0450262412533,3144.5425622601852,0.0
628204.59901257406,4142374.0504322448,-47500.0,767.134585876438,-542.58025851013485,-1269.1754197344239,-126.51784076098271,-365.48961245230362,2061.3887713448757,1775.8438791184331,1036.0197661880302,-1269.9066035708397,1269.9066035708397,-1036.0197661880302,3128.7542819028527,0.0
633204.59901257406,4142374.0504322448,-47500.0,822.54378746472389,-422.92857330991598,-1218.2024480780101,-458.63000575800015,-288.92266360187011,1871.1334709940995,1697.3766764268694,1050.2438148614733,-1154.766119035246,1154.766119035246,-1050.2438148614733,2970.2104418907134,0.0
638204.59901257406,4142374.0504322448,-47500.0,916.90335515978722,-347.29082851714912,-1162.6195591824785,-640.50555867070341,-113.25404017652687,1462.4989672110889,1563.1740923070884,1095.0938425832828,-1078.4535295030209,1078.4535295030209,-1095.0938425832828,2718.0366082926444,0.0
643204.59901257406,4142374.0504322448,-47500.0,986.78729801568295,-329.44649524629347,-1098.4781700981664,-660.22465117656975,100.25946120114233,971.66278420790263,1411.2629103315962,1123.575980879998,-1039.4878826674953,1039.4878826674953,-1123.575980879998,2445.5005265784584,0.0
648204.59901257406,4142374.0504322448,-47500.0,993.04546574163908,-358.70917668015585,-1021.5502609203403,-555.01793045725856,299.19049681898815,504.85356023283686,1276.9333961843167,1104.5659753825082,-1020.636175731114,1020.636175731114,-1104.5659753825082,2211.8124562700259,0.0
653204.59901257406,4142374.0504322448,-47500.0,927.50857157484438,-413.09774572278712,-931.54659575053961,-379.87190755615035,452.54717522602795,121.74543897926235,1178.4700319638291,1030.2116971310386,-1002.8762840596798,1002.8762840596798,-1030.2116971310386,2041.2340150377931,0.0
658204.59901257406,4142374.0504322448,-47500.0,804.14333752178959,-471.33017926268593,-832.30673582146198,-184.26842400544621,550.39841660387776,-158.30971320472929,1110.8425547181801,910.42365851106717,-973.64302687505267,973.64302687505267,-910.42365851106717,1925.2050729350824,0.0
663204.59901257406,4142374.0504322448,-47500.0,646.14604398860047,-518.90876807480788,-729.72451851719325,-2.0819720276181712,596.98185064050665,-341.47259026336616,1057.42618329683,763.14261859995952,-928.43091493825557,928.43091493825557,-763.14261859995952,1840.2578319904192,0.0
668204.59901257406,4142374.0504322448,-47500.0,476.19047479589238,-548.94268716712497,-629.5652361003705,148.82955002389497,603.20669188490228,-445.68033181521628,1005.8126054536669,606.48072005818869,-868.64720014653574,868.64720014653574,-606.48072005818869,1764.9978563189986,0.0
673204.59901257406,4142374.0504322448,-47500.0,311.61461401273209,-560.30114167764702,-536.19550673809556,262.63671534634278,581.33574804335478,-491.51681016690651,950.98637490514921,454.59998680968476,-798.64641016225585,798.64641016225585,-454.59998680968476,1686.860732941157,0.0
678204.59901257406,4142374.0504322448,-47500.0,163.35986645313648,-555.21060521781612,-452.24024850602092,340.85171719968957,542.17286694905192,-497.49881858538748,892.41026962220587,316.625363528256,-723.44897413570061,723.44897413570061,-316.625363528256,1601.2630643986329,0.0
683204.59901257406,4142374.0504322448,-47500.0,36.87105208820774,-537.31955526661966,-378.79758935241267,388.59350538407892,494.0536288005668,-478.34121991734315,831.4095889046971,197.22791317464549,-647.4633662542974,647.4633662542974,-197.22791317464549,1508.47112489201,0.0
688204.59901257406,4142374.0504322448,-47500.0,-66.366683541940972,-510.47251457146348,-315.86139407143821,412.14925640834366,442.83595866448496,-444.83675838897562,769.77069801618882,97.803380013890035,-573.99382362714869,573.99382362714869,-97.803380013890035,1410.9286226809459,0.0
693204.59901257406,4142374.0504322448,-47500.0,-147.35557638818247,-478.07622944048586,-262.74113365625436,417.61163719913185,392.31368313788778,-404.42898051979904,709.12210869104797,17.648921227458857,-505.20858057884362,505.20858057884362,-17.648921227458857,1311.6162410993211,0.0
698204.59901257406,4142374.0504322448,-47500.0,-208.43952930174828,-442.85924864311818,-218.39354140917644,410.24806196114656,344.73151624611779,-361.97368522158075,650.72062518953135,-45.099586109924672,-442.31962631653653,442.31962631653653,45.099586109924672,1213.237962140583,0.0
703204.59901257406,4142374.0504322448,-47500.0,-252.51751930420562,-406.85347052896697,-181.65137182300941,394.30558747275632,301.25323533710844,-320.45320023764305,595.42692997188908,-92.812117173679383,-385.82369063522026,385.82369063522026,92.812117173679383,1117.914161003119,0.0
708204.59901257406,4142374.0504322448,-47500.0,-282.5547303836488,-371.4777758708546,-151.36327809395027,373.04241600190784,262.33117860466592,-281.55687403622949,543.75530112461956,-127.95042599392272,-335.72660698092511,335.72660698092511,127.95042599392272,1027.1335700674999,0.0
713204.59901257406,4142374.0504322448,-47500.0,-301.31130657528797,-337.65872189694875,-126.47045154844359,348.86206245493577,227.97764504021092,-246.11971987704857,495.94917265073502,-152.83276705096409,-291.72652978557977,291.72652978557977,152.83276705096409,941.82884050903715,0.0
718204.59901257406,4142374.0504322448,-47500.0,-311.21391934702206,-305.94948377643948,-106.0403489739553,323.47549847395658,197.95174035777447,-214.43509743584477,452.05326914316453,-169.51848381789634,-253.34855243384871,253.34855243384871,169.51848381789634,862.48768493369255,0.0
523204.59901257406,4147374.0504322448,-47500.0,-604.05066957748556,162.82297815564715,-20.207117855013973,-500.12175152634285,125.91350268415756,-298.05734148847364,544.43637404383003,-451.25631138936205,216.25258818436293,-216.25258818436293,451.25631138936205,1064.5726252437482,0.0
528204.59901257406,4147374.0504322448,-47500.0,-631.12057545236598,187.26189722269427,-28.579718159411332,-558.95051799416888,152.05693474835766,-351.38525560941417,602.9847290406052,-470.31369294199766,235.42686751572745,-235.42686751572745,470.31369294199766,1176.6891721304539,0.0
533204.59901257406,4147374.0504322448,-47500.0,-653.14395228149021,214.76287315120624,-39.933984532916341,-623.32349222647679,183.84619206660619,-414.73421235368829,668.18714882083793,-484.88784308087804,254.5533190448671,-254.5533190448671,484.88784308087804,1300.7822683506515,0.0
538204.59901257406,4147374.0504322448,-47500.0,-667.35430916057248,245.2932736818924,-55.225796223279971,-692.72769464121927,222.41859662980704,-489.72730969323987,740.50020616675567,-492.61488830606504,272.6215620590923,-272.6215620590923,492.61488830606504,1437.3773198916872,0.0
543204.59901257406,4147374.0504322448,-47500.0,-670.14747691859941,278.53856994813793,-75.680518196760502,-765.98828269417766,269.04249087962694,-578.00771953552089,820.2222760856838,-490.4004621176008,288.10944576947008,-288.10944576947008,490.4004621176008,1586.5760608210517,0.0
548204.59901257406,4147374.0504322448,-47500.0,-656.94794570453018,313.73271515296494,-102.84275876497755,-840.9474601667863,325.05212652398592,-681.04281515527998,907.37493155257937,-474.29103918772682,298.79814411074244,-298.79814411074244,474.29103918772682,1747.7995908846108,0.0
553204.59901257406,4147374.0504322448,-47500.0,-622.13470971588652,349.41973769137917,-138.61298631359321,-914.03921852767542,391.70792797534921,-799.77782123385771,1001.5334686878929,-439.38813597203887,301.54937252327181,-301.54937252327181,439.38813597203887,1919.4362391870782,0.0
558204.59901257406,4147374.0504322448,-47500.0,-559.10905776073344,383.13401668723736,-185.24689874052507,-979.75675194305597,469.93290456325644,-934.05804564919424,1101.5927469194919,-379.87327832617518,292.06160087591979,-292.06160087591979,379.87327832617518,2098.3790418169783,0.0
563204.59901257406,4147374.0504322448,-47500.0,-460.64358232091968,411.00305486003822,-245.27547651824594,-1030.0453759084949,559.85567141367699,-1081.7107353366857,1205.4592345873139,-289.26087110664122,264.65446113714899,-264.65446113714899,289.26087110664122,2279.4587004198725,0.0
568204.59901257406,4147374.0504322448,-47500.0,-319.73186795838791,427.31498708708159,-321.27675810247899,-1053.7336520622537,660.06814797864808,-1237.1551092000898,1309.675325903346,-161.06730354171401,212.18928025363806,-212.18928025363806,161.06730354171401,2454.8275856144323,0.0
573204.59901257406,4147374.0504322448,-47500.0,-131.24518431211206,424.17949218557328,-415.40134699942621,-1036.2738892948275,766.50356388853277,-1389.4233343162064,1409.0241889216818,9.8347503615050726,126.33298398652609,-126.33298398652609,-9.8347503615050726,2613.4644617624522,0.0
578204.59901257406,4147374.0504322448,-47500.0,105.25968022103284,391.56932744241061,-528.53375123015815,-960.34858627384051,870.89665197189845,-1519.6027487629472,1496.2636486569763,224.86079482771419,-1.4835777074209062,1.4835777074209062,-224.86079482771419,2741.2069720609757,0.0
583204.59901257406,4147374.0504322448,-47500.0,381.42119568559491,318.27622341099402,-659.01039820232506,-808.31917125688722,958.99881333103463,-1598.1124794227458,1562.3479496939699,478.17085559408849,-177.91664046917853,177.91664046917853,-478.17085559408849,2822.154704944764,0.0
588204.59901257406,4147374.0504322448,-47500.0,675.22563854738826,194.5726069343483,-800.9959251675923,-567.8897050412055,1009.2294918382885,-1583.1722177011343,1597.9022035661774,752.33937031744426,-403.88974849692522,403.88974849692522,-752.33937031744426,2842.9561231955076,0.0
593204.59901257406,4147374.0504322448,-47500.0,947.74834676156945,17.32112501107574,-943.05871477478991,-242.07790130880804,993.35958189265602,-1423.4897303128512,1597.3859619474147,1015.0702113658041,-669.18975537393374,669.18975537393374,-1015.0702113658041,2802.0283070023006,0.0
598204.59901257406,4147374.0504322448,-47500.0,1146.3538280564305,-202.79764455131738,-1068.1848216584344,137.77944569030365,881.83130648121517,-1069.9292960213465,1568.0147301766783,1220.990157405603,-947.22526827368347,947.22526827368347,-1220.990157405603,2724.1984546493327,0.0
603204.59901257406,4147374.0504322448,-47500.0,1220.2165766033706,-435.10122144004373,-1156.9497704994519,502.99426705321895,656.00241292804503,-499.85635830994426,1542.4101118427325,1323.6703351426124,-1194.3842675201438,1194.3842675201438,-1323.6703351426124,2671.8229098958805,0.0
608204.59901257406,4147374.0504322448,-47500.0,1148.1398331074929,-630.53382938345464,-1194.6259851958262,755.99136742051724,325.46077249031356,250.895206315021,1572.301844054753,1298.6547590901262,-1359.8248860263595,1359.8248860263595,-1298.6547590901262,2723.3485405905276,0.0
613204.59901257406,4147374.0504322448,-47500.0,963.55672478371355,-737.37058143861373,-1179.6710496326039,806.51856817680448,-59.702930501649845,1069.6424589060077,1674.8479626978901,1165.9874322331402,-1406.8169060628079,1406.8169060628079,-1165.9874322331402,2902.6369757757748,0.0
618204.59901257406,4147374.0504322448,-47500.0,750.68252460205599,-727.20890439809489,-1127.338469007203,623.01644233988975,-416.42332434580777,1789.8174792962147,1807.8912773566753,990.64288629260761,-1334.886004340683,1334.886004340683,-990.64288629260761,3135.1959358190056,0.0
623204.59901257406,4147374.0504322448,-47500.0,602.71092073506668,-613.71287819500105,-1063.4383966201731,260.60056943016747,-659.92340491776815,2257.0306267377373,1905.4814140858052,851.08883134935604,-1184.5042917620908,1184.5042917620908,-851.08883134935604,3302.9284049551698,0.0
628204.59901257406,4147374.0504322448,-47500.0,570.71961046405886,-447.38048373944855,-1011.0958162259031,-162.96849650084027,-740.84831984045206,2396.6127794686554,1919.030999146672,796.74988091726607,-1017.2137983516769,1017.2137983516769,-796.74988091726607,3324.2961171096958,0.0
633204.59901257406,4147374.0504322448,-47500.0,643.50292136726409,-289.40809515312941,-979.90666940886069,-526.02840374182551,-662.74751156477964,2234.5314600725033,1839.1689634136333,827.42672205489168,-885.42046996429588,885.42046996429588,-827.42672205489168,3185.7201811893292,0.0
638204.59901257406,4147374.0504322448,-47500.0,767.07521470997494,-184.34988804534606,-964.48563728910187,-752.06054124463265,-471.50037221317461,1866.0712813357586,1689.3403693102,905.02611016854416,-812.91781807869211,812.91781807869211,-905.02611016854416,2928.2676660194302,0.0
643204.59901257406,4147374.0504322448,-47500.0,880.17777739215546,-147.71047101604222,-951.30143518087925,-823.51579930866251,-229.31076187319442,1404.9553866464296,1507.5719033708192,981.05759488207138,-794.5690344433732,794.5690344433732,-981.05759488207138,2616.9767230993175,0.0
648204.59901257406,4147374.0504322448,-47500.0,940.43725065390288,-170.01849436944673,-927.46110336099616,-766.7705219715491,9.0443575760166119,944.90963534377056,1330.2983565196519,1019.196296157956,-808.72202822682232,808.72202822682232,-1019.196296157956,2312.6161786482262,0.0
653204.59901257406,4147374.0504322448,-47500.0,932.40922329311297,-229.08415591633505,-886.07786494689583,-627.51654294435355,208.30022818568898,544.27676130712291,1181.9781609326926,1003.9875037834607,-831.3056326790703,831.3056326790703,-1003.9875037834607,2054.4256786662872,0.0
658204.59901257406,4147374.0504322448,-47500.0,862.2555067216889,-301.61877997259529,-826.97347324687223,-450.93627131699549,353.49723057526717,228.19650432251015,1069.7456891556085,938.07643573162852,-844.63445523954681,844.63445523954681,-938.07643573162852,1855.340299557972,0.0
663204.59901257406,4147374.0504322448,-47500.0,747.61000448588618,-369.92928371935795,-754.49672573937039,-271.42119340607036,444.58028655394997,-1.4216035550888759,986.01951792528928,834.53122798262245,-839.88600671958068,839.88600671958068,-834.53122798262245,1707.8506580989801,0.0
668204.59901257406,4147374.0504322448,-47500.0,608.71665056296638,-423.7417557649469,-674.7437802040115,-110.22691791916688,489.71469788599273,-155.34423392494881,918.80590440176638,709.51780768463846,-815.56110498347903,815.56110498347903,-709.51780768463846,1595.305739858921,0.0
673204.59901257406,4147374.0504322448,-47500.0,463.08899257910923,-459.11677273805515,-593.50977787686929,22.512410831116373,499.99777673768477,-249.13331901047113,859.25781722018121,577.58764540507877,-774.60413115833762,774.60413115833762,-577.58764540507877,1501.6679903755742,0.0
678204.59901257406,4147374.0504322448,-47500.0,323.40659117628246,-476.36162202859509,-515.26719038558144,124.36285577998026,486.24335867025007,-298.43631372902541,802.79488685096464,449.6182530957812,-721.82312962919036,721.82312962919036,-449.6182530957812,1415.9789284227277,0.0
683204.59901257406,4147374.0504322448,-47500.0,197.46972031451423,-478.06535439738911,-442.92779097876792,197.39947147562432,457.48442201394926,-316.74239417376629,747.70394567360779,332.54461929765375,-662.1809664121721,662.1809664121721,-332.54461929765375,1332.530677005288,0.0
688204.59901257406,4147374.0504322448,-47500.0,89.110020734868399,-467.67579603323696,-378.03176654709455,245.83957296712475,420.56870301417189,-314.67887522231081,693.75666200516866,229.98196223504948,-599.91344501670005,599.91344501670005,-229.98196223504948,1249.2988412474676,0.0
693204.59901257406,4147374.0504322448,-47500.0,-0.65642796774734191,-448.63935391417846,-321.09278126337813,274.53036177336469,380.31904468808483,-300.11433822541818,641.34067815108222,143.1241077438045,-538.22327495626314,538.22327495626314,-143.1241077438045,1166.3008151013209,0.0
698204.59901257406,4147374.0504322448,-47500.0,-72.591373707714439,-423.96930173861585,-271.94361981631778,288.10442660769456,339.91332610545425,-278.59825997895064,590.99754252909042,71.590837122912603,-479.29759280890914,479.29759280890914,-71.590837122912603,1084.4343298987526,0.0
703204.59901257406,4147374.0504322448,-47500.0,-128.43633674923333,-396.09002897757432,-230.01796936698403,290.58460464932728,301.29741333111883,-253.87894523847669,543.20900756615583,14.09880973573317,-424.4710373436867,424.4710373436867,-14.09880973573317,1004.8047449747439,0.0
708204.59901257406,4147374.0504322448,-47500.0,-170.35986321166234,-366.83573095923981,-194.55381260952188,285.25939868385944,265.54746071606706,-228.3786150646051,498.31865340878016,-31.06256877660357,-374.42834657948572,374.42834657948572,31.06256877660357,928.39555999771255,0.0
713204.59901257406,4147374.0504322448,-47500.0,-200.60710680713817,-337.52287594579093,-164.72791087437352,274.70444648294978,233.15605104916324,-203.58233757114735,456.52177120369697,-65.721818594906466,-329.394391296344,329.394391296344,65.721818594906466,855.94440480769106,0.0
718204.59901257406,4147374.0504322448,-47500.0,-221.29772508837289,-309.04667548701104,-139.73656087902191,260.8703017217797,204.24257890121018,-180.33465820689617,417.8834420923252,-91.641593049274334,-289.28919533786672,289.28919533786672,91.641593049274334,787.92371451155861,0.0
523204.59901257406,4152374.0504322448,-47500.0,-560.15107733749164,207.03587424702684,-49.879231615300675,-471.82624085303434,156.60072541174421,-283.77301541793759,527.66746774396563,-412.3839102545578,227.76249391493104,-227.76249391493104,412.3839102545578,1032.3551577926028,0.0
528204.59901257406,4152374.0504322448,-47500.0,-579.06515667252211,235.27251967292091,-63.899338823668465,-523.63963077124504,187.14495275066776,-332.68545510201722,582.29968338419133,-423.82571842136457,245.4756200319743,-245.4756200319743,423.82571842136457,1137.0562611707235,0.0
533204.59901257406,4152374.0504322448,-47500.0,-591.64063838066841,266.44131009372381,-81.948280672678337,-579.24879157010378,223.79842908663196,-390.18739832449029,642.66089579258551,-429.46873413596302,262.2400877317034,-262.2400877317034,429.46873413596302,1252.0016549140432,0.0
538204.59901257406,4152374.0504322448,-47500.0,-595.05542729314095,300.25982516663862,-105.1158911351648,-637.74356852063136,267.62483286864949,-457.43099398097871,708.99604625435927,-426.84325063486529,276.76197529647357,-276.76197529647357,426.84325063486529,1377.3311880639783,0.0
543204.59901257406,4152374.0504322448,-47500.0,-585.75036622975608,336.05718072899674,-134.73312591625543,-697.49986341874501,319.72913596321445,-535.44262825028989,781.35415648934566,-412.82438698755698,287.182766790247,-287.182766790247,412.82438698755698,1512.6993713650188,0.0
548204.59901257406,4152374.0504322448,-47500.0,-559.36878375838717,372.57870066997589,-172.38333269765917,-755.88409347310017,381.1441572168136,-624.89432987357111,859.47315154171497,-383.56832930039542,290.90739468114799,-290.90739468114799,383.56832930039542,1657.0299720171129,0.0
553204.59901257406,4152374.0504322448,-47500.0,-510.78875509503558,407.72642386419648,-219.87679398522332,-808.88526666230121,452.62420963682871,-725.72970341252574,942.62384008082699,-334.52422822904344,284.41671042478509,-284.41671042478509,334.52422822904344,1808.1960437539958,0.0
558204.59901257406,4152374.0504322448,-47500.0,-434.33540329842555,438.23662335903083,-279.15545906996357,-850.69325900606111,534.29668481280112,-836.57933676512857,1029.4089999827243,-260.59736345321858,263.09802881810242,-263.09802881810242,260.59736345321858,1962.628621870017,0.0
563204.59901257406,4152374.0504322448,-47500.0,-324.3092997382447,459.31992212158156,-352.07625859247872,-873.28651404605819,625.10709802564509,-953.88817898211869,1117.5235784272297,-156.58327275969739,221.16515194529794,-221.16515194529794,156.58327275969739,2114.887256990814,0.0
568204.59901257406,4152374.0504322448,-47500.0,-176.02022729266588,464.34390934448061,-440.00193527831573,-866.17775586338473,721.98790068644007,-1070.682471904011,1203.5077275885537,-18.042601549524591,151.80215506881487,-151.80215506881487,18.042601549524591,2257.2925166197729,0.0
573204.59901257406,4152374.0504322448,-47500.0,12.449741548280393,444.73749594651679,-543.11598285920411,-816.61391910957661,818.70773829825362,-1174.9575932614125,1282.5791999594287,157.17601048643786,47.757017297461417,-47.757017297461417,-157.17601048643786,2379.8535498150159,0.0
578204.59901257406,4152374.0504322448,-47500.0,237.58695130276965,390.45503981531886,-659.40226691555097,-710.75127173979263,904.4624353729364,-1247.8393669821803,1348.7428510994787,366.5953022715787,-97.284819510759718,97.284819510759718,-366.5953022715787,2470.9702606237774,0.0
583204.59901257406,4152374.0504322448,-47500.0,487.02514073685893,291.53715328970702,-783.34200070025486,-536.58549266251566,962.53530061298488,-1262.0742235752055,1395.5811646582263,600.02556664468227,-286.1699042546237,286.1699042546237,-600.02556664468227,2519.7934882803779,0.0
588204.59901257406,4152374.0504322448,-47500.0,736.28192807542473,141.41397446674509,-904.66373916407269,-289.49324644606787,969.87449508556028,-1182.1650072402019,1418.4594727829701,836.4773917498735,-514.41119194742373,514.41119194742373,-836.4773917498735,2521.598006127947,0.0
593204.59901257406,4152374.0504322448,-47500.0,947.98937570205317,-57.737090176613663,-1007.9782979383154,19.422268625012318,899.1825372607392,-968.53764407404469,1419.2216076771369,1043.0489971711986,-765.5836515163694,765.5836515163694,-1043.0489971711986,2487.3561377019169,0.0
598204.59901257406,4152374.0504322448,-47500.0,1077.468809550955,-288.61939280260765,-1074.6645207880822,354.2765642154572,725.60690174061881,-588.72708034414165,1413.8302868434942,1179.1684584901418,-1008.200994077476,1008.200994077476,-1179.1684584901418,2455.1916720829317,0.0
603204.59901257406,4152374.0504322448,-47500.0,1087.959239089769,-515.08651107844628,-1088.2562491379788,650.87488522969659,439.03481293174315,-36.625661144427639,1437.387942958936,1209.3397647413515,-1198.2278886558695,1198.2278886558695,-1209.3397647413515,2489.6540648394557,0.0
608204.59901257406,4152374.0504322448,-47500.0,972.9071435845309,-687.0107380057932,-1042.7362149305595,828.05812998523857,58.733195626874263,646.05493418097683,1526.1794617234966,1122.7515095474423,-1291.2281107003978,1291.2281107003978,-1122.7515095474423,2644.6500444355765,0.0
613204.59901257406,4152374.0504322448,-47500.0,771.967086336026,-757.44199863120912,-949.54978588237771,818.28910818303734,-359.26406133502672,1361.6297140689105,1675.8592187514346,948.78765691719241,-1262.5828935686202,1262.5828935686202,-948.78765691719241,2905.7864431718644,0.0
618204.59901257406,4152374.0504322448,-47500.0,562.69944268408153,-706.11884333903345,-836.95745696478991,605.12662765197229,-733.07046723546591,1977.9856315186876,1835.6751090123685,752.54384349369843,-1124.5436990200756,1124.5436990200756,-752.54384349369843,3185.8299721195062,0.0
623204.59901257406,4152374.0504322448,-47500.0,425.05036516552713,-553.42405887116809,-739.14208285068798,240.34459737934424,-984.35553350976966,2377.1566094931627,1945.6940909726254,606.07539234986109,-925.50412736960527,925.50412736960527,-606.07539234986109,3381.9652252598612,0.0
628204.59901257406,4152374.0504322448,-47500.0,401.63310634404786,-352.43670625503239,-680.94941218787142,-176.61709504542162,-1069.7306085076391,2502.121571080022,1968.6313787493393,553.35156578164685,-728.66332268556732,728.66332268556732,-553.35156578164685,3428.8737519905599,0.0
633204.59901257406,4152374.0504322448,-47500.0,482.58520756452714,-164.06622094357394,-668.34227360869897,-543.24996188442253,-993.98718608697698,2371.1862369923338,1899.2224884765101,593.91585104128558,-584.37471160807604,584.37471160807604,-593.91585104128558,3315.9066719613411,0.0
638204.59901257406,4152374.0504322448,-47500.0,620.8646029320397,-32.665372491921282,-689.62565805654572,-791.66233859475403,-799.92352084890445,2056.4879452486143,1757.3319459513018,692.65021471620923,-513.8497431925249,513.8497431925249,-692.65021471620923,3076.1650290668526,0.0
643204.59901257406,4152374.0504322448,-47500.0,760.66319172023611,24.829691932318475,-724.30390380592269,-900.92169930107059,-545.80029869352541,1647.7671480049946,1574.9922153657944,802.84708669466545,-510.06325666083262,510.06325666083262,-802.84708669466545,2764.0412538936862,0.0
648204.59901257406,4152374.0504322448,-47500.0,859.70395051688433,15.522391025099912,-752.86512417956681,-887.46949438417687,-284.73401723662789,1223.2396770660748,1384.6305742569089,886.20826266987751,-549.55008420428658,549.55008420428658,-886.20826266987751,2434.2377125699127,0.0
653204.59901257406,4152374.0504322448,-47500.0,897.85522456838976,-40.056305551404172,-762.74950745639353,-786.92520843738248,-53.515903455530733,836.0139961457578,1211.2330204889877,922.04278779282924,-605.61791580867532,605.61791580867532,-922.04278779282924,2128.3556579286733,0.0
658204.59901257406,4152374.0504322448,-47500.0,874.6928480180527,-118.53652176050652,-749.57419145147617,-638.02714418585003,129.23024847814335,513.43515880159794,1068.0252954712887,906.71788757729985,-657.08963905897019,657.08963905897019,-906.71788757729985,1869.6153558066865,0.0
663204.59901257406,4152374.0504322448,-47500.0,802.09651807984335,-200.49531657585561,-715.23521385957065,-473.04418525724827,259.30915152058435,263.10178274804946,955.95779961626818,848.09727769947517,-691.45417293486753,691.45417293486753,-848.09727769947517,1663.9135560205791,0.0
668204.59901257406,4152374.0504322448,-47500.0,696.76587779206636,-273.05309710417822,-665.01897853223284,-314.30819932337027,341.4958970175939,80.401737843606639,868.29476578484969,759.25607839522081,-704.10524143316161,704.10524143316161,-759.25607839522081,1504.961346083426,0.0
673204.59901257406,4152374.0504322448,-47500.0,574.97090507190603,-329.61282834944006,-605.13916591871521,-174.65720537787416,384.73591445702147,-45.183045878154864,796.90488609057638,653.76067623237964,-695.90073667154888,695.90073667154888,-653.76067623237964,1380.9110105577724,0.0
678204.59901257406,4152374.0504322448,-47500.0,449.84948839446093,-368.3008224039379,-541.20458837667218,-59.610339032427277,398.86792112487069,-125.82940575516592,735.58764961240968,543.03745362867016,-670.62095789489081,670.62095789489081,-543.03745362867016,1279.8238072923546,0.0
683204.59901257406,4152374.0504322448,-47500.0,330.61492654971954,-390.19538713247721,-477.54243087948282,30.160509006499741,392.81567400783939,-172.98821406580572,680.51249541251195,435.42086630146321,-633.0469536869158,633.0469536869158,-435.42086630146321,1192.5362069386263,0.0
688204.59901257406,4152374.0504322448,-47500.0,222.86009219427544,-397.87061545712373,-417.09131828359529,96.751386630059358,373.84065805996619,-196.32191632500025,629.61593849206668,336.22676217487873,-587.78775142661641,587.78775142661641,-336.22676217487873,1113.2166598076708,0.0
693204.59901257406,4152374.0504322448,-47500.0,129.32218812454911,-394.3972592301605,-361.58618068008752,143.5381265479507,347.42718797299796,-203.43994121642999,581.92330834914162,248.29958941924619,-538.71068737918586,538.71068737918586,-248.29958941924619,1038.7204029878217,0.0
698204.59901257406,4152374.0504322448,-47500.0,50.723264811959105,-382.75280778014411,-311.8449366629826,174.23292679302068,317.47966542032799,-200.04505012211203,537.05052731955573,172.68203306378507,-488.76768236593148,488.76768236593148,-172.68203306378507,967.66229613261669,0.0
703204.59901257406,4152374.0504322448,-47500.0,-13.499607590501343,-365.52953349330363,-268.05111628437453,192.35441696660016,286.63139449603136,-190.24662986640118,494.89129857722003,109.22544622951006,-440.03913582648585,440.03913582648585,-109.22544622951006,899.64082442030258,0.0
708204.59901257406,4152374.0504322448,-47500.0,-64.635253457171117,-344.83223086840758,-229.98748333846555,200.97606153227187,256.55789062985718,-176.90628701644133,455.44011233248676,57.072619913096759,-393.87398083774133,393.87398083774133,-57.072619913096759,834.71532102299648,0.0
713204.59901257406,4152374.0504322448,-47500.0,-104.3066854902889,-322.28327545210487,-197.2103461799243,202.64469205010224,228.24784083132096,-161.9515424261389,418.70268308102999,15.005652446683087,-351.05498276231788,351.05498276231788,-15.005652446683087,773.10023577835796,0.0
523204.59901257406,4157374.0504322448,-47500.0,-506.83883931429756,240.94479380807286,-82.536670954100899,-436.9351052676098,181.07072410925971,-265.92907293222157,505.93774642530747,-364.75494616640793,227.8518077365689,-227.8518077365689,364.75494616640793,990.51056045961423,0.0
528204.59901257406,4157374.0504322448,-47500.0,-516.90565884175714,270.74521358103033,-102.16808085355719,-480.76320822270026,214.31588004207069,-309.66136221978724,555.92853618247932,-367.90759376398978,242.22985163868054,-242.22985163868054,367.90759376398978,1086.327781073684,0.0
533204.59901257406,4157374.0504322448,-47500.0,-519.49566835072346,302.88839841957781,-126.6786904117649,-526.58167281521162,253.65501685242373,-360.41264376617869,610.64492378123123,-364.08939698760014,254.5272331977616,-254.5272331977616,364.08939698760014,1190.4762058767549,0.0
538204.59901257406,4157374.0504322448,-47500.0,-511.84821956714131,336.77782655524089,-157.1873747163641,-573.13880931023095,299.95074571259431,-418.86261825533131,670.13150903174198,-350.84138288282463,263.19303700479441,-263.19303700479441,350.84138288282463,1302.7224693511923,0.0
543204.59901257406,4157374.0504322448,-47500.0,-490.61028733595816,371.33591299793477,-194.9846076506642,-618.45972687352082,353.99350683418481,-485.44126932418754,734.21467302294104,-325.17217997228653,266.10032091174781,-266.10032091174781,325.17217997228653,1422.3135229460815,0.0
548204.59901257406,4157374.0504322448,-47500.0,-451.85612531797648,404.80228131279642,-241.49433888933567,-659.59631804688047,416.34402478917775,-560.08575376209114,802.39944866677672,-283.56944909140697,260.4097526833628,-260.4097526833628,283.56944909140697,1547.7586122489199,0.0
553204.59901257406,4157374.0504322448,-47500.0,-391.22543897297885,434.4851633810373,-298.1775089133485,-692.34214159979547,487.07513642142368,-641.86832718381982,873.74013196472663,-222.11464603091812,242.44779819550891,-242.44779819550891,222.11464603091812,1676.5658760963734,0.0
558204.59901257406,4157374.0504322448,-47500.0,-304.26473061967408,456.4828183987143,-366.3395402830966,-710.94989996274569,565.370342164833,-728.45068594361317,946.6906948562505,-136.77753923056468,207.6477846007063,-207.6477846007063,136.77753923056468,1804.9558407062921,0.0
563204.59901257406,4157374.0504322448,-47500.0,-187.08800383228927,465.42544507725154,-446.79202534017531,-707.93564189415747,648.93230502856295,-815.32207762372445,1018.9561551552177,-23.996880212746184,150.6408636626781,-150.6408636626781,23.996880212746184,1927.6124813731194,0.0
568204.59901257406,4157374.0504322448,-47500.0,-37.49603900022958,454.34908163417595,-539.3115213087209,-674.1337526720456,733.16848055232845,-894.80612019900354,1087.3993248625529,118.32212939641457,65.640417473873384,-65.640417473873384,-118.32212939641457,2037.6123669068243,0.0
573204.59901257406,4157374.0504322448,-47500.0,143.3260118519463,414.90930741925723,-641.85276172031422,-599.28434675214351,810.17427824041556,-954.89925923484384,1148.117223353205,289.27453458917785,-52.670934564368352,52.670934564368352,-289.27453458917785,2126.810463902943,0.0
578204.59901257406,4157374.0504322448,-47500.0,348.54402992151466,338.27078155776746,-749.54142167166117,-473.57721834076091,867.67140893337216,-978.18264193716811,1196.9073762519231,482.87680586098935,-207.49955948525695,207.49955948525695,-482.87680586098935,2187.1910286976868,0.0
583204.59901257406,4157374.0504322448,-47500.0,563.20947000455112,217.11632478118693,-853.63910396665085,-290.67005574382728,888.33053309877846,-941.38642926853822,1230.5049033024934,685.74232318973168,-397.35767504113187,397.35767504113187,-685.74232318973168,2213.9926140053262,0.0
588204.59901257406,4157374.0504322448,-47500.0,762.65214595169289,49.152787945263512,-940.98535104279938,-52.533628131352884,850.33876581197967,-816.70419600830871,1249.1308966189461,875.43221255741867,-612.69269875435486,612.69269875435486,-875.43221255741867,2211.5270463293118,0.0
593204.59901257406,4157374.0504322448,-47500.0,913.75286619553583,-158.05226056824705,-994.83193869438401,224.33904457025332,730.5292510005022,-576.46686608562948,1260.6991246656069,1021.2931955758116,-832.70256535212218,832.70256535212218,-1021.2931955758116,2201.4051427731847,0.0
598204.59901257406,4157374.0504322448,-47500.0,981.67351981739091,-382.41697581237395,-998.19490425126207,503.67318627323749,511.36093697100154,-202.63517609937563,1285.1529447886517,1090.1810652405507,-1024.5940232450312,1024.5940232450312,-1090.1810652405507,2227.5432570238818,0.0
603204.59901257406,4157374.0504322448,-47500.0,943.19498818575016,-586.33483020856761,-940.19630341764321,729.90795978042456,191.56436281366962,299.47046063765595,1351.4967661660617,1058.3496270057751,-1148.4957965808705,1148.4957965808705,-1058.3496270057751,2342.842730355399,0.0
608204.59901257406,4157374.0504322448,-47500.0,802.86725102373384,-723.64275558692077,-823.72715458570815,839.97861022498807,-203.28052709353872,888.44344360775654,1476.9442979290311,926.48689851442361,-1169.9346782553678,1169.9346782553678,-926.48689851442361,2569.8186763545646,0.0
613204.59901257406,4157374.0504322448,-47500.0,601.57227711550854,-755.78659764909696,-669.88273063971167,786.95839133245499,-617.87981044778621,1485.1383393731232,1643.1248338328221,728.79628266042494,-1076.6099835257276,1076.6099835257276,-728.79628266042494,2870.1181806260047,0.0
618204.59901257406,4157374.0504322448,-47500.0,406.44147508680942,-670.7230576012314,-514.08865630109983,565.30714776625314,-978.98659963597231,1990.4624658777095,1803.6871214049513,525.74971397595107,-889.66855943154803,889.66855943154803,-525.74971397595107,3161.9940438865901,0.0
623204.59901257406,4157374.0504322448,-47500.0,282.80888039456613,-492.10495736258702,-393.48694330702227,220.20105434723018,-1219.8413417529136,2318.6058334097665,1912.0519058283953,379.88764468535169,-659.41224419388141,659.41224419388141,-379.88764468535169,3363.72595935353,0.0
628204.59901257406,4157374.0504322448,-47500.0,265.05713598048766,-270.71885989697489,-332.26375326352871,-168.51778957559679,-1304.3220921442237,2427.528552410005,1940.5024380274472,328.70969195045785,-445.50944117312537,445.50944117312537,-328.70969195045785,3425.4333186791036,0.0
633204.59901257406,4157374.0504322448,-47500.0,345.53096969466162,-63.209292979964729,-333.79292563578645,-518.18533745734317,-1236.6391887005514,2328.6524664421027,1885.1161157980951,372.1772199059892,-293.81331322848405,293.81331322848405,-372.1772199059892,3338.6819960617763,0.0
638204.59901257406,4157374.0504322448,-47500.0,485.50632723508534,88.342744311080011,-383.09486306849345,-770.95887992437849,-1053.2230407435229,2073.4474078347316,1761.0467300713524,480.01688495314818,-223.22287323179367,223.22287323179367,-480.01688495314818,3128.8488045402019,0.0
643204.59901257406,4157374.0504322448,-47500.0,636.68037288660275,165.94155066972212,-456.03394552388608,-904.53803044930851,-804.89942418498288,1729.2604599860272,1593.6402235275423,609.90965633722863,-226.7274916218833,226.7274916218833,-609.90965633722863,2839.4365502741057,0.0
648204.59901257406,4157374.0504322448,-47500.0,759.39798330089855,173.548233380152,-529.08288198539901,-927.02100990330189,-539.99373344575986,1358.2883827980995,1409.8852584192159,724.38416188728092,-281.53769242229106,281.53769242229106,-724.38416188728092,2516.6946564474711,0.0
653204.59901257406,4157374.0504322448,-47500.0,831.18470624610961,128.57683074095527,-585.50553948957554,-864.30021316579302,-294.33207771100138,1006.2028326995398,1232.4052892730369,799.86070128596305,-360.72331154653932,360.72331154653932,-799.86070128596305,2199.118861061836,0.0
658204.59901257406,4157374.0504322448,-47500.0,846.52145020249247,52.766305592498313,-617.11760538165288,-747.6941870993528,-88.56754490748385,699.80406481532771,1076.0155116778872,827.79842039578102,-441.44919690537154,441.44919690537154,-827.79842039578102,1912.6027428970181,0.0
663204.59901257406,4157374.0504322448,-47500.0,811.90733428591852,-34.277901990365542,-622.9393426664351,-605.58478689192373,69.675702425631599,450.07345494926716,946.50947425595609,811.11143378438999,-508.57310322261003,508.57310322261003,-811.11143378438999,1669.9761794070466,0.0
668204.59901257406,4157374.0504322448,-47500.0,739.95623638803954,-118.16441120483725,-606.57858223244477,-459.49785085280678,181.72293011540373,257.13653272559009,842.31284025678019,759.17835315182458,-554.67886185783652,554.67886185783652,-759.17835315182458,1473.2651902949681,0.0
673204.59901257406,4157374.0504322448,-47500.0,644.66806511351911,-190.19799580807015,-573.7012942495619,-323.43786609374234,253.8245531349109,114.96665348561565,758.30431677318211,683.54229506179547,-578.27545840580763,578.27545840580763,-683.54229506179547,1317.2995921949728,0.0
678204.59901257406,4157374.0504322448,-47500.0,538.52789056342203,-246.43570870265637,-530.21681557602051,-204.98777321361101,294.10586267572472,14.917555595742725,689.05008299415272,595.08659805721993,-581.5553893021887,581.5553893021887,-595.08659805721993,1193.5341087135735,0.0
683204.59901257406,4157374.0504322448,-47500.0,431.21434223824298,-286.26689384874874,-481.25995684785431,-107.02664930527739,310.65279473240327,-52.028263855806728,630.20379808524751,502.62774637575768,-568.48101413227812,568.48101413227812,-502.62774637575768,1093.1203482252815,0.0
688204.59901257406,4157374.0504322448,-47500.0,329.39234938198626,-311.07411918471132,-430.79110642989377,-29.396937161919929,310.52839283638059,-94.048796741593335,578.71614105332173,412.52222118972156,-543.45797971593026,543.45797971593026,-412.52222118972156,1008.6951213439827,0.0
693204.59901257406,4157374.0504322448,-47500.0,237.08579931710625,-323.20513377555471,-381.57901379709614,29.766209577619332,299.41744236920891,-117.97836969244366,532.60704582684536,328.85430831849197,-510.56555264595414,510.56555264595414,-328.85430831849197,934.95784873729201,0.0
698204.59901257406,4157374.0504322448,-47500.0,156.26985785523576,-325.28623720982233,-335.37147390051194,73.09947214956911,281.63128255113287,-129.22193974449419,490.65460066458002,253.8760701228847,-473.20043345452211,473.20043345452211,-253.8760701228847,868.48704238129926,0.0
703204.59901257406,4157374.0504322448,-47500.0,87.472670628246718,-319.82121509036648,-293.12855903970279,103.41881159207428,260.28584010644948,-131.88403591991016,452.1271663845954,188.49783266661612,-433.98507222635908,433.98507222635908,-188.49783266661612,807.26486657293356,0.0
708204.59901257406,4157374.0504322448,-47500.0,30.287488862591307,-308.99263853197044,-255.24797609909297,123.38287701795753,237.5356156269134,-128.98243166061656,416.58633802991784,132.72595211247449,-394.81853840763722,394.81853840763722,-132.72595211247449,750.19268166361906,0.0
713204.59901257406,4157374.0504322448,-47500.0,-16.234574269694861,-294.59311302095819,-221.75355307139594,135.33010895618031,214.80322691489533,-122.67524998701194,383.75682831806239,86.010416256424747,-356.99105987435212,356.99105987435212,-86.010416256424747,696.71471197760377,0.0
528204.59901257406,4162374.0504322448,-47500.0,-448.70124028059678,293.24787142280474,-140.48150920254281,-432.91869819563522,233.16275027566826,-283.65471591731523,525.24757017973297,-306.49613623339462,227.63273438963219,-227.63273438963219,306.49613623339462,1026.9871015977651,0.0
533204.59901257406,4162374.0504322448,-47500.0,-441.66172629285825,323.90936188369932,-170.53723361546415,-468.67087217525244,273.09834139063224,-327.2321808030112,573.90999283238409,-293.59435887336861,234.07575780030626,-234.07575780030626,293.59435887336861,1119.3904835121398,0.0
538204.59901257406,4162374.0504322448,-47500.0,-423.73553258043194,355.05154719612466,-207.03069748415311,-503.22307820402978,319.27194824232731,-376.50086463542237,626.18341777306898,-270.53625043641239,235.52547297956855,-235.52547297956855,270.53625043641239,1217.6391304881704,0.0
543204.59901257406,4162374.0504322448,-47500.0,-391.9331839773111,385.20948101325723,-251.0583380655699,-534.39355117239324,372.07091589531109,-431.37566920148583,681.72588458737448,-234.63326104990577,229.7136556204936,-229.7136556204936,234.63326104990577,1320.6652189849658,0.0
548204.59901257406,4162374.0504322448,-47500.0,-342.94240470249269,412.1908345648763,-303.69604359583946,-559.12462006647775,431.50668676416001,-491.19678799489537,739.89200192545866,-182.90848360132773,213.7510497885427,-213.7510497885427,182.90848360132773,1426.7084568494463,0.0
553204.59901257406,4162374.0504322448,-47500.0,-273.35487124208879,432.86906209364309,-365.83693422588198,-573.29394775653873,496.93020204075214,-554.3885131628798,799.64081838244613,-112.30215651717451,184.09013020253286,-184.09013020253286,112.30215651717451,1533.1294375718667,0.0
558204.59901257406,4162374.0504322448,-47500.0,-180.09738915354637,442.98786389718185,-437.92128182199912,-571.57687430319822,566.62054544314685,-617.98997830393466,859.44916027918407,-20.065089282152258,136.59052681426971,-136.59052681426971,20.065089282152258,1636.250453722839,0.0
563204.59901257406,4162374.0504322448,-47500.0,-61.151884504521028,437.0467857973141,-519.52155003323924,-547.4519263232296,637.22520809023467,-677.04784691407372,917.26445089553613,95.579802390430601,66.777277389975907,-66.777277389975907,-95.579802390430601,1731.3090341728155,0.0
568204.59901257406,4162374.0504322448,-47500.0,83.356728412276325,408.39510570529563,-608.75305926466285,-493.50533155342595,703.05812854360727,-723.89911912322975,970.56462003556817,234.42960935698488,-29.577285530274608,29.577285530274608,-234.42960935698488,1812.689357992848,0.0
573204.59901257406,4162374.0504322448,-47500.0,249.68892889010309,349.73879553141217,-701.52238594548146,-402.26641783371525,755.33402451338111,-747.45638181813149,1016.6485567702819,392.92342284653569,-155.38884995261847,155.38884995261847,-392.92342284653569,1874.7268568701106,0.0
578204.59901257406,4162374.0504322448,-47500.0,428.78494548359095,254.34072465073902,-790.72165441074935,-267.86753793999208,781.55675227204995,-732.76127953954847,1053.3580719968959,562.5189317395517,-310.57506938740283,310.57506938740283,-562.5189317395517,1913.5548672335158,0.0
583204.59901257406,4162374.0504322448,-47500.0,604.81114876192805,118.20107454584233,-865.66022430788507,-88.787285656353845,765.50892811105382,-661.31123022822067,1080.5025178944948,728.2575152285126,-489.76151893927232,489.76151893927232,-728.2575152285126,1930.5778953196066,0.0
588204.59901257406,4162374.0504322448,-47500.0,754.95731865585458,-56.696898855643745,-912.28902233663166,128.35235897399639,688.57490169593927,-512.94591895789233,1102.1711378830591,868.43449037575829,-679.78516376382436,679.78516376382436,-868.43449037575829,1937.7447542901607,0.0
593204.59901257406,4162374.0504322448,-47500.0,851.98561400788628,-258.60011326669303,-915.00612971487487,364.71682032569186,533.29315538982962,-270.2039317544814,1129.4130461986349,956.78789717196639,-858.09941837084568,858.09941837084568,-956.78789717196639,1962.5369903101616,0.0
598204.59901257406,4162374.0504322448,-47500.0,870.92822373101626,-463.28328187248394,-860.71981601384493,586.96634434788064,289.66575454327364,74.422508556725546,1180.630054167767,968.59158451506607,-993.98341101853441,993.98341101853441,-968.59158451506607,2045.228628191657,0.0
603204.59901257406,4162374.0504322448,-47500.0,799.6769856822267,-635.20468180526939,-744.91731304440623,749.98219150520526,-36.68122001698962,509.55668217075612,1274.3387595248707,890.59725949405799,-1054.5857097666101,1054.5857097666101,-890.59725949405799,2218.9489703939571,0.0
608204.59901257406,4162374.0504322448,-47500.0,649.64375244552491,-735.13350327129751,-577.59841385083496,807.34935502551116,-417.87401463651508,998.2876124673636,1413.4883501911449,731.49342558361172,-1016.0671605950699,1016.0671605950699,-731.49342558361172,2481.1499640906964,0.0
613204.59901257406,4162374.0504322448,-47500.0,459.20773399223623,-733.807394734539,-385.13366560271254,728.38089866079906,-804.01397331215503,1479.6995175762193,1576.0735592062731,526.14960884721665,-876.09939245679914,876.09939245679914,-526.14960884721665,2786.0923937309458,0.0
618204.59901257406,4162374.0504322448,-47500.0,283.87178580778584,-625.85738644706817,-204.70678296041157,514.14579698908028,-1133.9204258089683,1882.2726372436532,1724.9249666564588,327.58556756090627,-660.26158164374954,660.26158164374954,-327.58556756090627,3065.9411935715498,0.0
623204.59901257406,4162374.0504322448,-47500.0,175.27146958211122,-435.22688077504631,-72.243746286017782,201.98564561019157,-1353.787664359558,2145.5198505269923,1825.335142266902,187.85802680695656,-416.18898926135125,416.18898926135125,-187.85802680695656,3258.7871907946246,0.0
628204.59901257406,4162374.0504322448,-47500.0,160.586912513692,-207.34350022733213,-9.8268202324991822,-146.25864812814777,-1434.6092061009278,2239.0931383049206,1856.6061136312289,138.02610190335128,-196.92756244437697,196.92756244437697,-138.02610190335128,3327.295366486067,0.0
633204.59901257406,4162374.0504322448,-47500.0,234.54237339263909,7.7815654466924133,-19.481749827690376,-466.04903794415407,-1379.138467091248,2169.2327616361758,1815.2485930090538,178.82757484709504,-42.665367182341697,42.665367182341697,-178.82757484709504,3264.4859768326401,0.0
638204.59901257406,4162374.0504322448,-47500.0,366.73225354243721,171.81429733451571,-85.741806953553052,-709.72122475554772,-1216.1950926484037,1970.9839690172582,1712.1004133505767,285.66073616351093,29.616605599487826,-29.616605599487826,-285.66073616351093,3088.9000062872806,0.0
643204.59901257406,4162374.0504322448,-47500.0,517.1221705122814,266.32903624217204,-183.9381311736233,-855.39266816715997,-987.57885453973495,1692.8731379912003,1566.416427512745,422.1551579891086,25.548262818540735,-25.548262818540735,-422.1551579891086,2834.0726015395767,0.0
648204.59901257406,4162374.0504322448,-47500.0,650.34536892246979,292.00610724569123,-289.1376992705496,-904.9123823365012,-734.93754983228644,1382.3914142347858,1399.77648310934,553.78517024176438,-34.6025138435798,34.6025138435798,-553.78517024176438,2537.5315324487929,0.0
653204.59901257406,4162374.0504322448,-47500.0,743.58606100397537,262.34701124889915,-382.18571156554117,-875.70666484354138,-491.20002222931828,1076.9953135889541,1231.488669719663,656.21273835116131,-125.61350797024619,125.61350797024619,-656.21273835116131,2232.6583428503768,0.0
658204.59901257406,4162374.0504322448,-47500.0,787.85394971375013,196.23153145277129,-451.94108660901935,-791.73148919554751,-277.4236410391577,801.06458908921218,1075.7780768219443,717.56729701851134,-224.70861730139686,224.70861730139686,-717.56729701851134,1944.369579784204,0.0
663204.59901257406,4162374.0504322448,-47500.0,785.09428860515595,112.11009966284081,-494.60942720910219,-676.60008094541161,-103.60387721948736,566.96485592792305,940.47599532931986,736.54877285689668,-315.34964203220511,315.34964203220511,-736.54877285689668,1688.002170085507,0.0
668204.59901257406,4162374.0504322448,-47500.0,743.84775786213481,24.73935689496,-511.64528580883041,-549.72507327990695,28.567790309034141,378.01632824736384,827.40261435060506,718.77893031106896,-387.96070200467875,387.96070200467875,-718.77893031106896,1470.2632534374825,0.0
673204.59901257406,4162374.0504322448,-47500.0,675.29062743660484,-55.872395474149151,-507.43321310444389,-424.99096140183985,122.57572632685418,231.76723114220263,734.43977520705096,673.18419279217494,-438.82664565791617,438.82664565791617,-673.18419279217494,1291.2298567687594,0.0
678204.59901257406,4162374.0504322448,-47500.0,590.44839677155119,-124.11250836283874,-487.4162645835865,-311.03117373412726,184.45109494249911,122.73375348182584,657.93892310782212,609.28325933183658,-468.30976625420186,468.30976625420186,-609.28325933183658,1146.6977224716352,0.0
683204.59901257406,4162374.0504322448,-47500.0,498.65243862543713,-177.76961600371195,-456.87647490353703,-212.26385029000033,220.9340856312171,44.339887436898024,594.22913821588725,535.56006458141132,-479.12177482874449,479.12177482874449,-535.56006458141132,1030.4058260902707,0.0
688204.59901257406,4162374.0504322448,-47500.0,406.9613367230445,-216.92100712343913,-420.30013577109338,-130.10984308526949,238.38198599285687,-9.8909157874118652,540.22302107025507,458.73558214136909,-474.98592537973121,474.98592537973121,-458.73558214136909,935.79342464401282,0.0
693204.59901257406,4162374.0504322448,-47500.0,320.18989371887977,-242.97469732030677,-381.15895647223056,-64.083142656253187,242.24095674241772,-45.715166416989682,493.54727471412457,383.63990502999189,-459.75445931060807,459.75445931060807,-383.63990502999189,857.10077061816958,0.0
698204.59901257406,4162374.0504322448,-47500.0,241.24565055390136,-257.95994187338272,-341.93848160950546,-12.635608240226638,236.88426234189146,-67.92873378171798,452.47717806269264,313.41391766120881,-436.91289931276464,436.91289931276464,-313.41391766120881,789.834393260458,0.0
703204.59901257406,4162374.0504322448,-47500.0,171.56813827834762,-264.05982584892428,-304.28481179766976,26.25333212160491,225.65708571080827,-80.350351646876618,415.80434722697828,249.84565414519687,-409.36056165365636,409.36056165365636,-249.84565414519687,730.77811083233735,0.0
708204.59901257406,4162374.0504322448,-47500.0,111.55458110185459,-263.33748041918693,-269.1881135578717,54.700828935669641,211.01759643778573,-85.918987460245333,382.69843437507507,193.7243388693677,-379.3640348305064,379.3640348305064,-193.7243388693677,677.77274735523213,0.0
528204.59901257406,4167374.0504322448,-47500.0,-378.25802169822788,303.33399882921458,-176.28719685712929,-382.59716805427479,243.88178218513391,-255.97140335809195,491.693086314369,-243.30072363018564,204.17519711688476,-204.17519711688476,243.30072363018564,961.5920114741408,0.0
533204.59901257406,4167374.0504322448,-47500.0,-362.6488105472028,330.52001906711814,-210.48595315632642,-408.64664562639729,282.59205447026119,-292.378293197782,534.25775428388511,-222.41191881184363,204.13203106934571,-204.13203106934571,222.41191881184363,1041.9598925939331,0.0
538204.59901257406,4167374.0504322448,-47500.0,-336.00103275541017,356.75463001854638,-251.07390411512759,-431.90832094302357,326.46899265009125,-332.63973013564208,579.40158992831709,-191.15826802821167,197.95560213004413,-197.95560213004413,191.15826802821167,1126.1174230331262,0.0
543204.59901257406,4167374.0504322448,-47500.0,-295.81234628797063,380.26611384057981,-298.82727261276233,-450.14985709950139,375.47581607218035,-376.27240866952604,626.68090189077623,-147.29401828030024,183.39156870758796,-183.39156870758796,147.29401828030024,1212.8059321963194,0.0
548204.59901257406,4167374.0504322448,-47500.0,-239.50234147338128,398.57315376768042,-354.33879476389933,-460.40588490860682,429.08904916525631,-422.19455078875853,675.39156854055716,-88.521768893258113,157.7098515840666,-157.7098515840666,88.521768893258113,1300.1687500537382,0.0
553204.59901257406,4167374.0504322448,-47500.0,-164.69837065052704,408.34241693868478,-417.80820006914593,-458.88491142808414,486.01619998159066,-468.43645431691129,724.51963705470394,-12.762541353816886,117.7549180970004,-117.7549180970004,12.762541353816886,1385.6529972650487,0.0
558204.59901257406,4167374.0504322448,-47500.0,-69.704819391196366,405.29754906163794,-488.73077680496516,-440.96053005210206,543.81692462894421,-511.76945274991107,772.72023555592102,81.400534799637825,60.1240017772393,-60.1240017772393,-81.400534799637825,1465.9859332126796,0.0
563204.59901257406,4167374.0504322448,-47500.0,45.794458929592977,384.25760005706883,-565.46522884190392,-401.33398438070094,598.42918429535598,-547.26617607428489,818.36474973716463,194.05578460742129,-18.445893905415915,18.445893905415915,-194.05578460742129,1537.3244096853505,0.0
568204.59901257406,4167374.0504322448,-47500.0,179.78170783842896,339.42915894330321,-644.6864856416056,-334.49732927983007,643.64088789341292,-567.84694703381012,859.72687178716217,323.05202298400127,-120.38318135962754,120.38318135962754,-323.05202298400127,1595.7515441269163,0.0
573204.59901257406,4167374.0504322448,-47500.0,326.76227800753924,265.12378514286524,-720.78468165431752,-235.66173346158544,670.61976405996234,-563.93895259793874,895.41555730607888,462.89693106989938,-246.18680402469346,246.18680402469346,-462.89693106989938,1638.3912154471491,0.0
578204.59901257406,4167374.0504322448,-47500.0,476.66203739670624,157.09196737617609,-785.37600356790892,-102.31322423530759,667.73352302752789,-523.48686704949205,925.19339682576231,603.67430224821464,-392.90880339375212,392.90880339375212,-603.67430224821464,1665.4890283017291,0.0
583204.59901257406,4167374.0504322448,-47500.0,614.25820638438904,14.593084819446336,-827.24798972396525,63.546474165414409,621.05208704772599,-432.69565207693023,951.27558374046441,730.44286534682669,-552.37994676373955,552.37994676373955,-730.44286534682669,1683.6663693094006,0.0
588204.59901257406,4167374.0504322448,-47500.0,719.94811239999774,-156.94401620895005,-833.23195924906202,252.72181661151691,516.06069420496544,-277.99120525955107,979.90399179319502,823.88718649912653,-709.70127146396362,709.70127146396362,-823.88718649912653,1709.5984612037723,0.0
593204.59901257406,4167374.0504322448,-47500.0,772.80715847801764,-343.35896748534708,-790.54460248670478,446.52836264563035,341.06952301532834,-49.602498853934442,1022.1450817117743,863.158865618395,-843.00971808174575,843.00971808174575,-863.158865618395,1770.7469958039005,0.0
598204.59901257406,4167374.0504322448,-47500.0,756.45504007518286,-520.73661250710359,-690.82198292199507,616.43484244058152,92.315940512430146,253.34894097818906,1091.6242566792255,831.47941409215741,-925.87636952288517,925.87636952288517,-831.47941409215741,1897.0068353197314,0.0
603204.59901257406,4167374.0504322448,-47500.0,666.80236099911087,-657.85003250830277,-535.14563560433999,727.57556818772525,-220.38056054499208,617.49035903545155,1197.3534535621188,723.73685719895457,-933.33179244123153,933.33179244123153,-723.73685719895457,2102.3657128556306,0.0
608204.59901257406,4167374.0504322448,-47500.0,518.48748949187677,-723.32433538089856,-337.98828146386472,747.17182688770322,-570.04586785851154,1012.2202904718414,1334.8344490150964,553.12503258295294,-850.83932795429985,850.83932795429985,-553.12503258295294,2370.5360954639937,0.0
613204.59901257406,4167374.0504322448,-47500.0,345.32145955667806,-696.29902010452793,-127.15010916057646,656.16591548658448,-914.37254443433005,1392.2883215416318,1483.8402977679489,352.29080173010721,-682.83863118125464,682.83863118125464,-352.29080173010721,2658.6501502074943,0.0
618204.59901257406,4167374.0504322448,-47500.0,191.7551267001005,-576.06026841762309,62.160955177761466,458.97595998384799,-1204.5702210783591,1707.2830432030132,1616.0803594940153,165.80890505328711,-455.72596571777882,455.72596571777882,-165.80890505328711,2913.8470183511913,0.0
623204.59901257406,4167374.0504322448,-47500.0,97.725407554420229,-384.89888390481497,197.66675036064476,185.3563857302521,-1398.8360682499519,1915.3110116741082,1706.0041989007027,35.753444447655724,-211.87700192934528,211.87700192934528,-35.753444447655724,3090.2577907937498,0.0
628204.59901257406,4167374.0504322448,-47500.0,84.453462824137503,-161.59601431192272,260.05035650174347,-117.9022944825516,-1474.422570335302,1994.7281879744994,1738.0647557467944,-12.664863875894834,3.4825184892416106,-3.4825184892416106,12.664863875894834,3160.1192862311373,0.0
633204.59901257406,4167374.0504322448,-47500.0,148.72358298644875,51.352650197170327,247.7470478119364,-401.52592888108109,-1432.5703797676908,1948.392135211227,1709.002482739073,22.062132224198393,156.08687316844524,-156.08687316844524,-22.062132224198393,3117.4921502027237,0.0
638204.59901257406,4167374.0504322448,-47500.0,267.51946497234314,220.20002199790821,174.83876868092227,-627.27234016844091,-1294.8540725989667,1799.376667917317,1626.2011885211821,120.88423571160754,230.64205001042316,-230.64205001042316,-120.88423571160754,2975.3935734841248,0.0
643204.59901257406,4167374.0504322448,-47500.0,408.80231901104617,326.8701549262388,64.275381401810094,-774.99772120350212,-1094.0943327369471,1581.6004841312204,1503.854241459617,253.87618898499957,230.79831800441067,-230.79831800441067,-253.87618898499957,2758.9379898881234,0.0
648204.59901257406,4167374.0504322448,-47500.0,542.31314702807424,369.20733831170844,-59.747275384261094,-842.44440302573878,-864.61652320695964,1330.1683949147823,1358.7194283323768,390.74921819005317,173.3205836107775,-173.3205836107775,-390.74921819005317,2497.6577420386666,0.0
653204.59901257406,4167374.0504322448,-47500.0,646.41540590554291,356.6986856181797,-177.36011195089455,-840.32312437302141,-635.24892722680329,1074.6204891925754,1206.6665316704014,508.11025806096308,80.438550869779931,-80.438550869779931,-508.11025806096308,2219.3388378225986,0.0
658204.59901257406,4167374.0504322448,-47500.0,710.19887711065894,304.73321571454119,-275.55882681219555,-786.01755234109612,-426.08621295358586,835.89808317643133,1060.3898896511564,592.3208455343829,-26.499811370002305,26.499811370002305,-592.3208455343829,1946.3128373045708,0.0
663204.59901257406,4167374.0504322448,-47500.0,732.13648849606682,229.65634277799637,-348.19774651861877,-698.2370559974039,-248.34000432631504,626.24632036416097,928.1559926632865,638.89499620395532,-130.75355353845777,130.75355353845777,-638.89499620395532,1694.0446726553739,0.0
668204.59901257406,4167374.0504322448,-47500.0,717.1346529113481,145.59421758552224,-394.51912851852529,-593.560831974856,-105.97709344720613,450.77431857045485,813.62074251679098,650.07977587345033,-221.41941616402769,221.41941616402769,-650.07977587345033,1471.3433759453212,0.0
673204.59901257406,4167374.0504322448,-47500.0,673.43118874846868,63.03936680738348,-417.2238572733271,-484.82404621309814,2.0284525143816694,309.57380324009785,716.85687754688331,632.03006142283732,-292.97492146727666,292.97492146727666,-632.03006142283732,1281.4737724141476,0.0
678204.59901257406,4167374.0504322448,-47500.0,610.13304040067555,-11.287125704950988,-420.72897161143624,-380.84195971504869,79.582428215204004,199.71174985611412,635.98218443644271,592.41719539734595,-344.01134403358424,344.01134403358424,-592.41719539734595,1123.6273792050758,0.0
683204.59901257406,4167374.0504322448,-47500.0,535.6308853573222,-73.86466421563226,-409.89119533943716,-286.89806808224785,131.84092108738696,116.78722877830994,568.44593605658326,538.78515554462535,-375.80473634881611,375.80473634881611,-538.78515554462535,994.41522704197098,0.0
688204.59901257406,4167374.0504322448,-47500.0,456.79959033240954,-123.54202259164944,-389.22471532280974,-205.54297250029038,164.12656456030575,55.993884843320643,511.71174816973155,477.632032862762,-391.08409232482279,391.08409232482279,-477.632032862762,889.18794013241222,0.0
693204.59901257406,4167374.0504322448,-47500.0,378.76510190977757,-160.72272863735972,-362.51810850511129,-137.4178716600106,181.30912753622468,12.756758286788589,463.54855167121889,414.04485518730621,-393.12849469078662,393.12849469078662,-414.04485518730621,803.06442187761024,0.0
698204.59901257406,4167374.0504322448,-47500.0,305.01172405391492,-186.69793931784807,-332.72207671628627,-81.958563444271221,187.52217684861611,-16.945696689531793,422.12659964251435,351.68821184932239,-385.18911093051889,385.18911093051889,-351.68821184932239,731.6088656050855,0.0
703204.59901257406,4167374.0504322448,-47500.0,237.65302033497548,-203.16169624278001,-301.99428233078811,-37.93203288904261,186.09387084809757,-36.466639135553436,386.01581475692967,292.98081691371999,-370.17141735479618,370.17141735479618,-292.98081691371999,671.16778249663196,0.0
528204.59901257406,4172374.0504322448,-47500.0,-308.85345401880153,302.31510869722081,-207.58509928001075,-332.00520673694058,247.14959911559438,-227.78845643219293,456.64463687289378,-181.51464574861464,174.55719035165308,-174.55719035165308,181.51464574861464,892.59840597150367,0.0
533204.59901257406,4172374.0504322448,-47500.0,-286.20086844345377,324.61440463284106,-244.26896888389828,-349.1968708530195,283.19141494467266,-257.36902852229343,493.36111294202436,-154.21137641430889,168.07994290613837,-168.07994290613837,154.21137641430889,961.20321306128642,0.0
538204.59901257406,4172374.0504322448,-47500.0,-252.84279726517252,344.5510282079839,-286.83899516634267,-362.43383406974698,323.13772036128961,-289.22533317092859,531.79699061201075,-116.84704214208492,154.67983631331438,-154.67983631331438,116.84704214208492,1031.8515430108012,0.0
543204.59901257406,4172374.0504322448,-47500.0,-206.83516377834175,360.16616571191332,-335.67463472305457,-369.57372069832815,366.5637991934376,-322.6032908123816,571.4719380841359,-67.706356597261333,132.26640418480901,-132.26640418480901,67.706356597261333,1103.2255557099913,0.0
548204.59901257406,4172374.0504322448,-47500.0,-146.36906562291279,368.86584782523551,-390.82621369811943,-367.90784879544969,412.49527322615268,-356.17557255125655,611.70630827325624,-5.2345227221758677,98.449137457502204,-98.449137457502204,5.2345227221758677,1173.5420807352175,0.0
553204.59901257406,4172374.0504322448,-47500.0,-70.080224290299256,367.35290548650255,-451.78476278186736,-354.15021385773144,459.15342701197045,-387.81395147237947,651.61368609378053,71.662464443361756,50.662526710604581,-50.662526710604581,-71.662464443361756,1240.5441839942273,0.0
558204.59901257406,4172374.0504322448,-47500.0,22.493061094675213,351.6407030666258,-517.16931200852957,-324.52693021804998,503.63879257425521,-414.31988360578242,690.13771296971936,163.17378635094292,-13.573265083828716,13.573265083828716,-163.17378635094292,1301.6037618602704,0.0
563204.59901257406,4172374.0504322448,-47500.0,130.28859148521741,317.22402759279953,-584.33473373517029,-275.03850594472345,541.57428385153423,-431.14033099992253,726.173558775017,267.98018206960023,-96.195286455186604,96.195286455186604,-267.98018206960023,1354.0378996106626,0.0
568204.59901257406,4172374.0504322448,-47500.0,249.96228190065381,259.51148597360464,-648.93481656053279,-201.9879904322687,566.76731990256394,-432.13095074192051,758.8333698867915,382.51388731838404,-197.88477759175328,197.88477759175328,-382.51388731838404,1395.7962629116778,0.0
573204.59901257406,4172374.0504322448,-47500.0,375.10458762165302,174.64092328644281,-704.5352730671608,-102.87270189584967,571.0134709964733,-409.48345252024751,787.92915787684069,500.18634216658984,-317.07245313301542,317.07245313301542,-500.18634216658984,1426.7249160186273,0.0
578204.59901257406,4172374.0504322448,-47500.0,495.67894479203386,60.775087713370006,-742.46166601642767,22.302647317603729,544.25004111554256,-354.00355378524029,814.72289967488337,610.82085428521555,-448.72846539641006,448.72846539641006,-610.82085428521555,1450.5597170039491,0.0
583204.59901257406,4172374.0504322448,-47500.0,598.1050701570075,-80.139724957457787,-752.17495149723607,169.36006775937929,475.35495494348771,-255.98955926618399,842.85579518922714,700.70190626495241,-583.18362430051593,583.18362430051593,-700.70190626495241,1477.3860301041611,0.0
588204.59901257406,4172374.0504322448,-47500.0,666.54974956132753,-240.42681620319388,-722.53876222736096,328.25199760869828,353.91498204776519,-106.9662964803199,879.00234293912729,753.80020708498591,-705.496635368939,705.496635368939,-753.80020708498591,1525.0712904750649,0.0
593204.59901257406,4172374.0504322448,-47500.0,685.92224361607407,-405.22857898309434,-644.26056744335006,482.03196795129594,173.13975010217899,97.624286201356583,932.22602214537028,754.68898684245892,-796.15243798829533,796.15243798829533,-754.68898684245892,1616.3428299878587,0.0
598204.59901257406,4172374.0504322448,-47500.0,646.56182675611524,-552.66037624766921,-513.40265194321069,607.53868435342781,-66.356427982215209,355.09026474734276,1010.9103988410935,693.19463100354847,-833.9152622110696,833.9152622110696,-693.19463100354847,1768.9534659811859,0.0
603204.59901257406,4172374.0504322448,-47500.0,549.53075782332985,-656.74266849831906,-335.10854556543546,678.81022426851928,-352.96150223959393,652.50352196920278,1117.6715783324637,569.78525771601653,-801.11735476190256,801.11735476190256,-569.78525771601653,1983.5100371263632,0.0
608204.59901257406,4172374.0504322448,-47500.0,410.14528930644337,-693.49612541439626,-125.84125929420507,673.39848016443057,-662.50003514725847,965.68887459811367,1245.2573755683898,399.40838931660664,-690.35051304547665,690.35051304547665,-399.40838931660664,2239.1070097664524,0.0
613204.59901257406,4172374.0504322448,-47500.0,256.93585095064333,-648.81223500303679,87.811389016953939,580.03577183159177,-960.58973645789922,1261.7839054520666,1376.9172230401009,210.94246850823743,-509.90671797944401,509.90671797944401,-210.94246850823743,2499.732275034432,0.0
618204.59901257406,4172374.0504322448,-47500.0,124.76338130474537,-524.82571703515612,274.59903837068214,404.40352355854134,-1209.4672171436548,1505.6996275558481,1491.5730960307774,40.784419439159166,-284.68108694885564,284.68108694885564,-40.784419439159166,2725.4188169774939,0.0
623204.59901257406,4172374.0504322448,-47500.0,44.121165737220558,-341.2086028531279,406.87452355934624,169.66305884611205,-1377.3848554057308,1668.645051446744,1570.4620052119622,-77.719760166635012,-50.83121493512644,50.83121493512644,77.719760166635012,2882.4572974713478,0.0
628204.59901257406,4172374.0504322448,-47500.0,31.457338849575251,-130.04679288088511,468.22460751877412,-89.265576478849852,-1446.774632937374,1735.2798571835112,1601.8497125701829,-124.38410630595318,154.16219092940065,-154.16219092940065,124.38410630595318,2950.2059187985683,0.0
633204.59901257406,4172374.0504322448,-47500.0,85.107968055038171,73.519906400619931,457.10253098012538,-335.29402275278608,-1417.7114165844671,1706.4987903913957,1582.7235486332913,-97.142790046811882,301.66171972724783,-301.66171972724783,97.142790046811882,2923.58313383614,0.0
638204.59901257406,4172374.0504322448,-47500.0,188.11410759018366,240.59375470181041,385.31883978836248,-538.3545688842047,-1305.7141757327495,1597.158432973614,1517.9142907550699,-10.198069484175591,377.9870900354141,-377.9870900354141,10.198069484175591,2811.4457000807251,0.0
643204.59901257406,4172374.0504322448,-47500.0,315.52064411383839,354.16248576822943,272.86255485886602,-680.79015160496067,-1135.6771368492402,1430.4751079887221,1417.65472124957,112.66011163679153,384.8285050597018,-384.8285050597018,-112.66011163679153,2632.2065960251662,0.0
648204.59901257406,4172374.0504322448,-47500.0,442.29013634897859,410.00328747331895,141.75789102214341,-758.05063938655576,-934.90840700746639,1231.7712297695571,1294.6758962716731,245.88662907144007,335.23725888470108,-335.23725888470108,-245.88662907144007,2408.5796944087424,0.0
653204.59901257406,4172374.0504322448,-47500.0,548.93750464640573,414.01216463917086,11.200389468267343,-775.94253071668936,-727.65565004368545,1023.6297126110012,1161.6709683782763,368.18440486311823,247.85146206192127,-247.85146206192127,-368.18440486311823,2163.0257514197624,0.0
658204.59901257406,4172374.0504322448,-47500.0,623.92831012315128,378.00463888428851,-105.05719536413245,-746.44805828883852,-532.10338652575149,823.25300673215793,1029.4753926394615,465.48438196536807,141.6892038736018,-141.6892038736018,-465.48438196536807,1914.699373448118,0.0
663204.59901257406,4172374.0504322448,-47500.0,663.38720269217538,315.71506420435179,-199.22238936215771,-683.76268205732174,-359.64999394435068,641.81150980749578,905.94395421892887,531.22052995520414,32.712913843913981,-32.712913843913981,-531.22052995520414,1677.9797361833389,0.0
668204.59901257406,4172374.0504322448,-47500.0,669.27463253454812,239.91752655119149,-268.6024665421848,-601.41347712376694,-215.69963520597594,485.10047166716566,795.52051032980557,564.92291803538797,-67.689592277023905,67.689592277023905,-564.92291803538797,1462.2433500297407,0.0
673204.59901257406,4172374.0504322448,-47500.0,647.10955686369152,160.86089896064664,-314.14289876418218,-510.63378106291151,-101.15471019729166,354.80555764244599,699.65188350250571,570.16994249614083,-152.76448811084512,152.76448811084512,-570.16994249614083,1272.4134792143914,0.0
678204.59901257406,4172374.0504322448,-47500.0,603.9387714497168,85.780773838505809,-338.93764168411241,-419.7747383640056,-14.004648118057519,249.86480744393577,617.82283481581658,552.62792543974376,-219.61614868077504,219.61614868077504,-552.62792543974376,1109.8793718951954,0.0
683204.59901257406,4172374.0504322448,-47500.0,546.86203358305056,19.104447264440982,-347.01804862765181,-334.40069570545126,49.324497844135628,167.6427796522994,548.5632695337199,518.53963926296046,-268.12477982125995,268.12477982125995,-518.53963926296046,973.50780165787285,0.0
688204.59901257406,4172374.0504322448,-47500.0,482.1468098204283,-37.004583396338539,-342.5165927967908,-257.74029913927808,92.981892659883371,104.8092155953544,490.07762086780599,473.74699190831177,-299.89904788466754,299.89904788466754,-473.74699190831177,860.58816126460692,0.0
693204.59901257406,4172374.0504322448,-47500.0,414.82489108017603,-82.014002241650317,-329.17624940312027,-191.2554967000178,121.05620883556276,57.924138656756348,440.56860785749097,423.17844616595789,-317.43049377108741,317.43049377108741,-423.17844616595789,767.63271107762671,0.0
698204.59901257406,4172374.0504322448,-47500.0,348.61906873618216,-116.44592083699423,-310.12287502518302,-135.18592311308561,137.22309149409355,23.781773277044504,398.39785278434113,370.67277126785223,-323.49362954484991,323.49362954484991,-370.67277126785223,690.99309327582841,0.0
703204.59901257406,4172374.0504322448,-47500.0,286.0617131298913,-141.41780159958967,-287.81153175495035,-89.001741194525891,144.59243469681454,-0.42007990322566519,362.1593780494897,319.01215130200649,-320.76867225807769,320.76867225807769,-319.01215130200649,627.27977244224689,0.0
533204.59901257406,4177374.0504322448,-47500.0,-215.13513723961287,308.60027167164094,-270.49291183720948,-292.44194500997241,276.32702030091804,-223.43425510123961,452.62250112018461,-91.728760722418528,129.07891103712655,-129.07891103712655,91.728760722418528,879.78012079494442,0.0
538204.59901257406,4177374.0504322448,-47500.0,-177.2313692079598,321.60181350864593,-312.98699354002571,-297.23623256280916,311.27921781210773,-247.77082862994271,484.97856370739282,-50.492667047648283,109.45289764552884,-109.45289764552884,50.492667047648283,938.00044991735263,0.0
543204.59901257406,4177374.0504322448,-47500.0,-127.9944841608046,328.98594007724563,-360.46486193007638,-295.39119372118364,348.09241341472995,-272.1968755982893,517.91790460334437,1.2195856151150863,80.712481793465116,-80.712481793465116,-1.2195856151150863,995.6315206661809,0.0
548204.59901257406,4177374.0504322448,-47500.0,-66.352027875355006,328.21934617541956,-412.45094394762083,-284.56385903361809,385.46486913757661,-295.29254592892482,550.85085979276573,64.237930489578844,40.930067655791049,-40.930067655791049,-64.237930489578844,1051.1066732749787,0.0
553204.59901257406,4177374.0504322448,-47500.0,8.1684826766459633,316.25214789130496,-467.80748538358512,-262.06377127031425,421.32052176442511,-314.95826907065907,583.08687346594525,138.76761110413332,-11.765121678644242,11.765121678644242,-138.76761110413332,1102.6218396852789,0.0
558204.59901257406,4177374.0504322448,-47500.0,95.032049739873216,289.61956251070194,-524.45560358641569,-225.00458235734601,452.56994055868148,-328.23712402312225,613.91500096774246,223.98677475569886,-78.883320309077277,78.883320309077277,-223.98677475569886,1148.3422971422215,0.0
563204.59901257406,4177374.0504322448,-47500.0,192.19420600935987,244.70574755493953,-579.06248144344806,-170.61009053974436,474.87555573650485,-331.15732403753981,642.77069227580046,317.55022846565873,-161.10681202226777,161.10681202226777,-317.55022846565873,1186.8369022132508,0.0
568204.59901257406,4177374.0504322448,-47500.0,295.55953932244421,178.24540508119324,-626.74885700355821,-96.732089804707201,482.48613778000959,-318.65236793698011,669.52807347481894,415.05218298821137,-257.63782721067935,257.63782721067935,-415.05218298821137,1217.8589532885874,0.0
573204.59901257406,4177374.0504322448,-47500.0,398.52740369614753,88.131865150354585,-660.92294631434288,-2.6230084340758459,468.25251637329535,-284.65252288742062,694.94497620870288,509.57170940582785,-365.38702394392681,365.38702394392681,-509.57170940582785,1243.5747740442164,0.0
578204.59901257406,4177374.0504322448,-47500.0,491.84822215644266,-25.449256230519008,-673.4122656470978,110.04760970539216,423.98786345990834,-222.476711992715,721.22197683757236,591.52186462950795,-478.11976347338083,478.11976347338083,-591.52186462950795,1270.1531572940437,0.0
583204.59901257406,4177374.0504322448,-47500.0,564.10827038209936,-158.66363067448899,-655.12055365992433,236.05825001757304,341.36741804933564,-125.66932904375804,752.4661047661325,649.12148205252595,-585.82124153776829,585.82124153776829,-649.12148205252595,1309.0467555681862,0.0
588204.59901257406,4177374.0504322448,-47500.0,603.18421242348666,-302.76133917803224,-597.43214720040612,365.68884406285201,213.52748068929799,10.614391255687204,794.57539961317343,669.84074490645344,-674.70976193062234,674.70976193062234,-669.84074490645344,1376.2738996977153,0.0
593204.59901257406,4177374.0504322448,-47500.0,598.85085686115247,-443.47718005317182,-494.44126034894265,484.48127100069701,37.353373306118797,187.71926351817407,853.91786877860955,643.02742640309509,-728.43221940053957,728.43221940053957,-643.02742640309509,1487.6821123774032,0.0
598204.59901257406,4177374.0504322448,-47500.0,546.27742780037113,-561.85989324040941,-345.7291969869724,574.3443353571198,-183.90572263816878,401.42700371057316,934.68094682296351,563.48539635719646,-730.85117873025649,730.85117873025649,-563.48539635719646,1650.9354124726258,0.0
603204.59901257406,4177374.0504322448,-47500.0,449.43702788100325,-637.15016385298657,-158.88347532216534,616.46118091845551,-438.5328349417793,640.41497594563555,1035.9355718119477,435.06370355026564,-670.30763898062014,670.30763898062014,-435.06370355026564,1859.4594675146152,0.0
608204.59901257406,4177374.0504322448,-47500.0,322.80847856223022,-651.63257645423937,49.496701170168798,595.80865763636496,-705.93606013909834,886.17676301250299,1150.1169662970183,272.6324623441609,-544.3323756099993,544.3323756099993,-272.6324623441609,2092.8292848155861,0.0
613204.59901257406,4177374.0504322448,-47500.0,189.77973438089637,-596.22362246443879,255.48944481622419,506.08978837848429,-958.94513178593479,1115.1563909567085,1264.0027250624,100.77737562291412,-362.89759409871891,362.89759409871891,-100.77737562291412,2322.3671616302049,0.0
618204.59901257406,4177374.0504322448,-47500.0,77.338299016580706,-474.5569014561774,432.48777297102583,353.07901545703999,-1168.8604970277088,1303.0499352551208,1362.0137880058714,-51.354872362117717,-148.21274584161296,148.21274584161296,51.354872362117717,2518.233713814845,0.0
623204.59901257406,4177374.0504322448,-47500.0,8.6106386784046514,-303.40322728192689,557.53260388064598,154.55572725268428,-1311.882595756204,1430.0965885592027,1430.3469218500384,-157.6571439086745,69.704208931767369,-69.704208931767369,157.6571439086745,2655.6700806149197,0.0
628204.59901257406,4177374.0504322448,-47500.0,-3.7030096903487788,-108.77505455562407,616.95331706804063,-63.59683563162168,-1374.5714020048024,1485.4471809029467,1460.1052668861503,-202.10931247382263,260.36520799934112,-260.36520799934112,202.10931247382263,2719.2832523332731,0.0
633204.59901257406,4177374.0504322448,-47500.0,39.789518922220537,80.806809057058075,609.08939389900274,-273.68764551412568,-1356.2632597529387,1468.9807747281623,1448.5743981265869,-182.3507163441829,400.17936895322595,-400.17936895322595,182.3507163441829,2704.7561225424133,0.0
638204.59901257406,4177374.0504322448,-47500.0,126.83008139753001,241.12212778823874,543.30549571378083,-452.41389647736406,-1267.8119964767327,1390.132434165562,1398.7952969631183,-108.66318750303478,477.06440266389541,-477.06440266389541,108.66318750303478,2617.9661289633223,0.0
643204.59901257406,4177374.0504322448,-47500.0,238.36654253719496,356.72464015521041,436.21551265080251,-584.852919024779,-1127.6387433620066,1264.5832554612691,1318.0275749512384,0.52842035451135416,491.10947594456428,-491.10947594456428,-0.52842035451135416,2472.2161436744268,0.0
648204.59901257406,4177374.0504322448,-47500.0,354.21485956711183,422.14750316962846,306.94045741004891,-665.48742135546968,-956.89416371266714,1110.2864690036238,1215.789652256273,124.33296569841715,451.95758465452764,-451.95758465452764,-124.33296569841715,2284.6897754192964,0.0
653204.59901257406,4177374.0504322448,-47500.0,457.50936291392281,440.39635144944356,173.0602593197352,-696.80475935165236,-775.33301442913512,944.1020271875982,1102.0303357476923,244.15655463990487,374.60950110755022,-374.60950110755022,-244.15655463990487,2073.1560161973443,0.0
658204.59901257406,4177374.0504322448,-47500.0,537.03599625120842,420.02466195993185,48.13044105976865,-686.63552162212238,-598.73123558065402,779.68506485099817,985.71949806186308,346.4899797909801,275.31796306846502,-275.31796306846502,-346.4899797909801,1853.5490649004112,0.0
663204.59901257406,4177374.0504322448,-47500.0,587.57215865249771,372.0446882231119,-59.17188250772945,-645.33901390797223,-437.90452534261726,626.65970725723685,873.89131452530455,423.69065112628846,168.58827071831354,-168.58827071831354,-423.69065112628846,1638.5986479436424,0.0
668204.59901257406,4177374.0504322448,-47500.0,608.8998797788438,307.46667325013607,-144.69491185693522,-583.53246465574171,-298.92990891670661,490.75632560014782,771.1329851681744,473.33026020023073,65.572784460100536,-65.572784460100536,-473.33026020023073,1437.3745479224015,0.0
673204.59901257406,4177374.0504322448,-47500.0,604.24156699858418,235.75448143890091,-207.81132979361684,-510.62213061064665,-184.04086807262891,374.49456629832213,679.64434156396214,496.82624115665999,-26.346142982091919,26.346142982091919,-496.82624115665999,1255.4701927157921,0.0
678204.59901257406,4177374.0504322448,-47500.0,578.68434079343047,164.13214127917368,-250.23891868205769,-434.08854091129484,-92.746889300798756,278.05918781435798,599.84522653808028,497.93753917901449,-103.1921612814574,103.1921612814574,-497.93753917901449,1095.5440159548598,0.0
683204.59901257406,4177374.0504322448,-47500.0,537.90664511557827,97.510165400259325,-274.97916952640497,-359.33335465919077,-22.884758818224547,200.13708881404679,531.12481132728544,481.47407714915784,-163.65156731189649,163.65156731189649,-481.47407714915784,957.99830522522745,0.0
688204.59901257406,4177374.0504322448,-47500.0,487.3114849061846,38.77508132711371,-285.50762609822186,-289.87009747937327,28.540244756700471,138.60113222067929,472.3815552496747,452.36214769880741,-208.24731440175486,208.24731440175486,-452.36214769880741,841.65696182556462,0.0
693204.59901257406,4177374.0504322448,-47500.0,431.53779422446939,-10.766618044986096,-285.23631416131127,-227.67645515666464,64.7592792900452,91.006849166005978,422.32805349914668,415.06804998863322,-238.60380056874124,238.60380056874124,-415.06804998863322,744.36646896913987,0.0
698204.59901257406,4177374.0504322448,-47500.0,374.26339038022672,-50.9281613944732,-277.20850442146337,-173.5845818697403,88.865805359963119,54.917602440631832,379.66103708298988,373.313668920493,-256.8762644872121,256.8762644872121,-373.313668920493,663.49062131267897,0.0
533204.59901257406,4182374.0504322448,-47500.0,-151.32428117696327,285.06416527184859,-288.58120333359665,-239.8999019982291,263.59913321169296,-191.4889245449867,413.09446098570368,-36.74266501899799,89.819440610654453,-89.819440610654453,36.74266501899799,799.89619259072208,0.0
538204.59901257406,4182374.0504322448,-47500.0,-110.95156558862914,291.13926854890076,-329.20059311098089,-237.94357331609319,293.02164416366332,-209.34036360852446,440.09613077201652,6.2274882871729709,65.320671797729744,-65.320671797729744,-6.2274882871729709,847.09057323836771,0.0
543204.59901257406,4182374.0504322448,-47500.0,-60.827891806133294,290.68972419259052,-373.31278973228279,-229.26011754926233,322.85212320854305,-226.24894637019918,467.24809780860744,58.07660882691296,32.077018520700008,-32.077018520700008,-58.07660882691296,892.8616844198807,0.0
548204.59901257406,4182374.0504322448,-47500.0,-0.52585790774051733,281.38598693752743,-419.99178840067202,-211.92406678383992,351.59548537580247,-240.81942621929969,494.0944718362544,118.9912855367434,-11.319199847283031,11.319199847283031,-118.9912855367434,935.96234314415096,0.0
553204.59901257406,4182374.0504322448,-47500.0,69.707058339590304,260.57655900587952,-467.61359232631906,-183.85421897427204,377.06020802668718,-251.10947794666819,520.17452904440756,188.45078699196887,-66.031324784626733,66.031324784626733,-188.45078699196887,975.13390557931666,0.0
558204.59901257406,4182374.0504322448,-47500.0,148.61484131324679,225.45124481800286,-513.63390497237344,-142.99401522236511,396.19752768702267,-254.52664137673597,545.12965988146595,264.89332480061722,-132.66926405819987,132.66926405819987,-264.89332480061722,1009.3862565486601,0.0
563204.59901257406,4182374.0504322448,-47500.0,233.56294730252716,173.35287523052727,-554.37248734727837,-87.616921310291858,404.97489179848367,-247.76289176304007,568.88482073148691,345.34607692580857,-210.85980317760266,210.85980317760266,-345.34607692580857,1038.4897447880621,0.0
568204.59901257406,4182374.0504322448,-47500.0,320.19819695254017,102.28344284801659,-584.8656963560378,-16.785325125738222,398.34454488776157,-226.81444795456088,591.9196688418034,425.08488854565257,-298.70493000280146,298.70493000280146,-425.08488854565257,1063.7425296364127,0.0
573204.59901257406,4182374.0504322448,-47500.0,402.2580474486677,11.628858462949271,-598.88755698035118,69.031713866626291,370.39756210110511,-187.15410354856948,615.61195749127137,497.44364528708422,-392.18455141179675,392.18455141179675,-497.44364528708422,1088.9888458931387,0.0
578204.59901257406,4182374.0504322448,-47500.0,471.7063395754854,-96.931370917183088,-589.2767378240294,167.22899787113366,314.81669469012189,-124.13580875993644,642.55223254738428,553.95281121521396,-484.63629443324396,484.63629443324396,-553.95281121521396,1121.582301497891,0.0
583204.59901257406,4182374.0504322448,-47500.0,519.40749156683364,-218.46895788714809,-548.72182601363329,272.35854308999058,225.73897172627991,-33.702989917225651,676.59164721914635,585.02573169019763,-566.54351484232564,566.54351484232564,-585.02573169019763,1172.4486161020372,0.0
588204.59901257406,4182374.0504322448,-47500.0,536.51266231234376,-344.09464391869977,-471.10882061721242,375.69493916510032,99.078959678692712,86.579538922940031,722.27802476686816,581.37837696096176,-625.94814013650034,625.94814013650034,-581.37837696096176,1253.9824328880345,0.0
593204.59901257406,4182374.0504322448,-47500.0,516.55767134764403,-460.92399441153805,-353.37937902558423,465.42276470970347,-65.78665969995302,236.2659783759097,783.48751123579893,536.19932293433374,-649.80647862175886,649.80647862175886,-536.19932293433374,1375.3942218576651,0.0
598204.59901257406,4182374.0504322448,-47500.0,457.93423008136045,-553.19514411637806,-197.57088507159955,527.79932150317063,-264.31283840860624,410.81309306261062,861.6000848190738,447.74701115724076,-626.42666310978086,626.42666310978086,-447.74701115724076,1537.6586144526057,0.0
603204.59901257406,4182374.0504322448,-47500.0,365.96814821531274,-604.80530226897383,-12.377278968307566,549.44834619419282,-485.6611993104321,600.85938238265385,954.06431971349298,321.60765830731094,-548.70534696937148,548.70534696937148,-321.60765830731094,1731.426693915651,0.0
608204.59901257406,4182374.0504322448,-47500.0,253.55656973472708,-603.00158307217578,186.62584450782714,520.49597623490013,-712.87805427676665,792.51770553675362,1054.0447944671296,171.53185365463173,-417.30207466774903,417.30207466774903,-171.53185365463173,1938.8651731809134,0.0
613204.59901257406,4182374.0504322448,-47500.0,139.50983932874655,-542.24475938450837,378.75437604926117,437.69718536030587,-924.87208582447147,969.0111653706814,1151.3424140816148,17.919392546628529,-242.45795626287921,242.45795626287921,-17.919392546628529,2137.7199252163055,0.0
618204.59901257406,4182374.0504322448,-47500.0,44.568704528160993,-426.76882186790448,541.95603486690652,306.34803717400217,-1100.05469205861,1113.5042845232797,1234.4587334458174,-116.17526124766403,-43.292765746676231,43.292765746676231,116.17526124766403,2305.785253287971,0.0
623204.59901257406,4182374.0504322448,-47500.0,-13.771046549344831,-270.55519522509854,657.53753103832889,139.99417980229774,-1220.6984763693213,1212.3967527025241,1293.1974881879671,-210.4530099510572,155.70796041316771,-155.70796041316771,210.4530099510572,2424.8124628147948,0.0
628204.59901257406,4182374.0504322448,-47500.0,-25.715931330551303,-94.428376788742483,714.26572414912698,-42.220726386400671,-1276.5757355853018,1258.009872693802,1320.7810037416614,-252.26690529870851,330.03484937240319,-330.03484937240319,252.26690529870851,2483.2692151707224,0.0
633204.59901257406,4182374.0504322448,-47500.0,8.7851003365292701,78.742718962940955,710.3905474497351,-219.69611349763883,-1266.6393578983989,1249.7711968285189,1314.8217654846521,-239.18612790560468,460.44974283695848,-460.44974283695848,239.18612790560468,2477.5270479196683,0.0
638204.59901257406,4182374.0504322448,-47500.0,80.988651038068696,228.97826270122633,653.04941445993381,-374.54214297372692,-1198.3328717197107,1193.6247298856142,1277.1512085500058,-178.48552153271095,536.43421397243173,-536.43421397243173,178.48552153271095,2411.4022301588152,0.0
643204.59901257406,4182374.0504322448,-47500.0,176.55381941652175,342.65460589088985,555.59933800591114,-494.47601310785137,-1085.0594946144665,1100.0844912384414,1212.860304888377,-84.163344593894379,556.94029586452643,-556.94029586452643,84.163344593894379,2294.4155431210434,0.0
648204.59901257406,4182374.0504322448,-47500.0,279.52556000188804,413.7652066481603,434.07109732425636,-573.86636988025225,-942.88334672062626,981.73480345497728,1128.9855845700356,27.090519746746367,528.76058485374381,-528.76058485374381,-27.090519746746367,2139.4201612962088,0.0
653204.59901257406,4182374.0504322448,-47500.0,375.73936373049037,443.18724808038183,303.92678676534302,-613.11792215708601,-787.5088831197213,850.94838503569918,1033.2100576028899,139.55482256047367,463.5711103013831,-463.5711103013831,-139.55482256047367,1960.2558347135482,0.0
658204.59901257406,4182374.0504322448,-47500.0,454.89429810945455,436.73641645881833,177.84534209160446,-617.04372548085269,-632.17811012904974,718.28900655992425,932.79681493169642,240.90475049306946,374.80008574603431,-374.80008574603431,-240.90475049306946,1769.8866020442861,0.0
663204.59901257406,4182374.0504322448,-47500.0,511.20885381840498,402.8765652805717,64.712517848545986,-592.93581126101435,-486.64767417764347,591.71450276346843,833.80769688047292,323.21638210325222,275.12705751212792,-275.12705751212792,-323.21638210325222,1579.2120505356572,0.0
668204.59901257406,4182374.0504322448,-47500.0,543.0061052679041,350.71753559353431,-30.396021993818266,-548.85495071952789,-357.07011701727566,476.45249490213001,740.60219424977254,382.82450022617468,174.94297866241462,-174.94297866241462,-382.82450022617468,1396.5272093113363,0.0
673204.59901257406,4182374.0504322448,-47500.0,551.71517603817699,288.60748467859878,-105.61002422180273,-492.39667147564188,-246.45994623713264,375.3159865185761,655.70622262298639,419.49378051971166,81.728192104571093,-81.728192104571093,-419.49378051971166,1227.483304391287,0.0
678204.59901257406,4182374.0504322448,-47500.0,540.71536987508409,223.35804163900423,-161.39815701731871,-429.97475306167883,-155.43014545167586,289.23009985886819,580.12001923091316,435.33586421146185,0.10784813016564954,-0.10784813016564954,-435.33586421146185,1075.3668840163436,0.0
683204.59901257406,4182374.0504322448,-47500.0,514.30218847940102,159.98579292684801,-199.6992405531567,-366.53673939561725,-82.966698915274932,217.7993704602344,513.8490605151112,433.77478712257619,-67.699135310379575,67.699135310379575,-433.77478712257619,941.53749323023635,0.0
688204.59901257406,4182374.0504322448,-47500.0,476.9061997623524,101.7991505238361,-223.19618545797724,-305.57807718478529,-27.103761178341479,159.81228291482276,456.34931812970785,418.71964558094169,-121.27658934036057,121.27658934036057,-418.71964558094169,825.90593949256947,0.0
693204.59901257406,4182374.0504322448,-47500.0,432.58796624167741,50.670795943548903,-234.78449591488175,-249.32707552039295,14.556840282095287,113.6385800653357,406.79892346889324,393.99168716436088,-161.41347863299279,161.41347863299279,-393.99168716436088,727.38362799533331,0.0
698204.59901257406,4182374.0504322448,-47500.0,384.77071221063233,7.3753884675260277,-237.22917009911694,-199.00133866978524,44.486558989173226,77.512170270581692,364.25547000881033,362.98498887083292,-189.59848714690361,189.59848714690361,-362.98498887083292,644.26845142178342,0.0
538204.59901257406,4187374.0504322448,-47500.0,-54.766599213959452,256.15212934573537,-335.9696126945762,-185.45767667466637,270.40468732752777,-174.58397393831359,397.8962865730125,52.680313104549036,24.516124174294539,-24.516124174294539,-52.680313104549036,760.9992152692696,0.0
543204.59901257406,4187374.0504322448,-47500.0,-5.6906967389700123,248.7739082868099,-375.25154025260514,-171.92759408730848,293.40208780398882,-185.39967893029109,420.20759959257703,102.67535729545807,-11.373121666115928,11.373121666115928,-102.67535729545807,796.90285031188148,0.0
548204.59901257406,4187374.0504322448,-47500.0,51.350216306567617,232.34309413460147,-415.2224107474479,-150.42644172446495,314.03380672602981,-193.29914115396235,442.12816275651556,159.48723356784643,-56.160448545848674,56.160448545848674,-159.48723356784643,830.1099984886315,0.0
553204.59901257406,4187374.0504322448,-47500.0,115.58080945512386,204.6894303258679,-453.94075060867601,-119.43944487177355,330.14351416233836,-196.57099295915529,463.43017793268223,222.06118558207203,-110.36152122717732,110.36152122717732,-222.06118558207203,859.93675645704991,0.0
558204.59901257406,4187374.0504322448,-47500.0,185.2920643498949,163.69572540572477,-488.63306359457846,-77.624534296432344,338.89184827281503,-193.035930878447,484.07435134473326,288.36962720154867,-173.83129970519332,173.83129970519332,-288.36962720154867,886.20033765456355,0.0
563204.59901257406,4187374.0504322448,-47500.0,257.59569893003726,107.61756389918392,-515.57403311489588,-24.088275087906354,336.71475118056628,-180.04161637057535,504.37936139608956,355.1655449360012,-245.40193720244289,245.40193720244289,-355.1655449360012,909.70641123761038,0.0
568204.59901257406,4187374.0504322448,-47500.0,328.24981939717685,35.54699086068792,-530.06242147288629,41.237265716384847,319.38269832062349,-154.53618244602993,525.23711899000818,417.8093041826495,-322.47107748005851,322.47107748005851,-417.8093041826495,932.90370199132849,0.0
573204.59901257406,4187374.0504322448,-47500.0,391.65477977434188,-51.987197187484142,-526.57549697178069,117.13295043368149,282.22630938940222,-113.26420996844189,548.3236788296764,470.27031530583849,-400.60896506406743,400.60896506406743,-470.27031530583849,960.56315931387996,0.0
578204.59901257406,4187374.0504322448,-47500.0,441.14588748536244,-152.3433345260425,-499.20025570521381,200.60526776121779,220.59884597279839,-53.129301770822714,576.18468211098184,505.43481670559993,-473.30854277818037,473.30854277818037,-505.43481670559993,1000.0567541162677,0.0
583204.59901257406,4187374.0504322448,-47500.0,469.70746794096038,-260.15634078694364,-442.42694741760727,286.4917993789993,130.62623140079762,28.250106135560284,612.00501178990044,515.85152238911019,-532.05952647018671,532.05952647018671,-515.85152238911019,1060.5053496502157,0.0
588204.59901257406,4187374.0504322448,-47500.0,471.17093996311002,-367.02780679447278,-352.32667701879086,367.34213197578862,10.234047922486738,131.81064880626337,658.90684033033631,494.98718671691938,-566.95636970391081,566.95636970391081,-494.98718671691938,1150.2671460092458,0.0
593204.59901257406,4187374.0504322448,-47500.0,441.80918253390229,-461.81633883237669,-227.99931155395225,433.79237736917554,-139.67292760544814,256.23784361418052,718.85742387900211,438.91270878524324,-568.00109398129518,568.00109398129518,-438.91270878524324,1273.4437302288109,0.0
598204.59901257406,4187374.0504322448,-47500.0,382.00848781761073,-531.79502520629205,-72.983271317512433,475.60945163748596,-314.1539583269489,397.28184777576655,791.59598233507154,348.10195131290129,-527.08912302574913,527.08912302574913,-348.10195131290129,1427.3433559873506,0.0
603204.59901257406,4187374.0504322448,-47500.0,297.46200415578778,-564.74336517340362,103.86938200526292,483.41581977372181,-503.70466043548362,547.47365331442575,874.05412408972961,228.77131619744725,-440.36297326406407,440.36297326406407,-228.77131619744725,1602.3162183454467,0.0
608204.59901257406,4187374.0504322448,-47500.0,199.23638542319628,-551.66913438799997,288.60319336867946,450.82229419869896,-694.67782582447319,696.51690787057328,960.45097068977043,93.07262996633176,-310.27667729511722,310.27667729511722,-93.07262996633176,1783.6211875981171,0.0
613204.59901257406,4187374.0504322448,-47500.0,102.27762756548501,-489.43315501972489,463.79718808300447,376.39268353505656,-870.87634296981946,832.48562752309317,1043.0025112628514,-42.353268918035937,-146.52838718938432,146.52838718938432,42.353268918035937,1954.185572353641,0.0
618204.59901257406,4187374.0504322448,-47500.0,22.473549273491383,-382.32434683233777,611.48521041391905,264.72320851162601,-1016.1390251439748,943.67989282562678,1113.2040452372253,-159.40185496164335,34.798394539601652,-34.798394539601652,159.40185496164335,2097.4558376445952,0.0
623204.59901257406,4187374.0504322448,-47500.0,-26.934460560151738,-241.83402035118826,716.63177570491257,126.10100806578249,-1117.287866993149,1020.6903213903428,1163.4827892366484,-242.33912104387076,213.9476714723217,-213.9476714723217,242.33912104387076,2199.9050028196343,0.0
628204.59901257406,4187374.0504322448,-47500.0,-38.390224515344123,-84.513176293914128,770.08867235078719,-25.301133981583089,-1166.5569301502144,1058.0664716709969,1188.6487029820246,-281.20692206257485,371.3528209777208,-371.3528209777208,281.20692206257485,2252.844069167711,0.0
633204.59901257406,4187374.0504322448,-47500.0,-11.468789173893784,71.436464442676112,770.09145984343138,-174.16398073756409,-1162.7608300332811,1055.0913148368322,1186.6406655252727,-273.66202498421916,491.43104333723301,-491.43104333723301,273.66202498421916,2253.2538523928361,0.0
638204.59901257406,4187374.0504322448,-47500.0,47.649463614747219,209.71669482976066,721.92582843787443,-306.82857013694201,-1110.9337889544954,1015.4928811385206,1158.4952214683519,-224.75629470549427,565.14678358445155,-565.14678358445155,224.75629470549427,2203.5588933966433,0.0
643204.59901257406,4187374.0504322448,-47500.0,128.27180301556268,318.57723450166469,636.08148208016246,-413.3710787681137,-1020.7216810752066,946.29847193161891,1107.7511658112364,-144.98026231822729,590.74618913690028,-590.74618913690028,144.98026231822729,2110.5345296786691,0.0
648204.59901257406,4187374.0504322448,-47500.0,217.96487711627915,391.98992780819253,525.65913569800443,-488.52801371937153,-904.15967207760536,856.26993604926884,1039.570840630633,-47.438727136713453,572.78918892306751,-572.78918892306751,47.438727136713453,1983.7256897251955,0.0
653204.59901257406,4187374.0504322448,-47500.0,305.09945059426946,429.39102463626818,403.84951304281969,-531.50727484870788,-773.50627098947052,754.38019347906209,959.82519875198977,54.894975703204011,520.11621568510736,-520.11621568510736,-54.894975703204011,1833.7949773324883,0.0
658204.59901257406,4187374.0504322448,-47500.0,380.58714823158039,434.44436475626009,282.0518541808334,-545.03190996097919,-639.59877646790778,648.64867276731331,874.30100738720262,151.19080327670852,443.52361642206711,-443.52361642206711,-151.19080327670852,1671.1207489778201,0.0
663204.59901257406,4187374.0504322448,-47500.0,438.64421782755022,413.40208227975035,168.84550689472076,-534.05719713560143,-510.91243358268036,545.46166715569268,788.08436857633762,233.80086376835115,353.75447847066721,-353.75447847066721,-233.80086376835115,1504.815663375646,0.0
668204.59901257406,4187374.0504322448,-47500.0,476.73386285005688,373.54025767174784,69.738829280313013,-504.52766637207748,-393.27005644649921,449.34257156597153,705.11544262775203,298.42490360158507,260.11873281067284,-260.11873281067284,-298.42490360158507,1342.1894811367918,0.0
673204.59901257406,4187374.0504322448,-47500.0,494.98528209981959,321.94930967387864,-12.53319324453561,-462.39402747402329,-290.02450355776193,363.05369415054895,627.97023563100583,343.67716200320859,169.78915415625164,-169.78915415625164,-343.67716200320859,1188.5893530862897,0.0
678204.59901257406,4187374.0504322448,-47500.0,495.39127974702558,264.76906964480457,-77.420466907016575,-412.96634509299145,-202.50666416284119,287.88890865454829,557.9679243758311,370.35690947633697,87.651363322397344,-87.651363322397344,-370.35690947633697,1047.5061669721663,0.0
683204.59901257406,4187374.0504322448,-47500.0,481.01121361757879,206.82872401569315,-125.88958378717925,-360.58108208459726,-130.56564779379525,224.03867861809172,495.52284192826886,380.66412273989499,16.520789209643453,-16.520789209643453,-380.66412273989499,920.83619818592035,0.0
688204.59901257406,4187374.0504322448,-47500.0,455.31055309204856,151.58943683753625,-159.81261203106922,-308.50949042258094,-73.083926617968203,170.945913557409,440.50083773195155,377.51119500817168,-42.452973010023697,42.452973010023697,-377.51119500817168,809.2074205562958,0.0
693204.59901257406,4187374.0504322448,-47500.0,421.68653451701084,101.27609696652608,-181.48016712342101,-259.02389421979581,-28.405715058464402,127.60827018559765,392.45570696383083,363.99879182433574,-89.330810996914664,89.330810996914664,-363.99879182433574,712.30977076247098,0.0
543204.59901257406,4192374.0504322443,-47500.0,37.922840844682433,206.07921174492105,-367.88443293086186,-123.43627271912749,261.91423951305075,-149.84474437365532,377.18610911646891,135.70502943694262,-48.353771413392273,48.353771413392273,-135.70502943694262,708.97914569801685,0.0
548204.59901257406,4192374.0504322443,-47500.0,90.394979784569998,184.14072816731519,-400.44443202036263,-99.704784357579101,275.32303518936214,-152.72353818506224,395.23105791598596,187.08570111682036,-92.633875547874652,92.633875547874652,-187.08570111682036,734.61055539697372,0.0
553204.59901257406,4192374.0504322443,-47500.0,147.65468047232289,151.70841245541061,-429.92643807268178,-67.866128231704081,283.45042574866039,-150.98837437412877,412.94018646766227,241.78511965125821,-144.33216946054787,144.33216946054787,-241.78511965125821,757.75538660428447,0.0
558204.59901257406,4192374.0504322443,-47500.0,207.77009645972029,107.32337205221346,-453.53279130548492,-27.152767073390432,283.77019409695203,-142.86912927813603,430.5341808368629,297.55140469757799,-202.72875425863532,202.72875425863532,-297.55140469757799,778.93128674300078,0.0
563204.59901257406,4192374.0504322443,-47500.0,267.85555205565726,50.034115614383097,-467.72457872820968,22.71322326138008,273.25966437680745,-126.30606608543147,448.60828627278158,351.13977027510356,-266.12824656848983,266.12824656848983,-351.13977027510356,799.73401680314294,0.0
568204.59901257406,4192374.0504322443,-47500.0,324.01985865913031,-20.209134355773315,-468.28833895603441,81.229186910013681,248.51059263866847,-99.04481539855766,468.2738036916989,398.26582155289873,-331.57427210394485,331.57427210394485,-398.26582155289873,823.30474478149142,0.0
573204.59901257406,4192374.0504322443,-47500.0,371.47822606526853,-102.08970690126833,-450.56922030131011,146.78742686802192,205.97664071078037,-58.822740425109835,491.23959157977117,433.72998638255382,-394.62772796650012,394.62772796650012,-433.72998638255382,854.62203081159771,0.0
578204.59901257406,4192374.0504322443,-47500.0,404.9094327822371,-192.45803703750542,-409.93198362581057,216.37358962846332,142.39539087968774,-3.6674925766827813,519.72833077512405,451.7993852006706,-449.31132935467474,449.31132935467474,-451.7993852006706,900.21023001127946,0.0
583204.59901257406,4192374.0504322443,-47500.0,419.12036689824777,-285.98729455711197,-342.48648554694529,285.38127376353503,55.398446023298582,67.689312861494798,556.1206590556842,446.91502964726959,-488.34983151533169,488.34983151533169,-446.91502964726959,966.84903690845113,0.0
588204.59901257406,4192374.0504322443,-47500.0,410.01640577347069,-375.12629449025451,-246.05083330636373,347.66680210749973,-55.729073377866705,155.3153320066553,602.31756770123536,414.72800018228565,-503.83041608746157,503.83041608746157,-414.72800018228565,1059.3813496992204,0.0
593204.59901257406,4192374.0504322443,-47500.0,375.76179215777194,-450.54073313322925,-121.22164961511186,395.9705607858686,-189.25617456905093,257.57909620087742,658.9975901402745,353.35027449357466,-488.34359979877257,488.34359979877257,-353.35027449357466,1178.5658481929834,0.0
598204.59901257406,4192374.0504322443,-47500.0,317.86838327217703,-502.17513758904312,27.704327919998189,422.77993092143589,-340.38528971318931,370.78491223164428,725.06648014622124,264.5515962871288,-436.5243110211747,436.5243110211747,-264.5515962871288,1320.1153227883165,0.0
603204.59901257406,4192374.0504322443,-47500.0,241.82996033367345,-520.90493630179026,192.30847607439128,421.58677682496892,-501.06492928297234,489.10637133676238,797.50198810407801,154.49944497911986,-346.70955882643523,346.70955882643523,-154.49944497911986,1475.2199073293302,0.0
608204.59901257406,4192374.0504322443,-47500.0,156.91488824022295,-500.50188752959275,360.46566223221333,388.31974332303071,-660.46962831094322,604.95947965281619,871.5796466724413,33.621180694966597,-222.23976833433596,222.23976833433596,-33.621180694966597,1632.0295730503449,0.0
613204.59901257406,4192374.0504322443,-47500.0,74.912794916866787,-439.3967685418454,517.75482346363106,322.57336843603201,-806.23318792225939,709.85688888167863,941.38127674935026,-84.656213748726316,-71.870165682056125,71.870165682056125,84.656213748726316,1777.4949475968879,0.0
618204.59901257406,4192374.0504322443,-47500.0,7.9883383898408642,-341.6329134810141,649.69352503942127,228.20894485876698,-926.2718545110572,795.62536441958559,1000.5905545465556,-186.16607504759565,91.070702065211151,-91.070702065211151,186.16607504759565,1899.2215832242184,0.0
623204.59901257406,4192374.0504322443,-47500.0,-33.813226270255008,-216.57274934547544,744.27348116143219,113.0366878684703,-1010.7806012332712,855.71135869863519,1043.5483816977826,-258.71842612856136,250.74278502788167,-250.74278502788167,258.71842612856136,1987.1137544756857,0.0
628204.59901257406,4192374.0504322443,-47500.0,-44.65057725721406,-77.324446612543824,794.08572093755515,-12.418847806682347,-1053.8625046648476,886.22904190599741,1066.2583357409349,-294.47682002193699,391.58075853778098,-391.58075853778098,294.47682002193699,2034.5838265185196,0.0
633204.59901257406,4192374.0504322443,-47500.0,-23.914312780978186,61.681672101955655,797.42489433407695,-136.74480052106691,-1054.3422713211812,886.46887209270324,1066.9641923606332,-291.27937786289289,501.01434215460114,-501.01434215460114,291.27937786289289,2039.1386455861077,0.0
638204.59901257406,4192374.0504322443,-47500.0,24.053429478649875,187.24949870070481,758.12076178303209,-249.53820194478618,-1015.5895064186369,858.76289875423129,1046.1923876990609,-252.57690697237211,571.36799584773416,-571.36799584773416,252.57690697237211,2002.2794502061693,0.0
643204.59901257406,4192374.0504322443,-47500.0,91.326850745652507,289.41216373385396,684.27731388920517,-342.88159928731534,-944.50012487803588,807.80689140249024,1006.3845362362173,-186.15698522287713,600.52324502231681,-600.52324502231681,186.15698522287713,1928.8130446173077,0.0
648204.59901257406,4192374.0504322443,-47500.0,168.31265737169321,362.4544254918776,586.40504923333685,-412.10579963853706,-850.00964720504896,739.68191986013244,951.30947640702891,-102.18267352683785,591.37540340468672,-591.37540340468672,102.18267352683785,1825.7988234324198,0.0
653204.59901257406,4192374.0504322443,-47500.0,245.62155463506153,404.92455787305192,475.50295551622747,-455.81395687397548,-741.56148578708508,660.84590801223999,885.42101279318672,-11.167519940366674,550.46300012227698,-550.46300012227698,11.167519940366674,1701.3922123460836,0.0
658204.59901257406,4192374.0504322443,-47500.0,315.46631641622429,418.8849807662213,361.5173656818107,-475.34488036307033,-627.85799244937027,577.30619520615767,813.27630204427237,77.633483038777996,486.27807072693452,-486.27807072693452,-77.633483038777996,1563.8068753364964,0.0
663204.59901257406,4192374.0504322443,-47500.0,372.4106900274478,408.77452359246854,252.38315684041817,-473.94195021582266,-516.05572466577485,494.07750706882308,739.0609023793088,157.18879350579104,407.6986746560915,-407.6986746560915,-157.18879350579104,1420.530208700601,0.0
668204.59901257406,4192374.0504322443,-47500.0,413.51252530235485,380.22633623443767,153.64897005394127,-455.87562204206517,-411.41403097061936,414.93336534433638,666.21812013844669,223.01535601651364,322.81204981810453,-322.81204981810453,-223.01535601651364,1277.8375381602743,0.0
673204.59901257406,4192374.0504322443,-47500.0,438.03097742153227,339.07441126106812,68.558593346052049,-425.6904361131958,-317.30583709109249,342.39427326590931,597.20738803392658,273.01369656202144,238.21499450571204,-238.21499450571204,-273.01369656202144,1140.5794556951105,0.0
678204.59901257406,4192374.0504322443,-47500.0,446.90089608960903,290.65547129362227,-1.5857455179948521,-387.65913985391597,-235.46259859283481,277.87258964661385,533.48540836960365,307.01310303304513,158.74592425443234,-158.74592425443234,-307.01310303304513,1012.1820190608372,0.0
683204.59901257406,4192374.0504322443,-47500.0,442.14694854995469,239.41212064281154,-56.939400021795784,-345.45388791126481,-166.33041099388888,221.89496115868587,475.71629305619143,326.20794961925867,87.534842696566997,-87.534842696566997,-326.20794961925867,894.78513317052023,0.0
688204.59901257406,4192374.0504322443,-47500.0,426.35311717732208,188.74507009206704,-98.62835742874239,-302.00191017065345,-109.44530112042074,174.34299816809173,424.04764900991665,332.61419533935953,26.244757200159967,-26.244757200159967,-332.61419533935953,789.45449037538276,0.0
548204.59901257406,4197374.0504322443,-47500.0,118.2209390091119,138.91345049423253,-378.10936681614066,-58.876672758174792,237.37123895507602,-118.70897589094938,353.39258044520005,203.63323774999463,-120.67418892841812,120.67418892841812,-203.63323774999463,649.77657941226562,0.0
553204.59901257406,4197374.0504322443,-47500.0,168.15794376991832,103.6174957595375,-398.66553207998197,-27.687364505853051,239.00113050670907,-113.59941868235735,368.47834287103569,250.15247133221041,-168.45925317723803,168.45925317723803,-250.15247133221041,668.46355505132408,0.0
558204.59901257406,4197374.0504322443,-47500.0,218.90662766199839,57.969053854231518,-412.08134143512683,10.566176980842645,232.83367736832466,-102.72858710216947,383.98207821327117,295.67949169862163,-220.62481697956264,220.62481697956264,-295.67949169862163,686.80259712697216,0.0
563204.59901257406,4197374.0504322443,-47500.0,267.75766473426643,1.6548985145518078,-415.15652758549885,55.739294602850343,216.39245218419256,-84.540425890461378,400.65764523379886,337.16331346720835,-275.18497720371363,275.18497720371363,-337.16331346720835,706.89622700748669,0.0
568204.59901257406,4197374.0504322443,-47500.0,311.29866476512427,-64.754008939857442,-404.28021444715074,106.99660252139688,187.02275811235978,-57.416361705065142,419.67115264244222,370.82661706446873,-329.10399754526571,329.10399754526571,-370.82661706446873,732.13101133603323,0.0
573204.59901257406,4197374.0504322443,-47500.0,345.58609982917312,-139.46441071414708,-375.69684913792935,162.59715765629281,142.12892168084323,-19.836165737420121,442.57990772050482,392.35544780506552,-378.20371974571924,378.20371974571924,-392.35544780506552,767.12191928800735,0.0
578204.59901257406,4197374.0504322443,-47500.0,366.50643353690452,-219.16444550515928,-325.94682349408345,219.72503320678962,79.532747074387345,29.389617652118833,471.15516771835667,397.29054986431549,-417.23305351858096,417.23305351858096,-397.29054986431549,817.07675913056414,0.0
583204.59901257406,4197374.0504322443,-47500.0,370.34782902928822,-298.86782020120228,-252.48579085279812,274.43321914172606,-2.0539676985473192,90.823700891424267,507.01718217111613,381.64522207813997,-440.18398546674331,440.18398546674331,-381.64522207813997,886.49748178154027,0.0
588204.59901257406,4197374.0504322443,-47500.0,354.55026242980983,-372.0200597264124,-154.43414339685023,321.77977614776574,-102.48852191582613,164.07424708629674,551.14728146547895,342.719210447075,-440.91866359066313,440.91866359066313,-342.719210447075,977.61549456068553,0.0
593204.59901257406,4197374.0504322443,-47500.0,318.52176129753542,-430.98011736352731,-33.334564291983767,356.22431222752795,-219.68417006617349,247.49662953511657,603.44036318876113,279.99365975620339,-414.11120742023894,414.11120742023894,-279.99365975620339,1089.2929227713482,0.0
598204.59901257406,4197374.0504322443,-47500.0,264.32136329447496,-467.92916931032289,106.27951190025713,372.30612402671323,-349.26829459064624,338.01218272993185,662.4655831883606,195.89777609612059,-356.40259213635335,356.40259213635335,-195.89777609612059,1216.8514677034427,0.0
603204.59901257406,4197374.0504322443,-47500.0,196.95580093018432,-476.13769182727407,256.74141888422747,365.54269644635684,-484.57437431199901,431.13942620041286,725.49531293433529,96.175444189009482,-267.53965033123291,267.53965033123291,-96.175444189009482,1352.7151008023022,0.0
608204.59901257406,4197374.0504322443,-47500.0,124.06547135666665,-451.36509055447692,407.73301475672923,333.38474107722436,-617.093786050625,521.30775803874326,788.73867528848666,-10.398255679026846,-151.17042127658374,151.17042127658374,10.398255679026846,1487.4897243071382,0.0
613204.59901257406,4197374.0504322443,-47500.0,54.915039389627317,-393.03460883744992,547.449343088928,275.98351250594504,-737.4080780725393,602.45795740663482,847.69593318202578,-113.06097325611134,-14.964137900813007,14.964137900813007,113.06097325611134,1611.1955024445147,0.0
618204.59901257406,4197374.0504322443,-47500.0,-1.1676487699890936,-304.80054031328126,664.28758763192184,196.51907354389141,-836.47073913535746,668.84367188268232,897.65131464240721,-200.73829150747002,130.13738825104508,-130.13738825104508,200.73829150747002,1714.4977512073281,0.0
623204.59901257406,4197374.0504322443,-47500.0,-36.533708874035405,-194.25304758598892,748.69114125815679,100.93117441799329,-906.9656020617856,715.8659070947067,934.34793102985236,-263.97266910436576,271.47288872551758,-271.47288872551758,263.97266910436576,1789.8056394630871,0.0
628204.59901257406,4197374.0504322443,-47500.0,-46.654055971274111,-71.763605124149308,794.67765253463074,-2.9304804274198522,-944.40735399878781,740.73908671906838,954.69026346341536,-296.59154168341286,396.67420113241667,-396.67420113241667,296.59154168341286,1832.0916314301971,0.0
633204.59901257406,4197374.0504322443,-47500.0,-30.853301537501448,51.243388334933549,800.65407221189957,-106.53426623552596,-947.70989732590022,742.82728868250581,957.19482751670921,-296.65927452453809,495.62184827476528,-495.62184827476528,296.65927452453809,1839.3078875619613,0.0
638204.59901257406,4197374.0504322443,-47500.0,7.8307626203580503,164.13181121299917,769.34638837597413,-201.95837683091469,-919.10898259888791,723.58583546537147,942.06809401474288,-266.49509314465172,561.85191806030207,-561.85191806030207,266.49509314465172,1812.3509534145453,0.0
643204.59901257406,4197374.0504322443,-47500.0,63.541823288736374,258.54867844346853,706.94512214159272,-282.93707568437094,-863.51743399109921,686.15834468378023,910.98260142237427,-211.84350202089075,593.12411369742722,-593.12411369742722,211.84350202089075,1754.6267734443475,0.0
648204.59901257406,4197374.0504322443,-47500.0,128.92598123222044,329.27819046678195,621.77296142163311,-345.46412582376189,-787.53274607258527,634.76265086385604,866.68144638760589,-140.51890351451902,591.14114395135925,-591.14114395135925,140.51890351451902,1671.3470771756156,0.0
653204.59901257406,4197374.0504322443,-47500.0,196.49307931043265,374.3897079613306,522.84807510156998,-387.90936929679106,-698.36407900761014,574.02682603471874,812.5277049625422,-60.929604889697544,560.63961355743857,-560.63961355743857,60.929604889697544,1568.7225522894576,0.0
658204.59901257406,4197374.0504322443,-47500.0,259.71202189521136,394.81077123821194,418.65490562451129,-410.73572388139195,-602.90231802647247,508.41030961109198,752.08047720843012,19.17750955141139,508.18172825367697,-508.18172825367697,-19.17750955141139,1453.2021919513561,0.0
663204.59901257406,4197374.0504322443,-47500.0,313.68274566518238,393.55894053498315,316.30068126393883,-415.97350369426061,-507.0640840007236,441.79004730975043,688.73584972559433,93.557156391661863,440.95990950424851,-440.95990950424851,-93.557156391661863,1330.8616381347035,0.0
668204.59901257406,4197374.0504322443,-47500.0,355.37467197158185,374.87264444298137,221.09623796832886,-406.61494538835365,-415.44261552375832,377.23301030763611,625.43126046861005,157.85123805682798,365.82928311697611,-365.82928311697611,-157.85123805682798,1206.986714387969,0.0
673204.59901257406,4197374.0504322443,-47500.0,383.52051016483375,343.42388891228097,136.49904466444093,-386.05512546062505,-331.22634061489231,316.93306967771679,564.41819390689477,209.59185350562865,288.66467904026314,-288.66467904026314,-209.59185350562865,1085.8513769283061,0.0
678204.59901257406,4197374.0504322443,-47500.0,398.29483875937154,303.71493439878537,64.307566418571355,-357.65205427989196,-256.30932364066467,262.26741852482934,507.17151082929882,247.94644954773514,214.04040580685535,-214.04040580685535,-247.94644954773514,970.65761119536023,0.0
683204.59901257406,4197374.0504322443,-47500.0,400.90243742332547,259.68916406553973,4.9905048803034102,-324.43087831284106,-191.5117444041081,213.92389625680096,454.49089167867214,273.33409911432983,145.17128460607921,-145.17128460607921,-273.33409911432983,863.59250376043212,0.0
553204.59901257406,4202374.0504322443,-47500.0,179.36102105015732,61.471821717615171,-362.9321283426724,2.7490738176828144,198.07268265401666,-83.433128956466902,329.61862284438274,249.6885694805039,-183.82633857946675,183.82633857946675,-249.6885694805039,591.34469437434075,0.0
558204.59901257406,4202374.0504322443,-47500.0,221.39054611924391,16.25281051384129,-367.43817636810508,37.749318290492646,187.18293578287569,-71.165850590659645,343.71906891784141,285.7518619955294,-229.23436169904795,229.23436169904795,-285.7518619955294,608.45932430988955,0.0
563204.59901257406,4202374.0504322443,-47500.0,260.29310818117966,-37.500189156276548,-361.28935816921864,77.809111544764519,166.86059406375495,-52.697981430559238,359.51140897150151,316.59184596758149,-274.96077592259729,274.96077592259729,-316.59184596758149,629.03684379881804,0.0
568204.59901257406,4202374.0504322443,-47500.0,293.17941283365957,-98.80824733364696,-341.50632085112437,121.93501067219287,135.10070215869931,-26.898624030215135,378.0952193980869,338.99745925954602,-318.08366883909554,318.08366883909554,-338.99745925954602,656.33620610167191,0.0
573204.59901257406,4202374.0504322443,-47500.0,316.89477898424553,-165.64791108498116,-305.17715639570929,168.41760206622789,90.072737182272903,7.216411258581835,400.7748782637081,349.50240024142965,-354.84268113895041,354.84268113895041,-349.50240024142965,694.2495329608613,0.0
578204.59901257406,4202374.0504322443,-47500.0,328.34950331279572,-234.78270093908287,-249.84886509786159,214.75016478751627,30.40989742376042,50.310875066338689,428.85383632618704,344.74729390870158,-380.77788091249505,380.77788091249505,-344.74729390870158,746.56097287240948,0.0
583204.59901257406,4202374.0504322443,-47500.0,324.98541044495749,-301.73042851222328,-174.03049022702191,257.64555565425303,-44.438166587372507,102.52255064006741,463.32564543345575,321.99058771302487,-391.06176075569283,391.06176075569283,-321.99058771302487,815.89569935688007,0.0
588204.59901257406,4202374.0504322443,-47500.0,305.33570350834844,-360.94584947923283,-77.753867703338983,293.19885157773007,-133.83194928167532,163.25252339907402,504.54232572019134,279.72461673982241,-381.05050099448101,381.05050099448101,-279.72461673982241,902.7679965033193,0.0
593204.59901257406,4202374.0504322443,-47500.0,269.5825966521067,-406.27992632530174,36.910721350165865,317.22854773555247,-235.62139017897684,230.99260642195924,551.97264602056578,218.29664474789956,-347.03024595595605,347.03024595595605,-218.29664474789956,1005.1322759404727,0.0
598204.59901257406,4202374.0504322443,-47500.0,219.9685769045619,-431.72418396765858,165.52817347128806,325.79293333760029,-345.97487323857496,303.24601820748825,604.12816680005267,140.38070087916844,-287.06086084974498,287.06086084974498,-140.38070087916844,1118.5297516384992,0.0
603204.59901257406,4202374.0504322443,-47500.0,160.89868829876482,-432.36336769705275,301.31569712775729,315.82377948221711,-459.45577304891953,376.59487347828758,658.65764964603113,51.122315317532085,-201.74296380172109,201.74296380172109,-51.122315317532085,1236.6492687633772,0.0
608204.59901257406,4202374.0504322443,-47500.0,98.607532085136995,-405.36311660363742,435.61541388964679,285.7607331858477,-569.41181038288948,446.94797287833921,712.54835446200696,-42.1883440161754,-94.686654877450877,94.686654877450877,42.1883440161754,1352.0897489452909,0.0
613204.59901257406,4202374.0504322443,-47500.0,40.366129688337438,-350.74944668169655,558.83050721590348,236.03021874460424,-668.6697766463011,509.95983259761687,762.37107894570249,-130.95515382895536,27.520667556045225,-27.520667556045225,130.95515382895536,1457.1959634285424,0.0
618204.59901257406,4202374.0504322443,-47500.0,-6.6524233381389637,-271.73868845404058,661.69332522614832,169.2195095149844,-750.43726752382281,561.56157171788971,804.58441028594677,-206.51355355991171,155.94682514991439,-155.94682514991439,206.51355355991171,1544.8914282261296,0.0
623204.59901257406,4202374.0504322443,-47500.0,-36.59714263010941,-174.46979881846264,736.60663288609237,89.859619154004577,-809.23260792366921,598.49972167526471,835.96442244306218,-261.50606289544953,280.47983553833194,-280.47983553833194,261.50606289544953,1609.4248783236858,0.0
628204.59901257406,4202374.0504322443,-47500.0,-45.943224240371485,-67.155992307045423,778.7454987721519,3.8362771283222581,-841.63421699423191,618.76501643575182,854.09858396281368,-291.06066355286328,391.28615201805951,-391.28615201805951,291.06066355286328,1646.9333755586497,0.0
633204.59901257406,4202374.0504322443,-47500.0,-34.018844341466817,41.154562274368374,786.65979542479511,-82.444274896936392,-846.67957552160897,621.81617985120192,857.74008836607857,-293.47989718838619,480.22312347806337,-480.22312347806337,293.47989718838619,1655.7398326292305,0.0
638204.59901257406,4202374.0504322443,-47500.0,-2.9425418964825139,141.90842850314041,762.25918789579737,-162.94027012768601,-825.83964169809224,608.55874827056891,846.90057168812154,-270.294502519145,541.88137751989484,-541.88137751989484,270.294502519145,1636.3500886655245,0.0
643204.59901257406,4202374.0504322443,-47500.0,42.963386875369551,228.16367214128212,710.23664605006002,-232.71655856881944,-782.60982075238667,581.10370706414949,822.71619952357185,-225.72478905580445,574.05718476941013,-574.05718476941013,225.72478905580445,1591.1767122612093,0.0
648204.59901257406,4202374.0504322443,-47500.0,98.083332795391627,295.28403354130802,637.12303015723944,-288.41020023332385,-721.84736307505273,542.38037679082481,787.17996187647464,-165.74564070916574,577.6280308225829,-577.6280308225829,165.74564070916574,1524.0669517528891,0.0
653204.59901257406,4202374.0504322443,-47500.0,156.49204242451114,341.14311548277163,550.22232269642313,-328.3759971363948,-649.02354407734765,495.69972407391759,742.82450742957667,-97.018680052173664,555.9583492106857,-555.9583492106857,97.018680052173664,1439.7402522110579,0.0
658204.59901257406,4202374.0504322443,-47500.0,212.7965498973943,365.90220196425076,456.65025758054736,-352.5514787763434,-569.54070893789242,444.35328062360452,692.41378045474119,-25.930134344803434,514.04606206422636,-514.04606206422636,25.930134344803434,1343.2341345239513,0.0
663204.59901257406,4202374.0504322443,-47500.0,262.70798836887923,371.50535898225922,362.62101396466431,-362.13232251422909,-488.21420657624242,391.30573195387649,638.67458938885545,42.110878341431487,457.62657140534111,-457.62657140534111,-42.110878341431487,1239.4349073216229,0.0
668204.59901257406,4202374.0504322443,-47500.0,303.31014738017018,361.0549633835351,273.03421812725571,-359.16262273614211,-408.95784129266337,339.00385902911535,584.06846540779827,103.0587465841987,392.39907833016173,-392.39907833016173,-103.0587465841987,1132.7339977064782,0.0
673204.59901257406,4202374.0504322443,-47500.0,333.06523294609633,338.20490741093073,191.33970282827926,-346.12924093136752,-334.66122057668503,289.296366437681,530.59666544865161,154.32904490014502,323.46552844450457,-323.46552844450457,-154.32904490014502,1026.8189245925296,0.0
678204.59901257406,4202374.0504322443,-47500.0,351.63562793125817,306.66008803919834,119.6136818599128,-325.61955585428876,-267.21739477132991,243.44173740910688,479.67791103528737,194.68094922267701,255.0028744193709,-255.0028744193709,-194.68094922267701,924.58513227883088,0.0
558204.59901257406,4207374.0504322443,-47500.0,217.57136739005051,-17.909191372624093,-322.08544758836717,56.481671542588856,147.24830481824978,-46.74776319769461,308.97685791958168,270.34354843313258,-230.39852943440479,230.39852943440479,-270.34354843313258,542.24662790985371,0.0
563204.59901257406,4207374.0504322443,-47500.0,247.92068306084778,-68.0564418331426,-308.62987374313167,91.423821483623925,124.69867506664019,-28.877149649209958,324.16271092290765,292.13195704995201,-267.76033077550881,267.76033077550881,-292.13195704995201,563.85533293034143,0.0
568204.59901257406,4207374.0504322443,-47500.0,272.04361101085863,-123.60070162757683,-282.29632285024508,128.89659998722325,92.231700941961577,-5.0732755145046458,342.33756399671165,305.41585164568346,-301.18754316738136,301.18754316738136,-305.41585164568346,593.01267717613587,0.0
573204.59901257406,4207374.0504322443,-47500.0,287.48026474905197,-182.46755385076949,-240.91323378473564,167.31758321912028,48.608506135361665,25.272607052648031,364.51933533005314,307.48657468299291,-327.40737756908209,327.40737756908209,-307.48657468299291,632.74072861536592,0.0
578204.59901257406,4207374.0504322443,-47500.0,291.97260656902563,-241.64249662177201,-182.84471533257025,204.52791108468347,-6.9538468589130931,62.483685022305593,391.59460030837647,295.89067547164592,-342.73050324734749,342.73050324734749,-295.89067547164592,685.53971064614086,0.0
583204.59901257406,4207374.0504322443,-47500.0,283.83080921816622,-297.21176097255074,-107.38403346539984,237.84530493485184,-74.526638788187043,106.45819830679945,424.08716036742635,268.83579670595151,-343.36389571537933,343.36389571537933,-268.83579670595151,752.66036008975857,0.0
588204.59901257406,4207374.0504322443,-47500.0,262.33975823826006,-344.57183113845139,-15.159709716256938,264.22356334562556,-153.21864937389017,156.53719068148092,461.95300947511026,225.64370115638835,-325.87186602706845,325.87186602706845,-225.64370115638835,833.60623803015756,0.0
593204.59901257406,4207374.0504322443,-47500.0,228.12993311617262,-378.8363630583122,91.526877266366483,280.53131715977702,-240.98355782788548,211.40868993111528,504.46581091721833,167.16952024200071,-287.75035490062885,287.75035490062885,-167.16952024200071,926.02347540576761,0.0
598204.59901257406,4207374.0504322443,-47500.0,183.41241819354801,-395.42813902252232,208.53355721326844,283.93700914251519,-334.54892865656853,269.08212013139422,550.22155016630097,96.07825742256253,-228.03158594220693,228.03158594220693,-96.07825742256253,1025.9328052237238,0.0
603204.59901257406,4207374.0504322443,-47500.0,131.97561210837119,-390.78590326672088,329.97718806599397,272.35236741453042,-429.52489806590415,326.96276428104153,597.24556463652254,16.864452907403219,-147.79143859210893,147.79143859210893,-16.864452907403219,1128.1666840644018,0.0
608204.59901257406,4207374.0504322443,-47500.0,78.875369896352737,-363.05742389800173,448.66052317808715,244.85330133714126,-520.72356972406328,382.04066263401012,643.15428855018922,-64.465437978013142,-50.412542327475862,50.412542327475862,64.465437978013142,1226.904574501038,0.0
613204.59901257406,4207374.0504322443,-47500.0,29.820897295732546,-312.61497816756702,556.81223754202176,201.97877020679337,-602.67262305723523,431.18232296077525,685.32484136113032,-141.05447818069908,58.519427918366681,-58.519427918366681,141.05447818069908,1316.2486039449423,0.0
618204.59901257406,4207374.0504322443,-47500.0,-9.6506674655232132,-242.24110881850936,647.03606469273086,145.81858039029157,-670.25144968315169,471.48465504275845,721.08125606677982,-206.10892017754904,171.73417962548999,-171.73417962548999,206.10892017754904,1390.7968712457773,0.0
623204.59901257406,4207374.0504322443,-47500.0,-35.040326172903562,-156.89875534649917,713.28858075737776,79.842945034137188,-719.33246367704317,500.62703390847764,747.96518596972192,-253.88427197549356,281.14951962495911,-281.14951962495911,253.88427197549356,1446.15843853921,0.0
628204.59901257406,4207374.0504322443,-47500.0,-43.59313029167668,-63.105594459238063,751.67730434360897,8.4907779321824268,-747.29561619817218,517.15037411757214,764.08425598706526,-280.52395482464044,378.93303339949978,-378.93303339949978,280.52395482464044,1479.3448054880803,0.0
633204.59901257406,4207374.0504322443,-47500.0,-34.678456917274502,31.959734738145386,760.90727569878948,-63.402385743269129,-753.31010574536765,520.60742059709889,768.39301684995451,-284.56059998348024,458.52757094886994,-458.52757094886994,284.56059998348024,1488.9841334874,0.0
638204.59901257406,4207374.0504322443,-47500.0,-9.7696808697637607,121.42248980612661,742.29512954087818,-131.21581297417237,-738.33451197658758,511.55900658251898,760.78928913105528,-266.98189169222974,515.42571454056042,-515.42571454056042,266.98189169222974,1475.3334217969098,0.0
643204.59901257406,4207374.0504322443,-47500.0,27.942040920427718,199.54534762785502,699.380709600714,-191.07110077971447,-704.85614878992396,491.42815649144114,742.03651510191423,-230.88071137599584,547.55421224098006,-547.55421224098006,230.88071137599584,1440.1016874289244,0.0
648204.59901257406,4207374.0504322443,-47500.0,74.176157737453181,262.28261863749123,637.25819822249241,-240.18594290800186,-656.44801418301392,462.25489421394786,713.58139564500141,-180.81021543903915,555.23883475681896,-555.23883475681896,180.81021543903915,1386.1322760913736,0.0
653204.59901257406,4207374.0504322443,-47500.0,124.27118564452012,307.49574091600545,561.79194453230662,-277.01761499183465,-597.24826637533988,426.40822128770492,677.32880965823654,-122.01432003752939,540.82125433931901,-540.82125433931901,122.01432003752939,1317.0093476506052,0.0
658204.59901257406,4207374.0504322443,-47500.0,173.82365510751112,334.85635819837216,478.8750806246523,-301.21114231822679,-531.46338765741075,386.31009080296275,635.4174697884157,-59.699209342613102,508.06192723333618,-508.06192723333618,59.699209342613102,1236.6561217093051,0.0
663204.59901257406,4207374.0504322443,-47500.0,219.1579937906061,345.52358824940256,393.84308883207592,-313.40407165631041,-462.96787470393735,344.21096731706353,590.0202556148181,1.5361197024678006,461.47718635008005,-461.47718635008005,-1.5361197024678006,1148.9786697662837,0.0
668204.59901257406,4207374.0504322443,-47500.0,257.58836345525322,341.70418172973632,311.09504676568355,-314.95379416513487,-395.03637164226399,302.03706504936503,543.17178541514909,58.055200267336232,405.73319667894157,-405.73319667894157,-58.055200267336232,1057.5889916244366,0.0
673204.59901257406,4207374.0504322443,-47500.0,287.4854270589725,326.19523981642141,233.92222977343502,-307.64871367192586,-330.21057414127449,261.31112020386229,496.61205262648053,107.32713925671464,345.1740191466514,-345.1740191466514,-107.32713925671464,965.62021375574091,0.0
563204.59901257406,4212374.0504322443,-47500.0,232.56409809299547,-90.986316608586961,-258.87692859069364,98.692965121955822,89.493511610807943,-11.408742363786423,293.68245169390718,265.85087372381616,-255.62494707427442,255.62494707427442,-265.85087372381616,509.1389454524554,0.0
568204.59901257406,4212374.0504322443,-47500.0,249.63520887438284,-140.55869386841078,-228.05098541203506,130.17516252429292,57.523571381887834,10.088262916157722,311.36097687614318,271.95191630383295,-280.62334276464685,280.62334276464685,-271.95191630383295,539.60394034539445,0.0
573204.59901257406,4212374.0504322443,-47500.0,258.73364345437608,-191.75390095616356,-183.81793347881757,161.64613975491366,16.291389714466526,36.690007206673336,332.76994683119375,267.78534336756314,-298.09613408716422,298.09613408716422,-267.78534336756314,579.98520713890366,0.0
578204.59901257406,4212374.0504322443,-47500.0,258.25495270339167,-241.85677805634941,-125.17721950663351,191.28981304421811,-34.58110272538088,68.507579129429942,358.45911852640563,251.61720390543749,-305.05541594703664,305.05541594703664,-251.61720390543749,631.75635164142534,0.0
583204.59901257406,4212374.0504322443,-47500.0,247.14425977191414,-287.52196951968256,-51.979260397459427,216.94965448242968,-94.87258764713539,105.31746275909025,388.62576061420134,222.35576525827557,-298.57734478880104,298.57734478880104,-222.35576525827557,695.25284620975856,0.0
588204.59901257406,4212374.0504322443,-47500.0,225.18456427509506,-324.98100306785869,34.788934356423418,236.27096156308104,-163.59818853533517,146.48046939648216,422.99842977376642,179.87661787109269,-276.17443074023271,276.17443074023271,-179.87661787109269,769.45622064944678,0.0
593204.59901257406,4212374.0504322443,-47500.0,193.23695359579045,-350.38681626549982,132.79209776625726,246.92124613733989,-238.89946498041823,190.89154812277278,460.79423658376425,125.29824142202651,-236.22817605913136,236.22817605913136,-125.29824142202651,852.03242036396,0.0
598204.59901257406,4212374.0504322443,-47500.0,153.36450791789483,-360.2752645957919,238.27814006958727,246.87337960311339,-318.02925016547033,236.9808668209819,500.75579003938179,61.132834584408116,-178.41586018920447,178.41586018920447,-61.132834584408116,939.55513890924385,0.0
603204.59901257406,4212374.0504322443,-47500.0,108.77673838199539,-352.08485882579726,346.21340087254617,234.71454153060284,-397.46474786649247,282.78228301380682,541.24973620814785,-8.7592444954168656,-104.04027253683552,104.04027253683552,8.7592444954168656,1027.8314411106855,0.0
608204.59901257406,4212374.0504322443,-47500.0,63.559494413610835,-324.64155276251063,450.65053065410893,209.92556301951362,-473.16205098068394,326.0744211067925,580.39283995292453,-79.454330796343299,-16.166191607385738,16.166191607385738,79.454330796343299,1112.2796415040111,0.0
613204.59901257406,4212374.0504322443,-47500.0,22.203639801255346,-278.49891674279559,545.30734978254395,173.06749322764128,-540.93450818603696,364.5839524867738,616.17023373932057,-145.48114458977969,80.509576514298374,-80.509576514298374,145.48114458977969,1188.3323592652489,0.0
618204.59901257406,4212374.0504322443,-47500.0,-10.997388830651813,-216.03723649918456,624.27687190503275,125.82175431320712,-596.90333219771139,396.22338549228817,646.54729749613614,-201.49634794861601,180.07539314114047,-180.07539314114047,201.49634794861601,1251.8369052050646,0.0
623204.59901257406,4212374.0504322443,-47500.0,-32.564872288526416,-141.27222262327629,682.74277200598783,70.858437696694807,-637.94322562192576,419.32345808273044,669.63641542047378,-242.99577930557243,276.05914017700417,-276.05914017700417,242.99577930557243,1299.415201778776,0.0
628204.59901257406,4212374.0504322443,-47500.0,-40.33548372254041,-59.391427476499189,717.56066489066575,11.546057049795657,-662.03908274417506,432.81719755081133,683.94331157113254,-266.9159739671245,362.20559577486711,-362.20559577486711,266.9159739671245,1328.7394919815292,0.0
633204.59901257406,4212374.0504322443,-47500.0,-33.737668804928745,23.894554657970811,727.59031781639851,-48.444628166959035,-668.48605950170349,436.34162665346008,688.59172324647113,-272.00101548256578,433.22541282847271,-433.22541282847271,272.00101548256578,1338.6876611569226,0.0
638204.59901257406,4212374.0504322443,-47500.0,-13.792957313666315,103.05606426729706,713.72316000558635,-105.56658824249364,-657.90101430953939,430.24128629171537,683.41718030743573,-258.86828608662228,485.37247889945587,-485.37247889945587,258.86828608662228,1329.3606908148531,0.0
643204.59901257406,4212374.0504322443,-47500.0,17.139223476341797,173.36713304650041,678.62093370245816,-156.77297475709597,-632.05612604897601,415.47974870947348,668.92511994765346,-229.78138931278551,516.75273143249638,-516.75273143249638,229.78138931278551,1301.969615565612,0.0
648204.59901257406,4212374.0504322443,-47500.0,55.796839883389531,231.34313819881396,626.2422993726874,-199.78371933035965,-593.5811544907923,393.48286605004932,646.1650763829748,-188.20425225175487,527.33704406361483,-527.33704406361483,188.20425225175487,1258.6197683827068,0.0
653204.59901257406,4212374.0504322443,-47500.0,98.524688425991954,274.94394990801027,561.26786878448308,-233.21324238828069,-545.60138166266699,365.94848529643497,616.56974640496514,-138.24784854887179,518.717956170668,-518.717956170668,138.24784854887179,1202.0351820554079,0.0
658204.59901257406,4212374.0504322443,-47500.0,141.75550551086579,303.55049991944668,488.53360662847302,-256.56327077555028,-491.37782173421988,334.65666617927843,581.79077442981236,-84.122754608094795,493.6948995795122,-493.6948995795122,84.122754608094795,1135.2670856745399,0.0
663204.59901257406,4212374.0504322443,-47500.0,182.38710012741976,317.76516770232371,412.55829751060475,-270.10925259247477,-434.00254616252499,301.30780681638106,543.55034850136474,-29.686158376559121,455.78850541157999,-455.78850541157999,29.686158376559121,1061.4257175052221,0.0
668204.59901257406,4212374.0504322443,-47500.0,218.01900331964271,319.10738118457436,337.21196125866845,-274.72155693255576,-376.17885489925834,267.40423997703886,503.51242519876939,21.868338802072543,408.7731970359381,-408.7731970359381,-21.868338802072543,983.46095332553659,0.0
573204.59901257406,4217374.0504322443,-47500.0,231.52185952055066,-195.18175238089691,-134.10938753033349,153.14421702459347,-8.352359317114372,43.306682687838574,304.71284511417571,231.24329603654414,-268.50798920076136,268.50798920076136,-231.24329603654414,533.99466338255991,0.0
578204.59901257406,4217374.0504322443,-47500.0,227.61520216135472,-237.22473683885056,-76.476065915062307,176.59843561430347,-54.349891503741595,70.326192688888639,328.76555573234685,212.25251296414876,-269.04786818406677,269.04786818406677,-212.25251296414876,583.63567341676094,0.0
583204.59901257406,4217374.0504322443,-47500.0,214.84787506397083,-274.4255745791304,-6.7927578591756914,196.20157190268361,-107.68481553623526,101.01668538132557,356.45159619557217,182.2872605744507,-257.52252838786228,257.52252838786228,-182.2872605744507,642.69270251902788,0.0
588204.59901257406,4217374.0504322443,-47500.0,193.31892033475486,-303.73137082660134,73.766461438080412,210.14510819579192,-167.37484774601702,134.79751897152616,387.38528999345459,141.57555543032555,-232.17162153658279,232.17162153658279,-141.57555543032555,709.9333227544638,0.0
593204.59901257406,4217374.0504322443,-47500.0,163.98014694367933,-322.13390491725522,162.95498193647751,216.6977736778511,-231.78206977478209,170.75699373828948,420.80437198398602,91.339007408404427,-192.01082343298441,192.01082343298441,-91.339007408404427,783.20319269761501,0.0
598204.59901257406,4217374.0504322443,-47500.0,128.69214256463573,-327.02453963371227,257.44442012648466,214.4120086333871,-298.62673856765156,207.66525914766231,455.61629464029267,33.86520434569956,-137.12926006905394,137.12926006905394,-33.86520434569956,859.61177130328463,0.0
603204.59901257406,4217374.0504322443,-47500.0,90.147176728828541,-316.57423506646802,352.96805259501167,202.33875609653836,-365.091743812034,244.03229851904968,490.48186004997234,-27.567495727593762,-68.899678195861071,68.899678195861071,27.567495727593762,935.77124383406658,0.0
608204.59901257406,4217374.0504322443,-47500.0,51.642501138493493,-290.07221218136704,444.62867947311332,180.21315365405559,-428.02182200891025,278.21206451084868,523.91237445572563,-88.934125510535011,9.960935243302977,-9.960935243302977,88.934125510535011,1008.0660910916616,0.0
613204.59901257406,4217374.0504322443,-47500.0,16.72019273795663,-248.1497598877778,527.34876972674294,148.5708189529721,-484.20208913648588,308.54452456812004,554.35273635059491,-145.86265281013999,95.523882422718188,-95.523882422718188,145.86265281013999,1072.9393762441298,0.0
618204.59901257406,4217374.0504322443,-47500.0,-11.27426744842068,-192.82834593705186,596.40206841755071,108.76252072937353,-530.67883457615414,333.51673183363027,580.24644160677326,-194.13473520132703,182.98037126816814,-182.98037126816814,194.13473520132703,1127.1762410608742,0.0
623204.59901257406,4217374.0504322443,-47500.0,-29.635472002637943,-127.36310766931734,647.93983582451676,62.853032811355497,-565.07174620852027,351.91784803487769,600.13404958602882,-230.20231606735808,267.13371339177507,-267.13371339177507,230.20231606735808,1168.1583605862591,0.0
628204.59901257406,4217374.0504322443,-47500.0,-36.656300710311449,-55.897857857530205,679.41658994847887,13.415032391565655,-585.82344121358778,362.96201293104815,612.82740044559603,-251.62236311030847,342.97167162592984,-342.97167162592984,251.62236311030847,1194.0604063329508,0.0
633204.59901257406,4217374.0504322443,-47500.0,-31.830154374041843,17.009558857799174,689.83851654589739,-36.748237824959205,-592.3425726753959,366.35776232012455,617.59104750437916,-257.32708828219421,406.2174161870193,-406.2174161870193,257.32708828219421,1203.9634493662934,0.0
638204.59901257406,4217374.0504322443,-47500.0,-15.862552138722641,86.903700979415504,679.79551465784243,-84.902106885751706,-585.01928501956775,362.31415133432148,614.23079996190756,-247.68402018937979,453.76145862448391,-453.76145862448391,247.68402018937979,1197.873384390193,0.0
643204.59901257406,4217374.0504322443,-47500.0,9.4982722250983525,149.8981164019134,651.28528047328211,-128.65056054135508,-565.1184789028863,351.48657611218448,603.07399531336455,-224.34863718238196,483.90772320049859,-483.90772320049859,224.34863718238196,1176.6481356896936,0.0
648204.59901257406,4217374.0504322443,-47500.0,41.764088503232138,203.0184665914023,607.37794229103872,-166.13618035182185,-534.57896226827074,334.87602414775409,584.8817989653686,-189.9552571250774,496.40998320179654,-496.40998320179654,189.9552571250774,1141.8505384678799,0.0
653204.59901257406,4217374.0504322443,-47500.0,78.073389050795356,244.38317536508495,551.79490951197988,-196.14809841779146,-495.76089116910049,313.70256824644616,560.73260404368841,-147.71902624846177,492.32012162733679,-492.32012162733679,147.71902624846177,1095.5541056399463,0.0
658204.59901257406,4217374.0504322443,-47500.0,115.55161360537268,273.22033558723666,488.47887591229954,-218.13676957992089,-451.18619945121878,289.27507507911218,531.90120333123912,-101.0268014138081,473.70182532525246,-473.70182532525246,101.0268014138081,1040.1318834366509,0.0
583204.59901257406,4222374.0504322443,-47500.0,186.66820986515626,-259.27921455935052,29.400078373947263,176.36238663316448,-114.79683942268571,94.891148917255549,327.1936853479155,148.12293088222896,-220.54978262457172,220.54978262457172,-148.12293088222896,594.34488119157891,0.0
588204.59901257406,4222374.0504322443,-47500.0,166.12819078059204,-281.94473454078917,103.46175309398251,186.23994257347252,-166.44654956072927,122.60451465108835,354.86330968573736,109.80666804896273,-193.71042627011511,193.71042627011511,-109.80666804896273,654.78372710021608,0.0
593204.59901257406,4222374.0504322443,-47500.0,139.50136030830134,-294.86828245565988,184.07760872068502,189.86041593357461,-221.44111676812949,151.75976205787902,384.30947839219601,64.026576685247377,-154.43205089897594,154.43205089897594,-64.026576685247377,719.50137315467305,0.0
598204.59901257406,4222374.0504322443,-47500.0,108.42885631890596,-296.09332464280442,268.33792544126214,186.19228735627846,-277.90307141639482,181.39691066818162,414.6002311288911,12.818795656302719,-103.05342562779515,103.05342562779515,-12.818795656302719,786.0876664287573,0.0
603204.59901257406,4222374.0504322443,-47500.0,75.154701810411481,-284.32426744278865,352.64858745851387,174.60391419363631,-333.58303467105964,210.38497811836703,444.64279245908887,-41.05335921390683,-40.922617266689755,40.922617266689755,41.05335921390683,851.80859361675755,0.0
608204.59901257406,4222374.0504322443,-47500.0,42.339824304494798,-259.16295928135867,432.98424110260754,154.98723055427141,-386.01415474730572,237.49850740347961,473.25839268470446,-94.303159397287601,29.586589310026014,-29.586589310026014,94.303159397287601,913.80115359582987,0.0
613204.59901257406,4222374.0504322443,-47500.0,12.787452205422666,-221.25560646082621,505.23679451078198,127.83012510434072,-432.71710248871045,261.51709771104822,499.24108831584442,-143.42875050631883,105.19763858618808,-105.19763858618808,143.42875050631883,969.27914768220319,0.0
618204.59901257406,4222374.0504322443,-47500.0,-10.88208451609119,-172.31111171236068,565.61488003143495,94.217725910955352,-471.42996513393598,281.33543923580157,521.39297577897639,-185.08604859464043,181.99355155852112,-181.99355155852112,185.08604859464043,1015.7363089179869,0.0
623204.59901257406,4222374.0504322443,-47500.0,-26.552318494027542,-114.97478744296048,611.03273399354384,55.755261681400818,-500.32882611417807,296.0679579360708,538.57786303524676,-216.46635196768941,255.78803837107952,-255.78803837107952,216.46635196768941,1051.1284562881424,0.0
628204.59901257406,4222374.0504322443,-47500.0,-32.869295236188094,-52.569921298441983,639.42422576978845,14.420302026329145,-518.20390188220449,305.13164607918787,549.8441083353157,-235.6132134973416,322.54992717591472,-322.54992717591472,235.6132134973416,1074.0148270679663,0.0
633204.59901257406,4222374.0504322443,-47500.0,-29.390542754547472,11.251770464958058,649.92927777197747,-27.633119393300795,-524.56252045423128,308.29383847148313,554.57275885865977,-241.62264166023562,378.81087160628573,-378.81087160628573,241.62264166023562,1083.6413406238287,0.0
638204.59901257406,4222374.0504322443,-47500.0,-16.600714394912043,72.89163678843282,642.92606558026705,-68.28655546078673,-519.64514945484973,305.67885172637642,552.55993028335047,-234.69556628847039,421.99035774863745,-421.99035774863745,234.69556628847039,1079.9581773916195,0.0
643204.59901257406,4222374.0504322443,-47500.0,4.2013777334867921,129.15479845612407,619.91241167007843,-105.65196769825762,-504.3566407157349,297.73458633495272,544.010688461315,-216.04224984942772,450.5906359185314,-450.5906359185314,216.04224984942772,1063.5727292154754,0.0
648204.59901257406,4222374.0504322443,-47500.0,31.11430483127771,177.51801425622864,583.26753991591397,-138.22138602960575,-480.12977840343046,285.16706718143388,529.476739939911,-187.66718234896268,464.24240896037804,-464.24240896037804,187.66718234896268,1035.6481784910302,0.0
598204.59901257406,4227374.0504322443,-47500.0,91.766248135549063,-267.66250928261792,272.87959167571347,161.78010360719455,-256.92792321225721,158.16161357819317,377.44902183000926,-3.2354690562880819,-75.122916470379351,75.122916470379351,3.2354690562880819,718.79707616547,0.0
603204.59901257406,4227374.0504322443,-47500.0,63.05400623954705,-255.25038661526537,347.17872867261019,150.90105105521778,-303.6577062968903,181.36499481455459,403.37270716038807,-50.421279986266001,-18.840480454804062,18.840480454804062,50.421279986266001,775.56749553891598,0.0
608204.59901257406,4227374.0504322443,-47500.0,35.049200217463024,-231.6489104921437,417.55641434837258,133.58545444552371,-347.45694892937371,202.97927041316834,427.93135280421637,-96.646171761165874,44.052637876413399,-44.052637876413399,96.646171761165874,828.83996176072947,0.0
613204.59901257406,4227374.0504322443,-47500.0,9.9788233419310757,-197.48257126703757,480.6828709929091,110.26528956761425,-386.4046120824982,222.10103564782389,450.18544189094195,-139.09707604912384,110.82759707412055,-110.82759707412055,139.09707604912384,876.41903352699126,0.0
618204.59901257406,4227374.0504322443,-47500.0,-10.09375219398448,-154.1924095750035,533.50696264101225,81.813369102583565,-418.75848890887465,237.91641826523903,469.20785669979546,-175.11105916359242,178.28702007094296,-178.28702007094296,175.11105916359242,916.33753146723427,0.0
623204.59901257406,4227374.0504322443,-47500.0,-23.502983857218847,-103.93460184564643,573.54548269612587,49.484490596995222,-443.11241685081006,249.77244075468741,484.10789874156126,-202.45345790683967,243.0462879790694,-243.0462879790694,202.45345790683967,946.9883033135817,0.0
628204.59901257406,4227374.0504322443,-47500.0,-29.169475281303576,-49.385784624919943,599.11606671714117,14.808635745263036,-458.52156074702424,257.23339153318562,494.11738349815965,-219.55054132219908,301.85015711963916,-301.85015711963916,219.55054132219908,967.22663489691683,0.0
633204.59901257406,4227374.0504322443,-47500.0,-26.710521163717473,6.5162043760644641,609.47815034291318,-20.548640669957823,-464.57730770417766,260.11418839612696,498.71353553986853,-225.63894650722233,351.87667573600828,-351.87667573600828,225.63894650722233,976.43236119910341,0.0
